 <VTKFile type="UnstructuredGrid"  version="0.1"   >
 <UnstructuredGrid>
 <Piece  NumberOfPoints="           400 "  NumberOfCells="          256 ">
 <Points>
 <DataArray  type="Float64" NumberOfComponents="3"  format="ascii" >
   0.0000000000000000        0.0000000000000000        0.0000000000000000     
   6.2500000000000000E-002   0.0000000000000000        0.0000000000000000     
  0.12500000000000000        0.0000000000000000        0.0000000000000000     
  0.18750000000000000        0.0000000000000000        0.0000000000000000     
  0.25000000000000000        0.0000000000000000        0.0000000000000000     
   0.0000000000000000        6.2500000000000000E-002   0.0000000000000000     
   6.2500000000000000E-002   6.2500000000000000E-002   0.0000000000000000     
  0.12500000000000000        6.2500000000000000E-002   0.0000000000000000     
  0.18750000000000000        6.2500000000000000E-002   0.0000000000000000     
  0.25000000000000000        6.2500000000000000E-002   0.0000000000000000     
   0.0000000000000000       0.12500000000000000        0.0000000000000000     
   6.2500000000000000E-002  0.12500000000000000        0.0000000000000000     
  0.12500000000000000       0.12500000000000000        0.0000000000000000     
  0.18750000000000000       0.12500000000000000        0.0000000000000000     
  0.25000000000000000       0.12500000000000000        0.0000000000000000     
   0.0000000000000000       0.18750000000000000        0.0000000000000000     
   6.2500000000000000E-002  0.18750000000000000        0.0000000000000000     
  0.12500000000000000       0.18750000000000000        0.0000000000000000     
  0.18750000000000000       0.18750000000000000        0.0000000000000000     
  0.25000000000000000       0.18750000000000000        0.0000000000000000     
   0.0000000000000000       0.25000000000000000        0.0000000000000000     
   6.2500000000000000E-002  0.25000000000000000        0.0000000000000000     
  0.12500000000000000       0.25000000000000000        0.0000000000000000     
  0.18750000000000000       0.25000000000000000        0.0000000000000000     
  0.25000000000000000       0.25000000000000000        0.0000000000000000     
  0.25000000000000000        0.0000000000000000        0.0000000000000000     
  0.31250000000000000        0.0000000000000000        0.0000000000000000     
  0.37500000000000000        0.0000000000000000        0.0000000000000000     
  0.43750000000000000        0.0000000000000000        0.0000000000000000     
  0.50000000000000000        0.0000000000000000        0.0000000000000000     
  0.25000000000000000        6.2500000000000000E-002   0.0000000000000000     
  0.31250000000000000        6.2500000000000000E-002   0.0000000000000000     
  0.37500000000000000        6.2500000000000000E-002   0.0000000000000000     
  0.43750000000000000        6.2500000000000000E-002   0.0000000000000000     
  0.50000000000000000        6.2500000000000000E-002   0.0000000000000000     
  0.25000000000000000       0.12500000000000000        0.0000000000000000     
  0.31250000000000000       0.12500000000000000        0.0000000000000000     
  0.37500000000000000       0.12500000000000000        0.0000000000000000     
  0.43750000000000000       0.12500000000000000        0.0000000000000000     
  0.50000000000000000       0.12500000000000000        0.0000000000000000     
  0.25000000000000000       0.18750000000000000        0.0000000000000000     
  0.31250000000000000       0.18750000000000000        0.0000000000000000     
  0.37500000000000000       0.18750000000000000        0.0000000000000000     
  0.43750000000000000       0.18750000000000000        0.0000000000000000     
  0.50000000000000000       0.18750000000000000        0.0000000000000000     
  0.25000000000000000       0.25000000000000000        0.0000000000000000     
  0.31250000000000000       0.25000000000000000        0.0000000000000000     
  0.37500000000000000       0.25000000000000000        0.0000000000000000     
  0.43750000000000000       0.25000000000000000        0.0000000000000000     
  0.50000000000000000       0.25000000000000000        0.0000000000000000     
  0.50000000000000000        0.0000000000000000        0.0000000000000000     
  0.56250000000000000        0.0000000000000000        0.0000000000000000     
  0.62500000000000000        0.0000000000000000        0.0000000000000000     
  0.68750000000000000        0.0000000000000000        0.0000000000000000     
  0.75000000000000000        0.0000000000000000        0.0000000000000000     
  0.50000000000000000        6.2500000000000000E-002   0.0000000000000000     
  0.56250000000000000        6.2500000000000000E-002   0.0000000000000000     
  0.62500000000000000        6.2500000000000000E-002   0.0000000000000000     
  0.68750000000000000        6.2500000000000000E-002   0.0000000000000000     
  0.75000000000000000        6.2500000000000000E-002   0.0000000000000000     
  0.50000000000000000       0.12500000000000000        0.0000000000000000     
  0.56250000000000000       0.12500000000000000        0.0000000000000000     
  0.62500000000000000       0.12500000000000000        0.0000000000000000     
  0.68750000000000000       0.12500000000000000        0.0000000000000000     
  0.75000000000000000       0.12500000000000000        0.0000000000000000     
  0.50000000000000000       0.18750000000000000        0.0000000000000000     
  0.56250000000000000       0.18750000000000000        0.0000000000000000     
  0.62500000000000000       0.18750000000000000        0.0000000000000000     
  0.68750000000000000       0.18750000000000000        0.0000000000000000     
  0.75000000000000000       0.18750000000000000        0.0000000000000000     
  0.50000000000000000       0.25000000000000000        0.0000000000000000     
  0.56250000000000000       0.25000000000000000        0.0000000000000000     
  0.62500000000000000       0.25000000000000000        0.0000000000000000     
  0.68750000000000000       0.25000000000000000        0.0000000000000000     
  0.75000000000000000       0.25000000000000000        0.0000000000000000     
  0.75000000000000000        0.0000000000000000        0.0000000000000000     
  0.81250000000000000        0.0000000000000000        0.0000000000000000     
  0.87500000000000000        0.0000000000000000        0.0000000000000000     
  0.93750000000000000        0.0000000000000000        0.0000000000000000     
   1.0000000000000000        0.0000000000000000        0.0000000000000000     
  0.75000000000000000        6.2500000000000000E-002   0.0000000000000000     
  0.81250000000000000        6.2500000000000000E-002   0.0000000000000000     
  0.87500000000000000        6.2500000000000000E-002   0.0000000000000000     
  0.93750000000000000        6.2500000000000000E-002   0.0000000000000000     
   1.0000000000000000        6.2500000000000000E-002   0.0000000000000000     
  0.75000000000000000       0.12500000000000000        0.0000000000000000     
  0.81250000000000000       0.12500000000000000        0.0000000000000000     
  0.87500000000000000       0.12500000000000000        0.0000000000000000     
  0.93750000000000000       0.12500000000000000        0.0000000000000000     
   1.0000000000000000       0.12500000000000000        0.0000000000000000     
  0.75000000000000000       0.18750000000000000        0.0000000000000000     
  0.81250000000000000       0.18750000000000000        0.0000000000000000     
  0.87500000000000000       0.18750000000000000        0.0000000000000000     
  0.93750000000000000       0.18750000000000000        0.0000000000000000     
   1.0000000000000000       0.18750000000000000        0.0000000000000000     
  0.75000000000000000       0.25000000000000000        0.0000000000000000     
  0.81250000000000000       0.25000000000000000        0.0000000000000000     
  0.87500000000000000       0.25000000000000000        0.0000000000000000     
  0.93750000000000000       0.25000000000000000        0.0000000000000000     
   1.0000000000000000       0.25000000000000000        0.0000000000000000     
   0.0000000000000000       0.25000000000000000        0.0000000000000000     
   6.2500000000000000E-002  0.25000000000000000        0.0000000000000000     
  0.12500000000000000       0.25000000000000000        0.0000000000000000     
  0.18750000000000000       0.25000000000000000        0.0000000000000000     
  0.25000000000000000       0.25000000000000000        0.0000000000000000     
   0.0000000000000000       0.31250000000000000        0.0000000000000000     
   6.2500000000000000E-002  0.31250000000000000        0.0000000000000000     
  0.12500000000000000       0.31250000000000000        0.0000000000000000     
  0.18750000000000000       0.31250000000000000        0.0000000000000000     
  0.25000000000000000       0.31250000000000000        0.0000000000000000     
   0.0000000000000000       0.37500000000000000        0.0000000000000000     
   6.2500000000000000E-002  0.37500000000000000        0.0000000000000000     
  0.12500000000000000       0.37500000000000000        0.0000000000000000     
  0.18750000000000000       0.37500000000000000        0.0000000000000000     
  0.25000000000000000       0.37500000000000000        0.0000000000000000     
   0.0000000000000000       0.43750000000000000        0.0000000000000000     
   6.2500000000000000E-002  0.43750000000000000        0.0000000000000000     
  0.12500000000000000       0.43750000000000000        0.0000000000000000     
  0.18750000000000000       0.43750000000000000        0.0000000000000000     
  0.25000000000000000       0.43750000000000000        0.0000000000000000     
   0.0000000000000000       0.50000000000000000        0.0000000000000000     
   6.2500000000000000E-002  0.50000000000000000        0.0000000000000000     
  0.12500000000000000       0.50000000000000000        0.0000000000000000     
  0.18750000000000000       0.50000000000000000        0.0000000000000000     
  0.25000000000000000       0.50000000000000000        0.0000000000000000     
  0.25000000000000000       0.25000000000000000        0.0000000000000000     
  0.31250000000000000       0.25000000000000000        0.0000000000000000     
  0.37500000000000000       0.25000000000000000        0.0000000000000000     
  0.43750000000000000       0.25000000000000000        0.0000000000000000     
  0.50000000000000000       0.25000000000000000        0.0000000000000000     
  0.25000000000000000       0.31250000000000000        0.0000000000000000     
  0.31250000000000000       0.31250000000000000        0.0000000000000000     
  0.37500000000000000       0.31250000000000000        0.0000000000000000     
  0.43750000000000000       0.31250000000000000        0.0000000000000000     
  0.50000000000000000       0.31250000000000000        0.0000000000000000     
  0.25000000000000000       0.37500000000000000        0.0000000000000000     
  0.31250000000000000       0.37500000000000000        0.0000000000000000     
  0.37500000000000000       0.37500000000000000        0.0000000000000000     
  0.43750000000000000       0.37500000000000000        0.0000000000000000     
  0.50000000000000000       0.37500000000000000        0.0000000000000000     
  0.25000000000000000       0.43750000000000000        0.0000000000000000     
  0.31250000000000000       0.43750000000000000        0.0000000000000000     
  0.37500000000000000       0.43750000000000000        0.0000000000000000     
  0.43750000000000000       0.43750000000000000        0.0000000000000000     
  0.50000000000000000       0.43750000000000000        0.0000000000000000     
  0.25000000000000000       0.50000000000000000        0.0000000000000000     
  0.31250000000000000       0.50000000000000000        0.0000000000000000     
  0.37500000000000000       0.50000000000000000        0.0000000000000000     
  0.43750000000000000       0.50000000000000000        0.0000000000000000     
  0.50000000000000000       0.50000000000000000        0.0000000000000000     
  0.50000000000000000       0.25000000000000000        0.0000000000000000     
  0.56250000000000000       0.25000000000000000        0.0000000000000000     
  0.62500000000000000       0.25000000000000000        0.0000000000000000     
  0.68750000000000000       0.25000000000000000        0.0000000000000000     
  0.75000000000000000       0.25000000000000000        0.0000000000000000     
  0.50000000000000000       0.31250000000000000        0.0000000000000000     
  0.56250000000000000       0.31250000000000000        0.0000000000000000     
  0.62500000000000000       0.31250000000000000        0.0000000000000000     
  0.68750000000000000       0.31250000000000000        0.0000000000000000     
  0.75000000000000000       0.31250000000000000        0.0000000000000000     
  0.50000000000000000       0.37500000000000000        0.0000000000000000     
  0.56250000000000000       0.37500000000000000        0.0000000000000000     
  0.62500000000000000       0.37500000000000000        0.0000000000000000     
  0.68750000000000000       0.37500000000000000        0.0000000000000000     
  0.75000000000000000       0.37500000000000000        0.0000000000000000     
  0.50000000000000000       0.43750000000000000        0.0000000000000000     
  0.56250000000000000       0.43750000000000000        0.0000000000000000     
  0.62500000000000000       0.43750000000000000        0.0000000000000000     
  0.68750000000000000       0.43750000000000000        0.0000000000000000     
  0.75000000000000000       0.43750000000000000        0.0000000000000000     
  0.50000000000000000       0.50000000000000000        0.0000000000000000     
  0.56250000000000000       0.50000000000000000        0.0000000000000000     
  0.62500000000000000       0.50000000000000000        0.0000000000000000     
  0.68750000000000000       0.50000000000000000        0.0000000000000000     
  0.75000000000000000       0.50000000000000000        0.0000000000000000     
  0.75000000000000000       0.25000000000000000        0.0000000000000000     
  0.81250000000000000       0.25000000000000000        0.0000000000000000     
  0.87500000000000000       0.25000000000000000        0.0000000000000000     
  0.93750000000000000       0.25000000000000000        0.0000000000000000     
   1.0000000000000000       0.25000000000000000        0.0000000000000000     
  0.75000000000000000       0.31250000000000000        0.0000000000000000     
  0.81250000000000000       0.31250000000000000        0.0000000000000000     
  0.87500000000000000       0.31250000000000000        0.0000000000000000     
  0.93750000000000000       0.31250000000000000        0.0000000000000000     
   1.0000000000000000       0.31250000000000000        0.0000000000000000     
  0.75000000000000000       0.37500000000000000        0.0000000000000000     
  0.81250000000000000       0.37500000000000000        0.0000000000000000     
  0.87500000000000000       0.37500000000000000        0.0000000000000000     
  0.93750000000000000       0.37500000000000000        0.0000000000000000     
   1.0000000000000000       0.37500000000000000        0.0000000000000000     
  0.75000000000000000       0.43750000000000000        0.0000000000000000     
  0.81250000000000000       0.43750000000000000        0.0000000000000000     
  0.87500000000000000       0.43750000000000000        0.0000000000000000     
  0.93750000000000000       0.43750000000000000        0.0000000000000000     
   1.0000000000000000       0.43750000000000000        0.0000000000000000     
  0.75000000000000000       0.50000000000000000        0.0000000000000000     
  0.81250000000000000       0.50000000000000000        0.0000000000000000     
  0.87500000000000000       0.50000000000000000        0.0000000000000000     
  0.93750000000000000       0.50000000000000000        0.0000000000000000     
   1.0000000000000000       0.50000000000000000        0.0000000000000000     
   0.0000000000000000       0.50000000000000000        0.0000000000000000     
   6.2500000000000000E-002  0.50000000000000000        0.0000000000000000     
  0.12500000000000000       0.50000000000000000        0.0000000000000000     
  0.18750000000000000       0.50000000000000000        0.0000000000000000     
  0.25000000000000000       0.50000000000000000        0.0000000000000000     
   0.0000000000000000       0.56250000000000000        0.0000000000000000     
   6.2500000000000000E-002  0.56250000000000000        0.0000000000000000     
  0.12500000000000000       0.56250000000000000        0.0000000000000000     
  0.18750000000000000       0.56250000000000000        0.0000000000000000     
  0.25000000000000000       0.56250000000000000        0.0000000000000000     
   0.0000000000000000       0.62500000000000000        0.0000000000000000     
   6.2500000000000000E-002  0.62500000000000000        0.0000000000000000     
  0.12500000000000000       0.62500000000000000        0.0000000000000000     
  0.18750000000000000       0.62500000000000000        0.0000000000000000     
  0.25000000000000000       0.62500000000000000        0.0000000000000000     
   0.0000000000000000       0.68750000000000000        0.0000000000000000     
   6.2500000000000000E-002  0.68750000000000000        0.0000000000000000     
  0.12500000000000000       0.68750000000000000        0.0000000000000000     
  0.18750000000000000       0.68750000000000000        0.0000000000000000     
  0.25000000000000000       0.68750000000000000        0.0000000000000000     
   0.0000000000000000       0.75000000000000000        0.0000000000000000     
   6.2500000000000000E-002  0.75000000000000000        0.0000000000000000     
  0.12500000000000000       0.75000000000000000        0.0000000000000000     
  0.18750000000000000       0.75000000000000000        0.0000000000000000     
  0.25000000000000000       0.75000000000000000        0.0000000000000000     
  0.25000000000000000       0.50000000000000000        0.0000000000000000     
  0.31250000000000000       0.50000000000000000        0.0000000000000000     
  0.37500000000000000       0.50000000000000000        0.0000000000000000     
  0.43750000000000000       0.50000000000000000        0.0000000000000000     
  0.50000000000000000       0.50000000000000000        0.0000000000000000     
  0.25000000000000000       0.56250000000000000        0.0000000000000000     
  0.31250000000000000       0.56250000000000000        0.0000000000000000     
  0.37500000000000000       0.56250000000000000        0.0000000000000000     
  0.43750000000000000       0.56250000000000000        0.0000000000000000     
  0.50000000000000000       0.56250000000000000        0.0000000000000000     
  0.25000000000000000       0.62500000000000000        0.0000000000000000     
  0.31250000000000000       0.62500000000000000        0.0000000000000000     
  0.37500000000000000       0.62500000000000000        0.0000000000000000     
  0.43750000000000000       0.62500000000000000        0.0000000000000000     
  0.50000000000000000       0.62500000000000000        0.0000000000000000     
  0.25000000000000000       0.68750000000000000        0.0000000000000000     
  0.31250000000000000       0.68750000000000000        0.0000000000000000     
  0.37500000000000000       0.68750000000000000        0.0000000000000000     
  0.43750000000000000       0.68750000000000000        0.0000000000000000     
  0.50000000000000000       0.68750000000000000        0.0000000000000000     
  0.25000000000000000       0.75000000000000000        0.0000000000000000     
  0.31250000000000000       0.75000000000000000        0.0000000000000000     
  0.37500000000000000       0.75000000000000000        0.0000000000000000     
  0.43750000000000000       0.75000000000000000        0.0000000000000000     
  0.50000000000000000       0.75000000000000000        0.0000000000000000     
  0.50000000000000000       0.50000000000000000        0.0000000000000000     
  0.56250000000000000       0.50000000000000000        0.0000000000000000     
  0.62500000000000000       0.50000000000000000        0.0000000000000000     
  0.68750000000000000       0.50000000000000000        0.0000000000000000     
  0.75000000000000000       0.50000000000000000        0.0000000000000000     
  0.50000000000000000       0.56250000000000000        0.0000000000000000     
  0.56250000000000000       0.56250000000000000        0.0000000000000000     
  0.62500000000000000       0.56250000000000000        0.0000000000000000     
  0.68750000000000000       0.56250000000000000        0.0000000000000000     
  0.75000000000000000       0.56250000000000000        0.0000000000000000     
  0.50000000000000000       0.62500000000000000        0.0000000000000000     
  0.56250000000000000       0.62500000000000000        0.0000000000000000     
  0.62500000000000000       0.62500000000000000        0.0000000000000000     
  0.68750000000000000       0.62500000000000000        0.0000000000000000     
  0.75000000000000000       0.62500000000000000        0.0000000000000000     
  0.50000000000000000       0.68750000000000000        0.0000000000000000     
  0.56250000000000000       0.68750000000000000        0.0000000000000000     
  0.62500000000000000       0.68750000000000000        0.0000000000000000     
  0.68750000000000000       0.68750000000000000        0.0000000000000000     
  0.75000000000000000       0.68750000000000000        0.0000000000000000     
  0.50000000000000000       0.75000000000000000        0.0000000000000000     
  0.56250000000000000       0.75000000000000000        0.0000000000000000     
  0.62500000000000000       0.75000000000000000        0.0000000000000000     
  0.68750000000000000       0.75000000000000000        0.0000000000000000     
  0.75000000000000000       0.75000000000000000        0.0000000000000000     
  0.75000000000000000       0.50000000000000000        0.0000000000000000     
  0.81250000000000000       0.50000000000000000        0.0000000000000000     
  0.87500000000000000       0.50000000000000000        0.0000000000000000     
  0.93750000000000000       0.50000000000000000        0.0000000000000000     
   1.0000000000000000       0.50000000000000000        0.0000000000000000     
  0.75000000000000000       0.56250000000000000        0.0000000000000000     
  0.81250000000000000       0.56250000000000000        0.0000000000000000     
  0.87500000000000000       0.56250000000000000        0.0000000000000000     
  0.93750000000000000       0.56250000000000000        0.0000000000000000     
   1.0000000000000000       0.56250000000000000        0.0000000000000000     
  0.75000000000000000       0.62500000000000000        0.0000000000000000     
  0.81250000000000000       0.62500000000000000        0.0000000000000000     
  0.87500000000000000       0.62500000000000000        0.0000000000000000     
  0.93750000000000000       0.62500000000000000        0.0000000000000000     
   1.0000000000000000       0.62500000000000000        0.0000000000000000     
  0.75000000000000000       0.68750000000000000        0.0000000000000000     
  0.81250000000000000       0.68750000000000000        0.0000000000000000     
  0.87500000000000000       0.68750000000000000        0.0000000000000000     
  0.93750000000000000       0.68750000000000000        0.0000000000000000     
   1.0000000000000000       0.68750000000000000        0.0000000000000000     
  0.75000000000000000       0.75000000000000000        0.0000000000000000     
  0.81250000000000000       0.75000000000000000        0.0000000000000000     
  0.87500000000000000       0.75000000000000000        0.0000000000000000     
  0.93750000000000000       0.75000000000000000        0.0000000000000000     
   1.0000000000000000       0.75000000000000000        0.0000000000000000     
   0.0000000000000000       0.75000000000000000        0.0000000000000000     
   6.2500000000000000E-002  0.75000000000000000        0.0000000000000000     
  0.12500000000000000       0.75000000000000000        0.0000000000000000     
  0.18750000000000000       0.75000000000000000        0.0000000000000000     
  0.25000000000000000       0.75000000000000000        0.0000000000000000     
   0.0000000000000000       0.81250000000000000        0.0000000000000000     
   6.2500000000000000E-002  0.81250000000000000        0.0000000000000000     
  0.12500000000000000       0.81250000000000000        0.0000000000000000     
  0.18750000000000000       0.81250000000000000        0.0000000000000000     
  0.25000000000000000       0.81250000000000000        0.0000000000000000     
   0.0000000000000000       0.87500000000000000        0.0000000000000000     
   6.2500000000000000E-002  0.87500000000000000        0.0000000000000000     
  0.12500000000000000       0.87500000000000000        0.0000000000000000     
  0.18750000000000000       0.87500000000000000        0.0000000000000000     
  0.25000000000000000       0.87500000000000000        0.0000000000000000     
   0.0000000000000000       0.93750000000000000        0.0000000000000000     
   6.2500000000000000E-002  0.93750000000000000        0.0000000000000000     
  0.12500000000000000       0.93750000000000000        0.0000000000000000     
  0.18750000000000000       0.93750000000000000        0.0000000000000000     
  0.25000000000000000       0.93750000000000000        0.0000000000000000     
   0.0000000000000000        1.0000000000000000        0.0000000000000000     
   6.2500000000000000E-002   1.0000000000000000        0.0000000000000000     
  0.12500000000000000        1.0000000000000000        0.0000000000000000     
  0.18750000000000000        1.0000000000000000        0.0000000000000000     
  0.25000000000000000        1.0000000000000000        0.0000000000000000     
  0.25000000000000000       0.75000000000000000        0.0000000000000000     
  0.31250000000000000       0.75000000000000000        0.0000000000000000     
  0.37500000000000000       0.75000000000000000        0.0000000000000000     
  0.43750000000000000       0.75000000000000000        0.0000000000000000     
  0.50000000000000000       0.75000000000000000        0.0000000000000000     
  0.25000000000000000       0.81250000000000000        0.0000000000000000     
  0.31250000000000000       0.81250000000000000        0.0000000000000000     
  0.37500000000000000       0.81250000000000000        0.0000000000000000     
  0.43750000000000000       0.81250000000000000        0.0000000000000000     
  0.50000000000000000       0.81250000000000000        0.0000000000000000     
  0.25000000000000000       0.87500000000000000        0.0000000000000000     
  0.31250000000000000       0.87500000000000000        0.0000000000000000     
  0.37500000000000000       0.87500000000000000        0.0000000000000000     
  0.43750000000000000       0.87500000000000000        0.0000000000000000     
  0.50000000000000000       0.87500000000000000        0.0000000000000000     
  0.25000000000000000       0.93750000000000000        0.0000000000000000     
  0.31250000000000000       0.93750000000000000        0.0000000000000000     
  0.37500000000000000       0.93750000000000000        0.0000000000000000     
  0.43750000000000000       0.93750000000000000        0.0000000000000000     
  0.50000000000000000       0.93750000000000000        0.0000000000000000     
  0.25000000000000000        1.0000000000000000        0.0000000000000000     
  0.31250000000000000        1.0000000000000000        0.0000000000000000     
  0.37500000000000000        1.0000000000000000        0.0000000000000000     
  0.43750000000000000        1.0000000000000000        0.0000000000000000     
  0.50000000000000000        1.0000000000000000        0.0000000000000000     
  0.50000000000000000       0.75000000000000000        0.0000000000000000     
  0.56250000000000000       0.75000000000000000        0.0000000000000000     
  0.62500000000000000       0.75000000000000000        0.0000000000000000     
  0.68750000000000000       0.75000000000000000        0.0000000000000000     
  0.75000000000000000       0.75000000000000000        0.0000000000000000     
  0.50000000000000000       0.81250000000000000        0.0000000000000000     
  0.56250000000000000       0.81250000000000000        0.0000000000000000     
  0.62500000000000000       0.81250000000000000        0.0000000000000000     
  0.68750000000000000       0.81250000000000000        0.0000000000000000     
  0.75000000000000000       0.81250000000000000        0.0000000000000000     
  0.50000000000000000       0.87500000000000000        0.0000000000000000     
  0.56250000000000000       0.87500000000000000        0.0000000000000000     
  0.62500000000000000       0.87500000000000000        0.0000000000000000     
  0.68750000000000000       0.87500000000000000        0.0000000000000000     
  0.75000000000000000       0.87500000000000000        0.0000000000000000     
  0.50000000000000000       0.93750000000000000        0.0000000000000000     
  0.56250000000000000       0.93750000000000000        0.0000000000000000     
  0.62500000000000000       0.93750000000000000        0.0000000000000000     
  0.68750000000000000       0.93750000000000000        0.0000000000000000     
  0.75000000000000000       0.93750000000000000        0.0000000000000000     
  0.50000000000000000        1.0000000000000000        0.0000000000000000     
  0.56250000000000000        1.0000000000000000        0.0000000000000000     
  0.62500000000000000        1.0000000000000000        0.0000000000000000     
  0.68750000000000000        1.0000000000000000        0.0000000000000000     
  0.75000000000000000        1.0000000000000000        0.0000000000000000     
  0.75000000000000000       0.75000000000000000        0.0000000000000000     
  0.81250000000000000       0.75000000000000000        0.0000000000000000     
  0.87500000000000000       0.75000000000000000        0.0000000000000000     
  0.93750000000000000       0.75000000000000000        0.0000000000000000     
   1.0000000000000000       0.75000000000000000        0.0000000000000000     
  0.75000000000000000       0.81250000000000000        0.0000000000000000     
  0.81250000000000000       0.81250000000000000        0.0000000000000000     
  0.87500000000000000       0.81250000000000000        0.0000000000000000     
  0.93750000000000000       0.81250000000000000        0.0000000000000000     
   1.0000000000000000       0.81250000000000000        0.0000000000000000     
  0.75000000000000000       0.87500000000000000        0.0000000000000000     
  0.81250000000000000       0.87500000000000000        0.0000000000000000     
  0.87500000000000000       0.87500000000000000        0.0000000000000000     
  0.93750000000000000       0.87500000000000000        0.0000000000000000     
   1.0000000000000000       0.87500000000000000        0.0000000000000000     
  0.75000000000000000       0.93750000000000000        0.0000000000000000     
  0.81250000000000000       0.93750000000000000        0.0000000000000000     
  0.87500000000000000       0.93750000000000000        0.0000000000000000     
  0.93750000000000000       0.93750000000000000        0.0000000000000000     
   1.0000000000000000       0.93750000000000000        0.0000000000000000     
  0.75000000000000000        1.0000000000000000        0.0000000000000000     
  0.81250000000000000        1.0000000000000000        0.0000000000000000     
  0.87500000000000000        1.0000000000000000        0.0000000000000000     
  0.93750000000000000        1.0000000000000000        0.0000000000000000     
   1.0000000000000000        1.0000000000000000        0.0000000000000000     
 </DataArray>
 </Points>
 <Cells>
 <DataArray  type="Int32"  Name="connectivity"  format="ascii">
           0           1           6           5
           1           2           7           6
           2           3           8           7
           3           4           9           8
           5           6          11          10
           6           7          12          11
           7           8          13          12
           8           9          14          13
          10          11          16          15
          11          12          17          16
          12          13          18          17
          13          14          19          18
          15          16          21          20
          16          17          22          21
          17          18          23          22
          18          19          24          23
          25          26          31          30
          26          27          32          31
          27          28          33          32
          28          29          34          33
          30          31          36          35
          31          32          37          36
          32          33          38          37
          33          34          39          38
          35          36          41          40
          36          37          42          41
          37          38          43          42
          38          39          44          43
          40          41          46          45
          41          42          47          46
          42          43          48          47
          43          44          49          48
          50          51          56          55
          51          52          57          56
          52          53          58          57
          53          54          59          58
          55          56          61          60
          56          57          62          61
          57          58          63          62
          58          59          64          63
          60          61          66          65
          61          62          67          66
          62          63          68          67
          63          64          69          68
          65          66          71          70
          66          67          72          71
          67          68          73          72
          68          69          74          73
          75          76          81          80
          76          77          82          81
          77          78          83          82
          78          79          84          83
          80          81          86          85
          81          82          87          86
          82          83          88          87
          83          84          89          88
          85          86          91          90
          86          87          92          91
          87          88          93          92
          88          89          94          93
          90          91          96          95
          91          92          97          96
          92          93          98          97
          93          94          99          98
         100         101         106         105
         101         102         107         106
         102         103         108         107
         103         104         109         108
         105         106         111         110
         106         107         112         111
         107         108         113         112
         108         109         114         113
         110         111         116         115
         111         112         117         116
         112         113         118         117
         113         114         119         118
         115         116         121         120
         116         117         122         121
         117         118         123         122
         118         119         124         123
         125         126         131         130
         126         127         132         131
         127         128         133         132
         128         129         134         133
         130         131         136         135
         131         132         137         136
         132         133         138         137
         133         134         139         138
         135         136         141         140
         136         137         142         141
         137         138         143         142
         138         139         144         143
         140         141         146         145
         141         142         147         146
         142         143         148         147
         143         144         149         148
         150         151         156         155
         151         152         157         156
         152         153         158         157
         153         154         159         158
         155         156         161         160
         156         157         162         161
         157         158         163         162
         158         159         164         163
         160         161         166         165
         161         162         167         166
         162         163         168         167
         163         164         169         168
         165         166         171         170
         166         167         172         171
         167         168         173         172
         168         169         174         173
         175         176         181         180
         176         177         182         181
         177         178         183         182
         178         179         184         183
         180         181         186         185
         181         182         187         186
         182         183         188         187
         183         184         189         188
         185         186         191         190
         186         187         192         191
         187         188         193         192
         188         189         194         193
         190         191         196         195
         191         192         197         196
         192         193         198         197
         193         194         199         198
         200         201         206         205
         201         202         207         206
         202         203         208         207
         203         204         209         208
         205         206         211         210
         206         207         212         211
         207         208         213         212
         208         209         214         213
         210         211         216         215
         211         212         217         216
         212         213         218         217
         213         214         219         218
         215         216         221         220
         216         217         222         221
         217         218         223         222
         218         219         224         223
         225         226         231         230
         226         227         232         231
         227         228         233         232
         228         229         234         233
         230         231         236         235
         231         232         237         236
         232         233         238         237
         233         234         239         238
         235         236         241         240
         236         237         242         241
         237         238         243         242
         238         239         244         243
         240         241         246         245
         241         242         247         246
         242         243         248         247
         243         244         249         248
         250         251         256         255
         251         252         257         256
         252         253         258         257
         253         254         259         258
         255         256         261         260
         256         257         262         261
         257         258         263         262
         258         259         264         263
         260         261         266         265
         261         262         267         266
         262         263         268         267
         263         264         269         268
         265         266         271         270
         266         267         272         271
         267         268         273         272
         268         269         274         273
         275         276         281         280
         276         277         282         281
         277         278         283         282
         278         279         284         283
         280         281         286         285
         281         282         287         286
         282         283         288         287
         283         284         289         288
         285         286         291         290
         286         287         292         291
         287         288         293         292
         288         289         294         293
         290         291         296         295
         291         292         297         296
         292         293         298         297
         293         294         299         298
         300         301         306         305
         301         302         307         306
         302         303         308         307
         303         304         309         308
         305         306         311         310
         306         307         312         311
         307         308         313         312
         308         309         314         313
         310         311         316         315
         311         312         317         316
         312         313         318         317
         313         314         319         318
         315         316         321         320
         316         317         322         321
         317         318         323         322
         318         319         324         323
         325         326         331         330
         326         327         332         331
         327         328         333         332
         328         329         334         333
         330         331         336         335
         331         332         337         336
         332         333         338         337
         333         334         339         338
         335         336         341         340
         336         337         342         341
         337         338         343         342
         338         339         344         343
         340         341         346         345
         341         342         347         346
         342         343         348         347
         343         344         349         348
         350         351         356         355
         351         352         357         356
         352         353         358         357
         353         354         359         358
         355         356         361         360
         356         357         362         361
         357         358         363         362
         358         359         364         363
         360         361         366         365
         361         362         367         366
         362         363         368         367
         363         364         369         368
         365         366         371         370
         366         367         372         371
         367         368         373         372
         368         369         374         373
         375         376         381         380
         376         377         382         381
         377         378         383         382
         378         379         384         383
         380         381         386         385
         381         382         387         386
         382         383         388         387
         383         384         389         388
         385         386         391         390
         386         387         392         391
         387         388         393         392
         388         389         394         393
         390         391         396         395
         391         392         397         396
         392         393         398         397
         393         394         399         398
 </DataArray>
 <DataArray  type="Int32"  Name="offsets"  format="ascii"> 
           4
           8
          12
          16
          20
          24
          28
          32
          36
          40
          44
          48
          52
          56
          60
          64
          68
          72
          76
          80
          84
          88
          92
          96
         100
         104
         108
         112
         116
         120
         124
         128
         132
         136
         140
         144
         148
         152
         156
         160
         164
         168
         172
         176
         180
         184
         188
         192
         196
         200
         204
         208
         212
         216
         220
         224
         228
         232
         236
         240
         244
         248
         252
         256
         260
         264
         268
         272
         276
         280
         284
         288
         292
         296
         300
         304
         308
         312
         316
         320
         324
         328
         332
         336
         340
         344
         348
         352
         356
         360
         364
         368
         372
         376
         380
         384
         388
         392
         396
         400
         404
         408
         412
         416
         420
         424
         428
         432
         436
         440
         444
         448
         452
         456
         460
         464
         468
         472
         476
         480
         484
         488
         492
         496
         500
         504
         508
         512
         516
         520
         524
         528
         532
         536
         540
         544
         548
         552
         556
         560
         564
         568
         572
         576
         580
         584
         588
         592
         596
         600
         604
         608
         612
         616
         620
         624
         628
         632
         636
         640
         644
         648
         652
         656
         660
         664
         668
         672
         676
         680
         684
         688
         692
         696
         700
         704
         708
         712
         716
         720
         724
         728
         732
         736
         740
         744
         748
         752
         756
         760
         764
         768
         772
         776
         780
         784
         788
         792
         796
         800
         804
         808
         812
         816
         820
         824
         828
         832
         836
         840
         844
         848
         852
         856
         860
         864
         868
         872
         876
         880
         884
         888
         892
         896
         900
         904
         908
         912
         916
         920
         924
         928
         932
         936
         940
         944
         948
         952
         956
         960
         964
         968
         972
         976
         980
         984
         988
         992
         996
        1000
        1004
        1008
        1012
        1016
        1020
        1024
 </DataArray>
 <DataArray  type="UInt8"  Name="types"  format="ascii">
 9
 9
 9
 9
 9
 9
 9
 9
 9
 9
 9
 9
 9
 9
 9
 9
 9
 9
 9
 9
 9
 9
 9
 9
 9
 9
 9
 9
 9
 9
 9
 9
 9
 9
 9
 9
 9
 9
 9
 9
 9
 9
 9
 9
 9
 9
 9
 9
 9
 9
 9
 9
 9
 9
 9
 9
 9
 9
 9
 9
 9
 9
 9
 9
 9
 9
 9
 9
 9
 9
 9
 9
 9
 9
 9
 9
 9
 9
 9
 9
 9
 9
 9
 9
 9
 9
 9
 9
 9
 9
 9
 9
 9
 9
 9
 9
 9
 9
 9
 9
 9
 9
 9
 9
 9
 9
 9
 9
 9
 9
 9
 9
 9
 9
 9
 9
 9
 9
 9
 9
 9
 9
 9
 9
 9
 9
 9
 9
 9
 9
 9
 9
 9
 9
 9
 9
 9
 9
 9
 9
 9
 9
 9
 9
 9
 9
 9
 9
 9
 9
 9
 9
 9
 9
 9
 9
 9
 9
 9
 9
 9
 9
 9
 9
 9
 9
 9
 9
 9
 9
 9
 9
 9
 9
 9
 9
 9
 9
 9
 9
 9
 9
 9
 9
 9
 9
 9
 9
 9
 9
 9
 9
 9
 9
 9
 9
 9
 9
 9
 9
 9
 9
 9
 9
 9
 9
 9
 9
 9
 9
 9
 9
 9
 9
 9
 9
 9
 9
 9
 9
 9
 9
 9
 9
 9
 9
 9
 9
 9
 9
 9
 9
 9
 9
 9
 9
 9
 9
 9
 9
 9
 9
 9
 9
 9
 9
 9
 9
 9
 9
 9
 9
 9
 9
 9
 9
 </DataArray>
 </Cells> 
 <PointData>
 <DataArray  type="Float64" Name="disp" NumberOfComponents="3" format="ascii">
   0.0000000000000000        0.0000000000000000        0.0000000000000000     
   1.0683003793529619E-002   6.3625441449043970E-003   0.0000000000000000     
   2.0512651380369576E-002   1.2938040058516898E-002   0.0000000000000000     
   2.9488942760519866E-002   1.9726487740837496E-002   0.0000000000000000     
   3.7611877933980492E-002   2.6727887191866195E-002   0.0000000000000000     
   0.0000000000000000        0.0000000000000000        0.0000000000000000     
   8.1771836795115679E-003   5.0147912644639501E-003   0.0000000000000000     
   1.5995190961384149E-002   1.0733810984849625E-002   0.0000000000000000     
   2.3454021845617741E-002   1.7157059161157024E-002   0.0000000000000000     
   3.0553676332212346E-002   2.4284535793386144E-002   0.0000000000000000     
   0.0000000000000000        0.0000000000000000        0.0000000000000000     
   6.1442878124579273E-003   3.9964549760794776E-003   0.0000000000000000     
   1.2255288227670762E-002   9.0496598144917308E-003   0.0000000000000000     
   1.8333001245638501E-002   1.5159614515236756E-002   0.0000000000000000     
   2.4377426866361143E-002   2.2326319078314560E-002   0.0000000000000000     
   0.0000000000000000        0.0000000000000000        0.0000000000000000     
   4.5843161923686971E-003   3.3075352797509788E-003   0.0000000000000000     
   9.2929431792294088E-003   7.8855865474432105E-003   0.0000000000000000     
   1.4125880960582139E-002   1.3734153803076700E-002   0.0000000000000000     
   1.9083129536426879E-002   2.0853237046651433E-002   0.0000000000000000     
   0.0000000000000000        0.0000000000000000        0.0000000000000000     
   3.4972688192438763E-003   2.9480321754784544E-003   0.0000000000000000     
   7.1081558160600942E-003   7.2415911837040679E-003   0.0000000000000000     
   1.0832660990448655E-002   1.2880677024676842E-002   0.0000000000000000     
   1.4670784342409558E-002   1.9865289698396776E-002   0.0000000000000000     
   3.7611877933980492E-002   2.6727887191866195E-002   0.0000000000000000     
   4.5151465809407695E-002   3.4317664296333379E-002   0.0000000000000000     
   5.2377715295457733E-002   4.2871244938969419E-002   0.0000000000000000     
   5.9290626392130598E-002   5.2388629119774321E-002   0.0000000000000000     
   6.5890199099426297E-002   6.2869816838748080E-002   0.0000000000000000     
   3.0553676332212346E-002   2.4284535793386144E-002   0.0000000000000000     
   3.7294458814318449E-002   3.2195675919124013E-002   0.0000000000000000     
   4.3676673685086528E-002   4.0969914575957646E-002   0.0000000000000000     
   4.9700320944516582E-002   5.0607251763887043E-002   0.0000000000000000     
   5.5365400592608624E-002   6.1107687482912218E-002   0.0000000000000000     
   2.4377426866361143E-002   2.2326319078314560E-002   0.0000000000000000     
   3.0226215783704331E-002   3.0424635673708410E-002   0.0000000000000000     
   3.5717018691533695E-002   3.9329426471401592E-002   0.0000000000000000     
   4.0849835589849240E-002   4.9040691471394088E-002   0.0000000000000000     
   4.5624666478650960E-002   5.9558430673685922E-002   0.0000000000000000     
   1.9083129536426879E-002   2.0853237046651433E-002   0.0000000000000000     
   2.3946736717565344E-002   2.9004543560086575E-002   0.0000000000000000     
   2.8498750314799242E-002   3.7949780625301237E-002   0.0000000000000000     
   3.2739170328128564E-002   4.7688948242295449E-002   0.0000000000000000     
   3.6667996757553313E-002   5.8222046411069199E-002   0.0000000000000000     
   1.4670784342409558E-002   1.9865289698396776E-002   0.0000000000000000     
   1.8456021615901496E-002   2.7935399578258493E-002   0.0000000000000000     
   2.2021868554883167E-002   3.6830977037656601E-002   0.0000000000000000     
   2.5368325159354561E-002   4.6552022076591135E-002   0.0000000000000000     
   2.8495391429315682E-002   5.7098534695062063E-002   0.0000000000000000     
   6.5890199099426297E-002   6.2869816838748080E-002   0.0000000000000000     
   7.2156118213746429E-002   7.4172159748356739E-002   0.0000000000000000     
   7.8068068531492590E-002   8.6153009501066344E-002   0.0000000000000000     
   8.3626050052664810E-002   9.8812366096876880E-002   0.0000000000000000     
   8.8830062777263047E-002  0.11215022953578836        0.0000000000000000     
   5.5365400592608624E-002   6.1107687482912218E-002   0.0000000000000000     
   6.0691899455884511E-002   7.2399724532225249E-002   0.0000000000000000     
   6.5699804360866115E-002   8.4411865711018247E-002   0.0000000000000000     
   7.0389115307553443E-002   9.7144111019291213E-002   0.0000000000000000     
   7.4759832295946488E-002  0.11059646045704416        0.0000000000000000     
   4.5624666478650960E-002   5.9558430673685922E-002   0.0000000000000000     
   5.0078800601502542E-002   7.0847850813012175E-002   0.0000000000000000     
   5.4249527201967636E-002   8.2874158624107991E-002   0.0000000000000000     
   5.8136846280046291E-002   9.5637354106973368E-002   0.0000000000000000     
   6.1740757835738472E-002  0.10913743726160827        0.0000000000000000     
   3.6667996757553313E-002   5.8222046411069199E-002   0.0000000000000000     
   4.0316821650600521E-002   6.9516538590717547E-002   0.0000000000000000     
   4.3717237054797194E-002   8.1539888240335590E-002   0.0000000000000000     
   4.6869242970143346E-002   9.4292095359923292E-002   0.0000000000000000     
   4.9772839396638971E-002  0.10777315994948070        0.0000000000000000     
   2.8495391429315682E-002   5.7098534695062063E-002   0.0000000000000000     
   3.1405962603178447E-002   6.8405787865341364E-002   0.0000000000000000     
   3.4102933919354754E-002   8.0409054559701015E-002   0.0000000000000000     
   3.6586305377844609E-002   9.3108334778141039E-002   0.0000000000000000     
   3.8856076978648013E-002  0.10650362852066142        0.0000000000000000     
   8.8830062777263047E-002  0.11215022953578836        0.0000000000000000     
   9.3809950987455842E-002  0.12651702912327567        0.0000000000000000     
   9.8695558965411698E-002  0.14226319416481376        0.0000000000000000     
  0.10348688671113057       0.15938872466040255        0.0000000000000000     
  0.10818393422461252       0.17789362061004213        0.0000000000000000     
   7.4759832295946488E-002  0.11059646045704416        0.0000000000000000     
   7.8875734352160637E-002  0.12497127865805364        0.0000000000000000     
   8.2800600502311278E-002  0.14047093025609630        0.0000000000000000     
   8.6534430746398425E-002  0.15709541525117204        0.0000000000000000     
   9.0077225084422022E-002  0.17484473364328096        0.0000000000000000     
   6.1740757835738472E-002  0.10913743726160827        0.0000000000000000     
   6.5089349840254579E-002  0.12345499976769561        0.0000000000000000     
   6.8210710264804991E-002  0.13867063330491816        0.0000000000000000     
   7.1104839109389750E-002  0.15478433787327603        0.0000000000000000     
   7.3771736374008828E-002  0.17179611347276916        0.0000000000000000     
   4.9772839396638971E-002  0.10777315994948070        0.0000000000000000     
   5.2450797451737613E-002  0.12196819245220149        0.0000000000000000     
   5.4925888252892817E-002  0.13686230331127947        0.0000000000000000     
   5.7198111800104583E-002  0.15245549252671453        0.0000000000000000     
   5.9267468093372890E-002  0.16874776009850678        0.0000000000000000     
   3.8856076978648013E-002  0.10650362852066142        0.0000000000000000     
   4.0960077186609781E-002  0.12051085671157137        0.0000000000000000     
   4.2946134466574748E-002  0.13504594027518008        0.0000000000000000     
   4.4814248818542901E-002  0.15010887921148755        0.0000000000000000     
   4.6564420242514240E-002  0.16569967352049381        0.0000000000000000     
   0.0000000000000000        0.0000000000000000        0.0000000000000000     
   3.4972688192438763E-003   2.9480321754784544E-003   0.0000000000000000     
   7.1081558160600942E-003   7.2415911837040679E-003   0.0000000000000000     
   1.0832660990448655E-002   1.2880677024676842E-002   0.0000000000000000     
   1.4670784342409558E-002   1.9865289698396776E-002   0.0000000000000000     
   0.0000000000000000        0.0000000000000000        0.0000000000000000     
   2.6407505808091723E-003   2.7775867182644829E-003   0.0000000000000000     
   5.3168896871563665E-003   6.9056293231301684E-003   0.0000000000000000     
   8.0284173190415826E-003   1.2384127814597058E-002   0.0000000000000000     
   1.0775333476464824E-002   1.9213082192665147E-002   0.0000000000000000     
   0.0000000000000000        0.0000000000000000        0.0000000000000000     
   1.7723663647902937E-003   2.6558399631116439E-003   0.0000000000000000     
   3.5351083415117780E-003   6.6656565655773764E-003   0.0000000000000000     
   5.2882259301644538E-003   1.2029449807397202E-002   0.0000000000000000     
   7.0317191307483189E-003   1.8747219688571112E-002   0.0000000000000000     
   0.0000000000000000        0.0000000000000000        0.0000000000000000     
   8.9211617118723917E-004   2.5827919100199362E-003   0.0000000000000000     
   1.7628117791263275E-003   6.5216729110456947E-003   0.0000000000000000     
   2.6120868238172635E-003   1.1816643003077273E-002   0.0000000000000000     
   3.4399413052600501E-003   1.8467702186114678E-002   0.0000000000000000     
   0.0000000000000000        0.0000000000000000        0.0000000000000000     
   9.5409791178724390E-018   2.5584425589893611E-003   0.0000000000000000     
   1.4745149545802860E-017   6.4736783595351196E-003   0.0000000000000000     
   1.6263032587282567E-017   1.1745707401637280E-002   0.0000000000000000     
   1.3877787807814457E-017   1.8374529685295838E-002   0.0000000000000000     
   1.4670784342409558E-002   1.9865289698396776E-002   0.0000000000000000     
   1.8456021615901496E-002   2.7935399578258493E-002   0.0000000000000000     
   2.2021868554883167E-002   3.6830977037656601E-002   0.0000000000000000     
   2.5368325159354561E-002   4.6552022076591135E-002   0.0000000000000000     
   2.8495391429315682E-002   5.7098534695062063E-002   0.0000000000000000     
   1.0775333476464824E-002   1.9213082192665147E-002   0.0000000000000000     
   1.3480270425337941E-002   2.7153438401818684E-002   0.0000000000000000     
   1.6065860431572800E-002   3.5966142386541930E-002   0.0000000000000000     
   1.8532103495169400E-002   4.5651194146834863E-002   0.0000000000000000     
   2.0878999616127741E-002   5.6208593682697483E-002   0.0000000000000000     
   7.0317191307483189E-003   1.8747219688571112E-002   0.0000000000000000     
   8.7456830924998417E-003   2.6594894704361671E-002   0.0000000000000000     
   1.0410212964655491E-002   3.5348403350031421E-002   0.0000000000000000     
   1.2025308747215264E-002   4.5007745625580353E-002   0.0000000000000000     
   1.3590970440179158E-002   5.5572921531008491E-002   0.0000000000000000     
   3.4399413052600501E-003   1.8467702186114678E-002   0.0000000000000000     
   4.2522596173871999E-003   2.6259768485887437E-002   0.0000000000000000     
   5.0549261541312316E-003   3.4977759928125081E-002   0.0000000000000000     
   5.8479409154921433E-003   4.4621676512827627E-002   0.0000000000000000     
   6.6313039014699376E-003   5.5191518239995054E-002   0.0000000000000000     
   1.3877787807814457E-017   1.8374529685295838E-002   0.0000000000000000     
   1.4203048459560108E-017   2.6148059746395991E-002   0.0000000000000000     
   2.4828229749918052E-017   3.4854212120822937E-002   0.0000000000000000     
   4.4804654777963471E-017   4.4492986808576669E-002   0.0000000000000000     
   7.3725747729014302E-017   5.5064383809657197E-002   0.0000000000000000     
   2.8495391429315682E-002   5.7098534695062063E-002   0.0000000000000000     
   3.1405962603178447E-002   6.8405787865341364E-002   0.0000000000000000     
   3.4102933919354754E-002   8.0409054559701015E-002   0.0000000000000000     
   3.6586305377844609E-002   9.3108334778141039E-002   0.0000000000000000     
   3.8856076978648013E-002  0.10650362852066142        0.0000000000000000     
   2.0878999616127741E-002   5.6208593682697483E-002   0.0000000000000000     
   2.3079115618718227E-002   6.7530376635538986E-002   0.0000000000000000     
   2.5105018327211268E-002   7.9508578646768580E-002   0.0000000000000000     
   2.6956707741606859E-002   9.2143199716386237E-002   0.0000000000000000     
   2.8634183861905006E-002  0.10543423984439194        0.0000000000000000     
   1.3590970440179158E-002   5.5572921531008491E-002   0.0000000000000000     
   1.5069172856701767E-002   6.6905082899965870E-002   0.0000000000000000     
   1.6421890809937671E-002   7.8865381566102524E-002   0.0000000000000000     
   1.7649124299886874E-002   9.1453817529418474E-002   0.0000000000000000     
   1.8750873326549372E-002  0.10467039078991373        0.0000000000000000     
   6.6313039014699376E-003   5.5191518239995054E-002   0.0000000000000000     
   7.3761343171290595E-003   6.6529906658621948E-002   0.0000000000000000     
   8.0535513675339641E-003   7.8479463317702863E-002   0.0000000000000000     
   8.6635550526846482E-003   9.1040188217237819E-002   0.0000000000000000     
   9.2061453725811142E-003  0.10421208135722677        0.0000000000000000     
   7.3725747729014302E-017   5.5064383809657197E-002   0.0000000000000000     
   1.0972125985553305E-016   6.6404847911507262E-002   0.0000000000000000     
   1.4788517632702280E-016   7.8350823901569583E-002   0.0000000000000000     
   1.8702487475374951E-016   9.0902311779844203E-002   0.0000000000000000     
   2.3158558404290375E-016  0.10405931154633107        0.0000000000000000     
   3.8856076978648013E-002  0.10650362852066142        0.0000000000000000     
   4.0960077186609781E-002  0.12051085671157137        0.0000000000000000     
   4.2946134466574748E-002  0.13504594027518008        0.0000000000000000     
   4.4814248818542901E-002  0.15010887921148755        0.0000000000000000     
   4.6564420242514240E-002  0.16569967352049381        0.0000000000000000     
   2.8634183861905006E-002  0.10543423984439194        0.0000000000000000     
   3.0212469209871733E-002  0.11924858175252297        0.0000000000000000     
   3.1766586307273088E-002  0.13345310816251660        0.0000000000000000     
   3.3296535154109054E-002  0.14804781907437278        0.0000000000000000     
   3.4802315750379641E-002  0.16303271448809153        0.0000000000000000     
   1.8750873326549372E-002  0.10467039078991373        0.0000000000000000     
   1.9803253686524136E-002  0.11834695678177412        0.0000000000000000     
   2.0882381176410138E-002  0.13231537093918549        0.0000000000000000     
   2.1988255796207373E-002  0.14657563326214793        0.0000000000000000     
   2.3120877545915838E-002  0.16112774375066136        0.0000000000000000     
   9.2061453725811142E-003  0.10421208135722677        0.0000000000000000     
   9.7324306165669904E-003  0.11780598179932476        0.0000000000000000     
   1.0293519073985902E-002  0.13163272860518688        0.0000000000000000     
   1.0889410744837857E-002  0.14569232177481306        0.0000000000000000     
   1.1520105629122849E-002  0.15998476130820327        0.0000000000000000     
   2.3158558404290375E-016  0.10405931154633107        0.0000000000000000     
   2.9056618222611519E-016  0.11762565680517496        0.0000000000000000     
   3.8402440949436567E-016  0.13140518116052061        0.0000000000000000     
   5.0605136400760919E-016  0.14539788461236805        0.0000000000000000     
   6.6266436782314031E-016  0.15960376716071725        0.0000000000000000     
   0.0000000000000000        0.0000000000000000        0.0000000000000000     
   9.5409791178724390E-018   2.5584425589893611E-003   0.0000000000000000     
   1.4745149545802860E-017   6.4736783595351196E-003   0.0000000000000000     
   1.6263032587282567E-017   1.1745707401637280E-002   0.0000000000000000     
   1.3877787807814457E-017   1.8374529685295838E-002   0.0000000000000000     
   0.0000000000000000        0.0000000000000000        0.0000000000000000     
  -8.9211617118721955E-004   2.5827919100199180E-003   0.0000000000000000     
  -1.7628117791262973E-003   6.5216729110456582E-003   0.0000000000000000     
  -2.6120868238172323E-003   1.1816643003077219E-002   0.0000000000000000     
  -3.4399413052600249E-003   1.8467702186114602E-002   0.0000000000000000     
   0.0000000000000000        0.0000000000000000        0.0000000000000000     
  -1.7723663647902727E-003   2.6558399631116097E-003   0.0000000000000000     
  -3.5351083415117463E-003   6.6656565655773088E-003   0.0000000000000000     
  -5.2882259301644235E-003   1.2029449807397100E-002   0.0000000000000000     
  -7.0317191307483007E-003   1.8747219688570980E-002   0.0000000000000000     
   0.0000000000000000        0.0000000000000000        0.0000000000000000     
  -2.6407505808091489E-003   2.7775867182644356E-003   0.0000000000000000     
  -5.3168896871563353E-003   6.9056293231300756E-003   0.0000000000000000     
  -8.0284173190415566E-003   1.2384127814596919E-002   0.0000000000000000     
  -1.0775333476464815E-002   1.9213082192664970E-002   0.0000000000000000     
   0.0000000000000000        0.0000000000000000        0.0000000000000000     
  -3.4972688192438494E-003   2.9480321754783946E-003   0.0000000000000000     
  -7.1081558160600612E-003   7.2415911837039560E-003   0.0000000000000000     
  -1.0832660990448635E-002   1.2880677024676683E-002   0.0000000000000000     
  -1.4670784342409570E-002   1.9865289698396578E-002   0.0000000000000000     
   1.3877787807814457E-017   1.8374529685295838E-002   0.0000000000000000     
   1.4203048459560108E-017   2.6148059746395991E-002   0.0000000000000000     
   2.4828229749918052E-017   3.4854212120822937E-002   0.0000000000000000     
   4.4804654777963471E-017   4.4492986808576669E-002   0.0000000000000000     
   7.3725747729014302E-017   5.5064383809657197E-002   0.0000000000000000     
  -3.4399413052600249E-003   1.8467702186114602E-002   0.0000000000000000     
  -4.2522596173871757E-003   2.6259768485887340E-002   0.0000000000000000     
  -5.0549261541311882E-003   3.4977759928124970E-002   0.0000000000000000     
  -5.8479409154920583E-003   4.4621676512827495E-002   0.0000000000000000     
  -6.6313039014697945E-003   5.5191518239994915E-002   0.0000000000000000     
  -7.0317191307483007E-003   1.8747219688570980E-002   0.0000000000000000     
  -8.7456830924998331E-003   2.6594894704361501E-002   0.0000000000000000     
  -1.0410212964655462E-002   3.5348403350031213E-002   0.0000000000000000     
  -1.2025308747215196E-002   4.5007745625580117E-002   0.0000000000000000     
  -1.3590970440179029E-002   5.5572921531008207E-002   0.0000000000000000     
  -1.0775333476464815E-002   1.9213082192664970E-002   0.0000000000000000     
  -1.3480270425337951E-002   2.7153438401818469E-002   0.0000000000000000     
  -1.6065860431572796E-002   3.5966142386541652E-002   0.0000000000000000     
  -1.8532103495169362E-002   4.5651194146834530E-002   0.0000000000000000     
  -2.0878999616127630E-002   5.6208593682697094E-002   0.0000000000000000     
  -1.4670784342409570E-002   1.9865289698396578E-002   0.0000000000000000     
  -1.8456021615901538E-002   2.7935399578258240E-002   0.0000000000000000     
  -2.2021868554883198E-002   3.6830977037656296E-002   0.0000000000000000     
  -2.5368325159354551E-002   4.6552022076590732E-002   0.0000000000000000     
  -2.8495391429315606E-002   5.7098534695061549E-002   0.0000000000000000     
   7.3725747729014302E-017   5.5064383809657197E-002   0.0000000000000000     
   1.0972125985553305E-016   6.6404847911507262E-002   0.0000000000000000     
   1.4788517632702280E-016   7.8350823901569583E-002   0.0000000000000000     
   1.8702487475374951E-016   9.0902311779844203E-002   0.0000000000000000     
   2.3158558404290375E-016  0.10405931154633107        0.0000000000000000     
  -6.6313039014697945E-003   5.5191518239994915E-002   0.0000000000000000     
  -7.3761343171288418E-003   6.6529906658621796E-002   0.0000000000000000     
  -8.0535513675336692E-003   7.8479463317702697E-002   0.0000000000000000     
  -8.6635550526842717E-003   9.1040188217237639E-002   0.0000000000000000     
  -9.2061453725806527E-003  0.10421208135722664        0.0000000000000000     
  -1.3590970440179029E-002   5.5572921531008207E-002   0.0000000000000000     
  -1.5069172856701556E-002   6.6905082899965537E-002   0.0000000000000000     
  -1.6421890809937383E-002   7.8865381566102219E-002   0.0000000000000000     
  -1.7649124299886496E-002   9.1453817529418169E-002   0.0000000000000000     
  -1.8750873326548904E-002  0.10467039078991347        0.0000000000000000     
  -2.0878999616127630E-002   5.6208593682697094E-002   0.0000000000000000     
  -2.3079115618718032E-002   6.7530376635538542E-002   0.0000000000000000     
  -2.5105018327210991E-002   7.9508578646768094E-002   0.0000000000000000     
  -2.6956707741606484E-002   9.2143199716385751E-002   0.0000000000000000     
  -2.8634183861904524E-002  0.10543423984439154        0.0000000000000000     
  -2.8495391429315606E-002   5.7098534695061549E-002   0.0000000000000000     
  -3.1405962603178274E-002   6.8405787865340753E-002   0.0000000000000000     
  -3.4102933919354483E-002   8.0409054559700391E-002   0.0000000000000000     
  -3.6586305377844235E-002   9.3108334778140414E-002   0.0000000000000000     
  -3.8856076978647514E-002  0.10650362852066089        0.0000000000000000     
   2.3158558404290375E-016  0.10405931154633107        0.0000000000000000     
   2.9056618222611519E-016  0.11762565680517496        0.0000000000000000     
   3.8402440949436567E-016  0.13140518116052061        0.0000000000000000     
   5.0605136400760919E-016  0.14539788461236805        0.0000000000000000     
   6.6266436782314031E-016  0.15960376716071725        0.0000000000000000     
  -9.2061453725806527E-003  0.10421208135722664        0.0000000000000000     
  -9.7324306165664093E-003  0.11780598179932468        0.0000000000000000     
  -1.0293519073985158E-002  0.13163272860518682        0.0000000000000000     
  -1.0889410744836885E-002  0.14569232177481301        0.0000000000000000     
  -1.1520105629121598E-002  0.15998476130820333        0.0000000000000000     
  -1.8750873326548904E-002  0.10467039078991347        0.0000000000000000     
  -1.9803253686523564E-002  0.11834695678177391        0.0000000000000000     
  -2.0882381176409438E-002  0.13231537093918538        0.0000000000000000     
  -2.1988255796206526E-002  0.14657563326214787        0.0000000000000000     
  -2.3120877545914822E-002  0.16112774375066141        0.0000000000000000     
  -2.8634183861904524E-002  0.10543423984439154        0.0000000000000000     
  -3.0212469209871175E-002  0.11924858175252266        0.0000000000000000     
  -3.1766586307272457E-002  0.13345310816251638        0.0000000000000000     
  -3.3296535154108409E-002  0.14804781907437267        0.0000000000000000     
  -3.4802315750379009E-002  0.16303271448809159        0.0000000000000000     
  -3.8856076978647514E-002  0.10650362852066089        0.0000000000000000     
  -4.0960077186609219E-002  0.12051085671157094        0.0000000000000000     
  -4.2946134466574235E-002  0.13504594027517980        0.0000000000000000     
  -4.4814248818542540E-002  0.15010887921148741        0.0000000000000000     
  -4.6564420242514157E-002  0.16569967352049381        0.0000000000000000     
   0.0000000000000000        0.0000000000000000        0.0000000000000000     
  -3.4972688192438494E-003   2.9480321754783946E-003   0.0000000000000000     
  -7.1081558160600612E-003   7.2415911837039560E-003   0.0000000000000000     
  -1.0832660990448635E-002   1.2880677024676683E-002   0.0000000000000000     
  -1.4670784342409570E-002   1.9865289698396578E-002   0.0000000000000000     
   0.0000000000000000        0.0000000000000000        0.0000000000000000     
  -4.5843161923686641E-003   3.3075352797509150E-003   0.0000000000000000     
  -9.2929431792293671E-003   7.8855865474430908E-003   0.0000000000000000     
  -1.4125880960582111E-002   1.3734153803076530E-002   0.0000000000000000     
  -1.9083129536426890E-002   2.0853237046651225E-002   0.0000000000000000     
   0.0000000000000000        0.0000000000000000        0.0000000000000000     
  -6.1442878124578840E-003   3.9964549760794221E-003   0.0000000000000000     
  -1.2255288227670696E-002   9.0496598144916233E-003   0.0000000000000000     
  -1.8333001245638438E-002   1.5159614515236603E-002   0.0000000000000000     
  -2.4377426866361105E-002   2.2326319078314363E-002   0.0000000000000000     
   0.0000000000000000        0.0000000000000000        0.0000000000000000     
  -8.1771836795115106E-003   5.0147912644639163E-003   0.0000000000000000     
  -1.5995190961384052E-002   1.0733810984849554E-002   0.0000000000000000     
  -2.3454021845617627E-002   1.7157059161156913E-002   0.0000000000000000     
  -3.0553676332212221E-002   2.4284535793385981E-002   0.0000000000000000     
   0.0000000000000000        0.0000000000000000        0.0000000000000000     
  -1.0683003793529542E-002   6.3625441449044005E-003   0.0000000000000000     
  -2.0512651380369427E-002   1.2938040058516880E-002   0.0000000000000000     
  -2.9488942760519658E-002   1.9726487740837441E-002   0.0000000000000000     
  -3.7611877933980228E-002   2.6727887191866081E-002   0.0000000000000000     
  -1.4670784342409570E-002   1.9865289698396578E-002   0.0000000000000000     
  -1.8456021615901538E-002   2.7935399578258240E-002   0.0000000000000000     
  -2.2021868554883198E-002   3.6830977037656296E-002   0.0000000000000000     
  -2.5368325159354551E-002   4.6552022076590732E-002   0.0000000000000000     
  -2.8495391429315606E-002   5.7098534695061549E-002   0.0000000000000000     
  -1.9083129536426890E-002   2.0853237046651225E-002   0.0000000000000000     
  -2.3946736717565385E-002   2.9004543560086304E-002   0.0000000000000000     
  -2.8498750314799280E-002   3.7949780625300897E-002   0.0000000000000000     
  -3.2739170328128564E-002   4.7688948242294991E-002   0.0000000000000000     
  -3.6667996757553244E-002   5.8222046411068588E-002   0.0000000000000000     
  -2.4377426866361105E-002   2.2326319078314363E-002   0.0000000000000000     
  -3.0226215783704317E-002   3.0424635673708150E-002   0.0000000000000000     
  -3.5717018691533674E-002   3.9329426471401217E-002   0.0000000000000000     
  -4.0849835589849177E-002   4.9040691471393581E-002   0.0000000000000000     
  -4.5624666478650842E-002   5.9558430673685207E-002   0.0000000000000000     
  -3.0553676332212221E-002   2.4284535793385981E-002   0.0000000000000000     
  -3.7294458814318317E-002   3.2195675919123777E-002   0.0000000000000000     
  -4.3676673685086376E-002   4.0969914575957271E-002   0.0000000000000000     
  -4.9700320944516409E-002   5.0607251763886481E-002   0.0000000000000000     
  -5.5365400592608409E-002   6.1107687482911392E-002   0.0000000000000000     
  -3.7611877933980228E-002   2.6727887191866081E-002   0.0000000000000000     
  -4.5151465809407390E-002   3.4317664296333157E-002   0.0000000000000000     
  -5.2377715295457393E-002   4.2871244938969030E-002   0.0000000000000000     
  -5.9290626392130237E-002   5.2388629119773697E-002   0.0000000000000000     
  -6.5890199099425922E-002   6.2869816838747164E-002   0.0000000000000000     
  -2.8495391429315606E-002   5.7098534695061549E-002   0.0000000000000000     
  -3.1405962603178274E-002   6.8405787865340753E-002   0.0000000000000000     
  -3.4102933919354483E-002   8.0409054559700391E-002   0.0000000000000000     
  -3.6586305377844235E-002   9.3108334778140414E-002   0.0000000000000000     
  -3.8856076978647514E-002  0.10650362852066089        0.0000000000000000     
  -3.6667996757553244E-002   5.8222046411068588E-002   0.0000000000000000     
  -4.0316821650600354E-002   6.9516538590716812E-002   0.0000000000000000     
  -4.3717237054796923E-002   8.1539888240334799E-002   0.0000000000000000     
  -4.6869242970142971E-002   9.4292095359922543E-002   0.0000000000000000     
  -4.9772839396638485E-002  0.10777315994948003        0.0000000000000000     
  -4.5624666478650842E-002   5.9558430673685207E-002   0.0000000000000000     
  -5.0078800601502341E-002   7.0847850813011315E-002   0.0000000000000000     
  -5.4249527201967372E-002   8.2874158624107061E-002   0.0000000000000000     
  -5.8136846280045930E-002   9.5637354106972494E-002   0.0000000000000000     
  -6.1740757835738014E-002  0.10913743726160756        0.0000000000000000     
  -5.5365400592608409E-002   6.1107687482911392E-002   0.0000000000000000     
  -6.0691899455884248E-002   7.2399724532224222E-002   0.0000000000000000     
  -6.5699804360865824E-002   8.4411865711017178E-002   0.0000000000000000     
  -7.0389115307553110E-002   9.7144111019290214E-002   0.0000000000000000     
  -7.4759832295946113E-002  0.11059646045704341        0.0000000000000000     
  -6.5890199099425922E-002   6.2869816838747164E-002   0.0000000000000000     
  -7.2156118213746068E-002   7.4172159748355587E-002   0.0000000000000000     
  -7.8068068531492243E-002   8.6153009501065136E-002   0.0000000000000000     
  -8.3626050052664505E-002   9.8812366096875812E-002   0.0000000000000000     
  -8.8830062777262797E-002  0.11215022953578760        0.0000000000000000     
  -3.8856076978647514E-002  0.10650362852066089        0.0000000000000000     
  -4.0960077186609219E-002  0.12051085671157094        0.0000000000000000     
  -4.2946134466574235E-002  0.13504594027517980        0.0000000000000000     
  -4.4814248818542540E-002  0.15010887921148741        0.0000000000000000     
  -4.6564420242514157E-002  0.16569967352049381        0.0000000000000000     
  -4.9772839396638485E-002  0.10777315994948003        0.0000000000000000     
  -5.2450797451737072E-002  0.12196819245220100        0.0000000000000000     
  -5.4925888252892380E-002  0.13686230331127908        0.0000000000000000     
  -5.7198111800104375E-002  0.15245549252671431        0.0000000000000000     
  -5.9267468093373084E-002  0.16874776009850664        0.0000000000000000     
  -6.1740757835738014E-002  0.10913743726160756        0.0000000000000000     
  -6.5089349840254065E-002  0.12345499976769503        0.0000000000000000     
  -6.8210710264804519E-002  0.13867063330491775        0.0000000000000000     
  -7.1104839109389362E-002  0.15478433787327561        0.0000000000000000     
  -7.3771736374008606E-002  0.17179611347276869        0.0000000000000000     
  -7.4759832295946113E-002  0.11059646045704341        0.0000000000000000     
  -7.8875734352160193E-002  0.12497127865805312        0.0000000000000000     
  -8.2800600502310653E-002  0.14047093025609572        0.0000000000000000     
  -8.6534430746397509E-002  0.15709541525117132        0.0000000000000000     
  -9.0077225084420731E-002  0.17484473364327982        0.0000000000000000     
  -8.8830062777262797E-002  0.11215022953578760        0.0000000000000000     
  -9.3809950987455454E-002  0.12651702912327514        0.0000000000000000     
  -9.8695558965410796E-002  0.14226319416481312        0.0000000000000000     
 -0.10348688671112878       0.15938872466040144        0.0000000000000000     
 -0.10818393422460944       0.17789362061004016        0.0000000000000000     
 </DataArray>
 <DataArray  type="Float64" Name="stress" NumberOfComponents="3" format="ascii">
   11720103979.120300        3516031193.7360902        2309932896.2032051     
   10341191037.092842        1650394581.7181563        1376026261.5722558     
   9139715948.2006531        376217480.15111446        655655090.34280849     
   8115678712.4437304       -306500110.96503353        148819382.51486328     
   7269079329.8220758       -397758191.63028765       -144480861.91157955     
   8815935168.3492508        2644780550.5047755        1721603828.8626788     
   8062609693.5753870        1283060107.0366547        1143709846.8513105     
   7442808312.7377348        366419976.68924117        717213183.50663280     
   6956531025.8362961       -105139840.53746653        442113838.82864469     
   6603777832.8710680       -131619344.64346504        318411812.81734627     
   6499444231.4695110        1949833269.4408534        1280521862.7371409     
   6194168667.5640631        1038767727.6069928        1007407814.2797892     
   5978503438.3957701        426403301.56365204        823552939.75431478     
   5852448543.9646330        112739991.31083322        728957239.16071808     
   5816003984.2706537        97777796.848534822        723620712.49899948     
   4770631168.4810781        1431189350.5443234        986686997.82659161     
   4735867959.0588665        917517443.42916906        967120163.85769093     
   4746801325.1747561        556167454.77434921        974674359.08585501     
   4803431266.8287468        347139384.57986498        1009349583.5110855     
   4905757784.0208359        290433232.84571505        1071145837.1333808     
   3629495979.3839526        1088848793.8151858        840099234.13103056     
   3687707568.0598006        919309254.50318456        1022846895.5850160     
   3747701973.0746937        755712436.32133198        1170577441.5012543     
   3809479194.4286308        598058339.26962805        1283290871.8797452     
   3873039232.1216135        446346963.34807336        1360987186.7204902     
   7269079329.8220758       -397758191.63028765       -144480861.91157955     
   7061464560.3236027       -87124577.284913063       -66354499.855460159     
   6815002912.0241537        94019441.057200193       -13385541.068279095     
   6529694384.9237261        145673863.39606047        14426014.449962776     
   6205538979.0223236        67838689.731662989        17080166.699264094     
   6603777832.8710680       -131619344.64346504        318411812.81734627     
   6305980887.6061668        23140527.421864748        324946847.42180973     
   5983287871.6102610        94913497.050519705        323239244.46258432     
   5635698784.8833551        83699564.242493153        313289003.93966717     
   5263213627.4254436       -10501271.002206326        295096125.85306412     
   5816003984.2706537        97777796.848534822        723620712.49899948     
   5476352765.2543221        111162297.23832440        674840362.40010941     
   5125756283.5769596        88062588.758010626        634732140.44278002     
   4764214539.2385693        28478671.407605171        603296046.62701190     
   4391727532.2391500       -67589454.812899828        580532080.95280135     
   4905757784.0208359        290433232.84571505        1071145837.1333808     
   4572580193.2680712        176940732.16446090        983326045.07944179     
   4242408147.9242492        73466716.179684401        921093146.87231040     
   3915241647.9893737       -19988815.108608246        884447142.51198971     
   3591080693.4634399       -103425861.70042181        873388031.99847794     
   3873039232.1216135        446346963.34807336        1360987186.7204902     
   3594663171.6474128        220475832.20027328        1250403895.4598033     
   3333243464.6521301        51125879.315534234        1182322263.7511740     
   3088780111.1357656       -61702895.306145906        1156742291.5946047     
   2861273111.0983195       -118010491.66476393        1173663978.9900923     
   6205538979.0223236        67838689.731662989        17080166.699264094     
   5827642999.5491190       -59114426.142348528       -91636570.501942873     
   5466838446.0385933       -129096122.14076066       -187257046.97738573     
   5123125318.4907513       -142106398.26355600       -269781262.72706139     
   4796503616.9055958       -98145254.510743618       -339209217.75097084     
   5263213627.4254436       -10501271.002206326        295096125.85306412     
   4925069584.6966801       -118147413.55639172        226497344.46685895     
   4596163826.9440498       -194999272.85679436        170925259.85372674     
   4276496354.1675539       -241056848.90342784        128379872.01367600     
   3966067166.3671899       -256320141.69628549        98861180.946695328     
   4391727532.2391500       -67589454.812899828        580532080.95280135     
   4093136672.1042900       -155988250.29240322        542889257.56395495     
   3795930955.9590077       -239769899.13997746        518203566.99549413     
   3500110383.8033094       -318934401.35560846        506475009.24741602     
   3205674955.6371913       -393481756.93930888        507703584.31972653     
   3591080693.4634399       -103425861.70042181        873388031.99847794     
   3331844261.7719378       -172636936.35041142        857539168.78934658     
   3066139833.0834651       -263408000.99030733        854577874.44791114     
   2793967407.3980241       -375739055.62009919        864504148.97416878     
   2515326984.7156081       -509630100.23980069        887317992.36812532     
   2861273111.0983195       -118010491.66476393        1173663978.9900923     
   2641192353.6996317       -168093471.73040533        1170447078.1430352     
   2406790458.3174219       -265913578.40778995        1180048182.2109818     
   2158067424.9516902       -411470811.69691074        1202467291.1939340     
   1895023253.6024354       -604765171.59777451        1237704405.0918887     
   4796503616.9055958       -98145254.510743618       -339209217.75097084     
   4709910032.4692183       -85093792.807089329       -166763218.14537859     
   4538366922.8215103       -355207415.14120412       -41222698.092559986     
   4281874287.9624577       -908486121.51312375        37412342.407489456     
   3940432127.8920808       -1744929911.9228120        69141903.354760140     
   3966067166.3671899       -256320141.69628549        98861180.946695328     
   3756743419.6171050       -342751064.79331350        213021904.95707935     
   3471258797.1529279       -683051573.60399747        302637764.77139294     
   3109613298.9746599       -1277221668.1283286        367708760.38963032     
   2671806925.0822763       -2125261348.3663440        408234891.81180179     
   3205674955.6371913       -393481756.93930888        507703584.31972653     
   2937508519.0211263       -560228823.10269737        573832457.14834666     
   2601969856.1882005       -951549976.65562129        637777081.13759589     
   2199058967.1384125       -1567445217.5980802        699537456.28747618     
   1728775851.8717661       -2407914545.9300680        759113582.59798157     
   2515326984.7156081       -509630100.23980069        887317992.36812532     
   2252205330.6812701       -737527067.73524773        915668438.42842674     
   1930500099.9273114       -1160702624.2961001        964195251.00605333     
   1550211292.4537277       -1779156769.9223607        1032898430.1010127     
   1111338908.2605252       -2592889504.6140280        1121777975.7133007     
   1895023253.6024354       -604765171.59777451        1237704405.0918887     
   1700833854.5975451       -874645798.69095612        1238529848.7973111     
   1456849528.3702703       -1310509516.5254197        1281892274.3767660     
   1163070274.9206080       -1912356325.1011653        1367791681.8302510     
   819496094.24856198       -2680186224.4181972        1496228071.1577654     
   3629495979.3839526        1088848793.8151858        840099234.13103056     
   3687707568.0598006        919309254.50318456        1022846895.5850160     
   3747701973.0746937        755712436.32133198        1170577441.5012543     
   3809479194.4286308        598058339.26962805        1283290871.8797452     
   3873039232.1216135        446346963.34807336        1360987186.7204902     
   2767180291.5588517        830154087.46765542        776255547.67897165     
   2758276232.1475110        687230607.70818424        956441883.44798505     
   2750709284.9904552        548764168.79632461        1113875745.5601702     
   2744479450.0876808        414754770.73207635        1248557134.0155282     
   2739586727.4391918        285202413.51543951        1360486048.8140571     
   1874825732.3864949        562447719.71594846        730652914.49892879     
   1833847858.8334491        456652849.69265229        907757936.48408175     
   1793761393.4499257        353829340.23443002        1074375126.6933262     
   1754566336.2359245        253977191.34128231        1230504485.1266613     
   1716262687.1914454        157096403.01320785        1376146011.7840879     
   952432301.86688173        285729690.56006449        703291334.59090161     
   914422448.11761367        227575980.45658833        876795054.69330657     
   876858298.45310664        170907950.63564879        1052075584.9007217     
   839739852.87336063        115725601.09724593        1229132925.2131469     
   803067111.37837565        62028931.841379851        1407967075.6305826     
   1.2238378808539672E-005   3.6715136425619014E-006   694170807.95489025     
   4.7752552827713209E-006  -7.6747216640468411E-006   863553238.07565892     
  -2.6192418197715746E-006  -1.9833036312156815E-005   1046977120.1823566     
  -1.0168148374571745E-005  -3.1985632091664660E-005   1244442454.2749839     
  -1.8517696533668903E-005  -4.6460088523633782E-005   1455949240.3535402     
   3873039232.1216135        446346963.34807336        1360987186.7204902     
   3594663171.6474128        220475832.20027328        1250403895.4598033     
   3333243464.6521301        51125879.315534234        1182322263.7511740     
   3088780111.1357656       -61702895.306145906        1156742291.5946047     
   2861273111.0983195       -118010491.66476393        1173663978.9900923     
   2739586727.4391918        285202413.51543951        1360486048.8140571     
   2578483776.4952602        130102793.47810245        1300194769.9338689     
   2430098090.6605196        17394057.138062477        1271280028.5763378     
   2294429669.9349651       -52923795.504684448        1273741824.7414644     
   2171478514.3186021       -80850764.450131893        1307580158.4292479     
   1716262687.1914454        157096403.01320785        1376146011.7840879     
   1640646782.8366392        63232475.203991055        1361201142.1863804     
   1573509055.2212932       -2370863.4736936688        1366507688.0819287     
   1514849504.3454063       -39713613.019849241        1392065649.4707348     
   1464668130.2089777       -48795773.434473276        1437875026.3527970     
   803067111.37837565        62028931.841379851        1407967075.6305826     
   781152190.67154884        19864877.377938956        1433423012.2173378     
   763476358.33445239       -8168882.5197350681        1468005242.2679486     
   750039614.36708629       -22072347.851640493        1511713765.7824154     
   740841958.76944876       -21845518.617784083        1564548582.7607384     
  -1.8517696533668903E-005  -4.6460088523633782E-005   1455949240.3535402     
  -1.1363391912415106E-005  -5.4357846063163351E-005   1516860380.0267413     
  -3.4627749385844752E-006  -5.9767895760770143E-005   1575772691.1343970     
   4.2526936642524817E-006  -6.5448161999827169E-005   1632686173.6765075     
   1.2947518515202718E-005  -6.8557796802230656E-005   1687600827.6530731     
   2861273111.0983195       -118010491.66476393        1173663978.9900923     
   2641192353.6996317       -168093471.73040533        1170447078.1430352     
   2406790458.3174219       -265913578.40778995        1180048182.2109818     
   2158067424.9516902       -411470811.69691074        1202467291.1939340     
   1895023253.6024354       -604765171.59777451        1237704405.0918887     
   2171478514.3186021       -80850764.450131893        1307580158.4292479     
   1991634578.3582640       -122848009.87276006        1285512963.2481987     
   1801049788.9102850       -200648100.25419426        1279713225.4947956     
   1599724145.9746656       -314251035.59442854        1290180945.1690388     
   1387657649.5514023       -463656815.89347523        1316916122.2709279     
   1464668130.2089777       -48795773.434473276        1437875026.3527970     
   1334916594.2945390       -79750610.631822467        1401134535.4162834     
   1198004489.3883383       -134574011.13504344        1384110954.4200580     
   1053931815.4903784       -213265974.94413036        1386804283.3641229     
   902698572.60065663       -315826502.05908883        1409214522.2484727     
   740841958.76944876       -21845518.617784083        1564548582.7607384     
   671038401.50845540       -38801274.007592916        1517311794.6472895     
   597654559.75158286       -67691311.050333411        1493241368.9867687     
   520690433.49882877       -108515629.74601075        1492337305.7791784     
   440146022.75019693       -161274230.09461632        1514599605.0245209     
   1.2947518515202718E-005  -6.8557796802230656E-005   1687600827.6530731     
   1.5097813109600346E-005  -6.8329042058145801E-005   1634044740.9412141     
   1.6927851062279172E-005  -6.8820864757928224E-005   1607104469.1949277     
   2.0353453354949857E-005  -6.3994139657737819E-005   1606780012.4142134     
   2.3790493384824784E-005  -5.9476233462061950E-005   1633071370.5990694     
   1895023253.6024354       -604765171.59777451        1237704405.0918887     
   1700833854.5975451       -874645798.69095612        1238529848.7973111     
   1456849528.3702703       -1310509516.5254197        1281892274.3767660     
   1163070274.9206080       -1912356325.1011653        1367791681.8302510     
   819496094.24856198       -2680186224.4181972        1496228071.1577654     
   1387657649.5514023       -463656815.89347523        1316916122.2709279     
   1309836905.3690939       -645720894.69194770        1266839043.3302777     
   1194669965.7699966       -952272291.54638267        1243473975.0803437     
   1042156830.7541108       -1383311006.4567800        1246820917.5211225     
   852297500.32143641       -1938837039.4231381        1276879870.6526170     
   902698572.60065663       -315826502.05908883        1409214522.2484727     
   896032279.86002815       -423638293.57712972        1322758441.1016095     
   864468523.50820994       -614441630.46580422        1247189399.4621477     
   808007303.54519987       -888236512.72512066        1182507397.3300881     
   726648619.97099805       -1245022940.3550701        1128712434.7054255     
   440146022.75019693       -161274230.09461632        1514599605.0245209     
   459419978.07035077       -208397995.34649387        1406288042.1113093     
   466245201.58491188       -297017533.28367996        1293038547.5221825     
   460621693.29387867       -427132843.90617847        1174851121.2571416     
   442549453.19725019       -598743927.21399808        1051725763.3161911     
   2.3790493384824784E-005  -5.9476233462061950E-005   1633071370.5990694     
   6.1123267619472905E-005  -3.9117061238509989E-005   1517427846.3593731     
   1.0161285732249201E-004  -6.1535026158825621E-006   1381021419.2604492     
   1.4386385855496447E-004   3.2334483076394064E-005   1223852089.3022935     
   1.9087295846440192E-004   8.3907240130324325E-005   1045919856.4849106     
   1.2238378808539672E-005   3.6715136425619014E-006   694170807.95489025     
   4.7752552827713209E-006  -7.6747216640468411E-006   863553238.07565892     
  -2.6192418197715746E-006  -1.9833036312156815E-005   1046977120.1823566     
  -1.0168148374571745E-005  -3.1985632091664660E-005   1244442454.2749839     
  -1.8517696533668903E-005  -4.6460088523633782E-005   1455949240.3535402     
  -952432301.86685622       -285729690.56005687        703291334.59089506     
  -914422448.11760306       -227575980.45660153        876795054.69330013     
  -876858298.45311069       -170907950.63568240        1052075584.9007148     
  -839739852.87337899       -115725601.09729984        1229132925.2131391     
  -803067111.37840915       -62028931.841454029        1407967075.6305730     
  -1874825732.3864670       -562447719.71594012        730652914.49891615     
  -1833847858.8334372       -456652849.69266307        907757936.48407006     
  -1793761393.4499297       -353829340.23445851        1074375126.6933146     
  -1754566336.2359443       -253977191.34132653        1230504485.1266484     
  -1716262687.1914799       -157096403.01326686        1376146011.7840726     
  -2767180291.5588193       -830154087.46764576        776255547.67895353     
  -2758276232.1474991       -687230607.70819283        956441883.44796896     
  -2750709284.9904599       -548764168.79634786        1113875745.5601547     
  -2744479450.0877047       -414754770.73211217        1248557134.0155108     
  -2739586727.4392309       -285202413.51548302        1360486048.8140378     
  -3629495979.3839135       -1088848793.8151741        840099234.13100731     
  -3687707568.0597863       -919309254.50319064        1022846895.5849966     
  -3747701973.0747018       -755712436.32135081        1170577441.5012367     
  -3809479194.4286613       -598058339.26965582        1283290871.8797276     
  -3873039232.1216631       -446346963.34810412        1360987186.7204690     
  -1.8517696533668903E-005  -4.6460088523633782E-005   1455949240.3535402     
  -1.1363391912415106E-005  -5.4357846063163351E-005   1516860380.0267413     
  -3.4627749385844752E-006  -5.9767895760770143E-005   1575772691.1343970     
   4.2526936642524817E-006  -6.5448161999827169E-005   1632686173.6765075     
   1.2947518515202718E-005  -6.8557796802230656E-005   1687600827.6530731     
  -803067111.37840915       -62028931.841454029        1407967075.6305730     
  -781152190.67156625       -19864877.378025234        1433423012.2173274     
  -763476358.33445275        8168882.5196385384        1468005242.2679391     
  -750039614.36707008        22072347.851532519        1511713765.7824059     
  -740841958.76941741        21845518.617661268        1564548582.7607296     
  -1716262687.1914799       -157096403.01326686        1376146011.7840726     
  -1640646782.8366535       -63232475.204055786        1361201142.1863618     
  -1573509055.2212882        2370863.4736209512        1366507688.0819085     
  -1514849504.3453836        39713613.019758999        1392065649.4707134     
  -1464668130.2089396        48795773.434363186        1437875026.3527765     
  -2739586727.4392309       -285202413.51548302        1360486048.8140378     
  -2578483776.4952736       -130102793.47814536        1300194769.9338422     
  -2430098090.6605101       -17394057.138114214        1271280028.5763066     
  -2294429669.9349356        52923795.504615068        1273741824.7414289     
  -2171478514.3185544        80850764.450035691        1307580158.4292126     
  -3873039232.1216631       -446346963.34810412        1360987186.7204690     
  -3594663171.6474290       -220475832.20029736        1250403895.4597700     
  -3333243464.6521168       -51125879.315561652        1182322263.7511318     
  -3088780111.1357274        61702895.306096315        1156742291.5945544     
  -2861273111.0982594        118010491.66468382        1173663978.9900382     
   1.2947518515202718E-005  -6.8557796802230656E-005   1687600827.6530731     
   1.5097813109600346E-005  -6.8329042058145801E-005   1634044740.9412141     
   1.6927851062279172E-005  -6.8820864757928224E-005   1607104469.1949277     
   2.0353453354949857E-005  -6.3994139657737819E-005   1606780012.4142134     
   2.3790493384824784E-005  -5.9476233462061950E-005   1633071370.5990694     
  -740841958.76941741        21845518.617661268        1564548582.7607296     
  -671038401.50842428        38801274.007456928        1517311794.6472838     
  -597654559.75154722        67691311.050195754        1493241368.9867687     
  -520690433.49878949        108515629.74587303        1492337305.7791829     
  -440146022.75014621        161274230.09450042        1514599605.0245283     
  -1464668130.2089396        48795773.434363186        1437875026.3527765     
  -1334916594.2945020        79750610.631691754        1401134535.4162724     
  -1198004489.3882990        134574011.13490391        1384110954.4200563     
  -1053931815.4903318        213265974.94399774        1386804283.3641291     
  -902698572.60059905        315826502.05897719        1409214522.2484906     
  -2171478514.3185544        80850764.450035691        1307580158.4292126     
  -1991634578.3582189        122848009.87263596        1285512963.2481785     
  -1801049788.9102368        200648100.25405872        1279713225.4947913     
  -1599724145.9746094        314251035.59429991        1290180945.1690509     
  -1387657649.5513325        463656815.89337045        1316916122.2709570     
  -2861273111.0982594        118010491.66468382        1173663978.9900382     
  -2641192353.6995769        168093471.73028409        1170447078.1430039     
  -2406790458.3173628        265913578.40765274        1180048182.2109747     
  -2158067424.9516220        411470811.69677997        1202467291.1939511     
  -1895023253.6023502        604765171.59767532        1237704405.0919316     
   2.3790493384824784E-005  -5.9476233462061950E-005   1633071370.5990694     
   6.1123267619472905E-005  -3.9117061238509989E-005   1517427846.3593731     
   1.0161285732249201E-004  -6.1535026158825621E-006   1381021419.2604492     
   1.4386385855496447E-004   3.2334483076394064E-005   1223852089.3022935     
   1.9087295846440192E-004   8.3907240130324325E-005   1045919856.4849106     
  -440146022.75014621        161274230.09450042        1514599605.0245283     
  -459419978.07023644        208397995.34641802        1406288042.1113195     
  -466245201.58472794        297017533.28366387        1293038547.5221891     
  -460621693.29362214        427132843.90623200        1174851121.2571340     
  -442549453.19692069        598743927.21412683        1051725763.3161615     
  -902698572.60059905        315826502.05897719        1409214522.2484906     
  -896032279.85994005        423638293.57705373        1322758441.1016307     
  -864468523.50808918        614441630.46577096        1247189399.4621546     
  -808007303.54504466        888236512.72513461        1182507397.3300662     
  -726648619.97080874        1245022940.3551335        1128712434.7053583     
  -1387657649.5513325        463656815.89337045        1316916122.2709570     
  -1309836905.3690498        645720894.69186735        1266839043.3303087     
  -1194669965.7699802        952272291.54631758        1243473975.0803504     
  -1042156830.7541205        1383311006.4567347        1246820917.5210800     
  -852297500.32147694        1938837039.4231048        1276879870.6525080     
  -1895023253.6023502        604765171.59767532        1237704405.0919316     
  -1700833854.5975659        874645798.69085753        1238529848.7973526     
  -1456849528.3704000        1310509516.5253124        1281892274.3767726     
  -1163070274.9208488        1912356325.1010489        1367791681.8301880     
  -819496094.24891853        2680186224.4180503        1496228071.1576040     
  -3629495979.3839135       -1088848793.8151741        840099234.13100731     
  -3687707568.0597863       -919309254.50319064        1022846895.5849966     
  -3747701973.0747018       -755712436.32135081        1170577441.5012367     
  -3809479194.4286613       -598058339.26965582        1283290871.8797276     
  -3873039232.1216631       -446346963.34810412        1360987186.7204690     
  -4770631168.4810314       -1431189350.5443096        986686997.82656634     
  -4735867959.0588446       -917517443.42916000        967120163.85767162     
  -4746801325.1747580       -556167454.77434671        974674359.08584201     
  -4803431266.8287706       -347139384.57986879        1009349583.5110772     
  -4905757784.0208864       -290433232.84572816        1071145837.1333767     
  -6499444231.4694538       -1949833269.4408362        1280521862.7371197     
  -6194168667.5640240       -1038767727.6069659        1007407814.2797742     
  -5978503438.3957520       -426403301.56362343        823552939.75430727     
  -5852448543.9646397       -112739991.31081033        728957239.16071880     
  -5816003984.2706833       -97777796.848523617        723620712.49900925     
  -8815935168.3491821       -2644780550.5047545        1721603828.8626678     
  -8062609693.5753279       -1283060107.0366092        1143709846.8513036     
  -7442808312.7376881       -366419976.68918324        717213183.50663233     
  -6956531025.8362637        105139840.53752232        442113838.82865399     
  -6603777832.8710566        131619344.64350939        318411812.81736755     
  -11720103979.120216       -3516031193.7360649        2309932896.2032099     
  -10341191037.092751       -1650394581.7180877        1376026261.5722606     
  -9139715948.2005615       -376217480.15102339        655655090.34281790     
  -8115678712.4436445        306500110.96512794        148819382.51488176     
  -7269079329.8220024        397758191.63036728       -144480861.91154784     
  -3873039232.1216631       -446346963.34810412        1360987186.7204690     
  -3594663171.6474290       -220475832.20029736        1250403895.4597700     
  -3333243464.6521168       -51125879.315561652        1182322263.7511318     
  -3088780111.1357274        61702895.306096315        1156742291.5945544     
  -2861273111.0982594        118010491.66468382        1173663978.9900382     
  -4905757784.0208864       -290433232.84572816        1071145837.1333767     
  -4572580193.2680864       -176940732.16446996        983326045.07942557     
  -4242408147.9242368       -73466716.179706573        921093146.87228334     
  -3915241647.9893341        19988815.108563900        884447142.51194966     
  -3591080693.4633784        103425861.70034075        873388031.99842381     
  -5816003984.2706833       -97777796.848523617        723620712.49900925     
  -5476352765.2543268       -111162297.23831868        674840362.40011013     
  -5125756283.5769444       -88062588.758027315        634732140.44276679     
  -4764214539.2385368       -28478671.407649040        603296046.62697971     
  -4391727532.2391024        67589454.812816620        580532080.95274770     
  -6603777832.8710566        131619344.64350939        318411812.81736755     
  -6305980887.6061478       -23140527.421838760        324946847.42182338     
  -5983287871.6102409       -94913497.050523281        323239244.46258157     
  -5635698784.8833351       -83699564.242542028        313289003.93964475     
  -5263213627.4254236        10501271.002115011        295096125.85300833     
  -7269079329.8220024        397758191.63036728       -144480861.91154784     
  -7061464560.3235502        87124577.284960747       -66354499.855435580     
  -6815002912.0241280       -94019441.057199717       -13385541.068270929     
  -6529694384.9237299       -145673863.39610887        14426014.449944781     
  -6205538979.0223541       -67838689.731772423        17080166.699209649     
  -2861273111.0982594        118010491.66468382        1173663978.9900382     
  -2641192353.6995769        168093471.73028409        1170447078.1430039     
  -2406790458.3173628        265913578.40765274        1180048182.2109747     
  -2158067424.9516220        411470811.69677997        1202467291.1939511     
  -1895023253.6023502        604765171.59767532        1237704405.0919316     
  -3591080693.4633784        103425861.70034075        873388031.99842381     
  -3331844261.7718811        172636936.35029411        857539168.78931940     
  -3066139833.0834036        263408000.99017620        854577874.44790959     
  -2793967407.3979478        375739055.61999333        864504148.97419202     
  -2515326984.7155104        509630100.23974013        887317992.36817145     
  -4391727532.2391024        67589454.812816620        580532080.95274770     
  -4093136672.1042485        155988250.29228306        542889257.56393111     
  -3795930955.9589672        239769899.13984919        518203566.99549949     
  -3500110383.8032541        318934401.35551572        506475009.24744833     
  -3205674955.6371131        393481756.93927741        507703584.31978291     
  -5263213627.4254236        10501271.002115011        295096125.85300833     
  -4925069584.6966820        118147413.55624819        226497344.46683991     
  -4596163826.9440536        194999272.85666013        170925259.85374686     
  -4276496354.1675496        241056848.90332580        128379872.01372077     
  -3966067166.3671613        256320141.69628000        98861180.946770221     
  -6205538979.0223541       -67838689.731772423        17080166.699209649     
  -5827642999.5491762        59114426.142199278       -91636570.501953110     
  -5466838446.0386639        129096122.14061713       -187257046.97735211     
  -5123125318.4908237        142106398.26346421       -269781262.72699267     
  -4796503616.9056520        98145254.510743380       -339209217.75086963     
  -1895023253.6023502        604765171.59767532        1237704405.0919316     
  -1700833854.5975659        874645798.69085753        1238529848.7973526     
  -1456849528.3704000        1310509516.5253124        1281892274.3767726     
  -1163070274.9208488        1912356325.1010489        1367791681.8301880     
  -819496094.24891853        2680186224.4180503        1496228071.1576040     
  -2515326984.7155104        509630100.23974013        887317992.36817145     
  -2252205330.6813183        737527067.73517001        915668438.42846644     
  -1930500099.9275160        1160702624.2959642        964195251.00609612     
  -1550211292.4541109        1779156769.9220967        1032898430.1010673     
  -1111338908.2610993        2592889504.6135921        1121777975.7133660     
  -3205674955.6371131        393481756.93927741        507703584.31978291     
  -2937508519.0211177        560228823.10267258        573832457.14838135     
  -2601969856.1882877        951549976.65551007        637777081.13765156     
  -2199058967.1386323        1567445217.5977750        699537456.28759539     
  -1728775851.8721406        2407914545.9294791        759113582.59821725     
  -3966067166.3671613        256320141.69628000        98861180.946770221     
  -3756743419.6169639        342751064.79336715        213021904.95709848     
  -3471258797.1527176        683051573.60396147        302637764.77143359     
  -3109613298.9744158        1277221668.1280773        367708760.38978529     
  -2671806925.0820546        2125261348.3657062        408234891.81214541     
  -4796503616.9056520        98145254.510743380       -339209217.75086963     
  -4709910032.4688673        85093792.807227850       -166763218.14538690     
  -4538366922.8207932        355207415.14133310       -41222698.092551023     
  -4281874287.9614553        908486121.51299644        37412342.407635495     
  -3940432127.8908324        1744929911.9222670        69141903.355167508     
 </DataArray>
 <DataArray  type="Float64" Name="VM" NumberOfComponents="1" format="ascii">
   11158961932.329748     
   9913492497.7271824     
   9029234579.7034702     
   8277202506.4867649     
   7480085954.6985703     
   8383980105.8786058     
   7760884105.1857643     
   7371950202.1382494     
   7051395663.3912554     
   6693321184.2822905     
   6187972303.1094294     
   6004754189.4524002     
   5950612394.3411694     
   5932806691.3540421     
   5902344245.5720139     
   4571673859.1165743     
   4661652749.4488220     
   4801187245.4495373     
   4958059828.0817366     
   5115474173.3954191     
   3538949082.7660136     
   3767335959.6863189     
   3986845998.5776982     
   4187125636.4004650     
   4362086378.3641253     
   7480085954.6985703     
   7106356893.8280239     
   6768522667.4461079     
   6458138133.9216108     
   6171970161.2092810     
   6693321184.2822905     
   6319555211.8927116     
   5962742521.5422926     
   5620573892.2695379     
   5293207304.4359531     
   5902344245.5720139     
   5546193402.3378391     
   5199846132.4183655     
   4863617076.8129301     
   4538692103.7305775     
   5115474173.3954191     
   4799115782.3169394     
   4498553791.1959839     
   4213611040.4236469     
   3945426217.0652819     
   4362086378.3641253     
   4107092190.5013475     
   3890548631.3840017     
   3707979865.8499703     
   3559625253.5627489     
   6171970161.2092810     
   5859573960.6572838     
   5542015125.6126251     
   5216606361.7458982     
   4881805217.9942636     
   5293207304.4359531     
   5000605623.2823620     
   4706021842.0739021     
   4407590314.6400757     
   4103814357.4642634     
   4538692103.7305775     
   4277939646.1823201     
   4022727460.3103094     
   3773373592.1704307     
   3530700102.8913951     
   3945426217.0652819     
   3729920824.9328594     
   3531168793.1453815     
   3352512290.4160166     
   3198511947.9542413     
   3559625253.5627489     
   3399699802.1769009     
   3268163053.1074576     
   3170540609.0651956     
   3114263105.5788932     
   4881805217.9942636     
   4761796666.0442429     
   4726532148.4216671     
   4801459868.1720734     
   5045979136.5310030     
   4103814357.4642634     
   3956559391.2460151     
   3893843181.5873108     
   3959581384.5719681     
   4222978002.8589082     
   3530700102.8913951     
   3402402186.7869773     
   3372221472.8829784     
   3493952957.7010174     
   3831216937.3118844     
   3198511947.9542413     
   3129342341.1426554     
   3178649901.4903488     
   3395181921.4448843     
   3822942142.3604484     
   3114263105.5788932     
   3122072519.7204571     
   3267843986.7306533     
   3584216264.4003487     
   4094810070.2695227     
   3538949082.7660136     
   3767335959.6863189     
   3986845998.5776982     
   4187125636.4004650     
   4362086378.3641253     
   2803029534.4574251     
   2988167508.5235171     
   3174934726.6913972     
   3352996835.2806110     
   3515409787.5195923     
   2092459928.0712633     
   2281703608.6202998     
   2484136764.9208999     
   2690689776.9206476     
   2895160053.2180400     
   1483403742.3261132     
   1728053054.4876864     
   1992189011.4651921     
   2270171640.9873266     
   2558527865.1651325     
   1202339108.5090077     
   1495718083.3876641     
   1813417566.5179882     
   2155437557.8999815     
   2521778057.5336428     
   4362086378.3641253     
   4107092190.5013475     
   3890548631.3840017     
   3707979865.8499703     
   3559625253.5627489     
   3515409787.5195923     
   3376619122.6654840     
   3272899135.5657053     
   3202482329.9039698     
   3166499501.7025914     
   2895160053.2180400     
   2854922714.0864835     
   2842832518.4158530     
   2858329347.0456891     
   2901991927.5594950     
   2558527865.1651325     
   2599842391.7087126     
   2655996574.3640604     
   2726799823.2174263     
   2812284643.2777877     
   2521778057.5336428     
   2627279246.1945515     
   2729318362.2243156     
   2827895405.6229348     
   2923010376.3904109     
   3559625253.5627489     
   3399699802.1769009     
   3268163053.1074576     
   3170540609.0651956     
   3114263105.5788932     
   3166499501.7025914     
   3030511344.2494450     
   2925476890.9352789     
   2855571158.2722497     
   2826087851.0611658     
   2901991927.5594950     
   2790046029.3990192     
   2713270092.1580176     
   2674079431.3180270     
   2675325014.6709867     
   2812284643.2777877     
   2717451097.3663387     
   2662994266.8448992     
   2649643206.6206555     
   2678200515.3096690     
   2923010376.3904109     
   2830248513.1509066     
   2783586593.7166262     
   2783024618.0875688     
   2828562586.2637315     
   3114263105.5788932     
   3122072519.7204571     
   3267843986.7306533     
   3584216264.4003487     
   4094810070.2695227     
   2826087851.0611658     
   2791605404.7916651     
   2847875090.3808355     
   3017441700.5159917     
   3321028856.9896131     
   2675325014.6709867     
   2571187763.8326435     
   2514449042.8022099     
   2520815885.5614624     
   2608595373.2101369     
   2678200515.3096690     
   2506626580.7499866     
   2336649964.9912920     
   2175359036.0800862     
   2034133562.5183589     
   2828562586.2637315     
   2628262126.7142544     
   2391999264.4999781     
   2119773999.6208951     
   1811586332.0770137     
   1202339108.5090077     
   1495718083.3876641     
   1813417566.5179882     
   2155437557.8999815     
   2521778057.5336428     
   1483403742.3260911     
   1728053054.4876699     
   1992189011.4651783     
   2270171640.9873133     
   2558527865.1651173     
   2092459928.0712304     
   2281703608.6202750     
   2484136764.9208813     
   2690689776.9206324     
   2895160053.2180238     
   2803029534.4573846     
   2988167508.5234900     
   3174934726.6913786     
   3352996835.2805996     
   3515409787.5195851     
   3538949082.7659659     
   3767335959.6862893     
   3986845998.5776844     
   4187125636.4004655     
   4362086378.3641367     
   2521778057.5336428     
   2627279246.1945515     
   2729318362.2243156     
   2827895405.6229348     
   2923010376.3904109     
   2558527865.1651173     
   2599842391.7086883     
   2655996574.3640304     
   2726799823.2173901     
   2812284643.2777472     
   2895160053.2180238     
   2854922714.0864472     
   2842832518.4158010     
   2858329347.0456200     
   2901991927.5594153     
   3515409787.5195851     
   3376619122.6654487     
   3272899135.5656428     
   3202482329.9038801     
   3166499501.7024789     
   4362086378.3641367     
   4107092190.5013213     
   3890548631.3839402     
   3707979865.8498693     
   3559625253.5626111     
   2923010376.3904109     
   2830248513.1509066     
   2783586593.7166262     
   2783024618.0875688     
   2828562586.2637315     
   2812284643.2777472     
   2717451097.3663020     
   2662994266.8448720     
   2649643206.6206360     
   2678200515.3096552     
   2901991927.5594153     
   2790046029.3989496     
   2713270092.1579590     
   2674079431.3179798     
   2675325014.6709599     
   3166499501.7024789     
   3030511344.2493429     
   2925476890.9351912     
   2855571158.2721815     
   2826087851.0611234     
   3559625253.5626111     
   3399699802.1767716     
   3268163053.1073422     
   3170540609.0651026     
   3114263105.5788350     
   2828562586.2637315     
   2628262126.7142544     
   2391999264.4999781     
   2119773999.6208951     
   1811586332.0770137     
   2678200515.3096552     
   2506626580.7499647     
   2336649964.9912505     
   2175359036.0800109     
   2034133562.5182445     
   2675325014.6709599     
   2571187763.8326125     
   2514449042.8021498     
   2520815885.5613618     
   2608595373.2099910     
   2826087851.0611234     
   2791605404.7916441     
   2847875090.3807988     
   3017441700.5159163     
   3321028856.9894857     
   3114263105.5788350     
   3122072519.7204657     
   3267843986.7306781     
   3584216264.4003377     
   4094810070.2694230     
   3538949082.7659659     
   3767335959.6862893     
   3986845998.5776844     
   4187125636.4004655     
   4362086378.3641367     
   4571673859.1165199     
   4661652749.4487934     
   4801187245.4495316     
   4958059828.0817518     
   5115474173.3954582     
   6187972303.1093683     
   6004754189.4523649     
   5950612394.3411608     
   5932806691.3540602     
   5902344245.5720520     
   8383980105.8785419     
   7760884105.1857214     
   7371950202.1382294     
   7051395663.3912535     
   6693321184.2823057     
   11158961932.329681     
   9913492497.7271214     
   9029234579.7034245     
   8277202506.4867296     
   7480085954.6985388     
   4362086378.3641367     
   4107092190.5013213     
   3890548631.3839402     
   3707979865.8498693     
   3559625253.5626111     
   5115474173.3954582     
   4799115782.3169403     
   4498553791.1959457     
   4213611040.4235635     
   3945426217.0651503     
   5902344245.5720520     
   5546193402.3378468     
   5199846132.4183388     
   4863617076.8128653     
   4538692103.7304688     
   6693321184.2823057     
   6319555211.8927078     
   5962742521.5422707     
   5620573892.2694912     
   5293207304.4358778     
   7480085954.6985388     
   7106356893.8279953     
   6768522667.4460831     
   6458138133.9215908     
   6171970161.2092581     
   3559625253.5626111     
   3399699802.1767716     
   3268163053.1073422     
   3170540609.0651026     
   3114263105.5788350     
   3945426217.0651503     
   3729920824.9327307     
   3531168793.1452575     
   3352512290.4159107     
   3198511947.9541616     
   4538692103.7304688     
   4277939646.1822085     
   4022727460.3102036     
   3773373592.1703391     
   3530700102.8913264     
   5293207304.4358778     
   5000605623.2822866     
   4706021842.0738363     
   4407590314.6400194     
   4103814357.4642372     
   6171970161.2092581     
   5859573960.6572657     
   5542015125.6126184     
   5216606361.7459126     
   4881805217.9942980     
   3114263105.5788350     
   3122072519.7204657     
   3267843986.7306781     
   3584216264.4003377     
   4094810070.2694230     
   3198511947.9541616     
   3129342341.1426840     
   3178649901.4904590     
   3395181921.4450111     
   3822942142.3605084     
   3530700102.8913264     
   3402402186.7869716     
   3372221472.8830152     
   3493952957.7010441     
   3831216937.3118081     
   4103814357.4642372     
   3956559391.2459078     
   3893843181.5870919     
   3959581384.5716004     
   4222978002.8582888     
   4881805217.9942980     
   4761796666.0439644     
   4726532148.4210224     
   4801459868.1710081     
   5045979136.5294275     
 </DataArray>
 <DataArray  type="Float64" Name="strain" NumberOfComponents="3" format="ascii">
  0.17775491034999122        0.0000000000000000       0.10009709216880555     
  0.16410121104295661       -2.4199378823494946E-002   5.9627804668131085E-002
  0.15044751173592197       -3.9428288405151356E-002   2.8411720581521700E-002
  0.13679381242888733       -4.5686728744969207E-002   6.4488399089774086E-003
  0.12314011312185270       -4.2974699842948508E-002  -6.2608373495017799E-003
  0.13370835005329698        0.0000000000000000        7.4602832584049414E-002
  0.12796152769107319       -1.8928713350599362E-002   4.9560760030223451E-002
  0.12221470532884939       -3.1107041952201327E-002   3.1079237951954088E-002
  0.11646788296662559       -3.6534985804805922E-002   1.9158266349241272E-002
  0.11072106060440179       -3.5212544908413093E-002   1.3797845222085006E-002
   9.8574904177287592E-002   0.0000000000000000        5.5489280718609438E-002
   9.8042305821366096E-002  -1.3658047877703770E-002   4.3654338618790867E-002
   9.7509707465444573E-002  -2.2785795499251315E-002   3.5687294056020308E-002
   9.6977109109523063E-002  -2.7383242864642617E-002   3.1588147030297782E-002
   9.6444510753601553E-002  -2.7450389973877685E-002   3.1356897541623310E-002
   7.2354572721963023E-002   0.0000000000000000        4.2756436572485637E-002
   7.4343545433835270E-002  -8.3873824048081840E-003   4.1908540433833276E-002
   7.6332518145707517E-002  -1.4464549046301291E-002   4.2235888893720382E-002
   7.8321490857579792E-002  -1.8231499924479318E-002   4.3738481952147037E-002
   8.0310463569452026E-002  -1.9688235039342260E-002   4.6416319609113167E-002
   5.5047355687323281E-002   0.0000000000000000        3.6404300145677991E-002
   5.6865246528480753E-002  -3.1167169319125951E-003   4.4323365475350693E-002
   5.8683137369638233E-002  -6.1433025933512672E-003   5.0725022465054358E-002
   6.0501028210795713E-002  -9.0797569843160224E-003   5.5609271114788958E-002
   6.2318919051953192E-002  -1.1926080104806844E-002   5.8976111424554577E-002
  0.12314011312185270       -4.2974699842948508E-002  -6.2608373495017799E-003
  0.11812669889181796       -3.6759399089699898E-002  -2.8753616604032736E-003
  0.11311328466178322       -3.2508023875834097E-002  -5.8004011295876082E-004
  0.10809987043174847       -3.0220574201350957E-002   6.2512729283172030E-004
  0.10308645620171375       -2.9897050066250569E-002   7.4014055696811076E-004
  0.11072106060440179       -3.5212544908413093E-002   1.3797845222085006E-002
  0.10498397882299346       -3.1144228980999753E-002   1.4081030054945088E-002
   9.9246897041585097E-002  -2.8334547740542646E-002   1.4007033926711987E-002
   9.3509815260176779E-002  -2.6783501187041890E-002   1.3575856837385578E-002
   8.7772733478768419E-002  -2.6491089320497319E-002   1.2787498786966112E-002
   9.6444510753601553E-002  -2.7450389973877685E-002   3.1356897541623310E-002
   9.0716734601380411E-002  -2.5529058872299538E-002   2.9243082370671410E-002
   8.4988958449159269E-002  -2.4161071605251286E-002   2.7505059419187135E-002
   7.9261182296938126E-002  -2.3346428172732758E-002   2.6142828687170515E-002
   7.3533406144716998E-002  -2.3085128574744082E-002   2.5156390174621394E-002
   8.0310463569452026E-002  -1.9688235039342260E-002   4.6416319609113167E-002
   7.5324966226978887E-002  -1.9913888763599345E-002   4.2610795286775811E-002
   7.0339468884505735E-002  -1.9987595469959839E-002   3.9914036364466783E-002
   6.5353971542032596E-002  -1.9909355158423670E-002   3.8326042842186221E-002
   6.0368474199559444E-002  -1.9679167828990894E-002   3.7846814719934042E-002
   6.2318919051953192E-002  -1.1926080104806844E-002   5.8976111424554577E-002
   5.8808673699788844E-002  -1.4298718654899175E-002   5.4184168803258145E-002
   5.5298428347624502E-002  -1.5814119334668416E-002   5.1233964762550870E-002
   5.1788182995460161E-002  -1.6472282144114593E-002   5.0125499302432867E-002
   4.8277937643295812E-002  -1.6273207083237665E-002   5.0858772422904000E-002
  0.10308645620171375       -2.9897050066250569E-002   7.4014055696811076E-004
   9.7422955456530402E-002  -3.0123455433451407E-002  -3.9709180550841910E-003
   9.1759454711347027E-002  -2.9485794265872313E-002  -8.1144720356867150E-003
   8.6095953966163638E-002  -2.7984066563513023E-002  -1.1690521384839326E-002
   8.0432453220980304E-002  -2.5618272326373703E-002  -1.4699066102542069E-002
   8.7772733478768419E-002  -2.6491089320497319E-002   1.2787498786966112E-002
   8.2675230146059958E-002  -2.6594471482756593E-002   9.8148849268972216E-003
   7.7577726813351483E-002  -2.6230807015666824E-002   7.4067612603281596E-003
   7.2480223480643036E-002  -2.5400095919228233E-002   5.5631277872592935E-003
   6.7382720147934588E-002  -2.4102338193440709E-002   4.2839845076901306E-003
   7.3533406144716998E-002  -2.3085128574744082E-002   2.5156390174621394E-002
   6.8998885786533515E-002  -2.3065487532061502E-002   2.3525201161104715E-002
   6.4464365428350018E-002  -2.2975819765461331E-002   2.2455487903138078E-002
   5.9929845070166535E-002  -2.2816125274943356E-002   2.1947250400721360E-002
   5.5395324711983066E-002  -2.2586404060507770E-002   2.2000488653854816E-002
   6.0368474199559444E-002  -1.9679167828990894E-002   3.7846814719934042E-002
   5.6393922377951024E-002  -1.9536503581366549E-002   3.7160030647538353E-002
   5.2419370556342625E-002  -1.9720832515255783E-002   3.7031707892742814E-002
   4.8444818734734225E-002  -2.0232154630658441E-002   3.7461846455547315E-002
   4.4470266913125805E-002  -2.1070469927574720E-002   3.8450446335952099E-002
   4.8277937643295812E-002  -1.6273207083237665E-002   5.0858772422904000E-002
   4.4860339920312561E-002  -1.6007519630671582E-002   5.0719373386198197E-002
   4.1442742197329317E-002  -1.6465845265050277E-002   5.1135421229142546E-002
   3.8025144474346059E-002  -1.7648183986373630E-002   5.2106915951737137E-002
   3.4607546751362794E-002  -1.9554535794641753E-002   5.3633857553981840E-002
   8.0432453220980304E-002  -2.5618272326373703E-002  -1.4699066102542069E-002
   7.8923969505189095E-002  -2.4967780042464249E-002  -7.2264061196330720E-003
   7.7415485789397859E-002  -2.8611958199794285E-002  -1.7863169173442661E-003
   7.5907002073606580E-002  -3.6550806798364352E-002   1.6212015043245431E-003
   7.4398518357815413E-002  -4.8784325838173936E-002   2.9961491453729394E-003
   6.7382720147934588E-002  -2.4102338193440709E-002   4.2839845076901306E-003
   6.4326145650918320E-002  -2.4496234844640752E-002   9.2309492148067718E-003
   6.1269571153902122E-002  -2.8740486879164598E-002   1.3114303140093694E-002
   5.8212996656885972E-002  -3.6835094297012108E-002   1.5934046283550649E-002
   5.5156422159869656E-002  -4.8780057098183782E-002   1.7690178645178078E-002
   5.5395324711983066E-002  -2.2586404060507770E-002   2.2000488653854816E-002
   5.1759619432532253E-002  -2.4024689646817254E-002   2.4866073143095024E-002
   4.8123914153081447E-002  -2.8869015558534689E-002   2.7637006849295820E-002
   4.4488208873630614E-002  -3.7119381795660066E-002   3.0313289772457300E-002
   4.0852503594179773E-002  -4.8775788358193295E-002   3.2894921912579200E-002
   4.4470266913125805E-002  -2.1070469927574720E-002   3.8450446335952099E-002
   4.1224390850030740E-002  -2.3553144448993812E-002   3.9678965665231825E-002
   3.7978514786935688E-002  -2.8997544237904890E-002   4.1781794210262312E-002
   3.4732638723840595E-002  -3.7403669294307981E-002   4.4758931971043886E-002
   3.1486762660745557E-002  -4.8771519618203085E-002   4.8610378947576360E-002
   3.4607546751362794E-002  -1.9554535794641753E-002   5.3633857553981840E-002
   3.2720459903413865E-002  -2.3081599251170329E-002   5.3669626781216812E-002
   3.0833373055464935E-002  -2.9126072917275016E-002   5.5548665222993190E-002
   2.8946286207515964E-002  -3.7687956792955800E-002   5.9270972879310872E-002
   2.7059199359567021E-002  -4.8767250878212764E-002   6.4836549750169836E-002
   5.5047355687323281E-002   0.0000000000000000        3.6404300145677991E-002
   5.6865246528480753E-002  -3.1167169319125951E-003   4.4323365475350693E-002
   5.8683137369638233E-002  -6.1433025933512672E-003   5.0725022465054358E-002
   6.0501028210795713E-002  -9.0797569843160224E-003   5.5609271114788958E-002
   6.2318919051953192E-002  -1.1926080104806844E-002   5.8976111424554577E-002
   4.1968901088642582E-002   0.0000000000000000        3.3637740399422106E-002
   4.2535117497250932E-002  -2.3375376989344847E-003   4.1445814949412685E-002
   4.3101333905859296E-002  -4.6074769450135319E-003   4.8267948974274041E-002
   4.3667550314467639E-002  -6.8098177382371339E-003   5.4104142474006224E-002
   4.4233766723075996E-002  -8.9445600786053001E-003   5.8954395448609143E-002
   2.8434856941195172E-002   0.0000000000000000        3.1661626294953581E-002
   2.8280866732094224E-002  -1.5583584659563739E-003   3.9336177247643545E-002
   2.8126876522993276E-002  -3.0716512966757932E-003   4.6556255490044142E-002
   2.7972886313892331E-002  -4.5398784921582506E-003   5.3321861022155324E-002
   2.7818896104791383E-002  -5.9630400524037621E-003   5.9632993843977147E-002
   1.4445223244981039E-002   0.0000000000000000        3.0475957832272402E-002
   1.4102494233010620E-002  -7.7917923297826327E-004   3.7994452370043286E-002
   1.3759765221040200E-002  -1.5358256483380536E-003   4.5589942012364604E-002
   1.3417036209069783E-002  -2.2699392460793716E-003   5.3262426759236370E-002
   1.3074307197099361E-002  -2.9815200262022141E-003   6.1011906610658577E-002
   1.8561541192951836E-016   0.0000000000000000        3.0080735011378579E-002
   1.1796119636642288E-016  -1.5178830414797062E-016   3.7420640316611888E-002
   5.5511151231257827E-017  -3.1745439610375570E-016   4.5369008541235455E-002
  -9.5409791178724390E-018  -4.8225312632155237E-016   5.3925839685249305E-002
  -7.6327832942979512E-017  -6.8174632605888519E-016   6.3091133748653411E-002
   6.2318919051953192E-002  -1.1926080104806844E-002   5.8976111424554577E-002
   5.8808673699788844E-002  -1.4298718654899175E-002   5.4184168803258145E-002
   5.5298428347624502E-002  -1.5814119334668416E-002   5.1233964762550870E-002
   5.1788182995460161E-002  -1.6472282144114593E-002   5.0125499302432867E-002
   4.8277937643295812E-002  -1.6273207083237665E-002   5.0858772422904000E-002
   4.4233766723075996E-002  -8.9445600786053001E-003   5.8954395448609143E-002
   4.2324215640863833E-002  -1.0724038991174595E-002   5.6341773363800987E-002
   4.0414664558651676E-002  -1.1860589501001554E-002   5.5088801238307977E-002
   3.8505113476439513E-002  -1.2354211608086235E-002   5.5195479072130120E-002
   3.6595562394227364E-002  -1.2204905312428543E-002   5.6661806865267408E-002
   2.7818896104791383E-002  -5.9630400524037621E-003   5.9632993843977147E-002
   2.7027950671257364E-002  -7.1493593274500108E-003   5.8985382828076485E-002
   2.6237005237723356E-002  -7.9070596673346937E-003   5.9215333150216910E-002
   2.5446059804189351E-002  -8.2361410720578516E-003   6.0322844810398506E-002
   2.4655114370655328E-002  -8.1366035416194429E-003   6.2307917808621202E-002
   1.3074307197099361E-002  -2.9815200262022141E-003   6.1011906610658577E-002
   1.2919878790969454E-002  -3.5746796637254287E-003   6.2114997196084640E-002
   1.2765450384839548E-002  -3.9535298336678465E-003   6.3613560498277780E-002
   1.2611021978709641E-002  -4.1180705360294393E-003   6.5507596517238004E-002
   1.2456593572579732E-002  -4.0683017708103113E-003   6.7797105252965326E-002
  -7.6327832942979512E-017  -6.8174632605888519E-016   6.3091133748653411E-002
   8.2399365108898337E-017  -8.4914714149064707E-016   6.5730616467825451E-002
   2.4112656316077619E-016  -9.7881772131991340E-016   6.8283483282490537E-002
   3.9811903773667723E-016  -1.1120661683183819E-015   7.0749734192648656E-002
   5.5858095926453188E-016  -1.2073675392798577E-015   7.3129369198299835E-002
   4.8277937643295812E-002  -1.6273207083237665E-002   5.0858772422904000E-002
   4.4860339920312561E-002  -1.6007519630671582E-002   5.0719373386198197E-002
   4.1442742197329317E-002  -1.6465845265050277E-002   5.1135421229142546E-002
   3.8025144474346059E-002  -1.7648183986373630E-002   5.2106915951737137E-002
   3.4607546751362794E-002  -1.9554535794641753E-002   5.3633857553981840E-002
   3.6595562394227364E-002  -1.2204905312428543E-002   5.6661806865267408E-002
   3.3808149688668201E-002  -1.2005639723003989E-002   5.5705561740755277E-002
   3.1020736983109056E-002  -1.2349383948787998E-002   5.5454239771441143E-002
   2.8233324277549904E-002  -1.3236137989780471E-002   5.5907840957325011E-002
   2.5445911571990748E-002  -1.4665901845981599E-002   5.7066365298406876E-002
   2.4655114370655328E-002  -8.1366035416194429E-003   6.2307917808621202E-002
   2.2647362958068094E-002  -8.0037598153364017E-003   6.0715829868038945E-002
   2.0639611545480857E-002  -8.2329226325257489E-003   5.9978141358202515E-002
   1.8631860132893623E-002  -8.8240919931873978E-003   6.0094852279111995E-002
   1.6624108720306389E-002  -9.7772678973214316E-003   6.1065962630767155E-002
   1.2456593572579732E-002  -4.0683017708103113E-003   6.7797105252965326E-002
   1.1377979728512221E-002  -4.0018799076688254E-003   6.5750177768049214E-002
   1.0299365884444715E-002  -4.1164613162634712E-003   6.4707125989426642E-002
   9.2207520403772003E-003  -4.4120459965943234E-003   6.4667949917097733E-002
   8.1421381963096978E-003  -4.8886339486612571E-003   6.5632649551062572E-002
   5.5858095926453188E-016  -1.2073675392798577E-015   7.3129369198299835E-002
   5.9327542878406803E-016  -1.2143064331837650E-015   7.0808605440785946E-002
   6.2623517482762736E-016  -1.2316536679435330E-015   6.9641193665113538E-002
   6.5919492087118670E-016  -1.1683362610703796E-015   6.9627133871282582E-002
   6.9388939039072284E-016  -1.1102230246251565E-015   7.0766426059293008E-002
   3.4607546751362794E-002  -1.9554535794641753E-002   5.3633857553981840E-002
   3.2720459903413865E-002  -2.3081599251170329E-002   5.3669626781216812E-002
   3.0833373055464935E-002  -2.9126072917275016E-002   5.5548665222993190E-002
   2.8946286207515964E-002  -3.7687956792955800E-002   5.9270972879310872E-002
   2.7059199359567021E-002  -4.8767250878212764E-002   6.4836549750169836E-002
   2.5445911571990748E-002  -1.4665901845981599E-002   5.7066365298406876E-002
   2.5059219562944636E-002  -1.7311199438377931E-002   5.4896358544312032E-002
   2.4672527553898524E-002  -2.1844554687956361E-002   5.3883872253481561E-002
   2.4285835544852412E-002  -2.8265967594716886E-002   5.4028906425915305E-002
   2.3899143535806300E-002  -3.6575438158659490E-002   5.5331461061613407E-002
   1.6624108720306389E-002  -9.7772678973214316E-003   6.1065962630767155E-002
   1.7052062798886117E-002  -1.1540799625585636E-002   5.7319532447736410E-002
   1.7480016877465851E-002  -1.4563036458637785E-002   5.4044873976693067E-002
   1.7907970956045599E-002  -1.8843978396478011E-002   5.1241987217637154E-002
   1.8335925034625319E-002  -2.4383625439106160E-002   4.8910872170568442E-002
   8.1421381963096978E-003  -4.8886339486612571E-003   6.5632649551062572E-002
   8.6989896112383142E-003  -5.7703998127933177E-003   6.0939148491490069E-002
   9.2558410261669305E-003  -7.2815182293192258E-003   5.6031670392627908E-002
   9.8126924410955364E-003  -9.4219891982390332E-003   5.0910215254476136E-002
   1.0369543856024160E-002  -1.2191812719552886E-002   4.5574783077034949E-002
   6.9388939039072284E-016  -1.1102230246251565E-015   7.0766426059293008E-002
   1.2143064331837650E-015  -9.5756735873919752E-016   6.5755206675572830E-002
   1.7243151351209463E-015  -6.1062266354383610E-016   5.9844261501286133E-002
   2.2360585605341043E-015  -1.8041124150158794E-016   5.3033590536432723E-002
   2.7616797737550769E-015   4.4408920985006262E-016   4.5323193781012794E-002
   1.8561541192951836E-016   0.0000000000000000        3.0080735011378579E-002
   1.1796119636642288E-016  -1.5178830414797062E-016   3.7420640316611888E-002
   5.5511151231257827E-017  -3.1745439610375570E-016   4.5369008541235455E-002
  -9.5409791178724390E-018  -4.8225312632155237E-016   5.3925839685249305E-002
  -7.6327832942979512E-017  -6.8174632605888519E-016   6.3091133748653411E-002
  -1.4445223244980652E-002   0.0000000000000000        3.0475957832272117E-002
  -1.4102494233010378E-002   7.7917923297798983E-004   3.7994452370043008E-002
  -1.3759765221040100E-002   1.5358256483375132E-003   4.5589942012364305E-002
  -1.3417036209069819E-002   2.2699392460785650E-003   5.3262426759236030E-002
  -1.3074307197099549E-002   2.9815200262011451E-003   6.1011906610658168E-002
  -2.8434856941194749E-002   0.0000000000000000        3.1661626294953032E-002
  -2.8280866732093971E-002   1.5583584659561341E-003   3.9336177247643038E-002
  -2.8126876522993203E-002   3.0716512966753396E-003   4.6556255490043628E-002
  -2.7972886313892439E-002   4.5398784921576122E-003   5.3321861022154769E-002
  -2.7818896104791664E-002   5.9630400524029520E-003   5.9632993843976481E-002
  -4.1968901088642090E-002   0.0000000000000000        3.3637740399421322E-002
  -4.2535117497250682E-002   2.3375376989342800E-003   4.1445814949411991E-002
  -4.3101333905859261E-002   4.6074769450131694E-003   4.8267948974273368E-002
  -4.3667550314467854E-002   6.8098177382366542E-003   5.4104142474005468E-002
  -4.4233766723076440E-002   8.9445600786047727E-003   5.8954395448608303E-002
  -5.5047355687322691E-002   0.0000000000000000        3.6404300145676985E-002
  -5.6865246528480490E-002   3.1167169319124225E-003   4.4323365475349853E-002
  -5.8683137369638282E-002   6.1433025933509949E-003   5.0725022465053587E-002
  -6.0501028210796080E-002   9.0797569843157084E-003   5.5609271114788195E-002
  -6.2318919051953865E-002   1.1926080104806579E-002   5.8976111424553661E-002
  -7.6327832942979512E-017  -6.8174632605888519E-016   6.3091133748653411E-002
   8.2399365108898337E-017  -8.4914714149064707E-016   6.5730616467825451E-002
   2.4112656316077619E-016  -9.7881772131991340E-016   6.8283483282490537E-002
   3.9811903773667723E-016  -1.1120661683183819E-015   7.0749734192648656E-002
   5.5858095926453188E-016  -1.2073675392798577E-015   7.3129369198299835E-002
  -1.3074307197099549E-002   2.9815200262011451E-003   6.1011906610658168E-002
  -1.2919878790969312E-002   3.5746796637240777E-003   6.2114997196084189E-002
  -1.2765450384839071E-002   3.9535298336662392E-003   6.3613560498277363E-002
  -1.2611021978708831E-002   4.1180705360275589E-003   6.5507596517237587E-002
  -1.2456593572578598E-002   4.0683017708081082E-003   6.7797105252964951E-002
  -2.7818896104791664E-002   5.9630400524029520E-003   5.9632993843976481E-002
  -2.7027950671257281E-002   7.1493593274490046E-003   5.8985382828075673E-002
  -2.6237005237722908E-002   7.9070596673334569E-003   5.9215333150216029E-002
  -2.5446059804188525E-002   8.2361410720562366E-003   6.0322844810397583E-002
  -2.4655114370654142E-002   8.1366035416174168E-003   6.2307917808620314E-002
  -4.4233766723076440E-002   8.9445600786047727E-003   5.8954395448608303E-002
  -4.2324215640863840E-002   1.0724038991173947E-002   5.6341773363799828E-002
  -4.0414664558651267E-002   1.1860589501000647E-002   5.5088801238306624E-002
  -3.8505113476438674E-002   1.2354211608084930E-002   5.5195479072128587E-002
  -3.6595562394226087E-002   1.2204905312426701E-002   5.6661806865265882E-002
  -6.2318919051953865E-002   1.1926080104806579E-002   5.8976111424553661E-002
  -5.8808673699788996E-002   1.4298718654898856E-002   5.4184168803256702E-002
  -5.5298428347624141E-002   1.5814119334667892E-002   5.1233964762549045E-002
  -5.1788182995459280E-002   1.6472282144113580E-002   5.0125499302430696E-002
  -4.8277937643294411E-002   1.6273207083236027E-002   5.0858772422901655E-002
   5.5858095926453188E-016  -1.2073675392798577E-015   7.3129369198299835E-002
   5.9327542878406803E-016  -1.2143064331837650E-015   7.0808605440785946E-002
   6.2623517482762736E-016  -1.2316536679435330E-015   6.9641193665113538E-002
   6.5919492087118670E-016  -1.1683362610703796E-015   6.9627133871282582E-002
   6.9388939039072284E-016  -1.1102230246251565E-015   7.0766426059293008E-002
  -1.2456593572578598E-002   4.0683017708081082E-003   6.7797105252964951E-002
  -1.1377979728511022E-002   4.0018799076664037E-003   6.5750177768048965E-002
  -1.0299365884443433E-002   4.1164613162609984E-003   6.4707125989426642E-002
  -9.2207520403758576E-003   4.4120459965918315E-003   6.4667949917097928E-002
  -8.1421381963082719E-003   4.8886339486590713E-003   6.5632649551062891E-002
  -2.4655114370654142E-002   8.1366035416174168E-003   6.2307917808620314E-002
  -2.2647362958066825E-002   8.0037598153340390E-003   6.0715829868038466E-002
  -2.0639611545479504E-002   8.2329226325232267E-003   5.9978141358202446E-002
  -1.8631860132892183E-002   8.8240919931849553E-003   6.0094852279112265E-002
  -1.6624108720304870E-002   9.7772678973192806E-003   6.1065962630767925E-002
  -3.6595562394226087E-002   1.2204905312426701E-002   5.6661806865265882E-002
  -3.3808149688666828E-002   1.2005639723001693E-002   5.5705561740754403E-002
  -3.1020736983107575E-002   1.2349383948785497E-002   5.5454239771440955E-002
  -2.8233324277548325E-002   1.3236137989778046E-002   5.5907840957325539E-002
  -2.5445911571989062E-002   1.4665901845979504E-002   5.7066365298408139E-002
  -4.8277937643294411E-002   1.6273207083236027E-002   5.0858772422901655E-002
  -4.4860339920311035E-002   1.6007519630669285E-002   5.0719373386196837E-002
  -4.1442742197327645E-002   1.6465845265047695E-002   5.1135421229142240E-002
  -3.8025144474344269E-002   1.7648183986371111E-002   5.2106915951737887E-002
  -3.4607546751360879E-002   1.9554535794639671E-002   5.3633857553983699E-002
   6.9388939039072284E-016  -1.1102230246251565E-015   7.0766426059293008E-002
   1.2143064331837650E-015  -9.5756735873919752E-016   6.5755206675572830E-002
   1.7243151351209463E-015  -6.1062266354383610E-016   5.9844261501286133E-002
   2.2360585605341043E-015  -1.8041124150158794E-016   5.3033590536432723E-002
   2.7616797737550769E-015   4.4408920985006262E-016   4.5323193781012794E-002
  -8.1421381963082719E-003   4.8886339486590713E-003   6.5632649551062891E-002
  -8.6989896112360313E-003   5.7703998127914824E-003   6.0939148491490513E-002
  -9.2558410261637854E-003   7.2815182293180375E-003   5.6031670392628193E-002
  -9.8126924410915275E-003   9.4219891982386429E-003   5.0910215254475810E-002
  -1.0369543856019313E-002   1.2191812719553385E-002   4.5574783077033665E-002
  -1.6624108720304870E-002   9.7772678973192806E-003   6.1065962630767925E-002
  -1.7052062798884271E-002   1.1540799625583929E-002   5.7319532447737326E-002
  -1.7480016877463676E-002   1.4563036458636630E-002   5.4044873976693372E-002
  -1.7907970956043084E-002   1.8843978396477466E-002   5.1241987217636203E-002
  -1.8335925034622481E-002   2.4383625439106271E-002   4.8910872170565528E-002
  -2.5445911571989062E-002   1.4665901845979504E-002   5.7066365298408139E-002
  -2.5059219562943498E-002   1.7311199438376373E-002   5.4896358544313378E-002
  -2.4672527553897924E-002   2.1844554687955195E-002   5.3883872253481853E-002
  -2.4285835544852346E-002   2.8265967594716179E-002   5.4028906425913473E-002
  -2.3899143535806806E-002   3.6575438158659129E-002   5.5331461061608682E-002
  -3.4607546751360879E-002   1.9554535794639671E-002   5.3633857553983699E-002
  -3.2720459903413719E-002   2.3081599251168788E-002   5.3669626781218616E-002
  -3.0833373055466559E-002   2.9126072917273871E-002   5.5548665222993482E-002
  -2.8946286207519392E-002   3.7687956792955057E-002   5.9270972879308145E-002
  -2.7059199359572225E-002   4.8767250878212098E-002   6.4836549750162842E-002
  -5.5047355687322691E-002   0.0000000000000000        3.6404300145676985E-002
  -5.6865246528480490E-002   3.1167169319124225E-003   4.4323365475349853E-002
  -5.8683137369638282E-002   6.1433025933509949E-003   5.0725022465053587E-002
  -6.0501028210796080E-002   9.0797569843157084E-003   5.5609271114788195E-002
  -6.2318919051953865E-002   1.1926080104806579E-002   5.8976111424553661E-002
  -7.2354572721962315E-002   0.0000000000000000        4.2756436572484541E-002
  -7.4343545433834937E-002   8.3873824048082204E-003   4.1908540433832436E-002
  -7.6332518145707559E-002   1.4464549046301345E-002   4.2235888893719820E-002
  -7.8321490857580167E-002   1.8231499924479373E-002   4.3738481952146677E-002
  -8.0310463569452803E-002   1.9688235039342299E-002   4.6416319609112994E-002
  -9.8574904177286718E-002   0.0000000000000000        5.5489280718608522E-002
  -9.8042305821365569E-002   1.3658047877704024E-002   4.3654338618790214E-002
  -9.7509707465444420E-002   2.2785795499251704E-002   3.5687294056019982E-002
  -9.6977109109523271E-002   2.7383242864643026E-002   3.1588147030297817E-002
  -9.6444510753602108E-002   2.7450389973878022E-002   3.1356897541623734E-002
 -0.13370835005329593        0.0000000000000000        7.4602832584048942E-002
 -0.12796152769107241        1.8928713350599820E-002   4.9560760030223160E-002
 -0.12221470532884889        3.1107041952202052E-002   3.1079237951954070E-002
 -0.11646788296662533        3.6534985804806686E-002   1.9158266349241674E-002
 -0.11072106060440182        3.5212544908413773E-002   1.3797845222085927E-002
 -0.17775491034998994        0.0000000000000000       0.10009709216880576     
 -0.16410121104295541        2.4199378823495626E-002   5.9627804668131293E-002
 -0.15044751173592091        3.9428288405152417E-002   2.8411720581522110E-002
 -0.13679381242888639        4.5686728744970359E-002   6.4488399089782100E-003
 -0.12314011312185187        4.2974699842949465E-002  -6.2608373495004060E-003
  -6.2318919051953865E-002   1.1926080104806579E-002   5.8976111424553661E-002
  -5.8808673699788996E-002   1.4298718654898856E-002   5.4184168803256702E-002
  -5.5298428347624141E-002   1.5814119334667892E-002   5.1233964762549045E-002
  -5.1788182995459280E-002   1.6472282144113580E-002   5.0125499302430696E-002
  -4.8277937643294411E-002   1.6273207083236027E-002   5.0858772422901655E-002
  -8.0310463569452803E-002   1.9688235039342299E-002   4.6416319609112994E-002
  -7.5324966226979095E-002   1.9913888763599268E-002   4.2610795286775111E-002
  -7.0339468884505416E-002   1.9987595469959409E-002   3.9914036364465610E-002
  -6.5353971542031722E-002   1.9909355158422733E-002   3.8326042842184486E-002
  -6.0368474199558007E-002   1.9679167828989236E-002   3.7846814719931697E-002
  -9.6444510753602108E-002   2.7450389973878022E-002   3.1356897541623734E-002
  -9.0716734601380522E-002   2.5529058872299656E-002   2.9243082370671438E-002
  -8.4988958449158949E-002   2.4161071605250939E-002   2.7505059419186559E-002
  -7.9261182296937377E-002   2.3346428172731869E-002   2.6142828687169124E-002
  -7.3533406144715777E-002   2.3085128574742451E-002   2.5156390174619066E-002
 -0.11072106060440182        3.5212544908413773E-002   1.3797845222085927E-002
 -0.10498397882299326        3.1144228981000090E-002   1.4081030054945680E-002
  -9.9246897041584736E-002   2.8334547740542483E-002   1.4007033926711867E-002
  -9.3509815260176210E-002   2.6783501187040974E-002   1.3575856837384605E-002
  -8.7772733478767642E-002   2.6491089320495705E-002   1.2787498786963693E-002
 -0.12314011312185187        4.2974699842949465E-002  -6.2608373495004060E-003
 -0.11812669889181732        3.6759399089700433E-002  -2.8753616604022085E-003
 -0.11311328466178280        3.2508023875833979E-002  -5.8004011295840693E-004
 -0.10809987043174828        3.0220574201350166E-002   6.2512729283094055E-004
 -0.10308645620171372        2.9897050066248904E-002   7.4014055696575154E-004
  -4.8277937643294411E-002   1.6273207083236027E-002   5.0858772422901655E-002
  -4.4860339920311035E-002   1.6007519630669285E-002   5.0719373386196837E-002
  -4.1442742197327645E-002   1.6465845265047695E-002   5.1135421229142240E-002
  -3.8025144474344269E-002   1.7648183986371111E-002   5.2106915951737887E-002
  -3.4607546751360879E-002   1.9554535794639671E-002   5.3633857553983699E-002
  -6.0368474199558007E-002   1.9679167828989236E-002   3.7846814719931697E-002
  -5.6393922377949483E-002   1.9536503581364304E-002   3.7160030647537173E-002
  -5.2419370556340938E-002   1.9720832515253285E-002   3.7031707892742752E-002
  -4.8444818734732428E-002   2.0232154630656293E-002   3.7461846455548321E-002
  -4.4470266913123876E-002   2.1070469927573221E-002   3.8450446335954097E-002
  -7.3533406144715777E-002   2.3085128574742451E-002   2.5156390174619066E-002
  -6.8998885786532224E-002   2.3065487532059292E-002   2.3525201161103682E-002
  -6.4464365428348699E-002   2.2975819765458989E-002   2.2455487903138310E-002
  -5.9929845070165154E-002   2.2816125274941534E-002   2.1947250400722762E-002
  -5.5395324711981601E-002   2.2586404060506854E-002   2.2000488653857259E-002
  -8.7772733478767642E-002   2.6491089320495705E-002   1.2787498786963693E-002
  -8.2675230146059278E-002   2.6594471482754213E-002   9.8148849268963959E-003
  -7.7577726813350872E-002   2.6230807015664607E-002   7.4067612603290305E-003
  -7.2480223480642453E-002   2.5400095919226512E-002   5.5631277872612329E-003
  -6.7382720147934089E-002   2.4102338193440473E-002   4.2839845076933763E-003
 -0.10308645620171372        2.9897050066248904E-002   7.4014055696575154E-004
  -9.7422955456530597E-002   3.0123455433449201E-002  -3.9709180550846351E-003
  -9.1759454711347485E-002   2.9485794265870273E-002  -8.1144720356852579E-003
  -8.6095953966164374E-002   2.7984066563511850E-002  -1.1690521384836349E-002
  -8.0432453220981248E-002   2.5618272326373981E-002  -1.4699066102537683E-002
  -3.4607546751360879E-002   1.9554535794639671E-002   5.3633857553983699E-002
  -3.2720459903413719E-002   2.3081599251168788E-002   5.3669626781218616E-002
  -3.0833373055466559E-002   2.9126072917273871E-002   5.5548665222993482E-002
  -2.8946286207519392E-002   3.7687956792955057E-002   5.9270972879308145E-002
  -2.7059199359572225E-002   4.8767250878212098E-002   6.4836549750162842E-002
  -4.4470266913123876E-002   2.1070469927573221E-002   3.8450446335954097E-002
  -4.1224390850031149E-002   2.3553144448992758E-002   3.9678965665233545E-002
  -3.7978514786938422E-002   2.8997544237903655E-002   4.1781794210264164E-002
  -3.4732638723845667E-002   3.7403669294305504E-002   4.4758931971046252E-002
  -3.1486762660752947E-002   4.8771519618198700E-002   4.8610378947579191E-002
  -5.5395324711981601E-002   2.2586404060506854E-002   2.2000488653857259E-002
  -5.1759619432531989E-002   2.4024689646816796E-002   2.4866073143096523E-002
  -4.8123914153082342E-002   2.8869015558533273E-002   2.7637006849298235E-002
  -4.4488208873632744E-002   3.7119381795656076E-002   3.0313289772462469E-002
  -4.0852503594183076E-002   4.8775788358185357E-002   3.2894921912589414E-002
  -6.7382720147934089E-002   2.4102338193440473E-002   4.2839845076933763E-003
  -6.4326145650916239E-002   2.4496234844640939E-002   9.2309492148076010E-003
  -6.1269571153898431E-002   2.8740486879162946E-002   1.3114303140095457E-002
  -5.8212996656880650E-002   3.6835094297006696E-002   1.5934046283557362E-002
  -5.5156422159862772E-002   4.8780057098172042E-002   1.7690178645192969E-002
  -8.0432453220981248E-002   2.5618272326373981E-002  -1.4699066102537683E-002
  -7.8923969505183933E-002   2.4967780042464804E-002  -7.2264061196334328E-003
  -7.7415485789386562E-002   2.8611958199792856E-002  -1.7863169173438775E-003
  -7.5907002073589247E-002   3.6550806798357219E-002   1.6212015043308714E-003
  -7.4398518357791876E-002   4.8784325838158615E-002   2.9961491453905920E-003
 </DataArray>
 </PointData>
 </Piece>
 <Piece  NumberOfPoints="           400 "  NumberOfCells="          256 ">
 <Points>
 <DataArray  type="Float64" NumberOfComponents="3"  format="ascii" >
  0.50000000000000000        0.0000000000000000        0.0000000000000000     
  0.56250000000000000        0.0000000000000000        0.0000000000000000     
  0.62500000000000000        0.0000000000000000        0.0000000000000000     
  0.68750000000000000        0.0000000000000000        0.0000000000000000     
  0.75000000000000000        0.0000000000000000        0.0000000000000000     
  0.50000000000000000        6.2500000000000000E-002   0.0000000000000000     
  0.56250000000000000        6.2500000000000000E-002   0.0000000000000000     
  0.62500000000000000        6.2500000000000000E-002   0.0000000000000000     
  0.68750000000000000        6.2500000000000000E-002   0.0000000000000000     
  0.75000000000000000        6.2500000000000000E-002   0.0000000000000000     
  0.50000000000000000       0.12500000000000000        0.0000000000000000     
  0.56250000000000000       0.12500000000000000        0.0000000000000000     
  0.62500000000000000       0.12500000000000000        0.0000000000000000     
  0.68750000000000000       0.12500000000000000        0.0000000000000000     
  0.75000000000000000       0.12500000000000000        0.0000000000000000     
  0.50000000000000000       0.18750000000000000        0.0000000000000000     
  0.56250000000000000       0.18750000000000000        0.0000000000000000     
  0.62500000000000000       0.18750000000000000        0.0000000000000000     
  0.68750000000000000       0.18750000000000000        0.0000000000000000     
  0.75000000000000000       0.18750000000000000        0.0000000000000000     
  0.50000000000000000       0.25000000000000000        0.0000000000000000     
  0.56250000000000000       0.25000000000000000        0.0000000000000000     
  0.62500000000000000       0.25000000000000000        0.0000000000000000     
  0.68750000000000000       0.25000000000000000        0.0000000000000000     
  0.75000000000000000       0.25000000000000000        0.0000000000000000     
  0.75000000000000000        0.0000000000000000        0.0000000000000000     
  0.81250000000000000        0.0000000000000000        0.0000000000000000     
  0.87500000000000000        0.0000000000000000        0.0000000000000000     
  0.93750000000000000        0.0000000000000000        0.0000000000000000     
   1.0000000000000000        0.0000000000000000        0.0000000000000000     
  0.75000000000000000        6.2500000000000000E-002   0.0000000000000000     
  0.81250000000000000        6.2500000000000000E-002   0.0000000000000000     
  0.87500000000000000        6.2500000000000000E-002   0.0000000000000000     
  0.93750000000000000        6.2500000000000000E-002   0.0000000000000000     
   1.0000000000000000        6.2500000000000000E-002   0.0000000000000000     
  0.75000000000000000       0.12500000000000000        0.0000000000000000     
  0.81250000000000000       0.12500000000000000        0.0000000000000000     
  0.87500000000000000       0.12500000000000000        0.0000000000000000     
  0.93750000000000000       0.12500000000000000        0.0000000000000000     
   1.0000000000000000       0.12500000000000000        0.0000000000000000     
  0.75000000000000000       0.18750000000000000        0.0000000000000000     
  0.81250000000000000       0.18750000000000000        0.0000000000000000     
  0.87500000000000000       0.18750000000000000        0.0000000000000000     
  0.93750000000000000       0.18750000000000000        0.0000000000000000     
   1.0000000000000000       0.18750000000000000        0.0000000000000000     
  0.75000000000000000       0.25000000000000000        0.0000000000000000     
  0.81250000000000000       0.25000000000000000        0.0000000000000000     
  0.87500000000000000       0.25000000000000000        0.0000000000000000     
  0.93750000000000000       0.25000000000000000        0.0000000000000000     
   1.0000000000000000       0.25000000000000000        0.0000000000000000     
   1.0000000000000000        0.0000000000000000        0.0000000000000000     
   1.0625000000000000        0.0000000000000000        0.0000000000000000     
   1.1250000000000000        0.0000000000000000        0.0000000000000000     
   1.1875000000000000        0.0000000000000000        0.0000000000000000     
   1.2500000000000000        0.0000000000000000        0.0000000000000000     
   1.0000000000000000        6.2500000000000000E-002   0.0000000000000000     
   1.0625000000000000        6.2500000000000000E-002   0.0000000000000000     
   1.1250000000000000        6.2500000000000000E-002   0.0000000000000000     
   1.1875000000000000        6.2500000000000000E-002   0.0000000000000000     
   1.2500000000000000        6.2500000000000000E-002   0.0000000000000000     
   1.0000000000000000       0.12500000000000000        0.0000000000000000     
   1.0625000000000000       0.12500000000000000        0.0000000000000000     
   1.1250000000000000       0.12500000000000000        0.0000000000000000     
   1.1875000000000000       0.12500000000000000        0.0000000000000000     
   1.2500000000000000       0.12500000000000000        0.0000000000000000     
   1.0000000000000000       0.18750000000000000        0.0000000000000000     
   1.0625000000000000       0.18750000000000000        0.0000000000000000     
   1.1250000000000000       0.18750000000000000        0.0000000000000000     
   1.1875000000000000       0.18750000000000000        0.0000000000000000     
   1.2500000000000000       0.18750000000000000        0.0000000000000000     
   1.0000000000000000       0.25000000000000000        0.0000000000000000     
   1.0625000000000000       0.25000000000000000        0.0000000000000000     
   1.1250000000000000       0.25000000000000000        0.0000000000000000     
   1.1875000000000000       0.25000000000000000        0.0000000000000000     
   1.2500000000000000       0.25000000000000000        0.0000000000000000     
   1.2500000000000000        0.0000000000000000        0.0000000000000000     
   1.3125000000000000        0.0000000000000000        0.0000000000000000     
   1.3750000000000000        0.0000000000000000        0.0000000000000000     
   1.4375000000000000        0.0000000000000000        0.0000000000000000     
   1.5000000000000000        0.0000000000000000        0.0000000000000000     
   1.2500000000000000        6.2500000000000000E-002   0.0000000000000000     
   1.3125000000000000        6.2500000000000000E-002   0.0000000000000000     
   1.3750000000000000        6.2500000000000000E-002   0.0000000000000000     
   1.4375000000000000        6.2500000000000000E-002   0.0000000000000000     
   1.5000000000000000        6.2500000000000000E-002   0.0000000000000000     
   1.2500000000000000       0.12500000000000000        0.0000000000000000     
   1.3125000000000000       0.12500000000000000        0.0000000000000000     
   1.3750000000000000       0.12500000000000000        0.0000000000000000     
   1.4375000000000000       0.12500000000000000        0.0000000000000000     
   1.5000000000000000       0.12500000000000000        0.0000000000000000     
   1.2500000000000000       0.18750000000000000        0.0000000000000000     
   1.3125000000000000       0.18750000000000000        0.0000000000000000     
   1.3750000000000000       0.18750000000000000        0.0000000000000000     
   1.4375000000000000       0.18750000000000000        0.0000000000000000     
   1.5000000000000000       0.18750000000000000        0.0000000000000000     
   1.2500000000000000       0.25000000000000000        0.0000000000000000     
   1.3125000000000000       0.25000000000000000        0.0000000000000000     
   1.3750000000000000       0.25000000000000000        0.0000000000000000     
   1.4375000000000000       0.25000000000000000        0.0000000000000000     
   1.5000000000000000       0.25000000000000000        0.0000000000000000     
  0.50000000000000000       0.25000000000000000        0.0000000000000000     
  0.56250000000000000       0.25000000000000000        0.0000000000000000     
  0.62500000000000000       0.25000000000000000        0.0000000000000000     
  0.68750000000000000       0.25000000000000000        0.0000000000000000     
  0.75000000000000000       0.25000000000000000        0.0000000000000000     
  0.50000000000000000       0.31250000000000000        0.0000000000000000     
  0.56250000000000000       0.31250000000000000        0.0000000000000000     
  0.62500000000000000       0.31250000000000000        0.0000000000000000     
  0.68750000000000000       0.31250000000000000        0.0000000000000000     
  0.75000000000000000       0.31250000000000000        0.0000000000000000     
  0.50000000000000000       0.37500000000000000        0.0000000000000000     
  0.56250000000000000       0.37500000000000000        0.0000000000000000     
  0.62500000000000000       0.37500000000000000        0.0000000000000000     
  0.68750000000000000       0.37500000000000000        0.0000000000000000     
  0.75000000000000000       0.37500000000000000        0.0000000000000000     
  0.50000000000000000       0.43750000000000000        0.0000000000000000     
  0.56250000000000000       0.43750000000000000        0.0000000000000000     
  0.62500000000000000       0.43750000000000000        0.0000000000000000     
  0.68750000000000000       0.43750000000000000        0.0000000000000000     
  0.75000000000000000       0.43750000000000000        0.0000000000000000     
  0.50000000000000000       0.50000000000000000        0.0000000000000000     
  0.56250000000000000       0.50000000000000000        0.0000000000000000     
  0.62500000000000000       0.50000000000000000        0.0000000000000000     
  0.68750000000000000       0.50000000000000000        0.0000000000000000     
  0.75000000000000000       0.50000000000000000        0.0000000000000000     
  0.75000000000000000       0.25000000000000000        0.0000000000000000     
  0.81250000000000000       0.25000000000000000        0.0000000000000000     
  0.87500000000000000       0.25000000000000000        0.0000000000000000     
  0.93750000000000000       0.25000000000000000        0.0000000000000000     
   1.0000000000000000       0.25000000000000000        0.0000000000000000     
  0.75000000000000000       0.31250000000000000        0.0000000000000000     
  0.81250000000000000       0.31250000000000000        0.0000000000000000     
  0.87500000000000000       0.31250000000000000        0.0000000000000000     
  0.93750000000000000       0.31250000000000000        0.0000000000000000     
   1.0000000000000000       0.31250000000000000        0.0000000000000000     
  0.75000000000000000       0.37500000000000000        0.0000000000000000     
  0.81250000000000000       0.37500000000000000        0.0000000000000000     
  0.87500000000000000       0.37500000000000000        0.0000000000000000     
  0.93750000000000000       0.37500000000000000        0.0000000000000000     
   1.0000000000000000       0.37500000000000000        0.0000000000000000     
  0.75000000000000000       0.43750000000000000        0.0000000000000000     
  0.81250000000000000       0.43750000000000000        0.0000000000000000     
  0.87500000000000000       0.43750000000000000        0.0000000000000000     
  0.93750000000000000       0.43750000000000000        0.0000000000000000     
   1.0000000000000000       0.43750000000000000        0.0000000000000000     
  0.75000000000000000       0.50000000000000000        0.0000000000000000     
  0.81250000000000000       0.50000000000000000        0.0000000000000000     
  0.87500000000000000       0.50000000000000000        0.0000000000000000     
  0.93750000000000000       0.50000000000000000        0.0000000000000000     
   1.0000000000000000       0.50000000000000000        0.0000000000000000     
   1.0000000000000000       0.25000000000000000        0.0000000000000000     
   1.0625000000000000       0.25000000000000000        0.0000000000000000     
   1.1250000000000000       0.25000000000000000        0.0000000000000000     
   1.1875000000000000       0.25000000000000000        0.0000000000000000     
   1.2500000000000000       0.25000000000000000        0.0000000000000000     
   1.0000000000000000       0.31250000000000000        0.0000000000000000     
   1.0625000000000000       0.31250000000000000        0.0000000000000000     
   1.1250000000000000       0.31250000000000000        0.0000000000000000     
   1.1875000000000000       0.31250000000000000        0.0000000000000000     
   1.2500000000000000       0.31250000000000000        0.0000000000000000     
   1.0000000000000000       0.37500000000000000        0.0000000000000000     
   1.0625000000000000       0.37500000000000000        0.0000000000000000     
   1.1250000000000000       0.37500000000000000        0.0000000000000000     
   1.1875000000000000       0.37500000000000000        0.0000000000000000     
   1.2500000000000000       0.37500000000000000        0.0000000000000000     
   1.0000000000000000       0.43750000000000000        0.0000000000000000     
   1.0625000000000000       0.43750000000000000        0.0000000000000000     
   1.1250000000000000       0.43750000000000000        0.0000000000000000     
   1.1875000000000000       0.43750000000000000        0.0000000000000000     
   1.2500000000000000       0.43750000000000000        0.0000000000000000     
   1.0000000000000000       0.50000000000000000        0.0000000000000000     
   1.0625000000000000       0.50000000000000000        0.0000000000000000     
   1.1250000000000000       0.50000000000000000        0.0000000000000000     
   1.1875000000000000       0.50000000000000000        0.0000000000000000     
   1.2500000000000000       0.50000000000000000        0.0000000000000000     
   1.2500000000000000       0.25000000000000000        0.0000000000000000     
   1.3125000000000000       0.25000000000000000        0.0000000000000000     
   1.3750000000000000       0.25000000000000000        0.0000000000000000     
   1.4375000000000000       0.25000000000000000        0.0000000000000000     
   1.5000000000000000       0.25000000000000000        0.0000000000000000     
   1.2500000000000000       0.31250000000000000        0.0000000000000000     
   1.3125000000000000       0.31250000000000000        0.0000000000000000     
   1.3750000000000000       0.31250000000000000        0.0000000000000000     
   1.4375000000000000       0.31250000000000000        0.0000000000000000     
   1.5000000000000000       0.31250000000000000        0.0000000000000000     
   1.2500000000000000       0.37500000000000000        0.0000000000000000     
   1.3125000000000000       0.37500000000000000        0.0000000000000000     
   1.3750000000000000       0.37500000000000000        0.0000000000000000     
   1.4375000000000000       0.37500000000000000        0.0000000000000000     
   1.5000000000000000       0.37500000000000000        0.0000000000000000     
   1.2500000000000000       0.43750000000000000        0.0000000000000000     
   1.3125000000000000       0.43750000000000000        0.0000000000000000     
   1.3750000000000000       0.43750000000000000        0.0000000000000000     
   1.4375000000000000       0.43750000000000000        0.0000000000000000     
   1.5000000000000000       0.43750000000000000        0.0000000000000000     
   1.2500000000000000       0.50000000000000000        0.0000000000000000     
   1.3125000000000000       0.50000000000000000        0.0000000000000000     
   1.3750000000000000       0.50000000000000000        0.0000000000000000     
   1.4375000000000000       0.50000000000000000        0.0000000000000000     
   1.5000000000000000       0.50000000000000000        0.0000000000000000     
  0.50000000000000000       0.50000000000000000        0.0000000000000000     
  0.56250000000000000       0.50000000000000000        0.0000000000000000     
  0.62500000000000000       0.50000000000000000        0.0000000000000000     
  0.68750000000000000       0.50000000000000000        0.0000000000000000     
  0.75000000000000000       0.50000000000000000        0.0000000000000000     
  0.50000000000000000       0.56250000000000000        0.0000000000000000     
  0.56250000000000000       0.56250000000000000        0.0000000000000000     
  0.62500000000000000       0.56250000000000000        0.0000000000000000     
  0.68750000000000000       0.56250000000000000        0.0000000000000000     
  0.75000000000000000       0.56250000000000000        0.0000000000000000     
  0.50000000000000000       0.62500000000000000        0.0000000000000000     
  0.56250000000000000       0.62500000000000000        0.0000000000000000     
  0.62500000000000000       0.62500000000000000        0.0000000000000000     
  0.68750000000000000       0.62500000000000000        0.0000000000000000     
  0.75000000000000000       0.62500000000000000        0.0000000000000000     
  0.50000000000000000       0.68750000000000000        0.0000000000000000     
  0.56250000000000000       0.68750000000000000        0.0000000000000000     
  0.62500000000000000       0.68750000000000000        0.0000000000000000     
  0.68750000000000000       0.68750000000000000        0.0000000000000000     
  0.75000000000000000       0.68750000000000000        0.0000000000000000     
  0.50000000000000000       0.75000000000000000        0.0000000000000000     
  0.56250000000000000       0.75000000000000000        0.0000000000000000     
  0.62500000000000000       0.75000000000000000        0.0000000000000000     
  0.68750000000000000       0.75000000000000000        0.0000000000000000     
  0.75000000000000000       0.75000000000000000        0.0000000000000000     
  0.75000000000000000       0.50000000000000000        0.0000000000000000     
  0.81250000000000000       0.50000000000000000        0.0000000000000000     
  0.87500000000000000       0.50000000000000000        0.0000000000000000     
  0.93750000000000000       0.50000000000000000        0.0000000000000000     
   1.0000000000000000       0.50000000000000000        0.0000000000000000     
  0.75000000000000000       0.56250000000000000        0.0000000000000000     
  0.81250000000000000       0.56250000000000000        0.0000000000000000     
  0.87500000000000000       0.56250000000000000        0.0000000000000000     
  0.93750000000000000       0.56250000000000000        0.0000000000000000     
   1.0000000000000000       0.56250000000000000        0.0000000000000000     
  0.75000000000000000       0.62500000000000000        0.0000000000000000     
  0.81250000000000000       0.62500000000000000        0.0000000000000000     
  0.87500000000000000       0.62500000000000000        0.0000000000000000     
  0.93750000000000000       0.62500000000000000        0.0000000000000000     
   1.0000000000000000       0.62500000000000000        0.0000000000000000     
  0.75000000000000000       0.68750000000000000        0.0000000000000000     
  0.81250000000000000       0.68750000000000000        0.0000000000000000     
  0.87500000000000000       0.68750000000000000        0.0000000000000000     
  0.93750000000000000       0.68750000000000000        0.0000000000000000     
   1.0000000000000000       0.68750000000000000        0.0000000000000000     
  0.75000000000000000       0.75000000000000000        0.0000000000000000     
  0.81250000000000000       0.75000000000000000        0.0000000000000000     
  0.87500000000000000       0.75000000000000000        0.0000000000000000     
  0.93750000000000000       0.75000000000000000        0.0000000000000000     
   1.0000000000000000       0.75000000000000000        0.0000000000000000     
   1.0000000000000000       0.50000000000000000        0.0000000000000000     
   1.0625000000000000       0.50000000000000000        0.0000000000000000     
   1.1250000000000000       0.50000000000000000        0.0000000000000000     
   1.1875000000000000       0.50000000000000000        0.0000000000000000     
   1.2500000000000000       0.50000000000000000        0.0000000000000000     
   1.0000000000000000       0.56250000000000000        0.0000000000000000     
   1.0625000000000000       0.56250000000000000        0.0000000000000000     
   1.1250000000000000       0.56250000000000000        0.0000000000000000     
   1.1875000000000000       0.56250000000000000        0.0000000000000000     
   1.2500000000000000       0.56250000000000000        0.0000000000000000     
   1.0000000000000000       0.62500000000000000        0.0000000000000000     
   1.0625000000000000       0.62500000000000000        0.0000000000000000     
   1.1250000000000000       0.62500000000000000        0.0000000000000000     
   1.1875000000000000       0.62500000000000000        0.0000000000000000     
   1.2500000000000000       0.62500000000000000        0.0000000000000000     
   1.0000000000000000       0.68750000000000000        0.0000000000000000     
   1.0625000000000000       0.68750000000000000        0.0000000000000000     
   1.1250000000000000       0.68750000000000000        0.0000000000000000     
   1.1875000000000000       0.68750000000000000        0.0000000000000000     
   1.2500000000000000       0.68750000000000000        0.0000000000000000     
   1.0000000000000000       0.75000000000000000        0.0000000000000000     
   1.0625000000000000       0.75000000000000000        0.0000000000000000     
   1.1250000000000000       0.75000000000000000        0.0000000000000000     
   1.1875000000000000       0.75000000000000000        0.0000000000000000     
   1.2500000000000000       0.75000000000000000        0.0000000000000000     
   1.2500000000000000       0.50000000000000000        0.0000000000000000     
   1.3125000000000000       0.50000000000000000        0.0000000000000000     
   1.3750000000000000       0.50000000000000000        0.0000000000000000     
   1.4375000000000000       0.50000000000000000        0.0000000000000000     
   1.5000000000000000       0.50000000000000000        0.0000000000000000     
   1.2500000000000000       0.56250000000000000        0.0000000000000000     
   1.3125000000000000       0.56250000000000000        0.0000000000000000     
   1.3750000000000000       0.56250000000000000        0.0000000000000000     
   1.4375000000000000       0.56250000000000000        0.0000000000000000     
   1.5000000000000000       0.56250000000000000        0.0000000000000000     
   1.2500000000000000       0.62500000000000000        0.0000000000000000     
   1.3125000000000000       0.62500000000000000        0.0000000000000000     
   1.3750000000000000       0.62500000000000000        0.0000000000000000     
   1.4375000000000000       0.62500000000000000        0.0000000000000000     
   1.5000000000000000       0.62500000000000000        0.0000000000000000     
   1.2500000000000000       0.68750000000000000        0.0000000000000000     
   1.3125000000000000       0.68750000000000000        0.0000000000000000     
   1.3750000000000000       0.68750000000000000        0.0000000000000000     
   1.4375000000000000       0.68750000000000000        0.0000000000000000     
   1.5000000000000000       0.68750000000000000        0.0000000000000000     
   1.2500000000000000       0.75000000000000000        0.0000000000000000     
   1.3125000000000000       0.75000000000000000        0.0000000000000000     
   1.3750000000000000       0.75000000000000000        0.0000000000000000     
   1.4375000000000000       0.75000000000000000        0.0000000000000000     
   1.5000000000000000       0.75000000000000000        0.0000000000000000     
  0.50000000000000000       0.75000000000000000        0.0000000000000000     
  0.56250000000000000       0.75000000000000000        0.0000000000000000     
  0.62500000000000000       0.75000000000000000        0.0000000000000000     
  0.68750000000000000       0.75000000000000000        0.0000000000000000     
  0.75000000000000000       0.75000000000000000        0.0000000000000000     
  0.50000000000000000       0.81250000000000000        0.0000000000000000     
  0.56250000000000000       0.81250000000000000        0.0000000000000000     
  0.62500000000000000       0.81250000000000000        0.0000000000000000     
  0.68750000000000000       0.81250000000000000        0.0000000000000000     
  0.75000000000000000       0.81250000000000000        0.0000000000000000     
  0.50000000000000000       0.87500000000000000        0.0000000000000000     
  0.56250000000000000       0.87500000000000000        0.0000000000000000     
  0.62500000000000000       0.87500000000000000        0.0000000000000000     
  0.68750000000000000       0.87500000000000000        0.0000000000000000     
  0.75000000000000000       0.87500000000000000        0.0000000000000000     
  0.50000000000000000       0.93750000000000000        0.0000000000000000     
  0.56250000000000000       0.93750000000000000        0.0000000000000000     
  0.62500000000000000       0.93750000000000000        0.0000000000000000     
  0.68750000000000000       0.93750000000000000        0.0000000000000000     
  0.75000000000000000       0.93750000000000000        0.0000000000000000     
  0.50000000000000000        1.0000000000000000        0.0000000000000000     
  0.56250000000000000        1.0000000000000000        0.0000000000000000     
  0.62500000000000000        1.0000000000000000        0.0000000000000000     
  0.68750000000000000        1.0000000000000000        0.0000000000000000     
  0.75000000000000000        1.0000000000000000        0.0000000000000000     
  0.75000000000000000       0.75000000000000000        0.0000000000000000     
  0.81250000000000000       0.75000000000000000        0.0000000000000000     
  0.87500000000000000       0.75000000000000000        0.0000000000000000     
  0.93750000000000000       0.75000000000000000        0.0000000000000000     
   1.0000000000000000       0.75000000000000000        0.0000000000000000     
  0.75000000000000000       0.81250000000000000        0.0000000000000000     
  0.81250000000000000       0.81250000000000000        0.0000000000000000     
  0.87500000000000000       0.81250000000000000        0.0000000000000000     
  0.93750000000000000       0.81250000000000000        0.0000000000000000     
   1.0000000000000000       0.81250000000000000        0.0000000000000000     
  0.75000000000000000       0.87500000000000000        0.0000000000000000     
  0.81250000000000000       0.87500000000000000        0.0000000000000000     
  0.87500000000000000       0.87500000000000000        0.0000000000000000     
  0.93750000000000000       0.87500000000000000        0.0000000000000000     
   1.0000000000000000       0.87500000000000000        0.0000000000000000     
  0.75000000000000000       0.93750000000000000        0.0000000000000000     
  0.81250000000000000       0.93750000000000000        0.0000000000000000     
  0.87500000000000000       0.93750000000000000        0.0000000000000000     
  0.93750000000000000       0.93750000000000000        0.0000000000000000     
   1.0000000000000000       0.93750000000000000        0.0000000000000000     
  0.75000000000000000        1.0000000000000000        0.0000000000000000     
  0.81250000000000000        1.0000000000000000        0.0000000000000000     
  0.87500000000000000        1.0000000000000000        0.0000000000000000     
  0.93750000000000000        1.0000000000000000        0.0000000000000000     
   1.0000000000000000        1.0000000000000000        0.0000000000000000     
   1.0000000000000000       0.75000000000000000        0.0000000000000000     
   1.0625000000000000       0.75000000000000000        0.0000000000000000     
   1.1250000000000000       0.75000000000000000        0.0000000000000000     
   1.1875000000000000       0.75000000000000000        0.0000000000000000     
   1.2500000000000000       0.75000000000000000        0.0000000000000000     
   1.0000000000000000       0.81250000000000000        0.0000000000000000     
   1.0625000000000000       0.81250000000000000        0.0000000000000000     
   1.1250000000000000       0.81250000000000000        0.0000000000000000     
   1.1875000000000000       0.81250000000000000        0.0000000000000000     
   1.2500000000000000       0.81250000000000000        0.0000000000000000     
   1.0000000000000000       0.87500000000000000        0.0000000000000000     
   1.0625000000000000       0.87500000000000000        0.0000000000000000     
   1.1250000000000000       0.87500000000000000        0.0000000000000000     
   1.1875000000000000       0.87500000000000000        0.0000000000000000     
   1.2500000000000000       0.87500000000000000        0.0000000000000000     
   1.0000000000000000       0.93750000000000000        0.0000000000000000     
   1.0625000000000000       0.93750000000000000        0.0000000000000000     
   1.1250000000000000       0.93750000000000000        0.0000000000000000     
   1.1875000000000000       0.93750000000000000        0.0000000000000000     
   1.2500000000000000       0.93750000000000000        0.0000000000000000     
   1.0000000000000000        1.0000000000000000        0.0000000000000000     
   1.0625000000000000        1.0000000000000000        0.0000000000000000     
   1.1250000000000000        1.0000000000000000        0.0000000000000000     
   1.1875000000000000        1.0000000000000000        0.0000000000000000     
   1.2500000000000000        1.0000000000000000        0.0000000000000000     
   1.2500000000000000       0.75000000000000000        0.0000000000000000     
   1.3125000000000000       0.75000000000000000        0.0000000000000000     
   1.3750000000000000       0.75000000000000000        0.0000000000000000     
   1.4375000000000000       0.75000000000000000        0.0000000000000000     
   1.5000000000000000       0.75000000000000000        0.0000000000000000     
   1.2500000000000000       0.81250000000000000        0.0000000000000000     
   1.3125000000000000       0.81250000000000000        0.0000000000000000     
   1.3750000000000000       0.81250000000000000        0.0000000000000000     
   1.4375000000000000       0.81250000000000000        0.0000000000000000     
   1.5000000000000000       0.81250000000000000        0.0000000000000000     
   1.2500000000000000       0.87500000000000000        0.0000000000000000     
   1.3125000000000000       0.87500000000000000        0.0000000000000000     
   1.3750000000000000       0.87500000000000000        0.0000000000000000     
   1.4375000000000000       0.87500000000000000        0.0000000000000000     
   1.5000000000000000       0.87500000000000000        0.0000000000000000     
   1.2500000000000000       0.93750000000000000        0.0000000000000000     
   1.3125000000000000       0.93750000000000000        0.0000000000000000     
   1.3750000000000000       0.93750000000000000        0.0000000000000000     
   1.4375000000000000       0.93750000000000000        0.0000000000000000     
   1.5000000000000000       0.93750000000000000        0.0000000000000000     
   1.2500000000000000        1.0000000000000000        0.0000000000000000     
   1.3125000000000000        1.0000000000000000        0.0000000000000000     
   1.3750000000000000        1.0000000000000000        0.0000000000000000     
   1.4375000000000000        1.0000000000000000        0.0000000000000000     
   1.5000000000000000        1.0000000000000000        0.0000000000000000     
 </DataArray>
 </Points>
 <Cells>
 <DataArray  type="Int32"  Name="connectivity"  format="ascii">
           0           1           6           5
           1           2           7           6
           2           3           8           7
           3           4           9           8
           5           6          11          10
           6           7          12          11
           7           8          13          12
           8           9          14          13
          10          11          16          15
          11          12          17          16
          12          13          18          17
          13          14          19          18
          15          16          21          20
          16          17          22          21
          17          18          23          22
          18          19          24          23
          25          26          31          30
          26          27          32          31
          27          28          33          32
          28          29          34          33
          30          31          36          35
          31          32          37          36
          32          33          38          37
          33          34          39          38
          35          36          41          40
          36          37          42          41
          37          38          43          42
          38          39          44          43
          40          41          46          45
          41          42          47          46
          42          43          48          47
          43          44          49          48
          50          51          56          55
          51          52          57          56
          52          53          58          57
          53          54          59          58
          55          56          61          60
          56          57          62          61
          57          58          63          62
          58          59          64          63
          60          61          66          65
          61          62          67          66
          62          63          68          67
          63          64          69          68
          65          66          71          70
          66          67          72          71
          67          68          73          72
          68          69          74          73
          75          76          81          80
          76          77          82          81
          77          78          83          82
          78          79          84          83
          80          81          86          85
          81          82          87          86
          82          83          88          87
          83          84          89          88
          85          86          91          90
          86          87          92          91
          87          88          93          92
          88          89          94          93
          90          91          96          95
          91          92          97          96
          92          93          98          97
          93          94          99          98
         100         101         106         105
         101         102         107         106
         102         103         108         107
         103         104         109         108
         105         106         111         110
         106         107         112         111
         107         108         113         112
         108         109         114         113
         110         111         116         115
         111         112         117         116
         112         113         118         117
         113         114         119         118
         115         116         121         120
         116         117         122         121
         117         118         123         122
         118         119         124         123
         125         126         131         130
         126         127         132         131
         127         128         133         132
         128         129         134         133
         130         131         136         135
         131         132         137         136
         132         133         138         137
         133         134         139         138
         135         136         141         140
         136         137         142         141
         137         138         143         142
         138         139         144         143
         140         141         146         145
         141         142         147         146
         142         143         148         147
         143         144         149         148
         150         151         156         155
         151         152         157         156
         152         153         158         157
         153         154         159         158
         155         156         161         160
         156         157         162         161
         157         158         163         162
         158         159         164         163
         160         161         166         165
         161         162         167         166
         162         163         168         167
         163         164         169         168
         165         166         171         170
         166         167         172         171
         167         168         173         172
         168         169         174         173
         175         176         181         180
         176         177         182         181
         177         178         183         182
         178         179         184         183
         180         181         186         185
         181         182         187         186
         182         183         188         187
         183         184         189         188
         185         186         191         190
         186         187         192         191
         187         188         193         192
         188         189         194         193
         190         191         196         195
         191         192         197         196
         192         193         198         197
         193         194         199         198
         200         201         206         205
         201         202         207         206
         202         203         208         207
         203         204         209         208
         205         206         211         210
         206         207         212         211
         207         208         213         212
         208         209         214         213
         210         211         216         215
         211         212         217         216
         212         213         218         217
         213         214         219         218
         215         216         221         220
         216         217         222         221
         217         218         223         222
         218         219         224         223
         225         226         231         230
         226         227         232         231
         227         228         233         232
         228         229         234         233
         230         231         236         235
         231         232         237         236
         232         233         238         237
         233         234         239         238
         235         236         241         240
         236         237         242         241
         237         238         243         242
         238         239         244         243
         240         241         246         245
         241         242         247         246
         242         243         248         247
         243         244         249         248
         250         251         256         255
         251         252         257         256
         252         253         258         257
         253         254         259         258
         255         256         261         260
         256         257         262         261
         257         258         263         262
         258         259         264         263
         260         261         266         265
         261         262         267         266
         262         263         268         267
         263         264         269         268
         265         266         271         270
         266         267         272         271
         267         268         273         272
         268         269         274         273
         275         276         281         280
         276         277         282         281
         277         278         283         282
         278         279         284         283
         280         281         286         285
         281         282         287         286
         282         283         288         287
         283         284         289         288
         285         286         291         290
         286         287         292         291
         287         288         293         292
         288         289         294         293
         290         291         296         295
         291         292         297         296
         292         293         298         297
         293         294         299         298
         300         301         306         305
         301         302         307         306
         302         303         308         307
         303         304         309         308
         305         306         311         310
         306         307         312         311
         307         308         313         312
         308         309         314         313
         310         311         316         315
         311         312         317         316
         312         313         318         317
         313         314         319         318
         315         316         321         320
         316         317         322         321
         317         318         323         322
         318         319         324         323
         325         326         331         330
         326         327         332         331
         327         328         333         332
         328         329         334         333
         330         331         336         335
         331         332         337         336
         332         333         338         337
         333         334         339         338
         335         336         341         340
         336         337         342         341
         337         338         343         342
         338         339         344         343
         340         341         346         345
         341         342         347         346
         342         343         348         347
         343         344         349         348
         350         351         356         355
         351         352         357         356
         352         353         358         357
         353         354         359         358
         355         356         361         360
         356         357         362         361
         357         358         363         362
         358         359         364         363
         360         361         366         365
         361         362         367         366
         362         363         368         367
         363         364         369         368
         365         366         371         370
         366         367         372         371
         367         368         373         372
         368         369         374         373
         375         376         381         380
         376         377         382         381
         377         378         383         382
         378         379         384         383
         380         381         386         385
         381         382         387         386
         382         383         388         387
         383         384         389         388
         385         386         391         390
         386         387         392         391
         387         388         393         392
         388         389         394         393
         390         391         396         395
         391         392         397         396
         392         393         398         397
         393         394         399         398
 </DataArray>
 <DataArray  type="Int32"  Name="offsets"  format="ascii"> 
           4
           8
          12
          16
          20
          24
          28
          32
          36
          40
          44
          48
          52
          56
          60
          64
          68
          72
          76
          80
          84
          88
          92
          96
         100
         104
         108
         112
         116
         120
         124
         128
         132
         136
         140
         144
         148
         152
         156
         160
         164
         168
         172
         176
         180
         184
         188
         192
         196
         200
         204
         208
         212
         216
         220
         224
         228
         232
         236
         240
         244
         248
         252
         256
         260
         264
         268
         272
         276
         280
         284
         288
         292
         296
         300
         304
         308
         312
         316
         320
         324
         328
         332
         336
         340
         344
         348
         352
         356
         360
         364
         368
         372
         376
         380
         384
         388
         392
         396
         400
         404
         408
         412
         416
         420
         424
         428
         432
         436
         440
         444
         448
         452
         456
         460
         464
         468
         472
         476
         480
         484
         488
         492
         496
         500
         504
         508
         512
         516
         520
         524
         528
         532
         536
         540
         544
         548
         552
         556
         560
         564
         568
         572
         576
         580
         584
         588
         592
         596
         600
         604
         608
         612
         616
         620
         624
         628
         632
         636
         640
         644
         648
         652
         656
         660
         664
         668
         672
         676
         680
         684
         688
         692
         696
         700
         704
         708
         712
         716
         720
         724
         728
         732
         736
         740
         744
         748
         752
         756
         760
         764
         768
         772
         776
         780
         784
         788
         792
         796
         800
         804
         808
         812
         816
         820
         824
         828
         832
         836
         840
         844
         848
         852
         856
         860
         864
         868
         872
         876
         880
         884
         888
         892
         896
         900
         904
         908
         912
         916
         920
         924
         928
         932
         936
         940
         944
         948
         952
         956
         960
         964
         968
         972
         976
         980
         984
         988
         992
         996
        1000
        1004
        1008
        1012
        1016
        1020
        1024
 </DataArray>
 <DataArray  type="UInt8"  Name="types"  format="ascii">
 9
 9
 9
 9
 9
 9
 9
 9
 9
 9
 9
 9
 9
 9
 9
 9
 9
 9
 9
 9
 9
 9
 9
 9
 9
 9
 9
 9
 9
 9
 9
 9
 9
 9
 9
 9
 9
 9
 9
 9
 9
 9
 9
 9
 9
 9
 9
 9
 9
 9
 9
 9
 9
 9
 9
 9
 9
 9
 9
 9
 9
 9
 9
 9
 9
 9
 9
 9
 9
 9
 9
 9
 9
 9
 9
 9
 9
 9
 9
 9
 9
 9
 9
 9
 9
 9
 9
 9
 9
 9
 9
 9
 9
 9
 9
 9
 9
 9
 9
 9
 9
 9
 9
 9
 9
 9
 9
 9
 9
 9
 9
 9
 9
 9
 9
 9
 9
 9
 9
 9
 9
 9
 9
 9
 9
 9
 9
 9
 9
 9
 9
 9
 9
 9
 9
 9
 9
 9
 9
 9
 9
 9
 9
 9
 9
 9
 9
 9
 9
 9
 9
 9
 9
 9
 9
 9
 9
 9
 9
 9
 9
 9
 9
 9
 9
 9
 9
 9
 9
 9
 9
 9
 9
 9
 9
 9
 9
 9
 9
 9
 9
 9
 9
 9
 9
 9
 9
 9
 9
 9
 9
 9
 9
 9
 9
 9
 9
 9
 9
 9
 9
 9
 9
 9
 9
 9
 9
 9
 9
 9
 9
 9
 9
 9
 9
 9
 9
 9
 9
 9
 9
 9
 9
 9
 9
 9
 9
 9
 9
 9
 9
 9
 9
 9
 9
 9
 9
 9
 9
 9
 9
 9
 9
 9
 9
 9
 9
 9
 9
 9
 9
 9
 9
 9
 9
 9
 </DataArray>
 </Cells> 
 <PointData>
 <DataArray  type="Float64" Name="disp" NumberOfComponents="3" format="ascii">
   6.0274435310831952E-002   5.9934763572359433E-002   0.0000000000000000     
   6.8405236670795733E-002   7.1481205843080944E-002   0.0000000000000000     
   7.5597508279560410E-002   8.3642570618162146E-002   0.0000000000000000     
   8.1851250137125964E-002   9.6418857897603072E-002   0.0000000000000000     
   8.7166462243492393E-002  0.10981006768140367        0.0000000000000000     
   5.3160569203361777E-002   5.8329503772534701E-002   0.0000000000000000     
   5.9449124732842376E-002   6.9989188073655298E-002   0.0000000000000000     
   6.5116008874396336E-002   8.2263850718983456E-002   0.0000000000000000     
   7.0161221628023657E-002   9.5153491708519125E-002   0.0000000000000000     
   7.4584762993724352E-002  0.10865811104226236        0.0000000000000000     
   4.5734506867547278E-002   5.7269818655738165E-002   0.0000000000000000     
   5.0535458173145753E-002   6.8967699053334885E-002   0.0000000000000000     
   5.4943737051468898E-002   8.1288047015826648E-002   0.0000000000000000     
   5.8959343502516727E-002   9.4230862543213417E-002   0.0000000000000000     
   6.2582277526289240E-002  0.10779614563549524        0.0000000000000000     
   3.7996248303388457E-002   5.6755708221969806E-002   0.0000000000000000     
   4.1664236991705864E-002   6.8416738782119721E-002   0.0000000000000000     
   4.5080692810778089E-002   8.0715159508691764E-002   0.0000000000000000     
   4.8245615760605154E-002   9.3650970401685990E-002   0.0000000000000000     
   5.1159005841187023E-002  0.10722417146110234        0.0000000000000000     
   2.9945793510885294E-002   5.6787172471229649E-002   0.0000000000000000     
   3.2835461188522708E-002   6.8336307260009790E-002   0.0000000000000000     
   3.5526876152323916E-002   8.0545188197578832E-002   0.0000000000000000     
   3.8020038402288923E-002   9.3413815283936788E-002   0.0000000000000000     
   4.0314947938417736E-002  0.10694218851908363        0.0000000000000000     
   8.7166462243492393E-002  0.10981006768140367        0.0000000000000000     
   9.1797567966755367E-002  0.12374012534960958        0.0000000000000000     
   9.5998990675010581E-002  0.13813295628226638        0.0000000000000000     
   9.9770730368258037E-002  0.15298856047937409        0.0000000000000000     
  0.10311278704649769       0.16830693794093268        0.0000000000000000     
   7.4584762993724352E-002  0.10865811104226236        0.0000000000000000     
   7.8524686962583828E-002  0.12269288016310621        0.0000000000000000     
   8.2119047525687508E-002  0.13717297051394378        0.0000000000000000     
   8.5367844683035390E-002  0.15209838209477503        0.0000000000000000     
   8.8271078434627448E-002  0.16746911490560001        0.0000000000000000     
   6.2582277526289240E-002  0.10779614563549524        0.0000000000000000     
   6.5871838005437583E-002  0.12189135895775649        0.0000000000000000     
   6.8887323822612923E-002  0.13642396517508160        0.0000000000000000     
   7.1628734977815245E-002  0.15139396428747059        0.0000000000000000     
   7.4096071471044578E-002  0.16680135629492349        0.0000000000000000     
   5.1159005841187023E-002  0.10722417146110234        0.0000000000000000     
   5.3839021095316637E-002  0.12133556173356044        0.0000000000000000     
   5.6303819565786839E-002  0.13588594026567993        0.0000000000000000     
   5.8553401252597628E-002  0.15087530705746077        0.0000000000000000     
   6.0587766155749033E-002  0.16630366210890304        0.0000000000000000     
   4.0314947938417736E-002  0.10694218851908363        0.0000000000000000     
   4.2426236232220971E-002  0.12102548849051806        0.0000000000000000     
   4.4368534755209230E-002  0.13555889578573871        0.0000000000000000     
   4.6141843507382527E-002  0.15054241040474559        0.0000000000000000     
   4.7746162488740862E-002  0.16597603234753874        0.0000000000000000     
  0.10311278704649769       0.16830693794093268        0.0000000000000000     
  0.10609376094164259       0.18397930960459363        0.0000000000000000     
  0.10878225228560573       0.19989689640800831        0.0000000000000000     
  0.11117826107838710       0.21605969835117678        0.0000000000000000     
  0.11328178731998671       0.23246771543409903        0.0000000000000000     
   8.8271078434627448E-002  0.16746911490560001        0.0000000000000000     
   9.0845652173355412E-002  0.18320058227339656        0.0000000000000000     
   9.3108469292110946E-002  0.19920819752514252        0.0000000000000000     
   9.5059529790894048E-002  0.21549196066083787        0.0000000000000000     
   9.6698833669704762E-002  0.23205187168048266        0.0000000000000000     
   7.4096071471044578E-002  0.16680135629492349        0.0000000000000000     
   7.6271548527060695E-002  0.18257786108376031        0.0000000000000000     
   7.8137381370623482E-002  0.19865519854030134        0.0000000000000000     
   7.9693570001732925E-002  0.21503336866454650        0.0000000000000000     
   8.0940114420388995E-002  0.23171237145649576        0.0000000000000000     
   6.0587766155749033E-002  0.16630366210890304        0.0000000000000000     
   6.2371450002758462E-002  0.18211114603568496        0.0000000000000000     
   6.3868988521143324E-002  0.19823789945348483        0.0000000000000000     
   6.5080381710903648E-002  0.21468392236230263        0.0000000000000000     
   6.6005629572039412E-002  0.23144921476213842        0.0000000000000000     
   4.7746162488740862E-002  0.16597603234753874        0.0000000000000000     
   4.9145356600448692E-002  0.18180043712917041        0.0000000000000000     
   5.0303290743670494E-002  0.19795630026469291        0.0000000000000000     
   5.1219964918406267E-002  0.21444362175410628        0.0000000000000000     
   5.1895379124656006E-002  0.23126240159741049        0.0000000000000000     
  0.11328178731998671       0.23246771543409903        0.0000000000000000     
  0.11506255336431309       0.24938123336393914        0.0000000000000000     
  0.11649028156527476       0.26706053784786116        0.0000000000000000     
  0.11756497192287173       0.28550562888586511        0.0000000000000000     
  0.11828662443710398       0.30471650647795101        0.0000000000000000     
   9.6698833669704762E-002  0.23205187168048266        0.0000000000000000     
   9.8039304524270038E-002  0.24906233829151930        0.0000000000000000     
   9.9093865950316884E-002  0.26669776820139035        0.0000000000000000     
   9.9862517947845328E-002  0.28495816141009567        0.0000000000000000     
  0.10034526051685533       0.30384351791763542        0.0000000000000000     
   8.0940114420388995E-002  0.23171237145649576        0.0000000000000000     
   8.1921210623702959E-002  0.24877645909551915        0.0000000000000000     
   8.2681054608786012E-002  0.26630988376098647        0.0000000000000000     
   8.3219646375638195E-002  0.28431264545289764        0.0000000000000000     
   8.3536985924259469E-002  0.30278474417125278        0.0000000000000000     
   6.6005629572039412E-002  0.23144921476213842        0.0000000000000000     
   6.6708271662611840E-002  0.24852359577593847        0.0000000000000000     
   6.7251847540682141E-002  0.26589688452664934        0.0000000000000000     
   6.7636357206250303E-002  0.28356908101427086        0.0000000000000000     
   6.7861800659316379E-002  0.30154018523880316        0.0000000000000000     
   5.1895379124656006E-002  0.23126240159741049        0.0000000000000000     
   5.2400487640996682E-002  0.24830374833277746        0.0000000000000000     
   5.2806244746005253E-002  0.26545877049837913        0.0000000000000000     
   5.3112650439681712E-002  0.28272746809421545        0.0000000000000000     
   5.3319704722026073E-002  0.30010984112028649        0.0000000000000000     
   2.9945793510885294E-002   5.6787172471229649E-002   0.0000000000000000     
   3.2835461188522708E-002   6.8336307260009790E-002   0.0000000000000000     
   3.5526876152323916E-002   8.0545188197578832E-002   0.0000000000000000     
   3.8020038402288923E-002   9.3413815283936788E-002   0.0000000000000000     
   4.0314947938417736E-002  0.10694218851908363        0.0000000000000000     
   2.1919266736448485E-002   5.7053392613156922E-002   0.0000000000000000     
   2.4177580028698954E-002   6.8471786005897192E-002   0.0000000000000000     
   2.6257044242301776E-002   8.0572739136114624E-002   0.0000000000000000     
   2.8157659377256960E-002   9.3356252003809231E-002   0.0000000000000000     
   2.9879425433564498E-002  0.10682232460898100        0.0000000000000000     
   1.4252792226488698E-002   5.7243549857390892E-002   0.0000000000000000     
   1.5819042777337266E-002   6.8568556538674039E-002   0.0000000000000000     
   1.7245954246907082E-002   8.0592418377925981E-002   0.0000000000000000     
   1.8533526635198149E-002   9.3315135375146727E-002   0.0000000000000000     
   1.9681759942210466E-002  0.10673670753033629        0.0000000000000000     
   6.9463699810059336E-003   5.7357644203931531E-002   0.0000000000000000     
   7.7598494344376405E-003   6.8626618858340302E-002   0.0000000000000000     
   8.4936061661398266E-003   8.0604225923012890E-002   0.0000000000000000     
   9.1476401761124929E-003   9.3290465397949288E-002   0.0000000000000000     
   9.7219514643556351E-003  0.10668533728314951        0.0000000000000000     
   1.9255430583342559E-016   5.7395675652778866E-002   0.0000000000000000     
   8.2833045977892539E-017   6.8645972964896010E-002   0.0000000000000000     
   1.4961989980299961E-017   8.0608161771375364E-002   0.0000000000000000     
  -8.8362477057568611E-018   9.3282242072216900E-002   0.0000000000000000     
   5.2041704279304213E-018  0.10666821386742066        0.0000000000000000     
   4.0314947938417736E-002  0.10694218851908363        0.0000000000000000     
   4.2426236232220971E-002  0.12102548849051806        0.0000000000000000     
   4.4368534755209230E-002  0.13555889578573871        0.0000000000000000     
   4.6141843507382527E-002  0.15054241040474559        0.0000000000000000     
   4.7746162488740862E-002  0.16597603234753874        0.0000000000000000     
   2.9879425433564498E-002  0.10682232460898100        0.0000000000000000     
   3.1447519838019897E-002  0.12086167864461070        0.0000000000000000     
   3.2887120017418642E-002  0.13536503580367909        0.0000000000000000     
   3.4198225971760740E-002  0.15033239608618620        0.0000000000000000     
   3.5380837701046192E-002  0.16576375949213204        0.0000000000000000     
   1.9681759942210466E-002  0.10673670753033629        0.0000000000000000     
   2.0716908334582718E-002  0.12074467161181977        0.0000000000000000     
   2.1665225978953581E-002  0.13522656438792224        0.0000000000000000     
   2.2526712875323068E-002  0.15018238585864380        0.0000000000000000     
   2.3301369023691166E-002  0.16561213602398439        0.0000000000000000     
   9.7219514643556351E-003  0.10668533728314951        0.0000000000000000     
   1.0234401721909430E-002  0.12067446739214525        0.0000000000000000     
   1.0702852639814056E-002  0.13514348153846820        0.0000000000000000     
   1.1127304218069511E-002  0.15009237972211845        0.0000000000000000     
   1.1507756456675794E-002  0.16552116194309585        0.0000000000000000     
   5.2041704279304213E-018  0.10666821386742066        0.0000000000000000     
   3.9464959078472361E-017  0.12065106598558717        0.0000000000000000     
   5.8546917314217239E-017  0.13511578725531692        0.0000000000000000     
   7.1448923166794742E-017  0.15006237767661001        0.0000000000000000     
   6.6786853825107073E-017  0.16549083724946634        0.0000000000000000     
   4.7746162488740862E-002  0.16597603234753874        0.0000000000000000     
   4.9145356600448692E-002  0.18180043712917041        0.0000000000000000     
   5.0303290743670494E-002  0.19795630026469291        0.0000000000000000     
   5.1219964918406267E-002  0.21444362175410628        0.0000000000000000     
   5.1895379124656006E-002  0.23126240159741049        0.0000000000000000     
   3.5380837701046192E-002  0.16576375949213204        0.0000000000000000     
   3.6406953681935507E-002  0.18159681952290305        0.0000000000000000     
   3.7248572391089217E-002  0.19776926967988581        0.0000000000000000     
   3.7905693828507302E-002  0.21428110996308028        0.0000000000000000     
   3.8378317994189788E-002  0.23113234037248648        0.0000000000000000     
   2.3301369023691166E-002  0.16561213602398439        0.0000000000000000     
   2.3969926609023008E-002  0.18145137837556921        0.0000000000000000     
   2.4513117816283715E-002  0.19763567640502358        0.0000000000000000     
   2.4930942645473294E-002  0.21416503011234739        0.0000000000000000     
   2.5223401096591741E-002  0.23103943949754072        0.0000000000000000     
   1.1507756456675794E-002  0.16552116194309585        0.0000000000000000     
   1.1834275381711196E-002  0.18136411368716895        0.0000000000000000     
   1.2096927019254010E-002  0.19755552044010621        0.0000000000000000     
   1.2295711369304234E-002  0.21409538220190766        0.0000000000000000     
   1.2430628431861872E-002  0.23098369897257329        0.0000000000000000     
   6.6786853825107073E-017  0.16549083724946634        0.0000000000000000     
   7.0256300777060687E-017  0.18133502545770216        0.0000000000000000     
   8.8470897274817162E-017  0.19752880178513374        0.0000000000000000     
   1.2576745200831851E-016  0.21407216623176109        0.0000000000000000     
   1.7780915628762273E-016  0.23096511879758411        0.0000000000000000     
   5.1895379124656006E-002  0.23126240159741049        0.0000000000000000     
   5.2400487640996682E-002  0.24830374833277746        0.0000000000000000     
   5.2806244746005253E-002  0.26545877049837913        0.0000000000000000     
   5.3112650439681712E-002  0.28272746809421545        0.0000000000000000     
   5.3319704722026073E-002  0.30010984112028649        0.0000000000000000     
   3.8378317994189788E-002  0.23113234037248648        0.0000000000000000     
   3.8734052249526522E-002  0.24812582626594509        0.0000000000000000     
   3.9040503955907399E-002  0.26506443300129690        0.0000000000000000     
   3.9297673113332404E-002  0.28194816057854188        0.0000000000000000     
   3.9505559721801531E-002  0.29877700899768006        0.0000000000000000     
   2.5223401096591741E-002  0.23103943949754072        0.0000000000000000     
   2.5445159178870396E-002  0.24799873907535058        0.0000000000000000     
   2.5650882901540620E-002  0.26478276336052392        0.0000000000000000     
   2.5840572264602388E-002  0.28139151235306081        0.0000000000000000     
   2.6014227268055717E-002  0.29782498605296120        0.0000000000000000     
   1.2430628431861872E-002  0.23098369897257329        0.0000000000000000     
   1.2533808429028303E-002  0.24792248676099385        0.0000000000000000     
   1.2637381582904910E-002  0.26461376157606015        0.0000000000000000     
   1.2741347893491689E-002  0.28105752341777224        0.0000000000000000     
   1.2845707360788649E-002  0.29725377228612992        0.0000000000000000     
   1.7780915628762273E-016  0.23096511879758411        0.0000000000000000     
   2.3375398838787476E-016  0.24789706932287492        0.0000000000000000     
   2.7603787311480943E-016  0.26455742764790557        0.0000000000000000     
   2.9929400971462350E-016  0.28094619377267593        0.0000000000000000     
   3.1225022567582528E-016  0.29706336769718622        0.0000000000000000     
   1.9255430583342559E-016   5.7395675652778866E-002   0.0000000000000000     
   8.2833045977892539E-017   6.8645972964896010E-002   0.0000000000000000     
   1.4961989980299961E-017   8.0608161771375364E-002   0.0000000000000000     
  -8.8362477057568611E-018   9.3282242072216900E-002   0.0000000000000000     
   5.2041704279304213E-018  0.10666821386742066        0.0000000000000000     
  -6.9463699810055294E-003   5.7357644203932689E-002   0.0000000000000000     
  -7.7598494344374548E-003   6.8626618858341065E-002   0.0000000000000000     
  -8.4936061661397711E-003   8.0604225923013334E-002   0.0000000000000000     
  -9.1476401761124860E-003   9.3290465397949579E-002   0.0000000000000000     
  -9.7219514643556004E-003  0.10668533728314974        0.0000000000000000     
  -1.4252792226488242E-002   5.7243549857392807E-002   0.0000000000000000     
  -1.5819042777337009E-002   6.8568556538675329E-002   0.0000000000000000     
  -1.7245954246906947E-002   8.0592418377926842E-002   0.0000000000000000     
  -1.8533526635198073E-002   9.3315135375147296E-002   0.0000000000000000     
  -1.9681759942210369E-002  0.10673670753033673        0.0000000000000000     
  -2.1919266736447944E-002   5.7053392613159205E-002   0.0000000000000000     
  -2.4177580028698582E-002   6.8471786005898871E-002   0.0000000000000000     
  -2.6257044242301523E-002   8.0572739136115817E-002   0.0000000000000000     
  -2.8157659377256762E-002   9.3356252003810106E-002   0.0000000000000000     
  -2.9879425433564293E-002  0.10682232460898168        0.0000000000000000     
  -2.9945793510884638E-002   5.6787172471231898E-002   0.0000000000000000     
  -3.2835461188522187E-002   6.8336307260011622E-002   0.0000000000000000     
  -3.5526876152323486E-002   8.0545188197580317E-002   0.0000000000000000     
  -3.8020038402288556E-002   9.3413815283937926E-002   0.0000000000000000     
  -4.0314947938417382E-002  0.10694218851908453        0.0000000000000000     
   5.2041704279304213E-018  0.10666821386742066        0.0000000000000000     
   3.9464959078472361E-017  0.12065106598558717        0.0000000000000000     
   5.8546917314217239E-017  0.13511578725531692        0.0000000000000000     
   7.1448923166794742E-017  0.15006237767661001        0.0000000000000000     
   6.6786853825107073E-017  0.16549083724946634        0.0000000000000000     
  -9.7219514643556004E-003  0.10668533728314974        0.0000000000000000     
  -1.0234401721909337E-002  0.12067446739214546        0.0000000000000000     
  -1.0702852639813925E-002  0.13514348153846842        0.0000000000000000     
  -1.1127304218069357E-002  0.15009237972211856        0.0000000000000000     
  -1.1507756456675646E-002  0.16552116194309591        0.0000000000000000     
  -1.9681759942210369E-002  0.10673670753033673        0.0000000000000000     
  -2.0716908334582569E-002  0.12074467161182016        0.0000000000000000     
  -2.1665225978953408E-002  0.13522656438792260        0.0000000000000000     
  -2.2526712875322874E-002  0.15018238585864405        0.0000000000000000     
  -2.3301369023690982E-002  0.16561213602398453        0.0000000000000000     
  -2.9879425433564293E-002  0.10682232460898168        0.0000000000000000     
  -3.1447519838019661E-002  0.12086167864461127        0.0000000000000000     
  -3.2887120017418392E-002  0.13536503580367951        0.0000000000000000     
  -3.4198225971760483E-002  0.15033239608618654        0.0000000000000000     
  -3.5380837701045949E-002  0.16576375949213221        0.0000000000000000     
  -4.0314947938417382E-002  0.10694218851908453        0.0000000000000000     
  -4.2426236232220603E-002  0.12102548849051875        0.0000000000000000     
  -4.4368534755208876E-002  0.13555889578573921        0.0000000000000000     
  -4.6141843507382187E-002  0.15054241040474595        0.0000000000000000     
  -4.7746162488740536E-002  0.16597603234753899        0.0000000000000000     
   6.6786853825107073E-017  0.16549083724946634        0.0000000000000000     
   7.0256300777060687E-017  0.18133502545770216        0.0000000000000000     
   8.8470897274817162E-017  0.19752880178513374        0.0000000000000000     
   1.2576745200831851E-016  0.21407216623176109        0.0000000000000000     
   1.7780915628762273E-016  0.23096511879758411        0.0000000000000000     
  -1.1507756456675646E-002  0.16552116194309591        0.0000000000000000     
  -1.1834275381711045E-002  0.18136411368716893        0.0000000000000000     
  -1.2096927019253826E-002  0.19755552044010621        0.0000000000000000     
  -1.2295711369303979E-002  0.21409538220190760        0.0000000000000000     
  -1.2430628431861516E-002  0.23098369897257320        0.0000000000000000     
  -2.3301369023690982E-002  0.16561213602398453        0.0000000000000000     
  -2.3969926609022831E-002  0.18145137837556927        0.0000000000000000     
  -2.4513117816283504E-002  0.19763567640502352        0.0000000000000000     
  -2.4930942645473030E-002  0.21416503011234733        0.0000000000000000     
  -2.5223401096591387E-002  0.23103943949754066        0.0000000000000000     
  -3.5380837701045949E-002  0.16576375949213221        0.0000000000000000     
  -3.6406953681935271E-002  0.18159681952290313        0.0000000000000000     
  -3.7248572391088967E-002  0.19776926967988578        0.0000000000000000     
  -3.7905693828507010E-002  0.21428110996308020        0.0000000000000000     
  -3.8378317994189434E-002  0.23113234037248637        0.0000000000000000     
  -4.7746162488740536E-002  0.16597603234753899        0.0000000000000000     
  -4.9145356600448387E-002  0.18180043712917054        0.0000000000000000     
  -5.0303290743670195E-002  0.19795630026469296        0.0000000000000000     
  -5.1219964918405955E-002  0.21444362175410622        0.0000000000000000     
  -5.1895379124655666E-002  0.23126240159741041        0.0000000000000000     
   1.7780915628762273E-016  0.23096511879758411        0.0000000000000000     
   2.3375398838787476E-016  0.24789706932287492        0.0000000000000000     
   2.7603787311480943E-016  0.26455742764790557        0.0000000000000000     
   2.9929400971462350E-016  0.28094619377267593        0.0000000000000000     
   3.1225022567582528E-016  0.29706336769718622        0.0000000000000000     
  -1.2430628431861516E-002  0.23098369897257320        0.0000000000000000     
  -1.2533808429027840E-002  0.24792248676099379        0.0000000000000000     
  -1.2637381582904368E-002  0.26461376157606015        0.0000000000000000     
  -1.2741347893491095E-002  0.28105752341777218        0.0000000000000000     
  -1.2845707360788028E-002  0.29725377228612998        0.0000000000000000     
  -2.5223401096591387E-002  0.23103943949754066        0.0000000000000000     
  -2.5445159178869962E-002  0.24799873907535050        0.0000000000000000     
  -2.5650882901540103E-002  0.26478276336052387        0.0000000000000000     
  -2.5840572264601819E-002  0.28139151235306081        0.0000000000000000     
  -2.6014227268055121E-002  0.29782498605296126        0.0000000000000000     
  -3.8378317994189434E-002  0.23113234037248637        0.0000000000000000     
  -3.8734052249526106E-002  0.24812582626594501        0.0000000000000000     
  -3.9040503955906927E-002  0.26506443300129684        0.0000000000000000     
  -3.9297673113331877E-002  0.28194816057854188        0.0000000000000000     
  -3.9505559721800955E-002  0.29877700899768006        0.0000000000000000     
  -5.1895379124655666E-002  0.23126240159741041        0.0000000000000000     
  -5.2400487640996307E-002  0.24830374833277732        0.0000000000000000     
  -5.2806244746004843E-002  0.26545877049837896        0.0000000000000000     
  -5.3112650439681247E-002  0.28272746809421528        0.0000000000000000     
  -5.3319704722025546E-002  0.30010984112028638        0.0000000000000000     
  -2.9945793510884638E-002   5.6787172471231898E-002   0.0000000000000000     
  -3.2835461188522187E-002   6.8336307260011622E-002   0.0000000000000000     
  -3.5526876152323486E-002   8.0545188197580317E-002   0.0000000000000000     
  -3.8020038402288556E-002   9.3413815283937926E-002   0.0000000000000000     
  -4.0314947938417382E-002  0.10694218851908453        0.0000000000000000     
  -3.7996248303387659E-002   5.6755708221972047E-002   0.0000000000000000     
  -4.1664236991705177E-002   6.8416738782121692E-002   0.0000000000000000     
  -4.5080692810777492E-002   8.0715159508693457E-002   0.0000000000000000     
  -4.8245615760604613E-002   9.3650970401687378E-002   0.0000000000000000     
  -5.1159005841186524E-002  0.10722417146110338        0.0000000000000000     
  -4.5734506867546348E-002   5.7269818655740823E-002   0.0000000000000000     
  -5.0535458173144962E-002   6.8967699053337134E-002   0.0000000000000000     
  -5.4943737051468239E-002   8.1288047015828493E-002   0.0000000000000000     
  -5.8959343502516109E-002   9.4230862543214888E-002   0.0000000000000000     
  -6.2582277526288629E-002  0.10779614563549633        0.0000000000000000     
  -5.3160569203360715E-002   5.8329503772538240E-002   0.0000000000000000     
  -5.9449124732841543E-002   6.9989188073657976E-002   0.0000000000000000     
  -6.5116008874395642E-002   8.2263850718985398E-002   0.0000000000000000     
  -7.0161221628023046E-002   9.5153491708520541E-002   0.0000000000000000     
  -7.4584762993723699E-002  0.10865811104226338        0.0000000000000000     
  -6.0274435310830744E-002   5.9934763572364276E-002   0.0000000000000000     
  -6.8405236670794900E-002   7.1481205843084192E-002   0.0000000000000000     
  -7.5597508279559786E-002   8.3642570618164186E-002   0.0000000000000000     
  -8.1851250137125395E-002   9.6418857897604307E-002   0.0000000000000000     
  -8.7166462243491727E-002  0.10981006768140450        0.0000000000000000     
  -4.0314947938417382E-002  0.10694218851908453        0.0000000000000000     
  -4.2426236232220603E-002  0.12102548849051875        0.0000000000000000     
  -4.4368534755208876E-002  0.13555889578573921        0.0000000000000000     
  -4.6141843507382187E-002  0.15054241040474595        0.0000000000000000     
  -4.7746162488740536E-002  0.16597603234753899        0.0000000000000000     
  -5.1159005841186524E-002  0.10722417146110338        0.0000000000000000     
  -5.3839021095316145E-002  0.12133556173356121        0.0000000000000000     
  -5.6303819565786353E-002  0.13588594026568046        0.0000000000000000     
  -5.8553401252597191E-002  0.15087530705746113        0.0000000000000000     
  -6.0587766155748624E-002  0.16630366210890329        0.0000000000000000     
  -6.2582277526288629E-002  0.10779614563549633        0.0000000000000000     
  -6.5871838005436972E-002  0.12189135895775727        0.0000000000000000     
  -6.8887323822612354E-002  0.13642396517508215        0.0000000000000000     
  -7.1628734977814704E-002  0.15139396428747096        0.0000000000000000     
  -7.4096071471044078E-002  0.16680135629492371        0.0000000000000000     
  -7.4584762993723699E-002  0.10865811104226338        0.0000000000000000     
  -7.8524686962583135E-002  0.12269288016310695        0.0000000000000000     
  -8.2119047525686800E-002  0.13717297051394428        0.0000000000000000     
  -8.5367844683034738E-002  0.15209838209477541        0.0000000000000000     
  -8.8271078434626893E-002  0.16746911490560029        0.0000000000000000     
  -8.7166462243491727E-002  0.10981006768140450        0.0000000000000000     
  -9.1797567966754590E-002  0.12374012534961019        0.0000000000000000     
  -9.5998990675009777E-002  0.13813295628226685        0.0000000000000000     
  -9.9770730368257246E-002  0.15298856047937442        0.0000000000000000     
 -0.10311278704649704       0.16830693794093293        0.0000000000000000     
  -4.7746162488740536E-002  0.16597603234753899        0.0000000000000000     
  -4.9145356600448387E-002  0.18180043712917054        0.0000000000000000     
  -5.0303290743670195E-002  0.19795630026469296        0.0000000000000000     
  -5.1219964918405955E-002  0.21444362175410622        0.0000000000000000     
  -5.1895379124655666E-002  0.23126240159741041        0.0000000000000000     
  -6.0587766155748624E-002  0.16630366210890329        0.0000000000000000     
  -6.2371450002758080E-002  0.18211114603568512        0.0000000000000000     
  -6.3868988521142978E-002  0.19823789945348494        0.0000000000000000     
  -6.5080381710903301E-002  0.21468392236230266        0.0000000000000000     
  -6.6005629572039065E-002  0.23144921476213834        0.0000000000000000     
  -7.4096071471044078E-002  0.16680135629492371        0.0000000000000000     
  -7.6271548527060265E-002  0.18257786108376056        0.0000000000000000     
  -7.8137381370623080E-002  0.19865519854030148        0.0000000000000000     
  -7.9693570001732536E-002  0.21503336866454650        0.0000000000000000     
  -8.0940114420388606E-002  0.23171237145649573        0.0000000000000000     
  -8.8271078434626893E-002  0.16746911490560029        0.0000000000000000     
  -9.0845652173354954E-002  0.18320058227339678        0.0000000000000000     
  -9.3108469292110516E-002  0.19920819752514263        0.0000000000000000     
  -9.5059529790893632E-002  0.21549196066083789        0.0000000000000000     
  -9.6698833669704304E-002  0.23205187168048261        0.0000000000000000     
 -0.10311278704649704       0.16830693794093293        0.0000000000000000     
 -0.10609376094164208       0.18397930960459380        0.0000000000000000     
 -0.10878225228560527       0.19989689640800845        0.0000000000000000     
 -0.11117826107838662       0.21605969835117680        0.0000000000000000     
 -0.11328178731998613       0.23246771543409894        0.0000000000000000     
  -5.1895379124655666E-002  0.23126240159741041        0.0000000000000000     
  -5.2400487640996307E-002  0.24830374833277732        0.0000000000000000     
  -5.2806244746004843E-002  0.26545877049837896        0.0000000000000000     
  -5.3112650439681247E-002  0.28272746809421528        0.0000000000000000     
  -5.3319704722025546E-002  0.30010984112028638        0.0000000000000000     
  -6.6005629572039065E-002  0.23144921476213834        0.0000000000000000     
  -6.6708271662611479E-002  0.24852359577593833        0.0000000000000000     
  -6.7251847540681739E-002  0.26589688452664911        0.0000000000000000     
  -6.7636357206249886E-002  0.28356908101427064        0.0000000000000000     
  -6.7861800659315852E-002  0.30154018523880288        0.0000000000000000     
  -8.0940114420388606E-002  0.23171237145649573        0.0000000000000000     
  -8.1921210623702542E-002  0.24877645909551893        0.0000000000000000     
  -8.2681054608785567E-002  0.26630988376098608        0.0000000000000000     
  -8.3219646375637668E-002  0.28431264545289725        0.0000000000000000     
  -8.3536985924258858E-002  0.30278474417125234        0.0000000000000000     
  -9.6698833669704304E-002  0.23205187168048261        0.0000000000000000     
  -9.8039304524269524E-002  0.24906233829151914        0.0000000000000000     
  -9.9093865950316287E-002  0.26669776820139002        0.0000000000000000     
  -9.9862517947844648E-002  0.28495816141009528        0.0000000000000000     
 -0.10034526051685455       0.30384351791763481        0.0000000000000000     
 -0.11328178731998613       0.23246771543409894        0.0000000000000000     
 -0.11506255336431237       0.24938123336393889        0.0000000000000000     
 -0.11649028156527391       0.26706053784786077        0.0000000000000000     
 -0.11756497192287077       0.28550562888586456        0.0000000000000000     
 -0.11828662443710294       0.30471650647795023        0.0000000000000000     
 </DataArray>
 <DataArray  type="Float64" Name="stress" NumberOfComponents="3" format="ascii">
   8478226383.9947586        740542659.51315379        1580755578.5515015     
   7535843700.5757360        602562251.95358801        1062117746.1487863     
   6592302418.2943726        460719848.18621945        676693968.36135626     
   5647602537.1506643        315015448.21105075        424484245.18921536     
   4701744057.1446257        165449052.02809930        305488576.63235885     
   6540289567.5963621        682913310.30070043        1507285258.1075017     
   5908424246.5639048        566044014.89106464        1119612636.7013066     
   5277752869.1765976        453154531.63193583        832713675.09642673     
   4648275435.4344397        344244860.52329731        646588373.29286587     
   4019991945.3374362        239315001.56518054        561236731.29062033     
   5022823581.5223465        751425210.18555617        1404733353.2907872     
   4608788780.5508289        627860974.22817171        1150770575.8065178     
   4198300465.7319446        516118358.77958512        965141063.30959117     
   3791358637.0657063        416197363.83980465        847844815.80001450     
   3387963294.5521064        328097989.40882158        798881833.27778172     
   3925828425.7727103        946078359.16772711        1273099864.1013579     
   3636937302.5364962        788013129.96489990        1155591563.4644175     
   3353945207.9604111        649611329.62917209        1073976133.0008521     
   3076852142.0444570        530872958.16054386        1028253572.7106633     
   2805658104.7886286        431798015.55901396        1018423882.5938497     
   3249304100.3474522        1266872757.2472117        1112384790.5392122     
   2992869812.5209112        1046500482.1012541        1134075599.6750064     
   2744687095.8619947        853633444.18069816        1159218884.1702039     
   2504755950.3706942        688271643.48553336        1187814644.0248084     
   2273076376.0470152        550415080.01576900        1219862879.2388175     
   4701744057.1446257        165449052.02809930        305488576.63235885     
   4288596461.6809220        163276048.50728345        213617454.55280408     
   3868418538.0242300        137668617.67652154        155137732.59135666     
   3441210286.1745720        88626759.535871744        130049410.74802943     
   3006971706.1319318        16150474.085269809        138352489.02281597     
   4019991945.3374362        239315001.56518054        561236731.29062033     
   3681576060.3466673        217064950.01451862        477993140.37482828     
   3339143941.0792694        181427450.87508547        423477245.40390837     
   2992695587.5352411        132402504.14689052        397689046.37787032     
   2642230999.7145915        69990109.829953313        400628543.29671347     
   3387963294.5521064        328097989.40882158        798881833.27778172     
   3110954250.9678893        281773429.10840046        727782216.42815590     
   2832943067.0233912        232108400.94037473        680746591.35017002     
   2553929742.7186098        179102904.90474272        657774958.04382944     
   2273914278.0535541        122756941.00152075        658867316.50913525     
   2805658104.7886286        431798015.55901396        1018423882.5938497     
   2576731033.5445786        357401485.78891736        962984682.71279621     
   2349815915.8565955        289711467.87238175        926945770.43015289     
   2124912751.7246790        228727961.80939990        910307145.74591553     
   1902021541.1488314        174450967.59997952        913068808.66009200     
   2273076376.0470152        550415080.01576900        1219862879.2388175     
   2078906408.0767419        443949120.05608392        1183600539.2287467     
   1889762487.5788829        354236651.67111027        1162074782.6438472     
   1705644614.5534439        281277674.86087000        1155285609.4841225     
   1526552789.0004163        225072189.62533715        1163233019.7495711     
   3006971706.1319318        16150474.085269809        138352489.02281597     
   2719346108.7937827       -6657353.2602517605        77489687.724698797     
   2442498903.3587518        6462792.4046224356        5562034.6313204421     
   2176430089.8268390        55510911.079890132       -77430470.257335767     
   1921139668.1980400        140487002.76553726       -171487826.94126341     
   2642230999.7145915        69990109.829953313        400628543.29671347     
   2329823103.9473438        26251641.184211016        353883730.14657134     
   2026216223.5920305        11849890.578249931        303970610.30013603     
   1731410358.6486473        26784858.012060523        250889183.75741309     
   1445405509.1171844        71056543.485593498        194639450.51838997     
   2273914278.0535541        122756941.00152075        658867316.50913525     
   1959285641.2828674        64856298.283289075        623933552.26724660     
   1651480643.4329174        29701118.634179950        593728026.42804110     
   1350499284.5037038        17291402.054191947        568250738.99151433     
   1056341564.4952244        27627148.543318331        547501689.95767248     
   1902021541.1488314        174450967.59997952        913068808.66009200     
   1607733720.8003469        109156618.03694725        887639154.08672619     
   1318292162.8814058        60016476.572386980        874834283.01501894     
   1033696867.3920089        27030543.206304729        874654195.44497514     
   753947834.33215570        10198817.938707292        887098891.37658906     
   1526552789.0004163        225072189.62533715        1163233019.7495711     
   1275167342.4997818        159152600.44518718        1145000535.6050098     
   1026650781.9375004        102795964.39288336        1147289380.0610807     
   781003107.31356978        56002281.468414426        1170099553.1177909     
   538224318.62798655        18771551.671769410        1213431054.7751334     
   1921139668.1980400        140487002.76553726       -171487826.94126341     
   1586243044.6999333        153886023.20557129       -66245576.455378123     
   1209120637.6383808        26532431.767451227        64238772.661528997     
   789772447.01337087       -241573771.54886460        219965220.40943938     
   328198472.82491004       -650432586.74333930        400933766.78837031     
   1445405509.1171844        71056543.485593498        194639450.51838997     
   1167613186.8586235        59992307.216005206        277763774.82416135     
   842910170.11668205       -107440910.66484892        385217753.00079215     
   471296458.89135933       -431243110.15698600        517001385.04827857     
   52772053.182662129       -911414291.26034975        673114670.96662700     
   1056341564.4952244        27627148.543318331        547501689.95767248     
   833046558.44717669       -8682439.9446486235        603042358.67675364     
   558155946.99583340       -216977379.77693394        682000236.50654352     
   231669730.14118674       -597257670.95356596        784375323.44702113     
  -146412092.11675665       -1149523313.4745116        910167619.49820936     
   753947834.33215570        10198817.938707292        887098891.37658906     
   582543159.46561337       -52138218.276314080        909590175.10240257     
   354857968.27584827       -302076975.56874669        954586223.17875779     
   70892260.762859762       -739617453.93858695        1022087035.6056627     
  -269353963.07335019       -1364759653.3858390        1112092612.3831096     
   538224318.62798655        18771551.671769410        1213431054.7751334     
   416102989.91393083       -70375027.779016972        1197407224.1010995     
   233016233.95673010       -362739698.04028684        1202975713.0174553     
  -11035949.243622661       -858322459.11205506        1230136521.5241997     
  -316053559.68711472       -1557123310.9943044        1278889649.6213303     
   3249304100.3474522        1266872757.2472117        1112384790.5392122     
   2992869812.5209112        1046500482.1012541        1134075599.6750064     
   2744687095.8619947        853633444.18069816        1159218884.1702039     
   2504755950.3706942        688271643.48553336        1187814644.0248084     
   2273076376.0470152        550415080.01576900        1219862879.2388175     
   2548952375.7346549        983746858.07779300        1192841679.4350991     
   2324809998.8321228        808922653.40847433        1200540574.4810345     
   2106856300.3053124        654727376.65823030        1219115832.4606550     
   1895091280.1542213        521161027.82704729        1248567453.3739543     
   1689514938.3788517        408223606.91493469        1288895437.2209406     
   1773951117.4724910        678226098.81356096        1288294421.3824492     
   1603311758.8490460        555313296.82740724        1279594694.0813134     
   1436798185.8094223        446153113.45399481        1289195217.2881382     
   1274410398.3536203        350745548.69331861        1317095991.0029235     
   1116148396.4816389        269090602.54538059        1363297015.2256699     
   924300325.56096590        350310479.45452213        1398743016.3812721     
   828375092.57168627        285672412.35805750        1371237958.4758465     
   734512752.37432826        227910654.56799993        1369457038.6526630     
   642713304.96889305        177025206.08435079        1393400256.9117155     
   552976750.35538125        133016066.90711293        1443067613.2530077     
   7.6495586421975072E-005   6.7409447986924685E-004   1524187464.4315617     
   4.0169333061300302E-005   4.1839242693119739E-004   1475470367.6646359     
   2.8960350601142472E-005   2.4641461032820440E-004   1459901296.5542240     
   4.1027163351618506E-005   1.5167583306546222E-004   1477480251.1003287     
   7.6587088319609009E-005   1.3455354047071095E-004   1528207231.3029506     
   2273076376.0470152        550415080.01576900        1219862879.2388175     
   2078906408.0767419        443949120.05608392        1183600539.2287467     
   1889762487.5788829        354236651.67111027        1162074782.6438472     
   1705644614.5534439        281277674.86087000        1155285609.4841225     
   1526552789.0004163        225072189.62533715        1163233019.7495711     
   1689514938.3788517        408223606.91493469        1288895437.2209406     
   1542039307.3817973        327819690.43936372        1261547685.6110513     
   1398333211.9890530        259980892.64482495        1249367753.5975158     
   1258396652.2006216        204707213.53132993        1252355641.1803324     
   1122229628.0165000        161998653.09886751        1270511348.3595026     
   1116148396.4816389        269090602.54538059        1363297015.2256699     
   1016599205.8040352        215118360.55779621        1343397921.5031724     
   919563038.86263812        169522864.35756749        1339097883.5482087     
   825039895.65744591        132304113.94468883        1350396901.3607793     
   733029776.18845940        103462109.31916063        1377294974.9408836     
   552976750.35538125        133016066.90711293        1443067613.2530077     
   502586103.34345824        105845130.41138524        1429151246.9051123     
   453451968.19963783        82862566.809332669        1431265172.4959326     
   405574344.92391443        64068376.100936845        1449409390.0254669     
   358953233.51629430        49462558.286217980        1483583899.4937174     
   7.6587088319609009E-005   1.3455354047071095E-004   1528207231.3029506     
   6.4646090678379645E-005   1.3013857390987326E-004   1518807661.8168700     
   4.9868534210498101E-005   1.1696230065058569E-004   1525869620.4406841     
   2.9497924249741884E-005   8.5142515748382538E-005   1549393107.1743946     
   3.6600759053576597E-006   3.4404713510361991E-005   1589378122.0180006     
   1526552789.0004163        225072189.62533715        1163233019.7495711     
   1275167342.4997818        159152600.44518718        1145000535.6050098     
   1026650781.9375004        102795964.39288336        1147289380.0610807     
   781003107.31356978        56002281.468414426        1170099553.1177909     
   538224318.62798655        18771551.671769410        1213431054.7751334     
   1122229628.0165000        161998653.09886751        1270511348.3595026     
   929943066.70558739        111434718.28312108        1260937882.3990335     
   739808169.84843695        68042998.313244551        1272760156.2074668     
   551824937.44505239        31823493.189258367        1305978169.7848039     
   365993369.49543011        2776202.9111449569        1360591923.1310482     
   733029776.18845940        103462109.31916063        1377294974.9408836     
   602340417.69089210        69003324.154890582        1375543768.7658224     
   473085502.16250193        39326015.554547220        1396062713.5279326     
   345265029.60329270        14430183.518139556        1438851809.2272198     
   218879000.01325750       -5684171.9543560147        1503911055.8636756     
   358953233.51629430        49462558.286217980        1483583899.4937174     
   292359395.45569980        31858418.060519770        1488818194.7053795     
   226482778.87969738        16645016.116794221        1517197052.0224783     
   161323383.78828633        3822352.4550417811        1568720471.4450250     
   96881210.181465998       -6609572.9247418158        1643388452.9730096     
   3.6600759053576597E-006   3.4404713510361991E-005   1589378122.0180006     
   9.3331935586620304E-006  -2.1960455432145958E-006   1600761160.2176979     
   2.0770930762904713E-005  -1.9581406093663475E-005   1636163171.6911082     
   3.6440630732717191E-005  -2.2166334701822319E-005   1695584156.4382317     
   5.3803115808757583E-005  -2.0496425070002886E-005   1779024114.4590666     
   538224318.62798655        18771551.671769410        1213431054.7751334     
   416102989.91393083       -70375027.779016972        1197407224.1010995     
   233016233.95673010       -362739698.04028684        1202975713.0174553     
  -11035949.243622661       -858322459.11205506        1230136521.5241997     
  -316053559.68711472       -1557123310.9943044        1278889649.6213303     
   365993369.49543011        2776202.9111449569        1360591923.1310482     
   301019701.70876777       -56098533.052282214        1288018000.0032327     
   190321963.48975053       -267386837.12355778        1230825686.4243982     
   33900154.838372290       -631088709.30270946        1189014982.3945487     
  -168245724.24536633       -1147204149.5897207        1162585887.9136851     
   218879000.01325750       -5684171.9543560147        1503911055.8636756     
   193308107.32140297       -39610530.180190518        1392568623.2279956     
   137254501.00797457       -175145933.81126720        1290397090.0998933     
   50718181.072973758       -412290382.84758532        1197396456.4793668     
  -66300852.483598143       -751043877.28914452        1113566722.3664248     
   96881210.181465998       -6609572.9247418158        1643388452.9730096     
   92968206.751827538       -20911019.162765779        1511059093.7753875     
   73813846.511401176       -86016988.103416085        1381689924.0439332     
   39418129.460194349       -201927479.74667040        1255280943.7786500     
  -10218944.401802689       -368642494.09255672        1131832152.9795427     
   5.3803115808757583E-005  -2.0496425070002886E-005   1779024114.4590666     
   4.3097393785586432E-005  -1.0385465381452358E-005   1643489411.6454132     
   3.2437422711232250E-005   5.7188686021213491E-007   1504704188.2565253     
   2.4751263309981170E-005   2.1788889374082313E-005   1362668444.2924037     
   1.7751368140984646E-005   4.5293439328801035E-005   1217382179.7530494     
   7.6495586421975072E-005   6.7409447986924685E-004   1524187464.4315617     
   4.0169333061300302E-005   4.1839242693119739E-004   1475470367.6646359     
   2.8960350601142472E-005   2.4641461032820440E-004   1459901296.5542240     
   4.1027163351618506E-005   1.5167583306546222E-004   1477480251.1003287     
   7.6587088319609009E-005   1.3455354047071095E-004   1528207231.3029506     
  -924300325.56093168       -350310479.45359093        1398743016.3811133     
  -828375092.57166231       -285672412.35742289        1371237958.4757359     
  -734512752.37428916       -227910654.56757581        1369457038.6525962     
  -642713304.96881318       -177025206.08405095        1393400256.9116907     
  -552976750.35523343       -133016066.90684879        1443067613.2530231     
  -1773951117.4725618       -678226098.81304169        1288294421.3822198     
  -1603311758.8490720       -555313296.82697463        1279594694.0811515     
  -1436798185.8093998       -446153113.45363402        1289195217.2880402     
  -1274410398.3535452       -350745548.69301772        1317095991.0028839     
  -1116148396.4815066       -269090602.54512358        1363297015.2256868     
  -2548952375.7348146       -983746858.07767987        1192841679.4348845     
  -2324809998.8321891       -808922653.40823948        1200540574.4808824     
  -2106856300.3053026       -654727376.65792823        1219115832.4605594     
  -1895091280.1541529       -521161027.82674336        1248567453.3739138     
  -1689514938.3787422       -408223606.91468501        1288895437.2209437     
  -3249304100.3476882       -1266872757.2475040        1112384790.5391009     
  -2992869812.5210133       -1046500482.1012181        1134075599.6749282     
  -2744687095.8619981       -853633444.18046510        1159218884.1701539     
  -2504755950.3706398       -688271643.48523748        1187814644.0247743     
  -2273076376.0469398       -550415080.01553500        1219862879.2387936     
   7.6587088319609009E-005   1.3455354047071095E-004   1528207231.3029506     
   6.4646090678379645E-005   1.3013857390987326E-004   1518807661.8168700     
   4.9868534210498101E-005   1.1696230065058569E-004   1525869620.4406841     
   2.9497924249741884E-005   8.5142515748382538E-005   1549393107.1743946     
   3.6600759053576597E-006   3.4404713510361991E-005   1589378122.0180006     
  -552976750.35523343       -133016066.90684879        1443067613.2530231     
  -502586103.34334159       -105845130.41115603        1429151246.9051173     
  -453451968.19955349       -82862566.809142485        1431265172.4959292     
  -405574344.92386901       -64068376.100806631        1449409390.0254557     
  -358953233.51628649       -49462558.286147378        1483583899.4936976     
  -1116148396.4815066       -269090602.54512358        1363297015.2256868     
  -1016599205.8039397       -215118360.55760348        1343397921.5031760     
  -919563038.86257589       -169522864.35742617        1339097883.5482013     
  -825039895.65741479       -132304113.94459264        1350396901.3607619     
  -733029776.18845773       -103462109.31910345        1377294974.9408593     
  -1689514938.3787422       -408223606.91468501        1288895437.2209437     
  -1542039307.3817306       -327819690.43921018        1261547685.6110456     
  -1398333211.9890184       -259980892.64473832        1249367753.5975015     
  -1258396652.2006109       -204707213.53127873        1252355641.1803157     
  -1122229628.0165036       -161998653.09882033        1270511348.3594830     
  -2273076376.0469398       -550415080.01553500        1219862879.2387936     
  -2078906408.0767083       -443949120.05596554        1183600539.2287250     
  -1889762487.5788798       -354236651.67107236        1162074782.6438296     
  -1705644614.5534513       -281277674.86084461        1155285609.4841108     
  -1526552789.0004263       -225072189.62529686        1163233019.7495685     
   3.6600759053576597E-006   3.4404713510361991E-005   1589378122.0180006     
   9.3331935586620304E-006  -2.1960455432145958E-006   1600761160.2176979     
   2.0770930762904713E-005  -1.9581406093663475E-005   1636163171.6911082     
   3.6440630732717191E-005  -2.2166334701822319E-005   1695584156.4382317     
   5.3803115808757583E-005  -2.0496425070002886E-005   1779024114.4590666     
  -358953233.51628649       -49462558.286147378        1483583899.4936976     
  -292359395.45567751       -31858418.060506016        1488818194.7053640     
  -226482778.87964779       -16645016.116796605        1517197052.0224731     
  -161323383.78821027       -3822352.4550603405        1568720471.4450240     
  -96881210.181354463        6609572.9247361422        1643388452.9730167     
  -733029776.18845773       -103462109.31910345        1377294974.9408593     
  -602340417.69086862       -69003324.154855251        1375543768.7658055     
  -473085502.16245329       -39326015.554521829        1396062713.5279233     
  -345265029.60321909       -14430183.518123910        1438851809.2272131     
  -218879000.01315913        5684171.9543621838        1503911055.8636756     
  -1122229628.0165036       -161998653.09882033        1270511348.3594830     
  -929943066.70556641       -111434718.28306276        1260937882.3990185     
  -739808169.84839547       -68042998.313191116        1272760156.2074568     
  -551824937.44499063       -31823493.189207941        1305978169.7847960     
  -365993369.49535799       -2776202.9111308306        1360591923.1310380     
  -1526552789.0004263       -225072189.62529686        1163233019.7495685     
  -1275167342.4997685       -159152600.44511488        1145000535.6050065     
  -1026650781.9374683       -102795964.39278796        1147289380.0610750     
  -781003107.31353199       -56002281.468339980        1170099553.1177738     
  -538224318.62794614       -18771551.671730667        1213431054.7751052     
   5.3803115808757583E-005  -2.0496425070002886E-005   1779024114.4590666     
   4.3097393785586432E-005  -1.0385465381452358E-005   1643489411.6454132     
   3.2437422711232250E-005   5.7188686021213491E-007   1504704188.2565253     
   2.4751263309981170E-005   2.1788889374082313E-005   1362668444.2924037     
   1.7751368140984646E-005   4.5293439328801035E-005   1217382179.7530494     
  -96881210.181354463        6609572.9247361422        1643388452.9730167     
  -92968206.751743197        20911019.162752360        1511059093.7753925     
  -73813846.511342391        86016988.103403553        1381689924.0439367     
  -39418129.460151717        201927479.74668398        1255280943.7786636     
   10218944.401825234        368642494.09258676        1131832152.9795549     
  -218879000.01315913        5684171.9543621838        1503911055.8636756     
  -193308107.32132712        39610530.180180818        1392568623.2279932     
  -137254501.00792187        175145933.81124473        1290397090.0998921     
  -50718181.072940946        412290382.84756225        1197396456.4793751     
   66300852.483613133        751043877.28912234        1113566722.3664351     
  -365993369.49535799       -2776202.9111308306        1360591923.1310380     
  -301019701.70871133        56098533.052266687        1288018000.0032189     
  -190321963.48970756        267386837.12352091        1230825686.4243906     
  -33900154.838339627        631088709.30265427        1189014982.3945484     
   168245724.24538720        1147204149.5896537        1162585887.9136994     
  -538224318.62794614       -18771551.671730667        1213431054.7751052     
  -416102989.91389418        70375027.779011279        1197407224.1010675     
  -233016233.95669773        362739698.04023993        1202975713.0174277     
   11035949.243650138        858322459.11197245        1230136521.5241792     
   316053559.68714130        1557123310.9941792        1278889649.6213355     
  -3249304100.3476882       -1266872757.2475040        1112384790.5391009     
  -2992869812.5210133       -1046500482.1012181        1134075599.6749282     
  -2744687095.8619981       -853633444.18046510        1159218884.1701539     
  -2504755950.3706398       -688271643.48523748        1187814644.0247743     
  -2273076376.0469398       -550415080.01553500        1219862879.2387936     
  -3925828425.7727861       -946078359.16754997        1273099864.1013155     
  -3636937302.5365386       -788013129.96471357        1155591563.4643629     
  -3353945207.9604273       -649611329.62899542        1073976133.0007887     
  -3076852142.0444493       -530872958.16039342        1028253572.7105911     
  -2805658104.7886095       -431798015.55891258        1018423882.5937686     
  -5022823581.5223255       -751425210.18492675        1404733353.2906840     
  -4608788780.5508490       -627860974.22783732        1150770575.8063960     
  -4198300465.7319870       -516118358.77946258        965141063.30946612     
  -3791358637.0657372       -416197363.83979189        847844815.79989100     
  -3387963294.5521007       -328097989.40883899        798881833.27767646     
  -6540289567.5963182       -682913310.29963970        1507285258.1072097     
  -5908424246.5639534       -566044014.89060664        1119612636.7010283     
  -5277752869.1766815       -453154531.63187432        832713675.09618556     
  -4648275435.4344988       -344244860.52343726        646588373.29267716     
  -4019991945.3374081       -239315001.56531346        561236731.29050827     
  -8478226383.9947443       -740542659.51168394        1580755578.5508904     
  -7535843700.5758381       -602562251.95300555        1062117746.1482605     
  -6592302418.2945032       -460719848.18622494        676693968.36094820     
  -5647602537.1507339       -315015448.21132112        424484245.18895084     
  -4701744057.1445322       -165449052.02832079        305488576.63227111     
  -2273076376.0469398       -550415080.01553500        1219862879.2387936     
  -2078906408.0767083       -443949120.05596554        1183600539.2287250     
  -1889762487.5788798       -354236651.67107236        1162074782.6438296     
  -1705644614.5534513       -281277674.86084461        1155285609.4841108     
  -1526552789.0004263       -225072189.62529686        1163233019.7495685     
  -2805658104.7886095       -431798015.55891258        1018423882.5937686     
  -2576731033.5445824       -357401485.78887600        962984682.71274352     
  -2349815915.8566146       -289711467.87237138        926945770.43012178     
  -2124912751.7247071       -228727961.80940104        910307145.74590743     
  -1902021541.1488602       -174450967.59996647        913068808.66009808     
  -3387963294.5521007       -328097989.40883899        798881833.27767646     
  -3110954250.9679022       -281773429.10842049        727782216.42808950     
  -2832943067.0234222       -232108400.94039249        680746591.35013878     
  -2553929742.7186604       -179102904.90476489        657774958.04382586     
  -2273914278.0536203       -122756941.00153565        658867316.50914872     
  -4019991945.3374081       -239315001.56531346        561236731.29050827     
  -3681576060.3466649       -217064950.01459014        477993140.37476164     
  -3339143941.0793009       -181427450.87513161        423477245.40388143     
  -2992695587.5353127       -132402504.14692938        397689046.37786788     
  -2642230999.7147064       -69990109.829995155        400628543.29672194     
  -4701744057.1445322       -165449052.02832079        305488576.63227111     
  -4288596461.6808758       -163276048.50740600        213617454.55276117     
  -3868418538.0242534       -137668617.67659426        155137732.59134817     
  -3441210286.1746707       -88626759.535919309        130049410.74803610     
  -3006971706.1321225       -16150474.085360169        138352489.02281597     
  -1526552789.0004263       -225072189.62529686        1163233019.7495685     
  -1275167342.4997685       -159152600.44511488        1145000535.6050065     
  -1026650781.9374683       -102795964.39278796        1147289380.0610750     
  -781003107.31353199       -56002281.468339980        1170099553.1177738     
  -538224318.62794614       -18771551.671730667        1213431054.7751052     
  -1902021541.1488602       -174450967.59996647        913068808.66009808     
  -1607733720.8003621       -109156618.03691190        887639154.08672297     
  -1318292162.8814108       -60016476.572345674        874834283.01500821     
  -1033696867.3920063       -27030543.206269860        874654195.44495308     
  -753947834.33215106       -10198817.938695908        887098891.37655771     
  -2273914278.0536203       -122756941.00153565        658867316.50914872     
  -1959285641.2829113       -64856298.283292294        623933552.26724160     
  -1651480643.4329379       -29701118.634161830        593728026.42802060     
  -1350499284.5037074       -17291402.054177880        568250738.99148893     
  -1056341564.4952137       -27627148.543316782        547501689.95764899     
  -2642230999.7147064       -69990109.829995155        400628543.29672194     
  -2329823103.9474230       -26251641.184259772        353883730.14656192     
  -2026216223.5920668       -11849890.578285456        303970610.30011427     
  -1731410358.6486359       -26784858.012062430        250889183.75738868     
  -1445405509.1171358       -71056543.485606313        194639450.51837406     
  -3006971706.1321225       -16150474.085360169        138352489.02281597     
  -2719346108.7938886        6657353.2601866722        77489687.724680871     
  -2442498903.3587775       -6462792.4046585560        5562034.6312877759     
  -2176430089.8267860       -55510911.079904556       -77430470.257360265     
  -1921139668.1979024       -140487002.76552254       -171487826.94125444     
  -538224318.62794614       -18771551.671730667        1213431054.7751052     
  -416102989.91389418        70375027.779011279        1197407224.1010675     
  -233016233.95669773        362739698.04023993        1202975713.0174277     
   11035949.243650138        858322459.11197245        1230136521.5241792     
   316053559.68714130        1557123310.9941792        1278889649.6213355     
  -753947834.33215106       -10198817.938695908        887098891.37655771     
  -582543159.46559727        52138218.276300579        909590175.10237968     
  -354857968.27582073        302076975.56869501        954586223.17874444     
  -70892260.762823433        739617453.93849552        1022087035.6056679     
   269353963.07339704        1364759653.3857064        1112092612.3831275     
  -1056341564.4952137       -27627148.543316782        547501689.95764899     
  -833046558.44715261        8682439.9446283579        603042358.67674661     
  -558155946.99579263        216977379.77689499        682000236.50654495     
  -231669730.14113984        597257670.95347881        784375323.44704139     
   146412092.11681062        1149523313.4743745        910167619.49823499     
  -1445405509.1171358       -71056543.485606313        194639450.51837406     
  -1167613186.8585563       -59992307.215992093        277763774.82416970     
  -842910170.11660814        107440910.66484547        385217753.00081712     
  -471296458.89129317        431243110.15691119        517001385.04831100     
  -52772053.182610989        911414291.26019526        673114670.96665967     
  -1921139668.1979024       -140487002.76552254       -171487826.94125444     
  -1586243044.6998127       -153886023.20556837       -66245576.455348015     
  -1209120637.6382730       -26532431.767458916        64238772.661566146     
  -789772447.01329839        241573771.54878974        219965220.40947780     
  -328198472.82487643        650432586.74316287        400933766.78839594     
 </DataArray>
 <DataArray  type="Float64" Name="VM" NumberOfComponents="1" format="ascii">
   8581759862.1629267     
   7483013358.0296211     
   6481300298.8488550     
   5545820744.3917093     
   4651434325.2309895     
   6752113296.3234482     
   5970431482.7956324     
   5267696170.2643147     
   4623748878.5775852     
   4024987271.7203603     
   5285730573.3145084     
   4765950436.9378023     
   4303461029.3409605     
   3889240232.4154253     
   3519800588.2971334     
   4177966199.8137512     
   3871498272.3709240     
   3598952171.7165155     
   3359664244.0304465     
   3155669649.8737984     
   3429094434.6163716     
   3283104577.8961058     
   3154426394.2318573     
   3042413288.3832889     
   2946675039.5458231     
   4651434325.2309895     
   4225563967.7943053     
   3810939247.6290174     
   3405222190.5981522     
   3008487974.7694788     
   4024987271.7203603     
   3672521025.6532044     
   3333914326.7287288     
   3008651964.8581944     
   2698677995.3474975     
   3519800588.2971334     
   3235714640.3104444     
   2968524652.1539454     
   2719415825.4546552     
   2491773479.2549219     
   3155669649.8737984     
   2937408660.5079293     
   2739066326.0994778     
   2562717506.6751051     
   2411927348.1772218     
   2946675039.5458231     
   2792623267.3929057     
   2660548088.3013763     
   2551986569.0581226     
   2469163725.6479816     
   3008487974.7694788     
   2725987010.7097840     
   2439292952.0500741     
   2153392721.5297780     
   1878521571.1186571     
   2698677995.3474975     
   2396519194.0795183     
   2087792269.3351312     
   1772275324.4394426     
   1450928718.3868916     
   2491773479.2549219     
   2209935243.9665499     
   1933069723.9539709     
   1664188087.6334171     
   1409507487.1818113     
   2411927348.1772218     
   2187450093.6470904     
   1989568300.3306956     
   1826575583.1375577     
   1709293803.1036615     
   2469163725.6479816     
   2319808997.0193839     
   2215369505.5062904     
   2162582494.5973740     
   2167297685.3179803     
   1878521571.1186571     
   1519510677.8862352     
   1201239208.1600401     
   1008980083.2630674     
   1107470733.3199775     
   1450928718.3868916     
   1236256432.0760765     
   1121508935.3801703     
   1188783251.6422849     
   1496932925.7425265     
   1409507487.1818113     
   1338751317.1213536     
   1369341968.6742580     
   1547413343.9159014     
   1913047705.2143126     
   1709293803.1036615     
   1689529682.7156537     
   1748734877.2981336     
   1933514564.0195103     
   2297339109.3180685     
   2167297685.3179803     
   2123376976.2368710     
   2147522430.7315745     
   2295010766.3497849     
   2634210451.0928760     
   3429094434.6163716     
   3283104577.8961058     
   3154426394.2318573     
   3042413288.3832889     
   2946675039.5458231     
   3037434117.8229728     
   2915887331.4768434     
   2819011377.8159719     
   2748107369.5409403     
   2704655560.7753706     
   2717142029.9461446     
   2626923839.4767904     
   2570696903.2194057     
   2550367831.7993503     
   2567798318.7892942     
   2553958204.6828156     
   2484361231.0689363     
   2459733056.6201515     
   2480994697.4132929     
   2548971199.7833323     
   2639970128.6550460     
   2555589641.8574810     
   2528623219.6675944     
   2559070862.0853920     
   2646932569.1108737     
   2946675039.5458231     
   2792623267.3929057     
   2660548088.3013763     
   2551986569.0581226     
   2469163725.6479816     
   2704655560.7753706     
   2598912814.1919003     
   2518361624.3129401     
   2464355546.8602648     
   2438532442.3366661     
   2567798318.7892942     
   2505037849.2730761     
   2469412207.1551394     
   2461656842.3002310     
   2482543171.4267712     
   2548971199.7833323     
   2517542363.2673469     
   2514054629.5639691     
   2538695246.7933574     
   2591640944.2282214     
   2646932569.1108737     
   2630652037.1917081     
   2642883708.3291030     
   2683627582.5230622     
   2752883659.7735839     
   2469163725.6479816     
   2319808997.0193839     
   2215369505.5062904     
   2162582494.5973740     
   2167297685.3179803     
   2438532442.3366661     
   2354458937.8245330     
   2315461607.8502779     
   2324800946.1091409     
   2384653837.7357206     
   2482543171.4267712     
   2449974270.4376292     
   2460431905.2450919     
   2515018393.5456791     
   2614274251.9058456     
   2591640944.2282214     
   2593629448.8082814     
   2636941861.3581653     
   2721777904.6599703     
   2848200628.6178770     
   2752883659.7735839     
   2772599660.2799568     
   2833917742.8420396     
   2936837907.4598331     
   3081360154.1333332     
   2167297685.3179803     
   2123376976.2368710     
   2147522430.7315745     
   2295010766.3497849     
   2634210451.0928760     
   2384653837.7357206     
   2255574821.3947892     
   2168733125.4427032     
   2159186436.9585276     
   2281707613.1454406     
   2614274251.9058456     
   2421639148.6499004     
   2251428083.3153939     
   2120080454.5912640     
   2058825003.4479408     
   2848200628.6178770     
   2619336399.3167958     
   2397164531.1805401     
   2185744459.6719589     
   1993832150.8289297     
   3081360154.1333332     
   2846607162.6713371     
   2606224104.4219866     
   2360210979.3852835     
   2108567787.5612292     
   2639970128.6550460     
   2555589641.8574810     
   2528623219.6675944     
   2559070862.0853920     
   2646932569.1108737     
   2553958204.6825852     
   2484361231.0687795     
   2459733056.6200538     
   2480994697.4132509     
   2548971199.7833457     
   2717142029.9458957     
   2626923839.4766078     
   2570696903.2192860     
   2550367831.7992902     
   2567798318.7892995     
   3037434117.8228388     
   2915887331.4767275     
   2819011377.8158841     
   2748107369.5408916     
   2704655560.7753553     
   3429094434.6164122     
   3283104577.8961058     
   3154426394.2318430     
   3042413288.3832650     
   2946675039.5457888     
   2646932569.1108737     
   2630652037.1917081     
   2642883708.3291030     
   2683627582.5230622     
   2752883659.7735839     
   2548971199.7833457     
   2517542363.2673478     
   2514054629.5639601     
   2538695246.7933383     
   2591640944.2281899     
   2567798318.7892995     
   2505037849.2730699     
   2469412207.1551228     
   2461656842.3002038     
   2482543171.4267364     
   2704655560.7753553     
   2598912814.1918826     
   2518361624.3129168     
   2464355546.8602433     
   2438532442.3366446     
   2946675039.5457888     
   2792623267.3928809     
   2660548088.3013601     
   2551986569.0581169     
   2469163725.6479926     
   2752883659.7735839     
   2772599660.2799568     
   2833917742.8420396     
   2936837907.4598331     
   3081360154.1333332     
   2591640944.2281899     
   2593629448.8082528     
   2636941861.3581519     
   2721777904.6599636     
   2848200628.6178851     
   2482543171.4267364     
   2449974270.4375982     
   2460431905.2450690     
   2515018393.5456591     
   2614274251.9058380     
   2438532442.3366446     
   2354458937.8245101     
   2315461607.8502555     
   2324800946.1091185     
   2384653837.7356930     
   2469163725.6479926     
   2319808997.0193872     
   2215369505.5062857     
   2162582494.5973444     
   2167297685.3179278     
   3081360154.1333332     
   2846607162.6713371     
   2606224104.4219866     
   2360210979.3852835     
   2108567787.5612292     
   2848200628.6178851     
   2619336399.3168011     
   2397164531.1805429     
   2185744459.6719809     
   1993832150.8289537     
   2614274251.9058380     
   2421639148.6498890     
   2251428083.3153839     
   2120080454.5912695     
   2058825003.4479473     
   2384653837.7356930     
   2255574821.3947558     
   2168733125.4426780     
   2159186436.9585056     
   2281707613.1454277     
   2167297685.3179278     
   2123376976.2368083     
   2147522430.7315116     
   2295010766.3497157     
   2634210451.0928125     
   3429094434.6164122     
   3283104577.8961058     
   3154426394.2318430     
   3042413288.3832650     
   2946675039.5457888     
   4177966199.8138180     
   3871498272.3709602     
   3598952171.7165232     
   3359664244.0304193     
   3155669649.8737350     
   5285730573.3146162     
   4765950436.9378500     
   4303461029.3409605     
   3889240232.4153781     
   3519800588.2970505     
   6752113296.3236179     
   5970431482.7957048     
   5267696170.2643070     
   4623748878.5775032     
   4024987271.7202272     
   8581759862.1631756     
   7483013358.0297422     
   6481300298.8488522     
   5545820744.3915958     
   4651434325.2307749     
   2946675039.5457888     
   2792623267.3928809     
   2660548088.3013601     
   2551986569.0581169     
   2469163725.6479926     
   3155669649.8737350     
   2937408660.5078936     
   2739066326.0994649     
   2562717506.6751180     
   2411927348.1772547     
   3519800588.2970505     
   3235714640.3104033     
   2968524652.1539450     
   2719415825.4546890     
   2491773479.2549853     
   4024987271.7202272     
   3672521025.6531448     
   3333914326.7287288     
   3008651964.8582454     
   2698677995.3475924     
   4651434325.2307749     
   4225563967.7941957     
   3810939247.6290054     
   3405222190.5982285     
   3008487974.7696247     
   2469163725.6479926     
   2319808997.0193872     
   2215369505.5062857     
   2162582494.5973444     
   2167297685.3179278     
   2411927348.1772547     
   2187450093.6471086     
   1989568300.3306968     
   1826575583.1375339     
   1709293803.1036129     
   2491773479.2549853     
   2209935243.9665828     
   1933069723.9539771     
   1664188087.6333995     
   1409507487.1817765     
   2698677995.3475924     
   2396519194.0795674     
   2087792269.3351398     
   1772275324.4394205     
   1450928718.3868322     
   3008487974.7696247     
   2725987010.7098556     
   2439292952.0500813     
   2153392721.5297208     
   1878521571.1185257     
   2167297685.3179278     
   2123376976.2368083     
   2147522430.7315116     
   2295010766.3497157     
   2634210451.0928125     
   1709293803.1036129     
   1689529682.7156084     
   1748734877.2980895     
   1933514564.0194738     
   2297339109.3180146     
   1409507487.1817765     
   1338751317.1213226     
   1369341968.6742263     
   1547413343.9158759     
   1913047705.2142601     
   1450928718.3868322     
   1236256432.0760260     
   1121508935.3801353     
   1188783251.6422470     
   1496932925.7424564     
   1878521571.1185257     
   1519510677.8861127     
   1201239208.1599350     
   1008980083.2629799     
   1107470733.3198557     
 </DataArray>
 <DataArray  type="Float64" Name="strain" NumberOfComponents="3" format="ascii">
  0.13760105976901355       -3.0048754261421229E-002   6.8499408403898399E-002
  0.12258458374982767       -2.7636514303652215E-002   4.6025102333114076E-002
  0.10756810773064177       -2.5282847955034868E-002   2.9323405295658772E-002
   9.2551631711455820E-002  -2.2987755215569141E-002   1.8394317291532666E-002
   7.7535155692269930E-002  -2.0751236085254809E-002   1.3237838320735551E-002
  0.10559025957510254       -2.1319559332970139E-002   6.5315694517991740E-002
   9.5643517368276421E-002  -2.0108054317968443E-002   4.8516547590389952E-002
   8.5696775161450273E-002  -1.8836188818684055E-002   3.6084259254178491E-002
   7.5750032954624166E-002  -1.7503962835117241E-002   2.8018829509357523E-002
   6.5803290747798032E-002  -1.6111376367267505E-002   2.4320258355926883E-002
   7.9956600307778000E-002  -1.2590364404519133E-002   6.0871778642600780E-002
   7.3673841471372958E-002  -1.2579594332284616E-002   4.9866724951615773E-002
   6.7391082634967819E-002  -1.2389529682333304E-002   4.1822779410082285E-002
   6.1108323798562750E-002  -1.2020170454665120E-002   3.6739942018000626E-002
   5.4825564962157666E-002  -1.1471516649280172E-002   3.4618212775370541E-002
   6.0700081967039868E-002  -3.8611694760680992E-003   5.5167660777725516E-002
   5.6675556059117102E-002  -5.0511343466008163E-003   5.0075634416791429E-002
   5.2651030151194329E-002  -5.9428705459825225E-003   4.6538965763370257E-002
   4.8626504243271564E-002  -6.5363780742132204E-003   4.4557654817462079E-002
   4.4601978335348735E-002  -6.8316569312929093E-003   4.4131701579066818E-002
   4.7820704552888144E-002   4.8680254523829347E-003   4.8203340923365867E-002
   4.4648661131508921E-002   2.4773256390830112E-003   4.9143275985916945E-002
   4.1476617710129754E-002   5.0378859036832868E-004   5.0232818314042166E-002
   3.8304574288750573E-002  -1.0525856937612481E-003   5.1471967907741695E-002
   3.5132530867371406E-002  -2.1917972133055907E-003   5.2860724767015421E-002
   7.7535155692269930E-002  -2.0751236085254809E-002   1.3237838320735551E-002
   7.0660227452145619E-002  -1.8721714833283221E-002   9.2567563639548434E-003
   6.3785299212021224E-002  -1.7047615728845791E-002   6.7226350789587885E-003
   5.6910370971896843E-002  -1.5728938771941665E-002   5.6354744657479416E-003
   5.0035442731772517E-002  -1.4765683962571829E-002   5.9952745243220251E-003
   6.5803290747798032E-002  -1.6111376367267505E-002   2.4320258355926883E-002
   6.0274276255705195E-002  -1.4790131134824691E-002   2.0713036082909225E-002
   5.4745261763612399E-002  -1.3671928857478255E-002   1.8350680634169364E-002
   4.9216247271519568E-002  -1.2756769535228030E-002   1.7233192009707715E-002
   4.3687232779426766E-002  -1.2044653168073738E-002   1.7360570209524251E-002
   5.4825564962157666E-002  -1.1471516649280172E-002   3.4618212775370541E-002
   5.0440370370589488E-002  -1.0858547436366106E-002   3.1537229378553425E-002
   4.6055175779021316E-002  -1.0296241986110712E-002   2.9499018958507366E-002
   4.1669981187453117E-002  -9.7846002985140044E-003   2.8503581515232610E-002
   3.7284786595884967E-002  -9.3236223735757573E-003   2.8550917048729196E-002
   4.4601978335348735E-002  -6.8316569312929093E-003   4.4131701579066818E-002
   4.1158509796798394E-002  -6.9269637379076043E-003   4.1729336250887837E-002
   3.7715041258248018E-002  -6.9205551147432827E-003   4.0167650051973293E-002
   3.4271572719697649E-002  -6.8124310618000632E-003   3.9446642982323005E-002
   3.0828104181147294E-002  -6.6025915790778322E-003   3.9566315041937319E-002
   3.5132530867371406E-002  -2.1917972133055907E-003   5.2860724767015421E-002
   3.2428694534331948E-002  -2.9953800394489777E-003   5.1289356699912358E-002
   2.9724858201292496E-002  -3.5448682433759093E-003   5.0356573914566716E-002
   2.7021021868253049E-002  -3.8402618250860526E-003   5.0062376410978646E-002
   2.4317185535213587E-002  -3.8815607845797961E-003   5.0406764189148079E-002
   5.0035442731772517E-002  -1.4765683962571829E-002   5.9952745243220251E-003
   4.5355721912864300E-002  -1.3707686431639776E-002   3.3578864680702813E-003
   4.0676001093956082E-002  -1.2104781310050050E-002   2.4102150069055250E-004
   3.5996280275047865E-002  -9.9569685978026928E-003  -3.3553203778178831E-003
   3.1316559456139648E-002  -7.2642482948979126E-003  -7.4311391674547478E-003
   4.3687232779426766E-002  -1.2044653168073738E-002   1.7360570209524251E-002
   3.8699126859868010E-002  -1.1211588166666536E-002   1.5334961639684758E-002
   3.3711020940309255E-002  -9.9335829416559857E-003   1.3172059779672562E-002
   2.8722915020750486E-002  -8.2106374930422284E-003   1.0871864629487901E-002
   2.3734809101191773E-002  -6.0427518208260311E-003   8.4343761891302327E-003
   3.7284786595884967E-002  -9.3236223735757573E-003   2.8550917048729196E-002
   3.2330479196631345E-002  -8.7154899016928522E-003   2.7037120598247352E-002
   2.7376171797377724E-002  -7.7623845732615881E-003   2.5728214478548450E-002
   2.2421864398124103E-002  -6.4643063882819859E-003   2.4624198689632289E-002
   1.7467556998870482E-002  -4.8212553467541497E-003   2.3725073231499139E-002
   3.0828104181147294E-002  -6.6025915790778322E-003   3.9566315041937319E-002
   2.6249778923154377E-002  -6.2193916367192792E-003   3.8464363343758134E-002
   2.1671453665161496E-002  -5.5911862048672462E-003   3.7909485597317487E-002
   1.7093128407168624E-002  -4.7179752835216325E-003   3.7901681802615592E-002
   1.2514803149175725E-002  -3.5997588726823238E-003   3.8440951959652192E-002
   2.4317185535213587E-002  -3.8815607845797961E-003   5.0406764189148079E-002
   2.0457026039437096E-002  -3.7232933717457894E-003   4.9616689876217090E-002
   1.6596866543660591E-002  -3.4199878364727793E-003   4.9715873135980165E-002
   1.2736707047884092E-002  -2.9716441787609425E-003   5.0704313968437609E-002
   8.8765475521075943E-003  -2.3782623986104423E-003   5.2582012373589115E-002
   3.1316559456139648E-002  -7.2642482948979126E-003  -7.4311391674547478E-003
   2.5667953962304368E-002  -5.3664481700734790E-003  -2.8706416463997186E-003
   2.0019348468469089E-002  -5.6033959920677168E-003   2.7836801486662566E-003
   1.4370742974633838E-002  -7.9750917608812644E-003   9.5318262177423729E-003
   8.7221374807985308E-003  -1.2481535476513539E-002   1.7373796560829380E-002
   2.3734809101191773E-002  -6.0427518208260311E-003   8.4343761891302327E-003
   1.9160258244897033E-002  -4.8381941473596979E-003   1.2036430242380325E-002
   1.4585707388602279E-002  -6.0052326949975587E-003   1.6692769296700993E-002
   1.0011156532307587E-002  -9.5438674637398982E-003   2.2403393352092071E-002
   5.4366056760127845E-003  -1.5454098453585807E-002   2.9168302408553837E-002
   1.7467556998870482E-002  -4.8212553467541497E-003   2.3725073231499139E-002
   1.3927521507176188E-002  -4.3099401246466940E-003   2.6131835542659326E-002
   1.0387486015481895E-002  -6.4070693979280668E-003   2.9553343581950220E-002
   6.8474505237876085E-003  -1.1112643166598699E-002   3.3989597349370917E-002
   3.3074150320932805E-003  -1.8426661430658076E-002   3.9440596844922404E-002
   1.2514803149175725E-002  -3.5997588726823238E-003   3.8440951959652192E-002
   9.9697437491417934E-003  -3.7816861019333015E-003   3.9415574254437445E-002
   7.4246843491078719E-003  -6.8089061008583529E-003   4.1365403004412840E-002
   4.8796249490739314E-003  -1.2681418869457416E-002   4.4290438209578717E-002
   2.3345655490400255E-003  -2.1399224407730566E-002   4.8190679869934749E-002
   8.8765475521075943E-003  -2.3782623986104423E-003   5.2582012373589115E-002
   7.2869249707939315E-003  -3.2534320792199367E-003   5.1887646377714314E-002
   5.6973023894802688E-003  -7.2107428037884308E-003   5.2128947564089728E-002
   4.1076798081665644E-003  -1.4250194572316136E-002   5.3305915932715317E-002
   2.5180572268529433E-003  -2.4371787384802834E-002   5.5418551483590983E-002
   4.7820704552888144E-002   4.8680254523829347E-003   4.8203340923365867E-002
   4.4648661131508921E-002   2.4773256390830112E-003   4.9143275985916945E-002
   4.1476617710129754E-002   5.0378859036832868E-004   5.0232818314042166E-002
   3.8304574288750573E-002  -1.0525856937612481E-003   5.1471967907741695E-002
   3.5132530867371406E-002  -2.1917972133055907E-003   5.2860724767015421E-002
   3.7563805305188616E-002   3.6510190892899419E-003   5.1689806108854291E-002
   3.4702220046826340E-002   1.8579942293139584E-003   5.2023424894178161E-002
   3.1840634788464058E-002   3.7784144277727694E-004   5.2828352739961712E-002
   2.8979049530101785E-002  -7.8943927032031763E-004   5.4104589646204689E-002
   2.6117464271739520E-002  -1.6438479099786796E-003   5.5852135612907430E-002
   2.6174721463807046E-002   2.4340127261968936E-003   5.5826091593239466E-002
   2.3945296163347063E-002   1.2386628195448918E-003   5.5449103410190242E-002
   2.1715870862887066E-002   2.5189429518613499E-004   5.5865126082485984E-002
   1.9486445562427079E-002  -5.2629284687945831E-004   5.7074159610126685E-002
   1.7257020261967081E-002  -1.0958986066518517E-003   5.9076203993112364E-002
   1.3653453028743486E-002   1.2170063631038730E-003   6.0612197376521793E-002
   1.2377889481071151E-002   6.1933140977585982E-004   5.9420311533953350E-002
   1.1102325933398804E-002   1.2594714759502426E-004   5.9343138341615399E-002
   9.8267623857264640E-003  -2.6314642343861893E-004   6.0380677799507676E-002
   8.5511988380541221E-003  -5.4794930332502378E-004   6.2532929907630333E-002
  -2.0955459589799830E-015   1.0852430065710905E-014   6.6048123458701008E-002
  -1.4224732503009818E-015   6.7723604502134549E-015   6.3937049265467560E-002
  -7.4940054162198066E-016   3.9621084191310274E-015   6.3262389517349707E-002
  -7.4593109467002705E-017   2.3227947343329447E-015   6.4024144214347573E-002
   6.0368376963992887E-016   1.8596235662471372E-015   6.6222313356461199E-002
   3.5132530867371406E-002  -2.1917972133055907E-003   5.2860724767015421E-002
   3.2428694534331948E-002  -2.9953800394489777E-003   5.1289356699912358E-002
   2.9724858201292496E-002  -3.5448682433759093E-003   5.0356573914566716E-002
   2.7021021868253049E-002  -3.8402618250860526E-003   5.0062376410978646E-002
   2.4317185535213587E-002  -3.8815607845797961E-003   5.0406764189148079E-002
   2.6117464271739520E-002  -1.6438479099786796E-003   5.5852135612907430E-002
   2.4061556670833137E-002  -2.2465350295862579E-003   5.4667066376478890E-002
   2.2005649069926757E-002  -2.6586511825315157E-003   5.4139269322559018E-002
   1.9949741469020378E-002  -2.8801963688142758E-003   5.4268744451147738E-002
   1.7893833868113995E-002  -2.9111705884347083E-003   5.5055491762245112E-002
   1.7257020261967081E-002  -1.0958986066518517E-003   5.9076203993112364E-002
   1.5867728293944939E-002  -1.4976900197235729E-003   5.8213909931804142E-002
   1.4478436325922798E-002  -1.7724341216870665E-003   5.8027574953755712E-002
   1.3089144357900654E-002  -1.9201309125424157E-003   5.8517199058967101E-002
   1.1699852389878522E-002  -1.9407803922896205E-003   5.9682782247438296E-002
   8.5511988380541221E-003  -5.4794930332502378E-004   6.2532929907630333E-002
   7.8472094036673781E-003  -7.4884500986087052E-004   6.1929887365888198E-002
   7.1432199692806342E-003  -8.8621706084264507E-004   6.2021490808157075E-002
   6.4392305348938902E-003  -9.6006545627062498E-004   6.2807740234436901E-002
   5.7352411005071480E-003  -9.7039019614450495E-004   6.4288635644727754E-002
   6.0368376963992887E-016   1.8596235662471372E-015   6.6222313356461199E-002
   4.2674197509029455E-016   1.8457457784393227E-015   6.5814998678731029E-002
   2.4633073358870661E-016   1.7000290064572710E-015   6.6121016885762982E-002
   6.5919492087118670E-017   1.2715523078909996E-015   6.7140367977557097E-002
  -1.1102230246251565E-016   5.5511151231257827E-016   6.8873051954113362E-002
   2.4317185535213587E-002  -3.8815607845797961E-003   5.0406764189148079E-002
   2.0457026039437096E-002  -3.7232933717457894E-003   4.9616689876217090E-002
   1.6596866543660591E-002  -3.4199878364727793E-003   4.9715873135980165E-002
   1.2736707047884092E-002  -2.9716441787609425E-003   5.0704313968437609E-002
   8.8765475521075943E-003  -2.3782623986104423E-003   5.2582012373589115E-002
   1.7893833868113995E-002  -2.9111705884347083E-003   5.5055491762245112E-002
   1.4941877520344184E-002  -2.7924700288092519E-003   5.4640641570624787E-002
   1.1989921172574393E-002  -2.5649908773547753E-003   5.5152940102323564E-002
   9.0379648248045813E-003  -2.2287331340709558E-003   5.6592387357341505E-002
   6.0860084770347767E-003  -1.7836967989580677E-003   5.8958983335678755E-002
   1.1699852389878522E-002  -1.9407803922896205E-003   5.9682782247438296E-002
   9.6939903407404146E-003  -1.8616466858729502E-003   5.9606896646518970E-002
   7.6881282916022968E-003  -1.7099939182367227E-003   6.0496050919543749E-002
   5.6822662424641807E-003  -1.4858220893808043E-003   6.2350245066512863E-002
   3.6764041933260716E-003  -1.1891311993055542E-003   6.5169479087425944E-002
   5.7352411005071480E-003  -9.7039019614450495E-004   6.4288635644727754E-002
   4.7133645006257312E-003  -9.3082334293650287E-004   6.4515455103899777E-002
   3.6914879007443188E-003  -8.5499695911858339E-004   6.5745205587640729E-002
   2.6696113008628963E-003  -7.4291104469073523E-004   6.7977887095951081E-002
   1.6477347009814756E-003  -5.9456559965302691E-004   7.1213499628830418E-002
  -1.1102230246251565E-016   5.5511151231257827E-016   6.8873051954113362E-002
   1.6653345369377348E-016  -8.3266726846886741E-017   6.9366316942766904E-002
   4.4408920985006262E-016  -4.3021142204224816E-016   7.0900404106614690E-002
   7.1817551905439814E-016  -5.5164206536062466E-016   7.3475313445656706E-002
   9.9920072216264089E-016  -6.1062266354383610E-016   7.7091044959892885E-002
   8.8765475521075943E-003  -2.3782623986104423E-003   5.2582012373589115E-002
   7.2869249707939315E-003  -3.2534320792199367E-003   5.1887646377714314E-002
   5.6973023894802688E-003  -7.2107428037884308E-003   5.2128947564089728E-002
   4.1076798081665644E-003  -1.4250194572316136E-002   5.3305915932715317E-002
   2.5180572268529433E-003  -2.4371787384802834E-002   5.5418551483590983E-002
   6.0860084770347767E-003  -1.7836967989580677E-003   5.8958983335678755E-002
   5.2974876937408738E-003  -2.4400740594152093E-003   5.5814113333473414E-002
   4.5089669104469640E-003  -5.4080571028413821E-003   5.3335779745057252E-002
   3.7204461271530855E-003  -1.0687645929237020E-002   5.1523982570430442E-002
   2.9319253438591653E-003  -1.8278840538601848E-002   5.0378721809593019E-002
   3.6764041933260716E-003  -1.1891311993055542E-003   6.5169479087425944E-002
   3.4198544395910024E-003  -1.6267160396101904E-003   6.0344640339879810E-002
   3.1633046858559125E-003  -3.6053714018943264E-003   5.5917207237662046E-002
   2.9067549321208225E-003  -7.1250972861579571E-003   5.1887179780772563E-002
   2.6502051783857533E-003  -1.2185893692401084E-002   4.8254557969211742E-002
   1.6477347009814756E-003  -5.9456559965302691E-004   7.1213499628830418E-002
   1.6540252083442879E-003  -8.1335801980523398E-004   6.5479227396933459E-002
   1.6603157157071002E-003  -1.8026857009472742E-003   5.9873230041903772E-002
   1.6666062230699247E-003  -3.5625486430788120E-003   5.4395507563741508E-002
   1.6728967304327387E-003  -6.0929468462002645E-003   4.9046059962446847E-002
   9.9920072216264089E-016  -6.1062266354383610E-016   7.7091044959892885E-002
   7.7021722333370235E-016  -3.8857805861880479E-016   7.1217874504634571E-002
   5.3776427755281020E-016  -1.5265566588595902E-016   6.5203848157782768E-002
   3.0357660829594124E-016   2.3939183968479938E-016   5.9048965919337490E-002
   6.9388939039072284E-017   6.6613381477509392E-016   5.2753227789298807E-002
  -2.0955459589799830E-015   1.0852430065710905E-014   6.6048123458701008E-002
  -1.4224732503009818E-015   6.7723604502134549E-015   6.3937049265467560E-002
  -7.4940054162198066E-016   3.9621084191310274E-015   6.3262389517349707E-002
  -7.4593109467002705E-017   2.3227947343329447E-015   6.4024144214347573E-002
   6.0368376963992887E-016   1.8596235662471372E-015   6.6222313356461199E-002
  -1.3653453028747573E-002  -1.2170063630885242E-003   6.0612197376514909E-002
  -1.2377889481073925E-002  -6.1933140976540291E-004   5.9420311533948555E-002
  -1.1102325933400273E-002  -1.2594714758815129E-004   5.9343138341612506E-002
  -9.8267623857266322E-003   2.6314642344321681E-004   6.0380677799506594E-002
  -8.5511988380529806E-003   5.4794930332868752E-004   6.2532929907630999E-002
  -2.6174721463810821E-002  -2.4340127261878869E-003   5.5826091593229522E-002
  -2.3945296163349662E-002  -1.2386628195375504E-003   5.5449103410183234E-002
  -2.1715870862888495E-002  -2.5189429518023346E-004   5.5865126082481745E-002
  -1.9486445562427332E-002   5.2629284688409782E-004   5.7074159610124971E-002
  -1.7257020261966158E-002   1.0958986066554738E-003   5.9076203993113093E-002
  -3.7563805305191850E-002  -3.6510190892872565E-003   5.1689806108845000E-002
  -3.4702220046828623E-002  -1.8579942293097118E-003   5.2023424894171569E-002
  -3.1840634788465404E-002  -3.7784144277228961E-004   5.2828352739957576E-002
  -2.8979049530102163E-002   7.8943927032504085E-004   5.4104589646202933E-002
  -2.6117464271738947E-002   1.6438479099822947E-003   5.5852135612907562E-002
  -4.7820704552890621E-002  -4.8680254523866262E-003   4.8203340923361038E-002
  -4.4648661131510801E-002  -2.4773256390819010E-003   4.9143275985913559E-002
  -4.1476617710130975E-002  -5.0378859036442902E-004   5.0232818314040001E-002
  -3.8304574288751142E-002   1.0525856937659075E-003   5.1471967907740224E-002
  -3.5132530867371323E-002   2.1917972133091157E-003   5.2860724767014394E-002
   6.0368376963992887E-016   1.8596235662471372E-015   6.6222313356461199E-002
   4.2674197509029455E-016   1.8457457784393227E-015   6.5814998678731029E-002
   2.4633073358870661E-016   1.7000290064572710E-015   6.6121016885762982E-002
   6.5919492087118670E-017   1.2715523078909996E-015   6.7140367977557097E-002
  -1.1102230246251565E-016   5.5511151231257827E-016   6.8873051954113362E-002
  -8.5511988380529806E-003   5.4794930332868752E-004   6.2532929907630999E-002
  -7.8472094036665802E-003   7.4884500986410751E-004   6.1929887365888420E-002
  -7.1432199692801797E-003   8.8621706084539287E-004   6.2021490808156936E-002
  -6.4392305348937836E-003   9.6006545627256787E-004   6.2807740234436416E-002
  -5.7352411005073718E-003   9.7039019614564292E-004   6.4288635644726894E-002
  -1.7257020261966158E-002   1.0958986066554738E-003   5.9076203993113093E-002
  -1.5867728293944311E-002   1.4976900197263068E-003   5.8213909931804295E-002
  -1.4478436325922469E-002   1.7724341216891100E-003   5.8027574953755393E-002
  -1.3089144357900616E-002   1.9201309125438633E-003   5.8517199058966345E-002
  -1.1699852389878777E-002   1.9407803922905642E-003   5.9682782247437241E-002
  -2.6117464271738947E-002   1.6438479099822947E-003   5.5852135612907562E-002
  -2.4061556670832790E-002   2.2465350295884819E-003   5.4667066376478640E-002
  -2.2005649069926615E-002   2.6586511825327872E-003   5.4139269322558400E-002
  -1.9949741469020454E-002   2.8801963688150759E-003   5.4268744451147016E-002
  -1.7893833868114294E-002   2.9111705884355132E-003   5.5055491762244266E-002
  -3.5132530867371323E-002   2.1917972133091157E-003   5.2860724767014394E-002
  -3.2428694534331975E-002   2.9953800394507818E-003   5.1289356699911415E-002
  -2.9724858201292635E-002   3.5448682433765269E-003   5.0356573914565952E-002
  -2.7021021868253298E-002   3.8402618250865123E-003   5.0062376410978139E-002
  -2.4317185535213955E-002   3.8815607845805178E-003   5.0406764189147968E-002
  -1.1102230246251565E-016   5.5511151231257827E-016   6.8873051954113362E-002
   1.6653345369377348E-016  -8.3266726846886741E-017   6.9366316942766904E-002
   4.4408920985006262E-016  -4.3021142204224816E-016   7.0900404106614690E-002
   7.1817551905439814E-016  -5.5164206536062466E-016   7.3475313445656706E-002
   9.9920072216264089E-016  -6.1062266354383610E-016   7.7091044959892885E-002
  -5.7352411005073718E-003   9.7039019614564292E-004   6.4288635644726894E-002
  -4.7133645006254294E-003   9.3082334293662083E-004   6.4515455103899111E-002
  -3.6914879007434800E-003   8.5499695911829543E-004   6.5745205587640507E-002
  -2.6696113008615359E-003   7.4291104469004568E-004   6.7977887095951040E-002
  -1.6477347009795883E-003   5.9456559965237465E-004   7.1213499628830723E-002
  -1.1699852389878777E-002   1.9407803922905642E-003   5.9682782247437241E-002
  -9.6939903407401995E-003   1.8616466858734221E-003   5.9606896646518234E-002
  -7.6881282916016133E-003   1.7099939182369031E-003   6.0496050919543347E-002
  -5.6822662424630315E-003   1.4858220893806968E-003   6.2350245066512572E-002
  -3.6764041933244635E-003   1.1891311993051656E-003   6.5169479087425944E-002
  -1.7893833868114294E-002   2.9111705884355132E-003   5.5055491762244266E-002
  -1.4941877520344126E-002   2.7924700288101192E-003   5.4640641570624135E-002
  -1.1989921172573970E-002   2.5649908773554587E-003   5.5152940102323134E-002
  -9.0379648248038041E-003   2.2287331340714875E-003   5.6592387357341158E-002
  -6.0860084770336456E-003   1.7836967989579428E-003   5.8958983335678311E-002
  -2.4317185535213955E-002   3.8815607845805178E-003   5.0406764189147968E-002
  -2.0457026039437234E-002   3.7232933717469274E-003   4.9616689876216952E-002
  -1.6596866543660532E-002   3.4199878364742087E-003   4.9715873135979916E-002
  -1.2736707047883834E-002   2.9716441787619938E-003   5.0704313968436859E-002
  -8.8765475521071155E-003   2.3782623986108864E-003   5.2582012373587894E-002
   9.9920072216264089E-016  -6.1062266354383610E-016   7.7091044959892885E-002
   7.7021722333370235E-016  -3.8857805861880479E-016   7.1217874504634571E-002
   5.3776427755281020E-016  -1.5265566588595902E-016   6.5203848157782768E-002
   3.0357660829594124E-016   2.3939183968479938E-016   5.9048965919337490E-002
   6.9388939039072284E-017   6.6613381477509392E-016   5.2753227789298807E-002
  -1.6477347009795883E-003   5.9456559965237465E-004   7.1213499628830723E-002
  -1.6540252083428152E-003   8.1335801980458866E-004   6.5479227396933681E-002
  -1.6603157157060577E-003   1.8026857009467712E-003   5.9873230041903924E-002
  -1.6666062230692820E-003   3.5625486430788250E-003   5.4395507563742090E-002
  -1.6728967304325132E-003   6.0929468462006531E-003   4.9046059962447375E-002
  -3.6764041933244635E-003   1.1891311993051656E-003   6.5169479087425944E-002
  -3.4198544395896893E-003   1.6267160396096492E-003   6.0344640339879713E-002
  -3.1633046858549211E-003   3.6053714018936880E-003   5.5917207237661991E-002
  -2.9067549321201602E-003   7.1250972861574089E-003   5.1887179780772924E-002
  -2.6502051783853925E-003   1.2185893692400640E-002   4.8254557969212186E-002
  -6.0860084770336456E-003   1.7836967989579428E-003   5.8958983335678311E-002
  -5.2974876937398555E-003   2.4400740594146680E-003   5.5814113333472817E-002
  -4.5089669104460637E-003   5.4080571028405529E-003   5.3335779745056926E-002
  -3.7204461271522658E-003   1.0687645929235937E-002   5.1523982570430435E-002
  -2.9319253438584818E-003   1.8278840538600627E-002   5.0378721809593643E-002
  -8.8765475521071155E-003   2.3782623986108864E-003   5.2582012373587894E-002
  -7.2869249707932932E-003   3.2534320792196592E-003   5.1887646377712926E-002
  -5.6973023894794951E-003   7.2107428037874871E-003   5.2128947564088535E-002
  -4.1076798081656936E-003   1.4250194572314624E-002   5.3305915932714429E-002
  -2.5180572268518747E-003   2.4371787384800614E-002   5.5418551483591205E-002
  -4.7820704552890621E-002  -4.8680254523866262E-003   4.8203340923361038E-002
  -4.4648661131510801E-002  -2.4773256390819010E-003   4.9143275985913559E-002
  -4.1476617710130975E-002  -5.0378859036442902E-004   5.0232818314040001E-002
  -3.8304574288751142E-002   1.0525856937659075E-003   5.1471967907740224E-002
  -3.5132530867371323E-002   2.1917972133091157E-003   5.2860724767014394E-002
  -6.0700081967042019E-002   3.8611694760714299E-003   5.5167660777723670E-002
  -5.6675556059118740E-002   5.0511343466041331E-003   5.0075634416789055E-002
  -5.2651030151195474E-002   5.9428705459855444E-003   4.6538965763367510E-002
  -4.8626504243272188E-002   6.5363780742156898E-003   4.4557654817458950E-002
  -4.4601978335348930E-002   6.8316569312945052E-003   4.4131701579063307E-002
  -7.9956600307780790E-002   1.2590364404529514E-002   6.0871778642596311E-002
  -7.3673841471374971E-002   1.2579594332290292E-002   4.9866724951610493E-002
  -6.7391082634969138E-002   1.2389529682335559E-002   4.1822779410076866E-002
  -6.1108323798563326E-002   1.2020170454665486E-002   3.6739942017995277E-002
  -5.4825564962157486E-002   1.1471516649279853E-002   3.4618212775365982E-002
 -0.10559025957510711        2.1319559332987598E-002   6.5315694517979084E-002
  -9.5643517368279515E-002   2.0108054317976319E-002   4.8516547590377893E-002
  -8.5696775161451980E-002   1.8836188818685498E-002   3.6084259254168041E-002
  -7.5750032954624458E-002   1.7503962835115204E-002   2.8018829509349343E-002
  -6.5803290747796908E-002   1.6111376367265152E-002   2.4320258355922025E-002
 -0.13760105976902065        3.0048754261445654E-002   6.8499408403871920E-002
 -0.12258458374983228        2.7636514303662429E-002   4.6025102333091289E-002
 -0.10756810773064393        2.5282847955035437E-002   2.9323405295641092E-002
  -9.2551631711455626E-002   2.2987755215564981E-002   1.8394317291521203E-002
  -7.7535155692267266E-002   2.0751236085250646E-002   1.3237838320731748E-002
  -3.5132530867371323E-002   2.1917972133091157E-003   5.2860724767014394E-002
  -3.2428694534331975E-002   2.9953800394507818E-003   5.1289356699911415E-002
  -2.9724858201292635E-002   3.5448682433765269E-003   5.0356573914565952E-002
  -2.7021021868253298E-002   3.8402618250865123E-003   5.0062376410978139E-002
  -2.4317185535213955E-002   3.8815607845805178E-003   5.0406764189147968E-002
  -4.4601978335348930E-002   6.8316569312945052E-003   4.4131701579063307E-002
  -4.1158509796798658E-002   6.9269637379083121E-003   4.1729336250885554E-002
  -3.7715041258248386E-002   6.9205551147435498E-003   4.0167650051971947E-002
  -3.4271572719698114E-002   6.8124310618001855E-003   3.9446642982322658E-002
  -3.0828104181147838E-002   6.6025915790781931E-003   3.9566315041937583E-002
  -5.4825564962157486E-002   1.1471516649279853E-002   3.4618212775365982E-002
  -5.0440370370589599E-002   1.0858547436365835E-002   3.1537229378550545E-002
  -4.6055175779021740E-002   1.0296241986110569E-002   2.9499018958506016E-002
  -4.1669981187453846E-002   9.7846002985138847E-003   2.8503581515232454E-002
  -3.7284786595885994E-002   9.3236223735758406E-003   2.8550917048729779E-002
  -6.5803290747796908E-002   1.6111376367265152E-002   2.4320258355922025E-002
  -6.0274276255704792E-002   1.4790131134823487E-002   2.0713036082906339E-002
  -5.4745261763612697E-002   1.3671928857477646E-002   1.8350680634168195E-002
  -4.9216247271520561E-002   1.2756769535227738E-002   1.7233192009707608E-002
  -4.3687232779428466E-002   1.2044653168073613E-002   1.7360570209524619E-002
  -7.7535155692267266E-002   2.0751236085250646E-002   1.3237838320731748E-002
  -7.0660227452144231E-002   1.8721714833280945E-002   9.2567563639529837E-003
  -6.3785299212021251E-002   1.7047615728844695E-002   6.7226350789584208E-003
  -5.6910370971898244E-002   1.5728938771941363E-002   5.6354744657482313E-003
  -5.0035442731775237E-002   1.4765683962571274E-002   5.9952745243220251E-003
  -2.4317185535213955E-002   3.8815607845805178E-003   5.0406764189147968E-002
  -2.0457026039437234E-002   3.7232933717469274E-003   4.9616689876216952E-002
  -1.6596866543660532E-002   3.4199878364742087E-003   4.9715873135979916E-002
  -1.2736707047883834E-002   2.9716441787619938E-003   5.0704313968436859E-002
  -8.8765475521071155E-003   2.3782623986108864E-003   5.2582012373587894E-002
  -3.0828104181147838E-002   6.6025915790781931E-003   3.9566315041937583E-002
  -2.6249778923154807E-002   6.2193916367199453E-003   3.8464363343757996E-002
  -2.1671453665161787E-002   5.5911862048679609E-003   3.7909485597317022E-002
  -1.7093128407168756E-002   4.7179752835221998E-003   3.7901681802614634E-002
  -1.2514803149175704E-002   3.5997588726824903E-003   3.8440951959650832E-002
  -3.7284786595885994E-002   9.3236223735758406E-003   2.8550917048729779E-002
  -3.2330479196632060E-002   8.7154899016930187E-003   2.7037120598247137E-002
  -2.7376171797378154E-002   7.7623845732619906E-003   2.5728214478547562E-002
  -2.2421864398124235E-002   6.4643063882822392E-003   2.4624198689631185E-002
  -1.7467556998870312E-002   4.8212553467541219E-003   2.3725073231498126E-002
  -4.3687232779428466E-002   1.2044653168073613E-002   1.7360570209524619E-002
  -3.8699126859869086E-002   1.1211588166666120E-002   1.5334961639684350E-002
  -3.3711020940309686E-002   9.9335829416555763E-003   1.3172059779671619E-002
  -2.8722915020750285E-002   8.2106374930421399E-003   1.0871864629486843E-002
  -2.3734809101190898E-002   6.0427518208255732E-003   8.4343761891295423E-003
  -5.0035442731775237E-002   1.4765683962571274E-002   5.9952745243220251E-003
  -4.5355721912865743E-002   1.3707686431639221E-002   3.3578864680695042E-003
  -4.0676001093956332E-002   1.2104781310049578E-002   2.4102150068913697E-004
  -3.5996280275046907E-002   9.9569685978021863E-003  -3.3553203778189447E-003
  -3.1316559456137427E-002   7.2642482948974685E-003  -7.4311391674543592E-003
  -8.8765475521071155E-003   2.3782623986108864E-003   5.2582012373587894E-002
  -7.2869249707932932E-003   3.2534320792196592E-003   5.1887646377712926E-002
  -5.6973023894794951E-003   7.2107428037874871E-003   5.2128947564088535E-002
  -4.1076798081656936E-003   1.4250194572314624E-002   5.3305915932714429E-002
  -2.5180572268518747E-003   2.4371787384800614E-002   5.5418551483591205E-002
  -1.2514803149175704E-002   3.5997588726824903E-003   3.8440951959650832E-002
  -9.9697437491414569E-003   3.7816861019329961E-003   3.9415574254436453E-002
  -7.4246843491071537E-003   6.8089061008573537E-003   4.1365403004412257E-002
  -4.8796249490728680E-003   1.2681418869455709E-002   4.4290438209578946E-002
  -2.3345655490385822E-003   2.1399224407728124E-002   4.8190679869935527E-002
  -1.7467556998870312E-002   4.8212553467541219E-003   2.3725073231498126E-002
  -1.3927521507175685E-002   4.3099401246462360E-003   2.6131835542659021E-002
  -1.0387486015481019E-002   6.4070693979272134E-003   2.9553343581950282E-002
  -6.8474505237863916E-003   1.1112643166597014E-002   3.3989597349371792E-002
  -3.3074150320916949E-003   1.8426661430655522E-002   3.9440596844923514E-002
  -2.3734809101190898E-002   6.0427518208255732E-003   8.4343761891295423E-003
  -1.9160258244895978E-002   4.8381941473595799E-003   1.2036430242380686E-002
  -1.4585707388601030E-002   6.0052326949971320E-003   1.6692769296702076E-002
  -1.0011156532306109E-002   9.5438674637383196E-003   2.2403393352093477E-002
  -5.4366056760111600E-003   1.5454098453582976E-002   2.9168302408555252E-002
  -3.1316559456137427E-002   7.2642482948974685E-003  -7.4311391674543592E-003
  -2.5667953962302370E-002   5.3664481700729239E-003  -2.8706416463984141E-003
  -2.0019348468467257E-002   5.6033959920670506E-003   2.7836801486678664E-003
  -1.4370742974632256E-002   7.9750917608796545E-003   9.5318262177440383E-003
  -8.7221374807970875E-003   1.2481535476510430E-002   1.7373796560830490E-002
 </DataArray>
 </PointData>
 </Piece>
 </UnstructuredGrid>
 </VTKFile>
