 <VTKFile type="UnstructuredGrid"  version="0.1"   >
 <UnstructuredGrid>
 <Piece  NumberOfPoints="          1600 "  NumberOfCells="         1024 ">
 <Points>
 <DataArray  type="Float64" NumberOfComponents="3"  format="ascii" >
   0.0000000000000000        0.0000000000000000        0.0000000000000000     
   3.1250000000000000E-002   0.0000000000000000        0.0000000000000000     
   6.2500000000000000E-002   0.0000000000000000        0.0000000000000000     
   9.3750000000000000E-002   0.0000000000000000        0.0000000000000000     
  0.12500000000000000        0.0000000000000000        0.0000000000000000     
   0.0000000000000000        3.1250000000000000E-002   0.0000000000000000     
   3.1250000000000000E-002   3.1250000000000000E-002   0.0000000000000000     
   6.2500000000000000E-002   3.1250000000000000E-002   0.0000000000000000     
   9.3750000000000000E-002   3.1250000000000000E-002   0.0000000000000000     
  0.12500000000000000        3.1250000000000000E-002   0.0000000000000000     
   0.0000000000000000        6.2500000000000000E-002   0.0000000000000000     
   3.1250000000000000E-002   6.2500000000000000E-002   0.0000000000000000     
   6.2500000000000000E-002   6.2500000000000000E-002   0.0000000000000000     
   9.3750000000000000E-002   6.2500000000000000E-002   0.0000000000000000     
  0.12500000000000000        6.2500000000000000E-002   0.0000000000000000     
   0.0000000000000000        9.3750000000000000E-002   0.0000000000000000     
   3.1250000000000000E-002   9.3750000000000000E-002   0.0000000000000000     
   6.2500000000000000E-002   9.3750000000000000E-002   0.0000000000000000     
   9.3750000000000000E-002   9.3750000000000000E-002   0.0000000000000000     
  0.12500000000000000        9.3750000000000000E-002   0.0000000000000000     
   0.0000000000000000       0.12500000000000000        0.0000000000000000     
   3.1250000000000000E-002  0.12500000000000000        0.0000000000000000     
   6.2500000000000000E-002  0.12500000000000000        0.0000000000000000     
   9.3750000000000000E-002  0.12500000000000000        0.0000000000000000     
  0.12500000000000000       0.12500000000000000        0.0000000000000000     
  0.12500000000000000        0.0000000000000000        0.0000000000000000     
  0.15625000000000000        0.0000000000000000        0.0000000000000000     
  0.18750000000000000        0.0000000000000000        0.0000000000000000     
  0.21875000000000000        0.0000000000000000        0.0000000000000000     
  0.25000000000000000        0.0000000000000000        0.0000000000000000     
  0.12500000000000000        3.1250000000000000E-002   0.0000000000000000     
  0.15625000000000000        3.1250000000000000E-002   0.0000000000000000     
  0.18750000000000000        3.1250000000000000E-002   0.0000000000000000     
  0.21875000000000000        3.1250000000000000E-002   0.0000000000000000     
  0.25000000000000000        3.1250000000000000E-002   0.0000000000000000     
  0.12500000000000000        6.2500000000000000E-002   0.0000000000000000     
  0.15625000000000000        6.2500000000000000E-002   0.0000000000000000     
  0.18750000000000000        6.2500000000000000E-002   0.0000000000000000     
  0.21875000000000000        6.2500000000000000E-002   0.0000000000000000     
  0.25000000000000000        6.2500000000000000E-002   0.0000000000000000     
  0.12500000000000000        9.3750000000000000E-002   0.0000000000000000     
  0.15625000000000000        9.3750000000000000E-002   0.0000000000000000     
  0.18750000000000000        9.3750000000000000E-002   0.0000000000000000     
  0.21875000000000000        9.3750000000000000E-002   0.0000000000000000     
  0.25000000000000000        9.3750000000000000E-002   0.0000000000000000     
  0.12500000000000000       0.12500000000000000        0.0000000000000000     
  0.15625000000000000       0.12500000000000000        0.0000000000000000     
  0.18750000000000000       0.12500000000000000        0.0000000000000000     
  0.21875000000000000       0.12500000000000000        0.0000000000000000     
  0.25000000000000000       0.12500000000000000        0.0000000000000000     
  0.25000000000000000        0.0000000000000000        0.0000000000000000     
  0.28125000000000000        0.0000000000000000        0.0000000000000000     
  0.31250000000000000        0.0000000000000000        0.0000000000000000     
  0.34375000000000000        0.0000000000000000        0.0000000000000000     
  0.37500000000000000        0.0000000000000000        0.0000000000000000     
  0.25000000000000000        3.1250000000000000E-002   0.0000000000000000     
  0.28125000000000000        3.1250000000000000E-002   0.0000000000000000     
  0.31250000000000000        3.1250000000000000E-002   0.0000000000000000     
  0.34375000000000000        3.1250000000000000E-002   0.0000000000000000     
  0.37500000000000000        3.1250000000000000E-002   0.0000000000000000     
  0.25000000000000000        6.2500000000000000E-002   0.0000000000000000     
  0.28125000000000000        6.2500000000000000E-002   0.0000000000000000     
  0.31250000000000000        6.2500000000000000E-002   0.0000000000000000     
  0.34375000000000000        6.2500000000000000E-002   0.0000000000000000     
  0.37500000000000000        6.2500000000000000E-002   0.0000000000000000     
  0.25000000000000000        9.3750000000000000E-002   0.0000000000000000     
  0.28125000000000000        9.3750000000000000E-002   0.0000000000000000     
  0.31250000000000000        9.3750000000000000E-002   0.0000000000000000     
  0.34375000000000000        9.3750000000000000E-002   0.0000000000000000     
  0.37500000000000000        9.3750000000000000E-002   0.0000000000000000     
  0.25000000000000000       0.12500000000000000        0.0000000000000000     
  0.28125000000000000       0.12500000000000000        0.0000000000000000     
  0.31250000000000000       0.12500000000000000        0.0000000000000000     
  0.34375000000000000       0.12500000000000000        0.0000000000000000     
  0.37500000000000000       0.12500000000000000        0.0000000000000000     
  0.37500000000000000        0.0000000000000000        0.0000000000000000     
  0.40625000000000000        0.0000000000000000        0.0000000000000000     
  0.43750000000000000        0.0000000000000000        0.0000000000000000     
  0.46875000000000000        0.0000000000000000        0.0000000000000000     
  0.50000000000000000        0.0000000000000000        0.0000000000000000     
  0.37500000000000000        3.1250000000000000E-002   0.0000000000000000     
  0.40625000000000000        3.1250000000000000E-002   0.0000000000000000     
  0.43750000000000000        3.1250000000000000E-002   0.0000000000000000     
  0.46875000000000000        3.1250000000000000E-002   0.0000000000000000     
  0.50000000000000000        3.1250000000000000E-002   0.0000000000000000     
  0.37500000000000000        6.2500000000000000E-002   0.0000000000000000     
  0.40625000000000000        6.2500000000000000E-002   0.0000000000000000     
  0.43750000000000000        6.2500000000000000E-002   0.0000000000000000     
  0.46875000000000000        6.2500000000000000E-002   0.0000000000000000     
  0.50000000000000000        6.2500000000000000E-002   0.0000000000000000     
  0.37500000000000000        9.3750000000000000E-002   0.0000000000000000     
  0.40625000000000000        9.3750000000000000E-002   0.0000000000000000     
  0.43750000000000000        9.3750000000000000E-002   0.0000000000000000     
  0.46875000000000000        9.3750000000000000E-002   0.0000000000000000     
  0.50000000000000000        9.3750000000000000E-002   0.0000000000000000     
  0.37500000000000000       0.12500000000000000        0.0000000000000000     
  0.40625000000000000       0.12500000000000000        0.0000000000000000     
  0.43750000000000000       0.12500000000000000        0.0000000000000000     
  0.46875000000000000       0.12500000000000000        0.0000000000000000     
  0.50000000000000000       0.12500000000000000        0.0000000000000000     
  0.50000000000000000        0.0000000000000000        0.0000000000000000     
  0.53125000000000000        0.0000000000000000        0.0000000000000000     
  0.56250000000000000        0.0000000000000000        0.0000000000000000     
  0.59375000000000000        0.0000000000000000        0.0000000000000000     
  0.62500000000000000        0.0000000000000000        0.0000000000000000     
  0.50000000000000000        3.1250000000000000E-002   0.0000000000000000     
  0.53125000000000000        3.1250000000000000E-002   0.0000000000000000     
  0.56250000000000000        3.1250000000000000E-002   0.0000000000000000     
  0.59375000000000000        3.1250000000000000E-002   0.0000000000000000     
  0.62500000000000000        3.1250000000000000E-002   0.0000000000000000     
  0.50000000000000000        6.2500000000000000E-002   0.0000000000000000     
  0.53125000000000000        6.2500000000000000E-002   0.0000000000000000     
  0.56250000000000000        6.2500000000000000E-002   0.0000000000000000     
  0.59375000000000000        6.2500000000000000E-002   0.0000000000000000     
  0.62500000000000000        6.2500000000000000E-002   0.0000000000000000     
  0.50000000000000000        9.3750000000000000E-002   0.0000000000000000     
  0.53125000000000000        9.3750000000000000E-002   0.0000000000000000     
  0.56250000000000000        9.3750000000000000E-002   0.0000000000000000     
  0.59375000000000000        9.3750000000000000E-002   0.0000000000000000     
  0.62500000000000000        9.3750000000000000E-002   0.0000000000000000     
  0.50000000000000000       0.12500000000000000        0.0000000000000000     
  0.53125000000000000       0.12500000000000000        0.0000000000000000     
  0.56250000000000000       0.12500000000000000        0.0000000000000000     
  0.59375000000000000       0.12500000000000000        0.0000000000000000     
  0.62500000000000000       0.12500000000000000        0.0000000000000000     
  0.62500000000000000        0.0000000000000000        0.0000000000000000     
  0.65625000000000000        0.0000000000000000        0.0000000000000000     
  0.68750000000000000        0.0000000000000000        0.0000000000000000     
  0.71875000000000000        0.0000000000000000        0.0000000000000000     
  0.75000000000000000        0.0000000000000000        0.0000000000000000     
  0.62500000000000000        3.1250000000000000E-002   0.0000000000000000     
  0.65625000000000000        3.1250000000000000E-002   0.0000000000000000     
  0.68750000000000000        3.1250000000000000E-002   0.0000000000000000     
  0.71875000000000000        3.1250000000000000E-002   0.0000000000000000     
  0.75000000000000000        3.1250000000000000E-002   0.0000000000000000     
  0.62500000000000000        6.2500000000000000E-002   0.0000000000000000     
  0.65625000000000000        6.2500000000000000E-002   0.0000000000000000     
  0.68750000000000000        6.2500000000000000E-002   0.0000000000000000     
  0.71875000000000000        6.2500000000000000E-002   0.0000000000000000     
  0.75000000000000000        6.2500000000000000E-002   0.0000000000000000     
  0.62500000000000000        9.3750000000000000E-002   0.0000000000000000     
  0.65625000000000000        9.3750000000000000E-002   0.0000000000000000     
  0.68750000000000000        9.3750000000000000E-002   0.0000000000000000     
  0.71875000000000000        9.3750000000000000E-002   0.0000000000000000     
  0.75000000000000000        9.3750000000000000E-002   0.0000000000000000     
  0.62500000000000000       0.12500000000000000        0.0000000000000000     
  0.65625000000000000       0.12500000000000000        0.0000000000000000     
  0.68750000000000000       0.12500000000000000        0.0000000000000000     
  0.71875000000000000       0.12500000000000000        0.0000000000000000     
  0.75000000000000000       0.12500000000000000        0.0000000000000000     
  0.75000000000000000        0.0000000000000000        0.0000000000000000     
  0.78125000000000000        0.0000000000000000        0.0000000000000000     
  0.81250000000000000        0.0000000000000000        0.0000000000000000     
  0.84375000000000000        0.0000000000000000        0.0000000000000000     
  0.87500000000000000        0.0000000000000000        0.0000000000000000     
  0.75000000000000000        3.1250000000000000E-002   0.0000000000000000     
  0.78125000000000000        3.1250000000000000E-002   0.0000000000000000     
  0.81250000000000000        3.1250000000000000E-002   0.0000000000000000     
  0.84375000000000000        3.1250000000000000E-002   0.0000000000000000     
  0.87500000000000000        3.1250000000000000E-002   0.0000000000000000     
  0.75000000000000000        6.2500000000000000E-002   0.0000000000000000     
  0.78125000000000000        6.2500000000000000E-002   0.0000000000000000     
  0.81250000000000000        6.2500000000000000E-002   0.0000000000000000     
  0.84375000000000000        6.2500000000000000E-002   0.0000000000000000     
  0.87500000000000000        6.2500000000000000E-002   0.0000000000000000     
  0.75000000000000000        9.3750000000000000E-002   0.0000000000000000     
  0.78125000000000000        9.3750000000000000E-002   0.0000000000000000     
  0.81250000000000000        9.3750000000000000E-002   0.0000000000000000     
  0.84375000000000000        9.3750000000000000E-002   0.0000000000000000     
  0.87500000000000000        9.3750000000000000E-002   0.0000000000000000     
  0.75000000000000000       0.12500000000000000        0.0000000000000000     
  0.78125000000000000       0.12500000000000000        0.0000000000000000     
  0.81250000000000000       0.12500000000000000        0.0000000000000000     
  0.84375000000000000       0.12500000000000000        0.0000000000000000     
  0.87500000000000000       0.12500000000000000        0.0000000000000000     
  0.87500000000000000        0.0000000000000000        0.0000000000000000     
  0.90625000000000000        0.0000000000000000        0.0000000000000000     
  0.93750000000000000        0.0000000000000000        0.0000000000000000     
  0.96875000000000000        0.0000000000000000        0.0000000000000000     
   1.0000000000000000        0.0000000000000000        0.0000000000000000     
  0.87500000000000000        3.1250000000000000E-002   0.0000000000000000     
  0.90625000000000000        3.1250000000000000E-002   0.0000000000000000     
  0.93750000000000000        3.1250000000000000E-002   0.0000000000000000     
  0.96875000000000000        3.1250000000000000E-002   0.0000000000000000     
   1.0000000000000000        3.1250000000000000E-002   0.0000000000000000     
  0.87500000000000000        6.2500000000000000E-002   0.0000000000000000     
  0.90625000000000000        6.2500000000000000E-002   0.0000000000000000     
  0.93750000000000000        6.2500000000000000E-002   0.0000000000000000     
  0.96875000000000000        6.2500000000000000E-002   0.0000000000000000     
   1.0000000000000000        6.2500000000000000E-002   0.0000000000000000     
  0.87500000000000000        9.3750000000000000E-002   0.0000000000000000     
  0.90625000000000000        9.3750000000000000E-002   0.0000000000000000     
  0.93750000000000000        9.3750000000000000E-002   0.0000000000000000     
  0.96875000000000000        9.3750000000000000E-002   0.0000000000000000     
   1.0000000000000000        9.3750000000000000E-002   0.0000000000000000     
  0.87500000000000000       0.12500000000000000        0.0000000000000000     
  0.90625000000000000       0.12500000000000000        0.0000000000000000     
  0.93750000000000000       0.12500000000000000        0.0000000000000000     
  0.96875000000000000       0.12500000000000000        0.0000000000000000     
   1.0000000000000000       0.12500000000000000        0.0000000000000000     
   0.0000000000000000       0.12500000000000000        0.0000000000000000     
   3.1250000000000000E-002  0.12500000000000000        0.0000000000000000     
   6.2500000000000000E-002  0.12500000000000000        0.0000000000000000     
   9.3750000000000000E-002  0.12500000000000000        0.0000000000000000     
  0.12500000000000000       0.12500000000000000        0.0000000000000000     
   0.0000000000000000       0.15625000000000000        0.0000000000000000     
   3.1250000000000000E-002  0.15625000000000000        0.0000000000000000     
   6.2500000000000000E-002  0.15625000000000000        0.0000000000000000     
   9.3750000000000000E-002  0.15625000000000000        0.0000000000000000     
  0.12500000000000000       0.15625000000000000        0.0000000000000000     
   0.0000000000000000       0.18750000000000000        0.0000000000000000     
   3.1250000000000000E-002  0.18750000000000000        0.0000000000000000     
   6.2500000000000000E-002  0.18750000000000000        0.0000000000000000     
   9.3750000000000000E-002  0.18750000000000000        0.0000000000000000     
  0.12500000000000000       0.18750000000000000        0.0000000000000000     
   0.0000000000000000       0.21875000000000000        0.0000000000000000     
   3.1250000000000000E-002  0.21875000000000000        0.0000000000000000     
   6.2500000000000000E-002  0.21875000000000000        0.0000000000000000     
   9.3750000000000000E-002  0.21875000000000000        0.0000000000000000     
  0.12500000000000000       0.21875000000000000        0.0000000000000000     
   0.0000000000000000       0.25000000000000000        0.0000000000000000     
   3.1250000000000000E-002  0.25000000000000000        0.0000000000000000     
   6.2500000000000000E-002  0.25000000000000000        0.0000000000000000     
   9.3750000000000000E-002  0.25000000000000000        0.0000000000000000     
  0.12500000000000000       0.25000000000000000        0.0000000000000000     
  0.12500000000000000       0.12500000000000000        0.0000000000000000     
  0.15625000000000000       0.12500000000000000        0.0000000000000000     
  0.18750000000000000       0.12500000000000000        0.0000000000000000     
  0.21875000000000000       0.12500000000000000        0.0000000000000000     
  0.25000000000000000       0.12500000000000000        0.0000000000000000     
  0.12500000000000000       0.15625000000000000        0.0000000000000000     
  0.15625000000000000       0.15625000000000000        0.0000000000000000     
  0.18750000000000000       0.15625000000000000        0.0000000000000000     
  0.21875000000000000       0.15625000000000000        0.0000000000000000     
  0.25000000000000000       0.15625000000000000        0.0000000000000000     
  0.12500000000000000       0.18750000000000000        0.0000000000000000     
  0.15625000000000000       0.18750000000000000        0.0000000000000000     
  0.18750000000000000       0.18750000000000000        0.0000000000000000     
  0.21875000000000000       0.18750000000000000        0.0000000000000000     
  0.25000000000000000       0.18750000000000000        0.0000000000000000     
  0.12500000000000000       0.21875000000000000        0.0000000000000000     
  0.15625000000000000       0.21875000000000000        0.0000000000000000     
  0.18750000000000000       0.21875000000000000        0.0000000000000000     
  0.21875000000000000       0.21875000000000000        0.0000000000000000     
  0.25000000000000000       0.21875000000000000        0.0000000000000000     
  0.12500000000000000       0.25000000000000000        0.0000000000000000     
  0.15625000000000000       0.25000000000000000        0.0000000000000000     
  0.18750000000000000       0.25000000000000000        0.0000000000000000     
  0.21875000000000000       0.25000000000000000        0.0000000000000000     
  0.25000000000000000       0.25000000000000000        0.0000000000000000     
  0.25000000000000000       0.12500000000000000        0.0000000000000000     
  0.28125000000000000       0.12500000000000000        0.0000000000000000     
  0.31250000000000000       0.12500000000000000        0.0000000000000000     
  0.34375000000000000       0.12500000000000000        0.0000000000000000     
  0.37500000000000000       0.12500000000000000        0.0000000000000000     
  0.25000000000000000       0.15625000000000000        0.0000000000000000     
  0.28125000000000000       0.15625000000000000        0.0000000000000000     
  0.31250000000000000       0.15625000000000000        0.0000000000000000     
  0.34375000000000000       0.15625000000000000        0.0000000000000000     
  0.37500000000000000       0.15625000000000000        0.0000000000000000     
  0.25000000000000000       0.18750000000000000        0.0000000000000000     
  0.28125000000000000       0.18750000000000000        0.0000000000000000     
  0.31250000000000000       0.18750000000000000        0.0000000000000000     
  0.34375000000000000       0.18750000000000000        0.0000000000000000     
  0.37500000000000000       0.18750000000000000        0.0000000000000000     
  0.25000000000000000       0.21875000000000000        0.0000000000000000     
  0.28125000000000000       0.21875000000000000        0.0000000000000000     
  0.31250000000000000       0.21875000000000000        0.0000000000000000     
  0.34375000000000000       0.21875000000000000        0.0000000000000000     
  0.37500000000000000       0.21875000000000000        0.0000000000000000     
  0.25000000000000000       0.25000000000000000        0.0000000000000000     
  0.28125000000000000       0.25000000000000000        0.0000000000000000     
  0.31250000000000000       0.25000000000000000        0.0000000000000000     
  0.34375000000000000       0.25000000000000000        0.0000000000000000     
  0.37500000000000000       0.25000000000000000        0.0000000000000000     
  0.37500000000000000       0.12500000000000000        0.0000000000000000     
  0.40625000000000000       0.12500000000000000        0.0000000000000000     
  0.43750000000000000       0.12500000000000000        0.0000000000000000     
  0.46875000000000000       0.12500000000000000        0.0000000000000000     
  0.50000000000000000       0.12500000000000000        0.0000000000000000     
  0.37500000000000000       0.15625000000000000        0.0000000000000000     
  0.40625000000000000       0.15625000000000000        0.0000000000000000     
  0.43750000000000000       0.15625000000000000        0.0000000000000000     
  0.46875000000000000       0.15625000000000000        0.0000000000000000     
  0.50000000000000000       0.15625000000000000        0.0000000000000000     
  0.37500000000000000       0.18750000000000000        0.0000000000000000     
  0.40625000000000000       0.18750000000000000        0.0000000000000000     
  0.43750000000000000       0.18750000000000000        0.0000000000000000     
  0.46875000000000000       0.18750000000000000        0.0000000000000000     
  0.50000000000000000       0.18750000000000000        0.0000000000000000     
  0.37500000000000000       0.21875000000000000        0.0000000000000000     
  0.40625000000000000       0.21875000000000000        0.0000000000000000     
  0.43750000000000000       0.21875000000000000        0.0000000000000000     
  0.46875000000000000       0.21875000000000000        0.0000000000000000     
  0.50000000000000000       0.21875000000000000        0.0000000000000000     
  0.37500000000000000       0.25000000000000000        0.0000000000000000     
  0.40625000000000000       0.25000000000000000        0.0000000000000000     
  0.43750000000000000       0.25000000000000000        0.0000000000000000     
  0.46875000000000000       0.25000000000000000        0.0000000000000000     
  0.50000000000000000       0.25000000000000000        0.0000000000000000     
  0.50000000000000000       0.12500000000000000        0.0000000000000000     
  0.53125000000000000       0.12500000000000000        0.0000000000000000     
  0.56250000000000000       0.12500000000000000        0.0000000000000000     
  0.59375000000000000       0.12500000000000000        0.0000000000000000     
  0.62500000000000000       0.12500000000000000        0.0000000000000000     
  0.50000000000000000       0.15625000000000000        0.0000000000000000     
  0.53125000000000000       0.15625000000000000        0.0000000000000000     
  0.56250000000000000       0.15625000000000000        0.0000000000000000     
  0.59375000000000000       0.15625000000000000        0.0000000000000000     
  0.62500000000000000       0.15625000000000000        0.0000000000000000     
  0.50000000000000000       0.18750000000000000        0.0000000000000000     
  0.53125000000000000       0.18750000000000000        0.0000000000000000     
  0.56250000000000000       0.18750000000000000        0.0000000000000000     
  0.59375000000000000       0.18750000000000000        0.0000000000000000     
  0.62500000000000000       0.18750000000000000        0.0000000000000000     
  0.50000000000000000       0.21875000000000000        0.0000000000000000     
  0.53125000000000000       0.21875000000000000        0.0000000000000000     
  0.56250000000000000       0.21875000000000000        0.0000000000000000     
  0.59375000000000000       0.21875000000000000        0.0000000000000000     
  0.62500000000000000       0.21875000000000000        0.0000000000000000     
  0.50000000000000000       0.25000000000000000        0.0000000000000000     
  0.53125000000000000       0.25000000000000000        0.0000000000000000     
  0.56250000000000000       0.25000000000000000        0.0000000000000000     
  0.59375000000000000       0.25000000000000000        0.0000000000000000     
  0.62500000000000000       0.25000000000000000        0.0000000000000000     
  0.62500000000000000       0.12500000000000000        0.0000000000000000     
  0.65625000000000000       0.12500000000000000        0.0000000000000000     
  0.68750000000000000       0.12500000000000000        0.0000000000000000     
  0.71875000000000000       0.12500000000000000        0.0000000000000000     
  0.75000000000000000       0.12500000000000000        0.0000000000000000     
  0.62500000000000000       0.15625000000000000        0.0000000000000000     
  0.65625000000000000       0.15625000000000000        0.0000000000000000     
  0.68750000000000000       0.15625000000000000        0.0000000000000000     
  0.71875000000000000       0.15625000000000000        0.0000000000000000     
  0.75000000000000000       0.15625000000000000        0.0000000000000000     
  0.62500000000000000       0.18750000000000000        0.0000000000000000     
  0.65625000000000000       0.18750000000000000        0.0000000000000000     
  0.68750000000000000       0.18750000000000000        0.0000000000000000     
  0.71875000000000000       0.18750000000000000        0.0000000000000000     
  0.75000000000000000       0.18750000000000000        0.0000000000000000     
  0.62500000000000000       0.21875000000000000        0.0000000000000000     
  0.65625000000000000       0.21875000000000000        0.0000000000000000     
  0.68750000000000000       0.21875000000000000        0.0000000000000000     
  0.71875000000000000       0.21875000000000000        0.0000000000000000     
  0.75000000000000000       0.21875000000000000        0.0000000000000000     
  0.62500000000000000       0.25000000000000000        0.0000000000000000     
  0.65625000000000000       0.25000000000000000        0.0000000000000000     
  0.68750000000000000       0.25000000000000000        0.0000000000000000     
  0.71875000000000000       0.25000000000000000        0.0000000000000000     
  0.75000000000000000       0.25000000000000000        0.0000000000000000     
  0.75000000000000000       0.12500000000000000        0.0000000000000000     
  0.78125000000000000       0.12500000000000000        0.0000000000000000     
  0.81250000000000000       0.12500000000000000        0.0000000000000000     
  0.84375000000000000       0.12500000000000000        0.0000000000000000     
  0.87500000000000000       0.12500000000000000        0.0000000000000000     
  0.75000000000000000       0.15625000000000000        0.0000000000000000     
  0.78125000000000000       0.15625000000000000        0.0000000000000000     
  0.81250000000000000       0.15625000000000000        0.0000000000000000     
  0.84375000000000000       0.15625000000000000        0.0000000000000000     
  0.87500000000000000       0.15625000000000000        0.0000000000000000     
  0.75000000000000000       0.18750000000000000        0.0000000000000000     
  0.78125000000000000       0.18750000000000000        0.0000000000000000     
  0.81250000000000000       0.18750000000000000        0.0000000000000000     
  0.84375000000000000       0.18750000000000000        0.0000000000000000     
  0.87500000000000000       0.18750000000000000        0.0000000000000000     
  0.75000000000000000       0.21875000000000000        0.0000000000000000     
  0.78125000000000000       0.21875000000000000        0.0000000000000000     
  0.81250000000000000       0.21875000000000000        0.0000000000000000     
  0.84375000000000000       0.21875000000000000        0.0000000000000000     
  0.87500000000000000       0.21875000000000000        0.0000000000000000     
  0.75000000000000000       0.25000000000000000        0.0000000000000000     
  0.78125000000000000       0.25000000000000000        0.0000000000000000     
  0.81250000000000000       0.25000000000000000        0.0000000000000000     
  0.84375000000000000       0.25000000000000000        0.0000000000000000     
  0.87500000000000000       0.25000000000000000        0.0000000000000000     
  0.87500000000000000       0.12500000000000000        0.0000000000000000     
  0.90625000000000000       0.12500000000000000        0.0000000000000000     
  0.93750000000000000       0.12500000000000000        0.0000000000000000     
  0.96875000000000000       0.12500000000000000        0.0000000000000000     
   1.0000000000000000       0.12500000000000000        0.0000000000000000     
  0.87500000000000000       0.15625000000000000        0.0000000000000000     
  0.90625000000000000       0.15625000000000000        0.0000000000000000     
  0.93750000000000000       0.15625000000000000        0.0000000000000000     
  0.96875000000000000       0.15625000000000000        0.0000000000000000     
   1.0000000000000000       0.15625000000000000        0.0000000000000000     
  0.87500000000000000       0.18750000000000000        0.0000000000000000     
  0.90625000000000000       0.18750000000000000        0.0000000000000000     
  0.93750000000000000       0.18750000000000000        0.0000000000000000     
  0.96875000000000000       0.18750000000000000        0.0000000000000000     
   1.0000000000000000       0.18750000000000000        0.0000000000000000     
  0.87500000000000000       0.21875000000000000        0.0000000000000000     
  0.90625000000000000       0.21875000000000000        0.0000000000000000     
  0.93750000000000000       0.21875000000000000        0.0000000000000000     
  0.96875000000000000       0.21875000000000000        0.0000000000000000     
   1.0000000000000000       0.21875000000000000        0.0000000000000000     
  0.87500000000000000       0.25000000000000000        0.0000000000000000     
  0.90625000000000000       0.25000000000000000        0.0000000000000000     
  0.93750000000000000       0.25000000000000000        0.0000000000000000     
  0.96875000000000000       0.25000000000000000        0.0000000000000000     
   1.0000000000000000       0.25000000000000000        0.0000000000000000     
   0.0000000000000000       0.25000000000000000        0.0000000000000000     
   3.1250000000000000E-002  0.25000000000000000        0.0000000000000000     
   6.2500000000000000E-002  0.25000000000000000        0.0000000000000000     
   9.3750000000000000E-002  0.25000000000000000        0.0000000000000000     
  0.12500000000000000       0.25000000000000000        0.0000000000000000     
   0.0000000000000000       0.28125000000000000        0.0000000000000000     
   3.1250000000000000E-002  0.28125000000000000        0.0000000000000000     
   6.2500000000000000E-002  0.28125000000000000        0.0000000000000000     
   9.3750000000000000E-002  0.28125000000000000        0.0000000000000000     
  0.12500000000000000       0.28125000000000000        0.0000000000000000     
   0.0000000000000000       0.31250000000000000        0.0000000000000000     
   3.1250000000000000E-002  0.31250000000000000        0.0000000000000000     
   6.2500000000000000E-002  0.31250000000000000        0.0000000000000000     
   9.3750000000000000E-002  0.31250000000000000        0.0000000000000000     
  0.12500000000000000       0.31250000000000000        0.0000000000000000     
   0.0000000000000000       0.34375000000000000        0.0000000000000000     
   3.1250000000000000E-002  0.34375000000000000        0.0000000000000000     
   6.2500000000000000E-002  0.34375000000000000        0.0000000000000000     
   9.3750000000000000E-002  0.34375000000000000        0.0000000000000000     
  0.12500000000000000       0.34375000000000000        0.0000000000000000     
   0.0000000000000000       0.37500000000000000        0.0000000000000000     
   3.1250000000000000E-002  0.37500000000000000        0.0000000000000000     
   6.2500000000000000E-002  0.37500000000000000        0.0000000000000000     
   9.3750000000000000E-002  0.37500000000000000        0.0000000000000000     
  0.12500000000000000       0.37500000000000000        0.0000000000000000     
  0.12500000000000000       0.25000000000000000        0.0000000000000000     
  0.15625000000000000       0.25000000000000000        0.0000000000000000     
  0.18750000000000000       0.25000000000000000        0.0000000000000000     
  0.21875000000000000       0.25000000000000000        0.0000000000000000     
  0.25000000000000000       0.25000000000000000        0.0000000000000000     
  0.12500000000000000       0.28125000000000000        0.0000000000000000     
  0.15625000000000000       0.28125000000000000        0.0000000000000000     
  0.18750000000000000       0.28125000000000000        0.0000000000000000     
  0.21875000000000000       0.28125000000000000        0.0000000000000000     
  0.25000000000000000       0.28125000000000000        0.0000000000000000     
  0.12500000000000000       0.31250000000000000        0.0000000000000000     
  0.15625000000000000       0.31250000000000000        0.0000000000000000     
  0.18750000000000000       0.31250000000000000        0.0000000000000000     
  0.21875000000000000       0.31250000000000000        0.0000000000000000     
  0.25000000000000000       0.31250000000000000        0.0000000000000000     
  0.12500000000000000       0.34375000000000000        0.0000000000000000     
  0.15625000000000000       0.34375000000000000        0.0000000000000000     
  0.18750000000000000       0.34375000000000000        0.0000000000000000     
  0.21875000000000000       0.34375000000000000        0.0000000000000000     
  0.25000000000000000       0.34375000000000000        0.0000000000000000     
  0.12500000000000000       0.37500000000000000        0.0000000000000000     
  0.15625000000000000       0.37500000000000000        0.0000000000000000     
  0.18750000000000000       0.37500000000000000        0.0000000000000000     
  0.21875000000000000       0.37500000000000000        0.0000000000000000     
  0.25000000000000000       0.37500000000000000        0.0000000000000000     
  0.25000000000000000       0.25000000000000000        0.0000000000000000     
  0.28125000000000000       0.25000000000000000        0.0000000000000000     
  0.31250000000000000       0.25000000000000000        0.0000000000000000     
  0.34375000000000000       0.25000000000000000        0.0000000000000000     
  0.37500000000000000       0.25000000000000000        0.0000000000000000     
  0.25000000000000000       0.28125000000000000        0.0000000000000000     
  0.28125000000000000       0.28125000000000000        0.0000000000000000     
  0.31250000000000000       0.28125000000000000        0.0000000000000000     
  0.34375000000000000       0.28125000000000000        0.0000000000000000     
  0.37500000000000000       0.28125000000000000        0.0000000000000000     
  0.25000000000000000       0.31250000000000000        0.0000000000000000     
  0.28125000000000000       0.31250000000000000        0.0000000000000000     
  0.31250000000000000       0.31250000000000000        0.0000000000000000     
  0.34375000000000000       0.31250000000000000        0.0000000000000000     
  0.37500000000000000       0.31250000000000000        0.0000000000000000     
  0.25000000000000000       0.34375000000000000        0.0000000000000000     
  0.28125000000000000       0.34375000000000000        0.0000000000000000     
  0.31250000000000000       0.34375000000000000        0.0000000000000000     
  0.34375000000000000       0.34375000000000000        0.0000000000000000     
  0.37500000000000000       0.34375000000000000        0.0000000000000000     
  0.25000000000000000       0.37500000000000000        0.0000000000000000     
  0.28125000000000000       0.37500000000000000        0.0000000000000000     
  0.31250000000000000       0.37500000000000000        0.0000000000000000     
  0.34375000000000000       0.37500000000000000        0.0000000000000000     
  0.37500000000000000       0.37500000000000000        0.0000000000000000     
  0.37500000000000000       0.25000000000000000        0.0000000000000000     
  0.40625000000000000       0.25000000000000000        0.0000000000000000     
  0.43750000000000000       0.25000000000000000        0.0000000000000000     
  0.46875000000000000       0.25000000000000000        0.0000000000000000     
  0.50000000000000000       0.25000000000000000        0.0000000000000000     
  0.37500000000000000       0.28125000000000000        0.0000000000000000     
  0.40625000000000000       0.28125000000000000        0.0000000000000000     
  0.43750000000000000       0.28125000000000000        0.0000000000000000     
  0.46875000000000000       0.28125000000000000        0.0000000000000000     
  0.50000000000000000       0.28125000000000000        0.0000000000000000     
  0.37500000000000000       0.31250000000000000        0.0000000000000000     
  0.40625000000000000       0.31250000000000000        0.0000000000000000     
  0.43750000000000000       0.31250000000000000        0.0000000000000000     
  0.46875000000000000       0.31250000000000000        0.0000000000000000     
  0.50000000000000000       0.31250000000000000        0.0000000000000000     
  0.37500000000000000       0.34375000000000000        0.0000000000000000     
  0.40625000000000000       0.34375000000000000        0.0000000000000000     
  0.43750000000000000       0.34375000000000000        0.0000000000000000     
  0.46875000000000000       0.34375000000000000        0.0000000000000000     
  0.50000000000000000       0.34375000000000000        0.0000000000000000     
  0.37500000000000000       0.37500000000000000        0.0000000000000000     
  0.40625000000000000       0.37500000000000000        0.0000000000000000     
  0.43750000000000000       0.37500000000000000        0.0000000000000000     
  0.46875000000000000       0.37500000000000000        0.0000000000000000     
  0.50000000000000000       0.37500000000000000        0.0000000000000000     
  0.50000000000000000       0.25000000000000000        0.0000000000000000     
  0.53125000000000000       0.25000000000000000        0.0000000000000000     
  0.56250000000000000       0.25000000000000000        0.0000000000000000     
  0.59375000000000000       0.25000000000000000        0.0000000000000000     
  0.62500000000000000       0.25000000000000000        0.0000000000000000     
  0.50000000000000000       0.28125000000000000        0.0000000000000000     
  0.53125000000000000       0.28125000000000000        0.0000000000000000     
  0.56250000000000000       0.28125000000000000        0.0000000000000000     
  0.59375000000000000       0.28125000000000000        0.0000000000000000     
  0.62500000000000000       0.28125000000000000        0.0000000000000000     
  0.50000000000000000       0.31250000000000000        0.0000000000000000     
  0.53125000000000000       0.31250000000000000        0.0000000000000000     
  0.56250000000000000       0.31250000000000000        0.0000000000000000     
  0.59375000000000000       0.31250000000000000        0.0000000000000000     
  0.62500000000000000       0.31250000000000000        0.0000000000000000     
  0.50000000000000000       0.34375000000000000        0.0000000000000000     
  0.53125000000000000       0.34375000000000000        0.0000000000000000     
  0.56250000000000000       0.34375000000000000        0.0000000000000000     
  0.59375000000000000       0.34375000000000000        0.0000000000000000     
  0.62500000000000000       0.34375000000000000        0.0000000000000000     
  0.50000000000000000       0.37500000000000000        0.0000000000000000     
  0.53125000000000000       0.37500000000000000        0.0000000000000000     
  0.56250000000000000       0.37500000000000000        0.0000000000000000     
  0.59375000000000000       0.37500000000000000        0.0000000000000000     
  0.62500000000000000       0.37500000000000000        0.0000000000000000     
  0.62500000000000000       0.25000000000000000        0.0000000000000000     
  0.65625000000000000       0.25000000000000000        0.0000000000000000     
  0.68750000000000000       0.25000000000000000        0.0000000000000000     
  0.71875000000000000       0.25000000000000000        0.0000000000000000     
  0.75000000000000000       0.25000000000000000        0.0000000000000000     
  0.62500000000000000       0.28125000000000000        0.0000000000000000     
  0.65625000000000000       0.28125000000000000        0.0000000000000000     
  0.68750000000000000       0.28125000000000000        0.0000000000000000     
  0.71875000000000000       0.28125000000000000        0.0000000000000000     
  0.75000000000000000       0.28125000000000000        0.0000000000000000     
  0.62500000000000000       0.31250000000000000        0.0000000000000000     
  0.65625000000000000       0.31250000000000000        0.0000000000000000     
  0.68750000000000000       0.31250000000000000        0.0000000000000000     
  0.71875000000000000       0.31250000000000000        0.0000000000000000     
  0.75000000000000000       0.31250000000000000        0.0000000000000000     
  0.62500000000000000       0.34375000000000000        0.0000000000000000     
  0.65625000000000000       0.34375000000000000        0.0000000000000000     
  0.68750000000000000       0.34375000000000000        0.0000000000000000     
  0.71875000000000000       0.34375000000000000        0.0000000000000000     
  0.75000000000000000       0.34375000000000000        0.0000000000000000     
  0.62500000000000000       0.37500000000000000        0.0000000000000000     
  0.65625000000000000       0.37500000000000000        0.0000000000000000     
  0.68750000000000000       0.37500000000000000        0.0000000000000000     
  0.71875000000000000       0.37500000000000000        0.0000000000000000     
  0.75000000000000000       0.37500000000000000        0.0000000000000000     
  0.75000000000000000       0.25000000000000000        0.0000000000000000     
  0.78125000000000000       0.25000000000000000        0.0000000000000000     
  0.81250000000000000       0.25000000000000000        0.0000000000000000     
  0.84375000000000000       0.25000000000000000        0.0000000000000000     
  0.87500000000000000       0.25000000000000000        0.0000000000000000     
  0.75000000000000000       0.28125000000000000        0.0000000000000000     
  0.78125000000000000       0.28125000000000000        0.0000000000000000     
  0.81250000000000000       0.28125000000000000        0.0000000000000000     
  0.84375000000000000       0.28125000000000000        0.0000000000000000     
  0.87500000000000000       0.28125000000000000        0.0000000000000000     
  0.75000000000000000       0.31250000000000000        0.0000000000000000     
  0.78125000000000000       0.31250000000000000        0.0000000000000000     
  0.81250000000000000       0.31250000000000000        0.0000000000000000     
  0.84375000000000000       0.31250000000000000        0.0000000000000000     
  0.87500000000000000       0.31250000000000000        0.0000000000000000     
  0.75000000000000000       0.34375000000000000        0.0000000000000000     
  0.78125000000000000       0.34375000000000000        0.0000000000000000     
  0.81250000000000000       0.34375000000000000        0.0000000000000000     
  0.84375000000000000       0.34375000000000000        0.0000000000000000     
  0.87500000000000000       0.34375000000000000        0.0000000000000000     
  0.75000000000000000       0.37500000000000000        0.0000000000000000     
  0.78125000000000000       0.37500000000000000        0.0000000000000000     
  0.81250000000000000       0.37500000000000000        0.0000000000000000     
  0.84375000000000000       0.37500000000000000        0.0000000000000000     
  0.87500000000000000       0.37500000000000000        0.0000000000000000     
  0.87500000000000000       0.25000000000000000        0.0000000000000000     
  0.90625000000000000       0.25000000000000000        0.0000000000000000     
  0.93750000000000000       0.25000000000000000        0.0000000000000000     
  0.96875000000000000       0.25000000000000000        0.0000000000000000     
   1.0000000000000000       0.25000000000000000        0.0000000000000000     
  0.87500000000000000       0.28125000000000000        0.0000000000000000     
  0.90625000000000000       0.28125000000000000        0.0000000000000000     
  0.93750000000000000       0.28125000000000000        0.0000000000000000     
  0.96875000000000000       0.28125000000000000        0.0000000000000000     
   1.0000000000000000       0.28125000000000000        0.0000000000000000     
  0.87500000000000000       0.31250000000000000        0.0000000000000000     
  0.90625000000000000       0.31250000000000000        0.0000000000000000     
  0.93750000000000000       0.31250000000000000        0.0000000000000000     
  0.96875000000000000       0.31250000000000000        0.0000000000000000     
   1.0000000000000000       0.31250000000000000        0.0000000000000000     
  0.87500000000000000       0.34375000000000000        0.0000000000000000     
  0.90625000000000000       0.34375000000000000        0.0000000000000000     
  0.93750000000000000       0.34375000000000000        0.0000000000000000     
  0.96875000000000000       0.34375000000000000        0.0000000000000000     
   1.0000000000000000       0.34375000000000000        0.0000000000000000     
  0.87500000000000000       0.37500000000000000        0.0000000000000000     
  0.90625000000000000       0.37500000000000000        0.0000000000000000     
  0.93750000000000000       0.37500000000000000        0.0000000000000000     
  0.96875000000000000       0.37500000000000000        0.0000000000000000     
   1.0000000000000000       0.37500000000000000        0.0000000000000000     
   0.0000000000000000       0.37500000000000000        0.0000000000000000     
   3.1250000000000000E-002  0.37500000000000000        0.0000000000000000     
   6.2500000000000000E-002  0.37500000000000000        0.0000000000000000     
   9.3750000000000000E-002  0.37500000000000000        0.0000000000000000     
  0.12500000000000000       0.37500000000000000        0.0000000000000000     
   0.0000000000000000       0.40625000000000000        0.0000000000000000     
   3.1250000000000000E-002  0.40625000000000000        0.0000000000000000     
   6.2500000000000000E-002  0.40625000000000000        0.0000000000000000     
   9.3750000000000000E-002  0.40625000000000000        0.0000000000000000     
  0.12500000000000000       0.40625000000000000        0.0000000000000000     
   0.0000000000000000       0.43750000000000000        0.0000000000000000     
   3.1250000000000000E-002  0.43750000000000000        0.0000000000000000     
   6.2500000000000000E-002  0.43750000000000000        0.0000000000000000     
   9.3750000000000000E-002  0.43750000000000000        0.0000000000000000     
  0.12500000000000000       0.43750000000000000        0.0000000000000000     
   0.0000000000000000       0.46875000000000000        0.0000000000000000     
   3.1250000000000000E-002  0.46875000000000000        0.0000000000000000     
   6.2500000000000000E-002  0.46875000000000000        0.0000000000000000     
   9.3750000000000000E-002  0.46875000000000000        0.0000000000000000     
  0.12500000000000000       0.46875000000000000        0.0000000000000000     
   0.0000000000000000       0.50000000000000000        0.0000000000000000     
   3.1250000000000000E-002  0.50000000000000000        0.0000000000000000     
   6.2500000000000000E-002  0.50000000000000000        0.0000000000000000     
   9.3750000000000000E-002  0.50000000000000000        0.0000000000000000     
  0.12500000000000000       0.50000000000000000        0.0000000000000000     
  0.12500000000000000       0.37500000000000000        0.0000000000000000     
  0.15625000000000000       0.37500000000000000        0.0000000000000000     
  0.18750000000000000       0.37500000000000000        0.0000000000000000     
  0.21875000000000000       0.37500000000000000        0.0000000000000000     
  0.25000000000000000       0.37500000000000000        0.0000000000000000     
  0.12500000000000000       0.40625000000000000        0.0000000000000000     
  0.15625000000000000       0.40625000000000000        0.0000000000000000     
  0.18750000000000000       0.40625000000000000        0.0000000000000000     
  0.21875000000000000       0.40625000000000000        0.0000000000000000     
  0.25000000000000000       0.40625000000000000        0.0000000000000000     
  0.12500000000000000       0.43750000000000000        0.0000000000000000     
  0.15625000000000000       0.43750000000000000        0.0000000000000000     
  0.18750000000000000       0.43750000000000000        0.0000000000000000     
  0.21875000000000000       0.43750000000000000        0.0000000000000000     
  0.25000000000000000       0.43750000000000000        0.0000000000000000     
  0.12500000000000000       0.46875000000000000        0.0000000000000000     
  0.15625000000000000       0.46875000000000000        0.0000000000000000     
  0.18750000000000000       0.46875000000000000        0.0000000000000000     
  0.21875000000000000       0.46875000000000000        0.0000000000000000     
  0.25000000000000000       0.46875000000000000        0.0000000000000000     
  0.12500000000000000       0.50000000000000000        0.0000000000000000     
  0.15625000000000000       0.50000000000000000        0.0000000000000000     
  0.18750000000000000       0.50000000000000000        0.0000000000000000     
  0.21875000000000000       0.50000000000000000        0.0000000000000000     
  0.25000000000000000       0.50000000000000000        0.0000000000000000     
  0.25000000000000000       0.37500000000000000        0.0000000000000000     
  0.28125000000000000       0.37500000000000000        0.0000000000000000     
  0.31250000000000000       0.37500000000000000        0.0000000000000000     
  0.34375000000000000       0.37500000000000000        0.0000000000000000     
  0.37500000000000000       0.37500000000000000        0.0000000000000000     
  0.25000000000000000       0.40625000000000000        0.0000000000000000     
  0.28125000000000000       0.40625000000000000        0.0000000000000000     
  0.31250000000000000       0.40625000000000000        0.0000000000000000     
  0.34375000000000000       0.40625000000000000        0.0000000000000000     
  0.37500000000000000       0.40625000000000000        0.0000000000000000     
  0.25000000000000000       0.43750000000000000        0.0000000000000000     
  0.28125000000000000       0.43750000000000000        0.0000000000000000     
  0.31250000000000000       0.43750000000000000        0.0000000000000000     
  0.34375000000000000       0.43750000000000000        0.0000000000000000     
  0.37500000000000000       0.43750000000000000        0.0000000000000000     
  0.25000000000000000       0.46875000000000000        0.0000000000000000     
  0.28125000000000000       0.46875000000000000        0.0000000000000000     
  0.31250000000000000       0.46875000000000000        0.0000000000000000     
  0.34375000000000000       0.46875000000000000        0.0000000000000000     
  0.37500000000000000       0.46875000000000000        0.0000000000000000     
  0.25000000000000000       0.50000000000000000        0.0000000000000000     
  0.28125000000000000       0.50000000000000000        0.0000000000000000     
  0.31250000000000000       0.50000000000000000        0.0000000000000000     
  0.34375000000000000       0.50000000000000000        0.0000000000000000     
  0.37500000000000000       0.50000000000000000        0.0000000000000000     
  0.37500000000000000       0.37500000000000000        0.0000000000000000     
  0.40625000000000000       0.37500000000000000        0.0000000000000000     
  0.43750000000000000       0.37500000000000000        0.0000000000000000     
  0.46875000000000000       0.37500000000000000        0.0000000000000000     
  0.50000000000000000       0.37500000000000000        0.0000000000000000     
  0.37500000000000000       0.40625000000000000        0.0000000000000000     
  0.40625000000000000       0.40625000000000000        0.0000000000000000     
  0.43750000000000000       0.40625000000000000        0.0000000000000000     
  0.46875000000000000       0.40625000000000000        0.0000000000000000     
  0.50000000000000000       0.40625000000000000        0.0000000000000000     
  0.37500000000000000       0.43750000000000000        0.0000000000000000     
  0.40625000000000000       0.43750000000000000        0.0000000000000000     
  0.43750000000000000       0.43750000000000000        0.0000000000000000     
  0.46875000000000000       0.43750000000000000        0.0000000000000000     
  0.50000000000000000       0.43750000000000000        0.0000000000000000     
  0.37500000000000000       0.46875000000000000        0.0000000000000000     
  0.40625000000000000       0.46875000000000000        0.0000000000000000     
  0.43750000000000000       0.46875000000000000        0.0000000000000000     
  0.46875000000000000       0.46875000000000000        0.0000000000000000     
  0.50000000000000000       0.46875000000000000        0.0000000000000000     
  0.37500000000000000       0.50000000000000000        0.0000000000000000     
  0.40625000000000000       0.50000000000000000        0.0000000000000000     
  0.43750000000000000       0.50000000000000000        0.0000000000000000     
  0.46875000000000000       0.50000000000000000        0.0000000000000000     
  0.50000000000000000       0.50000000000000000        0.0000000000000000     
  0.50000000000000000       0.37500000000000000        0.0000000000000000     
  0.53125000000000000       0.37500000000000000        0.0000000000000000     
  0.56250000000000000       0.37500000000000000        0.0000000000000000     
  0.59375000000000000       0.37500000000000000        0.0000000000000000     
  0.62500000000000000       0.37500000000000000        0.0000000000000000     
  0.50000000000000000       0.40625000000000000        0.0000000000000000     
  0.53125000000000000       0.40625000000000000        0.0000000000000000     
  0.56250000000000000       0.40625000000000000        0.0000000000000000     
  0.59375000000000000       0.40625000000000000        0.0000000000000000     
  0.62500000000000000       0.40625000000000000        0.0000000000000000     
  0.50000000000000000       0.43750000000000000        0.0000000000000000     
  0.53125000000000000       0.43750000000000000        0.0000000000000000     
  0.56250000000000000       0.43750000000000000        0.0000000000000000     
  0.59375000000000000       0.43750000000000000        0.0000000000000000     
  0.62500000000000000       0.43750000000000000        0.0000000000000000     
  0.50000000000000000       0.46875000000000000        0.0000000000000000     
  0.53125000000000000       0.46875000000000000        0.0000000000000000     
  0.56250000000000000       0.46875000000000000        0.0000000000000000     
  0.59375000000000000       0.46875000000000000        0.0000000000000000     
  0.62500000000000000       0.46875000000000000        0.0000000000000000     
  0.50000000000000000       0.50000000000000000        0.0000000000000000     
  0.53125000000000000       0.50000000000000000        0.0000000000000000     
  0.56250000000000000       0.50000000000000000        0.0000000000000000     
  0.59375000000000000       0.50000000000000000        0.0000000000000000     
  0.62500000000000000       0.50000000000000000        0.0000000000000000     
  0.62500000000000000       0.37500000000000000        0.0000000000000000     
  0.65625000000000000       0.37500000000000000        0.0000000000000000     
  0.68750000000000000       0.37500000000000000        0.0000000000000000     
  0.71875000000000000       0.37500000000000000        0.0000000000000000     
  0.75000000000000000       0.37500000000000000        0.0000000000000000     
  0.62500000000000000       0.40625000000000000        0.0000000000000000     
  0.65625000000000000       0.40625000000000000        0.0000000000000000     
  0.68750000000000000       0.40625000000000000        0.0000000000000000     
  0.71875000000000000       0.40625000000000000        0.0000000000000000     
  0.75000000000000000       0.40625000000000000        0.0000000000000000     
  0.62500000000000000       0.43750000000000000        0.0000000000000000     
  0.65625000000000000       0.43750000000000000        0.0000000000000000     
  0.68750000000000000       0.43750000000000000        0.0000000000000000     
  0.71875000000000000       0.43750000000000000        0.0000000000000000     
  0.75000000000000000       0.43750000000000000        0.0000000000000000     
  0.62500000000000000       0.46875000000000000        0.0000000000000000     
  0.65625000000000000       0.46875000000000000        0.0000000000000000     
  0.68750000000000000       0.46875000000000000        0.0000000000000000     
  0.71875000000000000       0.46875000000000000        0.0000000000000000     
  0.75000000000000000       0.46875000000000000        0.0000000000000000     
  0.62500000000000000       0.50000000000000000        0.0000000000000000     
  0.65625000000000000       0.50000000000000000        0.0000000000000000     
  0.68750000000000000       0.50000000000000000        0.0000000000000000     
  0.71875000000000000       0.50000000000000000        0.0000000000000000     
  0.75000000000000000       0.50000000000000000        0.0000000000000000     
  0.75000000000000000       0.37500000000000000        0.0000000000000000     
  0.78125000000000000       0.37500000000000000        0.0000000000000000     
  0.81250000000000000       0.37500000000000000        0.0000000000000000     
  0.84375000000000000       0.37500000000000000        0.0000000000000000     
  0.87500000000000000       0.37500000000000000        0.0000000000000000     
  0.75000000000000000       0.40625000000000000        0.0000000000000000     
  0.78125000000000000       0.40625000000000000        0.0000000000000000     
  0.81250000000000000       0.40625000000000000        0.0000000000000000     
  0.84375000000000000       0.40625000000000000        0.0000000000000000     
  0.87500000000000000       0.40625000000000000        0.0000000000000000     
  0.75000000000000000       0.43750000000000000        0.0000000000000000     
  0.78125000000000000       0.43750000000000000        0.0000000000000000     
  0.81250000000000000       0.43750000000000000        0.0000000000000000     
  0.84375000000000000       0.43750000000000000        0.0000000000000000     
  0.87500000000000000       0.43750000000000000        0.0000000000000000     
  0.75000000000000000       0.46875000000000000        0.0000000000000000     
  0.78125000000000000       0.46875000000000000        0.0000000000000000     
  0.81250000000000000       0.46875000000000000        0.0000000000000000     
  0.84375000000000000       0.46875000000000000        0.0000000000000000     
  0.87500000000000000       0.46875000000000000        0.0000000000000000     
  0.75000000000000000       0.50000000000000000        0.0000000000000000     
  0.78125000000000000       0.50000000000000000        0.0000000000000000     
  0.81250000000000000       0.50000000000000000        0.0000000000000000     
  0.84375000000000000       0.50000000000000000        0.0000000000000000     
  0.87500000000000000       0.50000000000000000        0.0000000000000000     
  0.87500000000000000       0.37500000000000000        0.0000000000000000     
  0.90625000000000000       0.37500000000000000        0.0000000000000000     
  0.93750000000000000       0.37500000000000000        0.0000000000000000     
  0.96875000000000000       0.37500000000000000        0.0000000000000000     
   1.0000000000000000       0.37500000000000000        0.0000000000000000     
  0.87500000000000000       0.40625000000000000        0.0000000000000000     
  0.90625000000000000       0.40625000000000000        0.0000000000000000     
  0.93750000000000000       0.40625000000000000        0.0000000000000000     
  0.96875000000000000       0.40625000000000000        0.0000000000000000     
   1.0000000000000000       0.40625000000000000        0.0000000000000000     
  0.87500000000000000       0.43750000000000000        0.0000000000000000     
  0.90625000000000000       0.43750000000000000        0.0000000000000000     
  0.93750000000000000       0.43750000000000000        0.0000000000000000     
  0.96875000000000000       0.43750000000000000        0.0000000000000000     
   1.0000000000000000       0.43750000000000000        0.0000000000000000     
  0.87500000000000000       0.46875000000000000        0.0000000000000000     
  0.90625000000000000       0.46875000000000000        0.0000000000000000     
  0.93750000000000000       0.46875000000000000        0.0000000000000000     
  0.96875000000000000       0.46875000000000000        0.0000000000000000     
   1.0000000000000000       0.46875000000000000        0.0000000000000000     
  0.87500000000000000       0.50000000000000000        0.0000000000000000     
  0.90625000000000000       0.50000000000000000        0.0000000000000000     
  0.93750000000000000       0.50000000000000000        0.0000000000000000     
  0.96875000000000000       0.50000000000000000        0.0000000000000000     
   1.0000000000000000       0.50000000000000000        0.0000000000000000     
   0.0000000000000000       0.50000000000000000        0.0000000000000000     
   3.1250000000000000E-002  0.50000000000000000        0.0000000000000000     
   6.2500000000000000E-002  0.50000000000000000        0.0000000000000000     
   9.3750000000000000E-002  0.50000000000000000        0.0000000000000000     
  0.12500000000000000       0.50000000000000000        0.0000000000000000     
   0.0000000000000000       0.53125000000000000        0.0000000000000000     
   3.1250000000000000E-002  0.53125000000000000        0.0000000000000000     
   6.2500000000000000E-002  0.53125000000000000        0.0000000000000000     
   9.3750000000000000E-002  0.53125000000000000        0.0000000000000000     
  0.12500000000000000       0.53125000000000000        0.0000000000000000     
   0.0000000000000000       0.56250000000000000        0.0000000000000000     
   3.1250000000000000E-002  0.56250000000000000        0.0000000000000000     
   6.2500000000000000E-002  0.56250000000000000        0.0000000000000000     
   9.3750000000000000E-002  0.56250000000000000        0.0000000000000000     
  0.12500000000000000       0.56250000000000000        0.0000000000000000     
   0.0000000000000000       0.59375000000000000        0.0000000000000000     
   3.1250000000000000E-002  0.59375000000000000        0.0000000000000000     
   6.2500000000000000E-002  0.59375000000000000        0.0000000000000000     
   9.3750000000000000E-002  0.59375000000000000        0.0000000000000000     
  0.12500000000000000       0.59375000000000000        0.0000000000000000     
   0.0000000000000000       0.62500000000000000        0.0000000000000000     
   3.1250000000000000E-002  0.62500000000000000        0.0000000000000000     
   6.2500000000000000E-002  0.62500000000000000        0.0000000000000000     
   9.3750000000000000E-002  0.62500000000000000        0.0000000000000000     
  0.12500000000000000       0.62500000000000000        0.0000000000000000     
  0.12500000000000000       0.50000000000000000        0.0000000000000000     
  0.15625000000000000       0.50000000000000000        0.0000000000000000     
  0.18750000000000000       0.50000000000000000        0.0000000000000000     
  0.21875000000000000       0.50000000000000000        0.0000000000000000     
  0.25000000000000000       0.50000000000000000        0.0000000000000000     
  0.12500000000000000       0.53125000000000000        0.0000000000000000     
  0.15625000000000000       0.53125000000000000        0.0000000000000000     
  0.18750000000000000       0.53125000000000000        0.0000000000000000     
  0.21875000000000000       0.53125000000000000        0.0000000000000000     
  0.25000000000000000       0.53125000000000000        0.0000000000000000     
  0.12500000000000000       0.56250000000000000        0.0000000000000000     
  0.15625000000000000       0.56250000000000000        0.0000000000000000     
  0.18750000000000000       0.56250000000000000        0.0000000000000000     
  0.21875000000000000       0.56250000000000000        0.0000000000000000     
  0.25000000000000000       0.56250000000000000        0.0000000000000000     
  0.12500000000000000       0.59375000000000000        0.0000000000000000     
  0.15625000000000000       0.59375000000000000        0.0000000000000000     
  0.18750000000000000       0.59375000000000000        0.0000000000000000     
  0.21875000000000000       0.59375000000000000        0.0000000000000000     
  0.25000000000000000       0.59375000000000000        0.0000000000000000     
  0.12500000000000000       0.62500000000000000        0.0000000000000000     
  0.15625000000000000       0.62500000000000000        0.0000000000000000     
  0.18750000000000000       0.62500000000000000        0.0000000000000000     
  0.21875000000000000       0.62500000000000000        0.0000000000000000     
  0.25000000000000000       0.62500000000000000        0.0000000000000000     
  0.25000000000000000       0.50000000000000000        0.0000000000000000     
  0.28125000000000000       0.50000000000000000        0.0000000000000000     
  0.31250000000000000       0.50000000000000000        0.0000000000000000     
  0.34375000000000000       0.50000000000000000        0.0000000000000000     
  0.37500000000000000       0.50000000000000000        0.0000000000000000     
  0.25000000000000000       0.53125000000000000        0.0000000000000000     
  0.28125000000000000       0.53125000000000000        0.0000000000000000     
  0.31250000000000000       0.53125000000000000        0.0000000000000000     
  0.34375000000000000       0.53125000000000000        0.0000000000000000     
  0.37500000000000000       0.53125000000000000        0.0000000000000000     
  0.25000000000000000       0.56250000000000000        0.0000000000000000     
  0.28125000000000000       0.56250000000000000        0.0000000000000000     
  0.31250000000000000       0.56250000000000000        0.0000000000000000     
  0.34375000000000000       0.56250000000000000        0.0000000000000000     
  0.37500000000000000       0.56250000000000000        0.0000000000000000     
  0.25000000000000000       0.59375000000000000        0.0000000000000000     
  0.28125000000000000       0.59375000000000000        0.0000000000000000     
  0.31250000000000000       0.59375000000000000        0.0000000000000000     
  0.34375000000000000       0.59375000000000000        0.0000000000000000     
  0.37500000000000000       0.59375000000000000        0.0000000000000000     
  0.25000000000000000       0.62500000000000000        0.0000000000000000     
  0.28125000000000000       0.62500000000000000        0.0000000000000000     
  0.31250000000000000       0.62500000000000000        0.0000000000000000     
  0.34375000000000000       0.62500000000000000        0.0000000000000000     
  0.37500000000000000       0.62500000000000000        0.0000000000000000     
  0.37500000000000000       0.50000000000000000        0.0000000000000000     
  0.40625000000000000       0.50000000000000000        0.0000000000000000     
  0.43750000000000000       0.50000000000000000        0.0000000000000000     
  0.46875000000000000       0.50000000000000000        0.0000000000000000     
  0.50000000000000000       0.50000000000000000        0.0000000000000000     
  0.37500000000000000       0.53125000000000000        0.0000000000000000     
  0.40625000000000000       0.53125000000000000        0.0000000000000000     
  0.43750000000000000       0.53125000000000000        0.0000000000000000     
  0.46875000000000000       0.53125000000000000        0.0000000000000000     
  0.50000000000000000       0.53125000000000000        0.0000000000000000     
  0.37500000000000000       0.56250000000000000        0.0000000000000000     
  0.40625000000000000       0.56250000000000000        0.0000000000000000     
  0.43750000000000000       0.56250000000000000        0.0000000000000000     
  0.46875000000000000       0.56250000000000000        0.0000000000000000     
  0.50000000000000000       0.56250000000000000        0.0000000000000000     
  0.37500000000000000       0.59375000000000000        0.0000000000000000     
  0.40625000000000000       0.59375000000000000        0.0000000000000000     
  0.43750000000000000       0.59375000000000000        0.0000000000000000     
  0.46875000000000000       0.59375000000000000        0.0000000000000000     
  0.50000000000000000       0.59375000000000000        0.0000000000000000     
  0.37500000000000000       0.62500000000000000        0.0000000000000000     
  0.40625000000000000       0.62500000000000000        0.0000000000000000     
  0.43750000000000000       0.62500000000000000        0.0000000000000000     
  0.46875000000000000       0.62500000000000000        0.0000000000000000     
  0.50000000000000000       0.62500000000000000        0.0000000000000000     
  0.50000000000000000       0.50000000000000000        0.0000000000000000     
  0.53125000000000000       0.50000000000000000        0.0000000000000000     
  0.56250000000000000       0.50000000000000000        0.0000000000000000     
  0.59375000000000000       0.50000000000000000        0.0000000000000000     
  0.62500000000000000       0.50000000000000000        0.0000000000000000     
  0.50000000000000000       0.53125000000000000        0.0000000000000000     
  0.53125000000000000       0.53125000000000000        0.0000000000000000     
  0.56250000000000000       0.53125000000000000        0.0000000000000000     
  0.59375000000000000       0.53125000000000000        0.0000000000000000     
  0.62500000000000000       0.53125000000000000        0.0000000000000000     
  0.50000000000000000       0.56250000000000000        0.0000000000000000     
  0.53125000000000000       0.56250000000000000        0.0000000000000000     
  0.56250000000000000       0.56250000000000000        0.0000000000000000     
  0.59375000000000000       0.56250000000000000        0.0000000000000000     
  0.62500000000000000       0.56250000000000000        0.0000000000000000     
  0.50000000000000000       0.59375000000000000        0.0000000000000000     
  0.53125000000000000       0.59375000000000000        0.0000000000000000     
  0.56250000000000000       0.59375000000000000        0.0000000000000000     
  0.59375000000000000       0.59375000000000000        0.0000000000000000     
  0.62500000000000000       0.59375000000000000        0.0000000000000000     
  0.50000000000000000       0.62500000000000000        0.0000000000000000     
  0.53125000000000000       0.62500000000000000        0.0000000000000000     
  0.56250000000000000       0.62500000000000000        0.0000000000000000     
  0.59375000000000000       0.62500000000000000        0.0000000000000000     
  0.62500000000000000       0.62500000000000000        0.0000000000000000     
  0.62500000000000000       0.50000000000000000        0.0000000000000000     
  0.65625000000000000       0.50000000000000000        0.0000000000000000     
  0.68750000000000000       0.50000000000000000        0.0000000000000000     
  0.71875000000000000       0.50000000000000000        0.0000000000000000     
  0.75000000000000000       0.50000000000000000        0.0000000000000000     
  0.62500000000000000       0.53125000000000000        0.0000000000000000     
  0.65625000000000000       0.53125000000000000        0.0000000000000000     
  0.68750000000000000       0.53125000000000000        0.0000000000000000     
  0.71875000000000000       0.53125000000000000        0.0000000000000000     
  0.75000000000000000       0.53125000000000000        0.0000000000000000     
  0.62500000000000000       0.56250000000000000        0.0000000000000000     
  0.65625000000000000       0.56250000000000000        0.0000000000000000     
  0.68750000000000000       0.56250000000000000        0.0000000000000000     
  0.71875000000000000       0.56250000000000000        0.0000000000000000     
  0.75000000000000000       0.56250000000000000        0.0000000000000000     
  0.62500000000000000       0.59375000000000000        0.0000000000000000     
  0.65625000000000000       0.59375000000000000        0.0000000000000000     
  0.68750000000000000       0.59375000000000000        0.0000000000000000     
  0.71875000000000000       0.59375000000000000        0.0000000000000000     
  0.75000000000000000       0.59375000000000000        0.0000000000000000     
  0.62500000000000000       0.62500000000000000        0.0000000000000000     
  0.65625000000000000       0.62500000000000000        0.0000000000000000     
  0.68750000000000000       0.62500000000000000        0.0000000000000000     
  0.71875000000000000       0.62500000000000000        0.0000000000000000     
  0.75000000000000000       0.62500000000000000        0.0000000000000000     
  0.75000000000000000       0.50000000000000000        0.0000000000000000     
  0.78125000000000000       0.50000000000000000        0.0000000000000000     
  0.81250000000000000       0.50000000000000000        0.0000000000000000     
  0.84375000000000000       0.50000000000000000        0.0000000000000000     
  0.87500000000000000       0.50000000000000000        0.0000000000000000     
  0.75000000000000000       0.53125000000000000        0.0000000000000000     
  0.78125000000000000       0.53125000000000000        0.0000000000000000     
  0.81250000000000000       0.53125000000000000        0.0000000000000000     
  0.84375000000000000       0.53125000000000000        0.0000000000000000     
  0.87500000000000000       0.53125000000000000        0.0000000000000000     
  0.75000000000000000       0.56250000000000000        0.0000000000000000     
  0.78125000000000000       0.56250000000000000        0.0000000000000000     
  0.81250000000000000       0.56250000000000000        0.0000000000000000     
  0.84375000000000000       0.56250000000000000        0.0000000000000000     
  0.87500000000000000       0.56250000000000000        0.0000000000000000     
  0.75000000000000000       0.59375000000000000        0.0000000000000000     
  0.78125000000000000       0.59375000000000000        0.0000000000000000     
  0.81250000000000000       0.59375000000000000        0.0000000000000000     
  0.84375000000000000       0.59375000000000000        0.0000000000000000     
  0.87500000000000000       0.59375000000000000        0.0000000000000000     
  0.75000000000000000       0.62500000000000000        0.0000000000000000     
  0.78125000000000000       0.62500000000000000        0.0000000000000000     
  0.81250000000000000       0.62500000000000000        0.0000000000000000     
  0.84375000000000000       0.62500000000000000        0.0000000000000000     
  0.87500000000000000       0.62500000000000000        0.0000000000000000     
  0.87500000000000000       0.50000000000000000        0.0000000000000000     
  0.90625000000000000       0.50000000000000000        0.0000000000000000     
  0.93750000000000000       0.50000000000000000        0.0000000000000000     
  0.96875000000000000       0.50000000000000000        0.0000000000000000     
   1.0000000000000000       0.50000000000000000        0.0000000000000000     
  0.87500000000000000       0.53125000000000000        0.0000000000000000     
  0.90625000000000000       0.53125000000000000        0.0000000000000000     
  0.93750000000000000       0.53125000000000000        0.0000000000000000     
  0.96875000000000000       0.53125000000000000        0.0000000000000000     
   1.0000000000000000       0.53125000000000000        0.0000000000000000     
  0.87500000000000000       0.56250000000000000        0.0000000000000000     
  0.90625000000000000       0.56250000000000000        0.0000000000000000     
  0.93750000000000000       0.56250000000000000        0.0000000000000000     
  0.96875000000000000       0.56250000000000000        0.0000000000000000     
   1.0000000000000000       0.56250000000000000        0.0000000000000000     
  0.87500000000000000       0.59375000000000000        0.0000000000000000     
  0.90625000000000000       0.59375000000000000        0.0000000000000000     
  0.93750000000000000       0.59375000000000000        0.0000000000000000     
  0.96875000000000000       0.59375000000000000        0.0000000000000000     
   1.0000000000000000       0.59375000000000000        0.0000000000000000     
  0.87500000000000000       0.62500000000000000        0.0000000000000000     
  0.90625000000000000       0.62500000000000000        0.0000000000000000     
  0.93750000000000000       0.62500000000000000        0.0000000000000000     
  0.96875000000000000       0.62500000000000000        0.0000000000000000     
   1.0000000000000000       0.62500000000000000        0.0000000000000000     
   0.0000000000000000       0.62500000000000000        0.0000000000000000     
   3.1250000000000000E-002  0.62500000000000000        0.0000000000000000     
   6.2500000000000000E-002  0.62500000000000000        0.0000000000000000     
   9.3750000000000000E-002  0.62500000000000000        0.0000000000000000     
  0.12500000000000000       0.62500000000000000        0.0000000000000000     
   0.0000000000000000       0.65625000000000000        0.0000000000000000     
   3.1250000000000000E-002  0.65625000000000000        0.0000000000000000     
   6.2500000000000000E-002  0.65625000000000000        0.0000000000000000     
   9.3750000000000000E-002  0.65625000000000000        0.0000000000000000     
  0.12500000000000000       0.65625000000000000        0.0000000000000000     
   0.0000000000000000       0.68750000000000000        0.0000000000000000     
   3.1250000000000000E-002  0.68750000000000000        0.0000000000000000     
   6.2500000000000000E-002  0.68750000000000000        0.0000000000000000     
   9.3750000000000000E-002  0.68750000000000000        0.0000000000000000     
  0.12500000000000000       0.68750000000000000        0.0000000000000000     
   0.0000000000000000       0.71875000000000000        0.0000000000000000     
   3.1250000000000000E-002  0.71875000000000000        0.0000000000000000     
   6.2500000000000000E-002  0.71875000000000000        0.0000000000000000     
   9.3750000000000000E-002  0.71875000000000000        0.0000000000000000     
  0.12500000000000000       0.71875000000000000        0.0000000000000000     
   0.0000000000000000       0.75000000000000000        0.0000000000000000     
   3.1250000000000000E-002  0.75000000000000000        0.0000000000000000     
   6.2500000000000000E-002  0.75000000000000000        0.0000000000000000     
   9.3750000000000000E-002  0.75000000000000000        0.0000000000000000     
  0.12500000000000000       0.75000000000000000        0.0000000000000000     
  0.12500000000000000       0.62500000000000000        0.0000000000000000     
  0.15625000000000000       0.62500000000000000        0.0000000000000000     
  0.18750000000000000       0.62500000000000000        0.0000000000000000     
  0.21875000000000000       0.62500000000000000        0.0000000000000000     
  0.25000000000000000       0.62500000000000000        0.0000000000000000     
  0.12500000000000000       0.65625000000000000        0.0000000000000000     
  0.15625000000000000       0.65625000000000000        0.0000000000000000     
  0.18750000000000000       0.65625000000000000        0.0000000000000000     
  0.21875000000000000       0.65625000000000000        0.0000000000000000     
  0.25000000000000000       0.65625000000000000        0.0000000000000000     
  0.12500000000000000       0.68750000000000000        0.0000000000000000     
  0.15625000000000000       0.68750000000000000        0.0000000000000000     
  0.18750000000000000       0.68750000000000000        0.0000000000000000     
  0.21875000000000000       0.68750000000000000        0.0000000000000000     
  0.25000000000000000       0.68750000000000000        0.0000000000000000     
  0.12500000000000000       0.71875000000000000        0.0000000000000000     
  0.15625000000000000       0.71875000000000000        0.0000000000000000     
  0.18750000000000000       0.71875000000000000        0.0000000000000000     
  0.21875000000000000       0.71875000000000000        0.0000000000000000     
  0.25000000000000000       0.71875000000000000        0.0000000000000000     
  0.12500000000000000       0.75000000000000000        0.0000000000000000     
  0.15625000000000000       0.75000000000000000        0.0000000000000000     
  0.18750000000000000       0.75000000000000000        0.0000000000000000     
  0.21875000000000000       0.75000000000000000        0.0000000000000000     
  0.25000000000000000       0.75000000000000000        0.0000000000000000     
  0.25000000000000000       0.62500000000000000        0.0000000000000000     
  0.28125000000000000       0.62500000000000000        0.0000000000000000     
  0.31250000000000000       0.62500000000000000        0.0000000000000000     
  0.34375000000000000       0.62500000000000000        0.0000000000000000     
  0.37500000000000000       0.62500000000000000        0.0000000000000000     
  0.25000000000000000       0.65625000000000000        0.0000000000000000     
  0.28125000000000000       0.65625000000000000        0.0000000000000000     
  0.31250000000000000       0.65625000000000000        0.0000000000000000     
  0.34375000000000000       0.65625000000000000        0.0000000000000000     
  0.37500000000000000       0.65625000000000000        0.0000000000000000     
  0.25000000000000000       0.68750000000000000        0.0000000000000000     
  0.28125000000000000       0.68750000000000000        0.0000000000000000     
  0.31250000000000000       0.68750000000000000        0.0000000000000000     
  0.34375000000000000       0.68750000000000000        0.0000000000000000     
  0.37500000000000000       0.68750000000000000        0.0000000000000000     
  0.25000000000000000       0.71875000000000000        0.0000000000000000     
  0.28125000000000000       0.71875000000000000        0.0000000000000000     
  0.31250000000000000       0.71875000000000000        0.0000000000000000     
  0.34375000000000000       0.71875000000000000        0.0000000000000000     
  0.37500000000000000       0.71875000000000000        0.0000000000000000     
  0.25000000000000000       0.75000000000000000        0.0000000000000000     
  0.28125000000000000       0.75000000000000000        0.0000000000000000     
  0.31250000000000000       0.75000000000000000        0.0000000000000000     
  0.34375000000000000       0.75000000000000000        0.0000000000000000     
  0.37500000000000000       0.75000000000000000        0.0000000000000000     
  0.37500000000000000       0.62500000000000000        0.0000000000000000     
  0.40625000000000000       0.62500000000000000        0.0000000000000000     
  0.43750000000000000       0.62500000000000000        0.0000000000000000     
  0.46875000000000000       0.62500000000000000        0.0000000000000000     
  0.50000000000000000       0.62500000000000000        0.0000000000000000     
  0.37500000000000000       0.65625000000000000        0.0000000000000000     
  0.40625000000000000       0.65625000000000000        0.0000000000000000     
  0.43750000000000000       0.65625000000000000        0.0000000000000000     
  0.46875000000000000       0.65625000000000000        0.0000000000000000     
  0.50000000000000000       0.65625000000000000        0.0000000000000000     
  0.37500000000000000       0.68750000000000000        0.0000000000000000     
  0.40625000000000000       0.68750000000000000        0.0000000000000000     
  0.43750000000000000       0.68750000000000000        0.0000000000000000     
  0.46875000000000000       0.68750000000000000        0.0000000000000000     
  0.50000000000000000       0.68750000000000000        0.0000000000000000     
  0.37500000000000000       0.71875000000000000        0.0000000000000000     
  0.40625000000000000       0.71875000000000000        0.0000000000000000     
  0.43750000000000000       0.71875000000000000        0.0000000000000000     
  0.46875000000000000       0.71875000000000000        0.0000000000000000     
  0.50000000000000000       0.71875000000000000        0.0000000000000000     
  0.37500000000000000       0.75000000000000000        0.0000000000000000     
  0.40625000000000000       0.75000000000000000        0.0000000000000000     
  0.43750000000000000       0.75000000000000000        0.0000000000000000     
  0.46875000000000000       0.75000000000000000        0.0000000000000000     
  0.50000000000000000       0.75000000000000000        0.0000000000000000     
  0.50000000000000000       0.62500000000000000        0.0000000000000000     
  0.53125000000000000       0.62500000000000000        0.0000000000000000     
  0.56250000000000000       0.62500000000000000        0.0000000000000000     
  0.59375000000000000       0.62500000000000000        0.0000000000000000     
  0.62500000000000000       0.62500000000000000        0.0000000000000000     
  0.50000000000000000       0.65625000000000000        0.0000000000000000     
  0.53125000000000000       0.65625000000000000        0.0000000000000000     
  0.56250000000000000       0.65625000000000000        0.0000000000000000     
  0.59375000000000000       0.65625000000000000        0.0000000000000000     
  0.62500000000000000       0.65625000000000000        0.0000000000000000     
  0.50000000000000000       0.68750000000000000        0.0000000000000000     
  0.53125000000000000       0.68750000000000000        0.0000000000000000     
  0.56250000000000000       0.68750000000000000        0.0000000000000000     
  0.59375000000000000       0.68750000000000000        0.0000000000000000     
  0.62500000000000000       0.68750000000000000        0.0000000000000000     
  0.50000000000000000       0.71875000000000000        0.0000000000000000     
  0.53125000000000000       0.71875000000000000        0.0000000000000000     
  0.56250000000000000       0.71875000000000000        0.0000000000000000     
  0.59375000000000000       0.71875000000000000        0.0000000000000000     
  0.62500000000000000       0.71875000000000000        0.0000000000000000     
  0.50000000000000000       0.75000000000000000        0.0000000000000000     
  0.53125000000000000       0.75000000000000000        0.0000000000000000     
  0.56250000000000000       0.75000000000000000        0.0000000000000000     
  0.59375000000000000       0.75000000000000000        0.0000000000000000     
  0.62500000000000000       0.75000000000000000        0.0000000000000000     
  0.62500000000000000       0.62500000000000000        0.0000000000000000     
  0.65625000000000000       0.62500000000000000        0.0000000000000000     
  0.68750000000000000       0.62500000000000000        0.0000000000000000     
  0.71875000000000000       0.62500000000000000        0.0000000000000000     
  0.75000000000000000       0.62500000000000000        0.0000000000000000     
  0.62500000000000000       0.65625000000000000        0.0000000000000000     
  0.65625000000000000       0.65625000000000000        0.0000000000000000     
  0.68750000000000000       0.65625000000000000        0.0000000000000000     
  0.71875000000000000       0.65625000000000000        0.0000000000000000     
  0.75000000000000000       0.65625000000000000        0.0000000000000000     
  0.62500000000000000       0.68750000000000000        0.0000000000000000     
  0.65625000000000000       0.68750000000000000        0.0000000000000000     
  0.68750000000000000       0.68750000000000000        0.0000000000000000     
  0.71875000000000000       0.68750000000000000        0.0000000000000000     
  0.75000000000000000       0.68750000000000000        0.0000000000000000     
  0.62500000000000000       0.71875000000000000        0.0000000000000000     
  0.65625000000000000       0.71875000000000000        0.0000000000000000     
  0.68750000000000000       0.71875000000000000        0.0000000000000000     
  0.71875000000000000       0.71875000000000000        0.0000000000000000     
  0.75000000000000000       0.71875000000000000        0.0000000000000000     
  0.62500000000000000       0.75000000000000000        0.0000000000000000     
  0.65625000000000000       0.75000000000000000        0.0000000000000000     
  0.68750000000000000       0.75000000000000000        0.0000000000000000     
  0.71875000000000000       0.75000000000000000        0.0000000000000000     
  0.75000000000000000       0.75000000000000000        0.0000000000000000     
  0.75000000000000000       0.62500000000000000        0.0000000000000000     
  0.78125000000000000       0.62500000000000000        0.0000000000000000     
  0.81250000000000000       0.62500000000000000        0.0000000000000000     
  0.84375000000000000       0.62500000000000000        0.0000000000000000     
  0.87500000000000000       0.62500000000000000        0.0000000000000000     
  0.75000000000000000       0.65625000000000000        0.0000000000000000     
  0.78125000000000000       0.65625000000000000        0.0000000000000000     
  0.81250000000000000       0.65625000000000000        0.0000000000000000     
  0.84375000000000000       0.65625000000000000        0.0000000000000000     
  0.87500000000000000       0.65625000000000000        0.0000000000000000     
  0.75000000000000000       0.68750000000000000        0.0000000000000000     
  0.78125000000000000       0.68750000000000000        0.0000000000000000     
  0.81250000000000000       0.68750000000000000        0.0000000000000000     
  0.84375000000000000       0.68750000000000000        0.0000000000000000     
  0.87500000000000000       0.68750000000000000        0.0000000000000000     
  0.75000000000000000       0.71875000000000000        0.0000000000000000     
  0.78125000000000000       0.71875000000000000        0.0000000000000000     
  0.81250000000000000       0.71875000000000000        0.0000000000000000     
  0.84375000000000000       0.71875000000000000        0.0000000000000000     
  0.87500000000000000       0.71875000000000000        0.0000000000000000     
  0.75000000000000000       0.75000000000000000        0.0000000000000000     
  0.78125000000000000       0.75000000000000000        0.0000000000000000     
  0.81250000000000000       0.75000000000000000        0.0000000000000000     
  0.84375000000000000       0.75000000000000000        0.0000000000000000     
  0.87500000000000000       0.75000000000000000        0.0000000000000000     
  0.87500000000000000       0.62500000000000000        0.0000000000000000     
  0.90625000000000000       0.62500000000000000        0.0000000000000000     
  0.93750000000000000       0.62500000000000000        0.0000000000000000     
  0.96875000000000000       0.62500000000000000        0.0000000000000000     
   1.0000000000000000       0.62500000000000000        0.0000000000000000     
  0.87500000000000000       0.65625000000000000        0.0000000000000000     
  0.90625000000000000       0.65625000000000000        0.0000000000000000     
  0.93750000000000000       0.65625000000000000        0.0000000000000000     
  0.96875000000000000       0.65625000000000000        0.0000000000000000     
   1.0000000000000000       0.65625000000000000        0.0000000000000000     
  0.87500000000000000       0.68750000000000000        0.0000000000000000     
  0.90625000000000000       0.68750000000000000        0.0000000000000000     
  0.93750000000000000       0.68750000000000000        0.0000000000000000     
  0.96875000000000000       0.68750000000000000        0.0000000000000000     
   1.0000000000000000       0.68750000000000000        0.0000000000000000     
  0.87500000000000000       0.71875000000000000        0.0000000000000000     
  0.90625000000000000       0.71875000000000000        0.0000000000000000     
  0.93750000000000000       0.71875000000000000        0.0000000000000000     
  0.96875000000000000       0.71875000000000000        0.0000000000000000     
   1.0000000000000000       0.71875000000000000        0.0000000000000000     
  0.87500000000000000       0.75000000000000000        0.0000000000000000     
  0.90625000000000000       0.75000000000000000        0.0000000000000000     
  0.93750000000000000       0.75000000000000000        0.0000000000000000     
  0.96875000000000000       0.75000000000000000        0.0000000000000000     
   1.0000000000000000       0.75000000000000000        0.0000000000000000     
   0.0000000000000000       0.75000000000000000        0.0000000000000000     
   3.1250000000000000E-002  0.75000000000000000        0.0000000000000000     
   6.2500000000000000E-002  0.75000000000000000        0.0000000000000000     
   9.3750000000000000E-002  0.75000000000000000        0.0000000000000000     
  0.12500000000000000       0.75000000000000000        0.0000000000000000     
   0.0000000000000000       0.78125000000000000        0.0000000000000000     
   3.1250000000000000E-002  0.78125000000000000        0.0000000000000000     
   6.2500000000000000E-002  0.78125000000000000        0.0000000000000000     
   9.3750000000000000E-002  0.78125000000000000        0.0000000000000000     
  0.12500000000000000       0.78125000000000000        0.0000000000000000     
   0.0000000000000000       0.81250000000000000        0.0000000000000000     
   3.1250000000000000E-002  0.81250000000000000        0.0000000000000000     
   6.2500000000000000E-002  0.81250000000000000        0.0000000000000000     
   9.3750000000000000E-002  0.81250000000000000        0.0000000000000000     
  0.12500000000000000       0.81250000000000000        0.0000000000000000     
   0.0000000000000000       0.84375000000000000        0.0000000000000000     
   3.1250000000000000E-002  0.84375000000000000        0.0000000000000000     
   6.2500000000000000E-002  0.84375000000000000        0.0000000000000000     
   9.3750000000000000E-002  0.84375000000000000        0.0000000000000000     
  0.12500000000000000       0.84375000000000000        0.0000000000000000     
   0.0000000000000000       0.87500000000000000        0.0000000000000000     
   3.1250000000000000E-002  0.87500000000000000        0.0000000000000000     
   6.2500000000000000E-002  0.87500000000000000        0.0000000000000000     
   9.3750000000000000E-002  0.87500000000000000        0.0000000000000000     
  0.12500000000000000       0.87500000000000000        0.0000000000000000     
  0.12500000000000000       0.75000000000000000        0.0000000000000000     
  0.15625000000000000       0.75000000000000000        0.0000000000000000     
  0.18750000000000000       0.75000000000000000        0.0000000000000000     
  0.21875000000000000       0.75000000000000000        0.0000000000000000     
  0.25000000000000000       0.75000000000000000        0.0000000000000000     
  0.12500000000000000       0.78125000000000000        0.0000000000000000     
  0.15625000000000000       0.78125000000000000        0.0000000000000000     
  0.18750000000000000       0.78125000000000000        0.0000000000000000     
  0.21875000000000000       0.78125000000000000        0.0000000000000000     
  0.25000000000000000       0.78125000000000000        0.0000000000000000     
  0.12500000000000000       0.81250000000000000        0.0000000000000000     
  0.15625000000000000       0.81250000000000000        0.0000000000000000     
  0.18750000000000000       0.81250000000000000        0.0000000000000000     
  0.21875000000000000       0.81250000000000000        0.0000000000000000     
  0.25000000000000000       0.81250000000000000        0.0000000000000000     
  0.12500000000000000       0.84375000000000000        0.0000000000000000     
  0.15625000000000000       0.84375000000000000        0.0000000000000000     
  0.18750000000000000       0.84375000000000000        0.0000000000000000     
  0.21875000000000000       0.84375000000000000        0.0000000000000000     
  0.25000000000000000       0.84375000000000000        0.0000000000000000     
  0.12500000000000000       0.87500000000000000        0.0000000000000000     
  0.15625000000000000       0.87500000000000000        0.0000000000000000     
  0.18750000000000000       0.87500000000000000        0.0000000000000000     
  0.21875000000000000       0.87500000000000000        0.0000000000000000     
  0.25000000000000000       0.87500000000000000        0.0000000000000000     
  0.25000000000000000       0.75000000000000000        0.0000000000000000     
  0.28125000000000000       0.75000000000000000        0.0000000000000000     
  0.31250000000000000       0.75000000000000000        0.0000000000000000     
  0.34375000000000000       0.75000000000000000        0.0000000000000000     
  0.37500000000000000       0.75000000000000000        0.0000000000000000     
  0.25000000000000000       0.78125000000000000        0.0000000000000000     
  0.28125000000000000       0.78125000000000000        0.0000000000000000     
  0.31250000000000000       0.78125000000000000        0.0000000000000000     
  0.34375000000000000       0.78125000000000000        0.0000000000000000     
  0.37500000000000000       0.78125000000000000        0.0000000000000000     
  0.25000000000000000       0.81250000000000000        0.0000000000000000     
  0.28125000000000000       0.81250000000000000        0.0000000000000000     
  0.31250000000000000       0.81250000000000000        0.0000000000000000     
  0.34375000000000000       0.81250000000000000        0.0000000000000000     
  0.37500000000000000       0.81250000000000000        0.0000000000000000     
  0.25000000000000000       0.84375000000000000        0.0000000000000000     
  0.28125000000000000       0.84375000000000000        0.0000000000000000     
  0.31250000000000000       0.84375000000000000        0.0000000000000000     
  0.34375000000000000       0.84375000000000000        0.0000000000000000     
  0.37500000000000000       0.84375000000000000        0.0000000000000000     
  0.25000000000000000       0.87500000000000000        0.0000000000000000     
  0.28125000000000000       0.87500000000000000        0.0000000000000000     
  0.31250000000000000       0.87500000000000000        0.0000000000000000     
  0.34375000000000000       0.87500000000000000        0.0000000000000000     
  0.37500000000000000       0.87500000000000000        0.0000000000000000     
  0.37500000000000000       0.75000000000000000        0.0000000000000000     
  0.40625000000000000       0.75000000000000000        0.0000000000000000     
  0.43750000000000000       0.75000000000000000        0.0000000000000000     
  0.46875000000000000       0.75000000000000000        0.0000000000000000     
  0.50000000000000000       0.75000000000000000        0.0000000000000000     
  0.37500000000000000       0.78125000000000000        0.0000000000000000     
  0.40625000000000000       0.78125000000000000        0.0000000000000000     
  0.43750000000000000       0.78125000000000000        0.0000000000000000     
  0.46875000000000000       0.78125000000000000        0.0000000000000000     
  0.50000000000000000       0.78125000000000000        0.0000000000000000     
  0.37500000000000000       0.81250000000000000        0.0000000000000000     
  0.40625000000000000       0.81250000000000000        0.0000000000000000     
  0.43750000000000000       0.81250000000000000        0.0000000000000000     
  0.46875000000000000       0.81250000000000000        0.0000000000000000     
  0.50000000000000000       0.81250000000000000        0.0000000000000000     
  0.37500000000000000       0.84375000000000000        0.0000000000000000     
  0.40625000000000000       0.84375000000000000        0.0000000000000000     
  0.43750000000000000       0.84375000000000000        0.0000000000000000     
  0.46875000000000000       0.84375000000000000        0.0000000000000000     
  0.50000000000000000       0.84375000000000000        0.0000000000000000     
  0.37500000000000000       0.87500000000000000        0.0000000000000000     
  0.40625000000000000       0.87500000000000000        0.0000000000000000     
  0.43750000000000000       0.87500000000000000        0.0000000000000000     
  0.46875000000000000       0.87500000000000000        0.0000000000000000     
  0.50000000000000000       0.87500000000000000        0.0000000000000000     
  0.50000000000000000       0.75000000000000000        0.0000000000000000     
  0.53125000000000000       0.75000000000000000        0.0000000000000000     
  0.56250000000000000       0.75000000000000000        0.0000000000000000     
  0.59375000000000000       0.75000000000000000        0.0000000000000000     
  0.62500000000000000       0.75000000000000000        0.0000000000000000     
  0.50000000000000000       0.78125000000000000        0.0000000000000000     
  0.53125000000000000       0.78125000000000000        0.0000000000000000     
  0.56250000000000000       0.78125000000000000        0.0000000000000000     
  0.59375000000000000       0.78125000000000000        0.0000000000000000     
  0.62500000000000000       0.78125000000000000        0.0000000000000000     
  0.50000000000000000       0.81250000000000000        0.0000000000000000     
  0.53125000000000000       0.81250000000000000        0.0000000000000000     
  0.56250000000000000       0.81250000000000000        0.0000000000000000     
  0.59375000000000000       0.81250000000000000        0.0000000000000000     
  0.62500000000000000       0.81250000000000000        0.0000000000000000     
  0.50000000000000000       0.84375000000000000        0.0000000000000000     
  0.53125000000000000       0.84375000000000000        0.0000000000000000     
  0.56250000000000000       0.84375000000000000        0.0000000000000000     
  0.59375000000000000       0.84375000000000000        0.0000000000000000     
  0.62500000000000000       0.84375000000000000        0.0000000000000000     
  0.50000000000000000       0.87500000000000000        0.0000000000000000     
  0.53125000000000000       0.87500000000000000        0.0000000000000000     
  0.56250000000000000       0.87500000000000000        0.0000000000000000     
  0.59375000000000000       0.87500000000000000        0.0000000000000000     
  0.62500000000000000       0.87500000000000000        0.0000000000000000     
  0.62500000000000000       0.75000000000000000        0.0000000000000000     
  0.65625000000000000       0.75000000000000000        0.0000000000000000     
  0.68750000000000000       0.75000000000000000        0.0000000000000000     
  0.71875000000000000       0.75000000000000000        0.0000000000000000     
  0.75000000000000000       0.75000000000000000        0.0000000000000000     
  0.62500000000000000       0.78125000000000000        0.0000000000000000     
  0.65625000000000000       0.78125000000000000        0.0000000000000000     
  0.68750000000000000       0.78125000000000000        0.0000000000000000     
  0.71875000000000000       0.78125000000000000        0.0000000000000000     
  0.75000000000000000       0.78125000000000000        0.0000000000000000     
  0.62500000000000000       0.81250000000000000        0.0000000000000000     
  0.65625000000000000       0.81250000000000000        0.0000000000000000     
  0.68750000000000000       0.81250000000000000        0.0000000000000000     
  0.71875000000000000       0.81250000000000000        0.0000000000000000     
  0.75000000000000000       0.81250000000000000        0.0000000000000000     
  0.62500000000000000       0.84375000000000000        0.0000000000000000     
  0.65625000000000000       0.84375000000000000        0.0000000000000000     
  0.68750000000000000       0.84375000000000000        0.0000000000000000     
  0.71875000000000000       0.84375000000000000        0.0000000000000000     
  0.75000000000000000       0.84375000000000000        0.0000000000000000     
  0.62500000000000000       0.87500000000000000        0.0000000000000000     
  0.65625000000000000       0.87500000000000000        0.0000000000000000     
  0.68750000000000000       0.87500000000000000        0.0000000000000000     
  0.71875000000000000       0.87500000000000000        0.0000000000000000     
  0.75000000000000000       0.87500000000000000        0.0000000000000000     
  0.75000000000000000       0.75000000000000000        0.0000000000000000     
  0.78125000000000000       0.75000000000000000        0.0000000000000000     
  0.81250000000000000       0.75000000000000000        0.0000000000000000     
  0.84375000000000000       0.75000000000000000        0.0000000000000000     
  0.87500000000000000       0.75000000000000000        0.0000000000000000     
  0.75000000000000000       0.78125000000000000        0.0000000000000000     
  0.78125000000000000       0.78125000000000000        0.0000000000000000     
  0.81250000000000000       0.78125000000000000        0.0000000000000000     
  0.84375000000000000       0.78125000000000000        0.0000000000000000     
  0.87500000000000000       0.78125000000000000        0.0000000000000000     
  0.75000000000000000       0.81250000000000000        0.0000000000000000     
  0.78125000000000000       0.81250000000000000        0.0000000000000000     
  0.81250000000000000       0.81250000000000000        0.0000000000000000     
  0.84375000000000000       0.81250000000000000        0.0000000000000000     
  0.87500000000000000       0.81250000000000000        0.0000000000000000     
  0.75000000000000000       0.84375000000000000        0.0000000000000000     
  0.78125000000000000       0.84375000000000000        0.0000000000000000     
  0.81250000000000000       0.84375000000000000        0.0000000000000000     
  0.84375000000000000       0.84375000000000000        0.0000000000000000     
  0.87500000000000000       0.84375000000000000        0.0000000000000000     
  0.75000000000000000       0.87500000000000000        0.0000000000000000     
  0.78125000000000000       0.87500000000000000        0.0000000000000000     
  0.81250000000000000       0.87500000000000000        0.0000000000000000     
  0.84375000000000000       0.87500000000000000        0.0000000000000000     
  0.87500000000000000       0.87500000000000000        0.0000000000000000     
  0.87500000000000000       0.75000000000000000        0.0000000000000000     
  0.90625000000000000       0.75000000000000000        0.0000000000000000     
  0.93750000000000000       0.75000000000000000        0.0000000000000000     
  0.96875000000000000       0.75000000000000000        0.0000000000000000     
   1.0000000000000000       0.75000000000000000        0.0000000000000000     
  0.87500000000000000       0.78125000000000000        0.0000000000000000     
  0.90625000000000000       0.78125000000000000        0.0000000000000000     
  0.93750000000000000       0.78125000000000000        0.0000000000000000     
  0.96875000000000000       0.78125000000000000        0.0000000000000000     
   1.0000000000000000       0.78125000000000000        0.0000000000000000     
  0.87500000000000000       0.81250000000000000        0.0000000000000000     
  0.90625000000000000       0.81250000000000000        0.0000000000000000     
  0.93750000000000000       0.81250000000000000        0.0000000000000000     
  0.96875000000000000       0.81250000000000000        0.0000000000000000     
   1.0000000000000000       0.81250000000000000        0.0000000000000000     
  0.87500000000000000       0.84375000000000000        0.0000000000000000     
  0.90625000000000000       0.84375000000000000        0.0000000000000000     
  0.93750000000000000       0.84375000000000000        0.0000000000000000     
  0.96875000000000000       0.84375000000000000        0.0000000000000000     
   1.0000000000000000       0.84375000000000000        0.0000000000000000     
  0.87500000000000000       0.87500000000000000        0.0000000000000000     
  0.90625000000000000       0.87500000000000000        0.0000000000000000     
  0.93750000000000000       0.87500000000000000        0.0000000000000000     
  0.96875000000000000       0.87500000000000000        0.0000000000000000     
   1.0000000000000000       0.87500000000000000        0.0000000000000000     
   0.0000000000000000       0.87500000000000000        0.0000000000000000     
   3.1250000000000000E-002  0.87500000000000000        0.0000000000000000     
   6.2500000000000000E-002  0.87500000000000000        0.0000000000000000     
   9.3750000000000000E-002  0.87500000000000000        0.0000000000000000     
  0.12500000000000000       0.87500000000000000        0.0000000000000000     
   0.0000000000000000       0.90625000000000000        0.0000000000000000     
   3.1250000000000000E-002  0.90625000000000000        0.0000000000000000     
   6.2500000000000000E-002  0.90625000000000000        0.0000000000000000     
   9.3750000000000000E-002  0.90625000000000000        0.0000000000000000     
  0.12500000000000000       0.90625000000000000        0.0000000000000000     
   0.0000000000000000       0.93750000000000000        0.0000000000000000     
   3.1250000000000000E-002  0.93750000000000000        0.0000000000000000     
   6.2500000000000000E-002  0.93750000000000000        0.0000000000000000     
   9.3750000000000000E-002  0.93750000000000000        0.0000000000000000     
  0.12500000000000000       0.93750000000000000        0.0000000000000000     
   0.0000000000000000       0.96875000000000000        0.0000000000000000     
   3.1250000000000000E-002  0.96875000000000000        0.0000000000000000     
   6.2500000000000000E-002  0.96875000000000000        0.0000000000000000     
   9.3750000000000000E-002  0.96875000000000000        0.0000000000000000     
  0.12500000000000000       0.96875000000000000        0.0000000000000000     
   0.0000000000000000        1.0000000000000000        0.0000000000000000     
   3.1250000000000000E-002   1.0000000000000000        0.0000000000000000     
   6.2500000000000000E-002   1.0000000000000000        0.0000000000000000     
   9.3750000000000000E-002   1.0000000000000000        0.0000000000000000     
  0.12500000000000000        1.0000000000000000        0.0000000000000000     
  0.12500000000000000       0.87500000000000000        0.0000000000000000     
  0.15625000000000000       0.87500000000000000        0.0000000000000000     
  0.18750000000000000       0.87500000000000000        0.0000000000000000     
  0.21875000000000000       0.87500000000000000        0.0000000000000000     
  0.25000000000000000       0.87500000000000000        0.0000000000000000     
  0.12500000000000000       0.90625000000000000        0.0000000000000000     
  0.15625000000000000       0.90625000000000000        0.0000000000000000     
  0.18750000000000000       0.90625000000000000        0.0000000000000000     
  0.21875000000000000       0.90625000000000000        0.0000000000000000     
  0.25000000000000000       0.90625000000000000        0.0000000000000000     
  0.12500000000000000       0.93750000000000000        0.0000000000000000     
  0.15625000000000000       0.93750000000000000        0.0000000000000000     
  0.18750000000000000       0.93750000000000000        0.0000000000000000     
  0.21875000000000000       0.93750000000000000        0.0000000000000000     
  0.25000000000000000       0.93750000000000000        0.0000000000000000     
  0.12500000000000000       0.96875000000000000        0.0000000000000000     
  0.15625000000000000       0.96875000000000000        0.0000000000000000     
  0.18750000000000000       0.96875000000000000        0.0000000000000000     
  0.21875000000000000       0.96875000000000000        0.0000000000000000     
  0.25000000000000000       0.96875000000000000        0.0000000000000000     
  0.12500000000000000        1.0000000000000000        0.0000000000000000     
  0.15625000000000000        1.0000000000000000        0.0000000000000000     
  0.18750000000000000        1.0000000000000000        0.0000000000000000     
  0.21875000000000000        1.0000000000000000        0.0000000000000000     
  0.25000000000000000        1.0000000000000000        0.0000000000000000     
  0.25000000000000000       0.87500000000000000        0.0000000000000000     
  0.28125000000000000       0.87500000000000000        0.0000000000000000     
  0.31250000000000000       0.87500000000000000        0.0000000000000000     
  0.34375000000000000       0.87500000000000000        0.0000000000000000     
  0.37500000000000000       0.87500000000000000        0.0000000000000000     
  0.25000000000000000       0.90625000000000000        0.0000000000000000     
  0.28125000000000000       0.90625000000000000        0.0000000000000000     
  0.31250000000000000       0.90625000000000000        0.0000000000000000     
  0.34375000000000000       0.90625000000000000        0.0000000000000000     
  0.37500000000000000       0.90625000000000000        0.0000000000000000     
  0.25000000000000000       0.93750000000000000        0.0000000000000000     
  0.28125000000000000       0.93750000000000000        0.0000000000000000     
  0.31250000000000000       0.93750000000000000        0.0000000000000000     
  0.34375000000000000       0.93750000000000000        0.0000000000000000     
  0.37500000000000000       0.93750000000000000        0.0000000000000000     
  0.25000000000000000       0.96875000000000000        0.0000000000000000     
  0.28125000000000000       0.96875000000000000        0.0000000000000000     
  0.31250000000000000       0.96875000000000000        0.0000000000000000     
  0.34375000000000000       0.96875000000000000        0.0000000000000000     
  0.37500000000000000       0.96875000000000000        0.0000000000000000     
  0.25000000000000000        1.0000000000000000        0.0000000000000000     
  0.28125000000000000        1.0000000000000000        0.0000000000000000     
  0.31250000000000000        1.0000000000000000        0.0000000000000000     
  0.34375000000000000        1.0000000000000000        0.0000000000000000     
  0.37500000000000000        1.0000000000000000        0.0000000000000000     
  0.37500000000000000       0.87500000000000000        0.0000000000000000     
  0.40625000000000000       0.87500000000000000        0.0000000000000000     
  0.43750000000000000       0.87500000000000000        0.0000000000000000     
  0.46875000000000000       0.87500000000000000        0.0000000000000000     
  0.50000000000000000       0.87500000000000000        0.0000000000000000     
  0.37500000000000000       0.90625000000000000        0.0000000000000000     
  0.40625000000000000       0.90625000000000000        0.0000000000000000     
  0.43750000000000000       0.90625000000000000        0.0000000000000000     
  0.46875000000000000       0.90625000000000000        0.0000000000000000     
  0.50000000000000000       0.90625000000000000        0.0000000000000000     
  0.37500000000000000       0.93750000000000000        0.0000000000000000     
  0.40625000000000000       0.93750000000000000        0.0000000000000000     
  0.43750000000000000       0.93750000000000000        0.0000000000000000     
  0.46875000000000000       0.93750000000000000        0.0000000000000000     
  0.50000000000000000       0.93750000000000000        0.0000000000000000     
  0.37500000000000000       0.96875000000000000        0.0000000000000000     
  0.40625000000000000       0.96875000000000000        0.0000000000000000     
  0.43750000000000000       0.96875000000000000        0.0000000000000000     
  0.46875000000000000       0.96875000000000000        0.0000000000000000     
  0.50000000000000000       0.96875000000000000        0.0000000000000000     
  0.37500000000000000        1.0000000000000000        0.0000000000000000     
  0.40625000000000000        1.0000000000000000        0.0000000000000000     
  0.43750000000000000        1.0000000000000000        0.0000000000000000     
  0.46875000000000000        1.0000000000000000        0.0000000000000000     
  0.50000000000000000        1.0000000000000000        0.0000000000000000     
  0.50000000000000000       0.87500000000000000        0.0000000000000000     
  0.53125000000000000       0.87500000000000000        0.0000000000000000     
  0.56250000000000000       0.87500000000000000        0.0000000000000000     
  0.59375000000000000       0.87500000000000000        0.0000000000000000     
  0.62500000000000000       0.87500000000000000        0.0000000000000000     
  0.50000000000000000       0.90625000000000000        0.0000000000000000     
  0.53125000000000000       0.90625000000000000        0.0000000000000000     
  0.56250000000000000       0.90625000000000000        0.0000000000000000     
  0.59375000000000000       0.90625000000000000        0.0000000000000000     
  0.62500000000000000       0.90625000000000000        0.0000000000000000     
  0.50000000000000000       0.93750000000000000        0.0000000000000000     
  0.53125000000000000       0.93750000000000000        0.0000000000000000     
  0.56250000000000000       0.93750000000000000        0.0000000000000000     
  0.59375000000000000       0.93750000000000000        0.0000000000000000     
  0.62500000000000000       0.93750000000000000        0.0000000000000000     
  0.50000000000000000       0.96875000000000000        0.0000000000000000     
  0.53125000000000000       0.96875000000000000        0.0000000000000000     
  0.56250000000000000       0.96875000000000000        0.0000000000000000     
  0.59375000000000000       0.96875000000000000        0.0000000000000000     
  0.62500000000000000       0.96875000000000000        0.0000000000000000     
  0.50000000000000000        1.0000000000000000        0.0000000000000000     
  0.53125000000000000        1.0000000000000000        0.0000000000000000     
  0.56250000000000000        1.0000000000000000        0.0000000000000000     
  0.59375000000000000        1.0000000000000000        0.0000000000000000     
  0.62500000000000000        1.0000000000000000        0.0000000000000000     
  0.62500000000000000       0.87500000000000000        0.0000000000000000     
  0.65625000000000000       0.87500000000000000        0.0000000000000000     
  0.68750000000000000       0.87500000000000000        0.0000000000000000     
  0.71875000000000000       0.87500000000000000        0.0000000000000000     
  0.75000000000000000       0.87500000000000000        0.0000000000000000     
  0.62500000000000000       0.90625000000000000        0.0000000000000000     
  0.65625000000000000       0.90625000000000000        0.0000000000000000     
  0.68750000000000000       0.90625000000000000        0.0000000000000000     
  0.71875000000000000       0.90625000000000000        0.0000000000000000     
  0.75000000000000000       0.90625000000000000        0.0000000000000000     
  0.62500000000000000       0.93750000000000000        0.0000000000000000     
  0.65625000000000000       0.93750000000000000        0.0000000000000000     
  0.68750000000000000       0.93750000000000000        0.0000000000000000     
  0.71875000000000000       0.93750000000000000        0.0000000000000000     
  0.75000000000000000       0.93750000000000000        0.0000000000000000     
  0.62500000000000000       0.96875000000000000        0.0000000000000000     
  0.65625000000000000       0.96875000000000000        0.0000000000000000     
  0.68750000000000000       0.96875000000000000        0.0000000000000000     
  0.71875000000000000       0.96875000000000000        0.0000000000000000     
  0.75000000000000000       0.96875000000000000        0.0000000000000000     
  0.62500000000000000        1.0000000000000000        0.0000000000000000     
  0.65625000000000000        1.0000000000000000        0.0000000000000000     
  0.68750000000000000        1.0000000000000000        0.0000000000000000     
  0.71875000000000000        1.0000000000000000        0.0000000000000000     
  0.75000000000000000        1.0000000000000000        0.0000000000000000     
  0.75000000000000000       0.87500000000000000        0.0000000000000000     
  0.78125000000000000       0.87500000000000000        0.0000000000000000     
  0.81250000000000000       0.87500000000000000        0.0000000000000000     
  0.84375000000000000       0.87500000000000000        0.0000000000000000     
  0.87500000000000000       0.87500000000000000        0.0000000000000000     
  0.75000000000000000       0.90625000000000000        0.0000000000000000     
  0.78125000000000000       0.90625000000000000        0.0000000000000000     
  0.81250000000000000       0.90625000000000000        0.0000000000000000     
  0.84375000000000000       0.90625000000000000        0.0000000000000000     
  0.87500000000000000       0.90625000000000000        0.0000000000000000     
  0.75000000000000000       0.93750000000000000        0.0000000000000000     
  0.78125000000000000       0.93750000000000000        0.0000000000000000     
  0.81250000000000000       0.93750000000000000        0.0000000000000000     
  0.84375000000000000       0.93750000000000000        0.0000000000000000     
  0.87500000000000000       0.93750000000000000        0.0000000000000000     
  0.75000000000000000       0.96875000000000000        0.0000000000000000     
  0.78125000000000000       0.96875000000000000        0.0000000000000000     
  0.81250000000000000       0.96875000000000000        0.0000000000000000     
  0.84375000000000000       0.96875000000000000        0.0000000000000000     
  0.87500000000000000       0.96875000000000000        0.0000000000000000     
  0.75000000000000000        1.0000000000000000        0.0000000000000000     
  0.78125000000000000        1.0000000000000000        0.0000000000000000     
  0.81250000000000000        1.0000000000000000        0.0000000000000000     
  0.84375000000000000        1.0000000000000000        0.0000000000000000     
  0.87500000000000000        1.0000000000000000        0.0000000000000000     
  0.87500000000000000       0.87500000000000000        0.0000000000000000     
  0.90625000000000000       0.87500000000000000        0.0000000000000000     
  0.93750000000000000       0.87500000000000000        0.0000000000000000     
  0.96875000000000000       0.87500000000000000        0.0000000000000000     
   1.0000000000000000       0.87500000000000000        0.0000000000000000     
  0.87500000000000000       0.90625000000000000        0.0000000000000000     
  0.90625000000000000       0.90625000000000000        0.0000000000000000     
  0.93750000000000000       0.90625000000000000        0.0000000000000000     
  0.96875000000000000       0.90625000000000000        0.0000000000000000     
   1.0000000000000000       0.90625000000000000        0.0000000000000000     
  0.87500000000000000       0.93750000000000000        0.0000000000000000     
  0.90625000000000000       0.93750000000000000        0.0000000000000000     
  0.93750000000000000       0.93750000000000000        0.0000000000000000     
  0.96875000000000000       0.93750000000000000        0.0000000000000000     
   1.0000000000000000       0.93750000000000000        0.0000000000000000     
  0.87500000000000000       0.96875000000000000        0.0000000000000000     
  0.90625000000000000       0.96875000000000000        0.0000000000000000     
  0.93750000000000000       0.96875000000000000        0.0000000000000000     
  0.96875000000000000       0.96875000000000000        0.0000000000000000     
   1.0000000000000000       0.96875000000000000        0.0000000000000000     
  0.87500000000000000        1.0000000000000000        0.0000000000000000     
  0.90625000000000000        1.0000000000000000        0.0000000000000000     
  0.93750000000000000        1.0000000000000000        0.0000000000000000     
  0.96875000000000000        1.0000000000000000        0.0000000000000000     
   1.0000000000000000        1.0000000000000000        0.0000000000000000     
 </DataArray>
 </Points>
 <Cells>
 <DataArray  type="Int32"  Name="connectivity"  format="ascii">
           0           1           6           5
           1           2           7           6
           2           3           8           7
           3           4           9           8
           5           6          11          10
           6           7          12          11
           7           8          13          12
           8           9          14          13
          10          11          16          15
          11          12          17          16
          12          13          18          17
          13          14          19          18
          15          16          21          20
          16          17          22          21
          17          18          23          22
          18          19          24          23
          25          26          31          30
          26          27          32          31
          27          28          33          32
          28          29          34          33
          30          31          36          35
          31          32          37          36
          32          33          38          37
          33          34          39          38
          35          36          41          40
          36          37          42          41
          37          38          43          42
          38          39          44          43
          40          41          46          45
          41          42          47          46
          42          43          48          47
          43          44          49          48
          50          51          56          55
          51          52          57          56
          52          53          58          57
          53          54          59          58
          55          56          61          60
          56          57          62          61
          57          58          63          62
          58          59          64          63
          60          61          66          65
          61          62          67          66
          62          63          68          67
          63          64          69          68
          65          66          71          70
          66          67          72          71
          67          68          73          72
          68          69          74          73
          75          76          81          80
          76          77          82          81
          77          78          83          82
          78          79          84          83
          80          81          86          85
          81          82          87          86
          82          83          88          87
          83          84          89          88
          85          86          91          90
          86          87          92          91
          87          88          93          92
          88          89          94          93
          90          91          96          95
          91          92          97          96
          92          93          98          97
          93          94          99          98
         100         101         106         105
         101         102         107         106
         102         103         108         107
         103         104         109         108
         105         106         111         110
         106         107         112         111
         107         108         113         112
         108         109         114         113
         110         111         116         115
         111         112         117         116
         112         113         118         117
         113         114         119         118
         115         116         121         120
         116         117         122         121
         117         118         123         122
         118         119         124         123
         125         126         131         130
         126         127         132         131
         127         128         133         132
         128         129         134         133
         130         131         136         135
         131         132         137         136
         132         133         138         137
         133         134         139         138
         135         136         141         140
         136         137         142         141
         137         138         143         142
         138         139         144         143
         140         141         146         145
         141         142         147         146
         142         143         148         147
         143         144         149         148
         150         151         156         155
         151         152         157         156
         152         153         158         157
         153         154         159         158
         155         156         161         160
         156         157         162         161
         157         158         163         162
         158         159         164         163
         160         161         166         165
         161         162         167         166
         162         163         168         167
         163         164         169         168
         165         166         171         170
         166         167         172         171
         167         168         173         172
         168         169         174         173
         175         176         181         180
         176         177         182         181
         177         178         183         182
         178         179         184         183
         180         181         186         185
         181         182         187         186
         182         183         188         187
         183         184         189         188
         185         186         191         190
         186         187         192         191
         187         188         193         192
         188         189         194         193
         190         191         196         195
         191         192         197         196
         192         193         198         197
         193         194         199         198
         200         201         206         205
         201         202         207         206
         202         203         208         207
         203         204         209         208
         205         206         211         210
         206         207         212         211
         207         208         213         212
         208         209         214         213
         210         211         216         215
         211         212         217         216
         212         213         218         217
         213         214         219         218
         215         216         221         220
         216         217         222         221
         217         218         223         222
         218         219         224         223
         225         226         231         230
         226         227         232         231
         227         228         233         232
         228         229         234         233
         230         231         236         235
         231         232         237         236
         232         233         238         237
         233         234         239         238
         235         236         241         240
         236         237         242         241
         237         238         243         242
         238         239         244         243
         240         241         246         245
         241         242         247         246
         242         243         248         247
         243         244         249         248
         250         251         256         255
         251         252         257         256
         252         253         258         257
         253         254         259         258
         255         256         261         260
         256         257         262         261
         257         258         263         262
         258         259         264         263
         260         261         266         265
         261         262         267         266
         262         263         268         267
         263         264         269         268
         265         266         271         270
         266         267         272         271
         267         268         273         272
         268         269         274         273
         275         276         281         280
         276         277         282         281
         277         278         283         282
         278         279         284         283
         280         281         286         285
         281         282         287         286
         282         283         288         287
         283         284         289         288
         285         286         291         290
         286         287         292         291
         287         288         293         292
         288         289         294         293
         290         291         296         295
         291         292         297         296
         292         293         298         297
         293         294         299         298
         300         301         306         305
         301         302         307         306
         302         303         308         307
         303         304         309         308
         305         306         311         310
         306         307         312         311
         307         308         313         312
         308         309         314         313
         310         311         316         315
         311         312         317         316
         312         313         318         317
         313         314         319         318
         315         316         321         320
         316         317         322         321
         317         318         323         322
         318         319         324         323
         325         326         331         330
         326         327         332         331
         327         328         333         332
         328         329         334         333
         330         331         336         335
         331         332         337         336
         332         333         338         337
         333         334         339         338
         335         336         341         340
         336         337         342         341
         337         338         343         342
         338         339         344         343
         340         341         346         345
         341         342         347         346
         342         343         348         347
         343         344         349         348
         350         351         356         355
         351         352         357         356
         352         353         358         357
         353         354         359         358
         355         356         361         360
         356         357         362         361
         357         358         363         362
         358         359         364         363
         360         361         366         365
         361         362         367         366
         362         363         368         367
         363         364         369         368
         365         366         371         370
         366         367         372         371
         367         368         373         372
         368         369         374         373
         375         376         381         380
         376         377         382         381
         377         378         383         382
         378         379         384         383
         380         381         386         385
         381         382         387         386
         382         383         388         387
         383         384         389         388
         385         386         391         390
         386         387         392         391
         387         388         393         392
         388         389         394         393
         390         391         396         395
         391         392         397         396
         392         393         398         397
         393         394         399         398
         400         401         406         405
         401         402         407         406
         402         403         408         407
         403         404         409         408
         405         406         411         410
         406         407         412         411
         407         408         413         412
         408         409         414         413
         410         411         416         415
         411         412         417         416
         412         413         418         417
         413         414         419         418
         415         416         421         420
         416         417         422         421
         417         418         423         422
         418         419         424         423
         425         426         431         430
         426         427         432         431
         427         428         433         432
         428         429         434         433
         430         431         436         435
         431         432         437         436
         432         433         438         437
         433         434         439         438
         435         436         441         440
         436         437         442         441
         437         438         443         442
         438         439         444         443
         440         441         446         445
         441         442         447         446
         442         443         448         447
         443         444         449         448
         450         451         456         455
         451         452         457         456
         452         453         458         457
         453         454         459         458
         455         456         461         460
         456         457         462         461
         457         458         463         462
         458         459         464         463
         460         461         466         465
         461         462         467         466
         462         463         468         467
         463         464         469         468
         465         466         471         470
         466         467         472         471
         467         468         473         472
         468         469         474         473
         475         476         481         480
         476         477         482         481
         477         478         483         482
         478         479         484         483
         480         481         486         485
         481         482         487         486
         482         483         488         487
         483         484         489         488
         485         486         491         490
         486         487         492         491
         487         488         493         492
         488         489         494         493
         490         491         496         495
         491         492         497         496
         492         493         498         497
         493         494         499         498
         500         501         506         505
         501         502         507         506
         502         503         508         507
         503         504         509         508
         505         506         511         510
         506         507         512         511
         507         508         513         512
         508         509         514         513
         510         511         516         515
         511         512         517         516
         512         513         518         517
         513         514         519         518
         515         516         521         520
         516         517         522         521
         517         518         523         522
         518         519         524         523
         525         526         531         530
         526         527         532         531
         527         528         533         532
         528         529         534         533
         530         531         536         535
         531         532         537         536
         532         533         538         537
         533         534         539         538
         535         536         541         540
         536         537         542         541
         537         538         543         542
         538         539         544         543
         540         541         546         545
         541         542         547         546
         542         543         548         547
         543         544         549         548
         550         551         556         555
         551         552         557         556
         552         553         558         557
         553         554         559         558
         555         556         561         560
         556         557         562         561
         557         558         563         562
         558         559         564         563
         560         561         566         565
         561         562         567         566
         562         563         568         567
         563         564         569         568
         565         566         571         570
         566         567         572         571
         567         568         573         572
         568         569         574         573
         575         576         581         580
         576         577         582         581
         577         578         583         582
         578         579         584         583
         580         581         586         585
         581         582         587         586
         582         583         588         587
         583         584         589         588
         585         586         591         590
         586         587         592         591
         587         588         593         592
         588         589         594         593
         590         591         596         595
         591         592         597         596
         592         593         598         597
         593         594         599         598
         600         601         606         605
         601         602         607         606
         602         603         608         607
         603         604         609         608
         605         606         611         610
         606         607         612         611
         607         608         613         612
         608         609         614         613
         610         611         616         615
         611         612         617         616
         612         613         618         617
         613         614         619         618
         615         616         621         620
         616         617         622         621
         617         618         623         622
         618         619         624         623
         625         626         631         630
         626         627         632         631
         627         628         633         632
         628         629         634         633
         630         631         636         635
         631         632         637         636
         632         633         638         637
         633         634         639         638
         635         636         641         640
         636         637         642         641
         637         638         643         642
         638         639         644         643
         640         641         646         645
         641         642         647         646
         642         643         648         647
         643         644         649         648
         650         651         656         655
         651         652         657         656
         652         653         658         657
         653         654         659         658
         655         656         661         660
         656         657         662         661
         657         658         663         662
         658         659         664         663
         660         661         666         665
         661         662         667         666
         662         663         668         667
         663         664         669         668
         665         666         671         670
         666         667         672         671
         667         668         673         672
         668         669         674         673
         675         676         681         680
         676         677         682         681
         677         678         683         682
         678         679         684         683
         680         681         686         685
         681         682         687         686
         682         683         688         687
         683         684         689         688
         685         686         691         690
         686         687         692         691
         687         688         693         692
         688         689         694         693
         690         691         696         695
         691         692         697         696
         692         693         698         697
         693         694         699         698
         700         701         706         705
         701         702         707         706
         702         703         708         707
         703         704         709         708
         705         706         711         710
         706         707         712         711
         707         708         713         712
         708         709         714         713
         710         711         716         715
         711         712         717         716
         712         713         718         717
         713         714         719         718
         715         716         721         720
         716         717         722         721
         717         718         723         722
         718         719         724         723
         725         726         731         730
         726         727         732         731
         727         728         733         732
         728         729         734         733
         730         731         736         735
         731         732         737         736
         732         733         738         737
         733         734         739         738
         735         736         741         740
         736         737         742         741
         737         738         743         742
         738         739         744         743
         740         741         746         745
         741         742         747         746
         742         743         748         747
         743         744         749         748
         750         751         756         755
         751         752         757         756
         752         753         758         757
         753         754         759         758
         755         756         761         760
         756         757         762         761
         757         758         763         762
         758         759         764         763
         760         761         766         765
         761         762         767         766
         762         763         768         767
         763         764         769         768
         765         766         771         770
         766         767         772         771
         767         768         773         772
         768         769         774         773
         775         776         781         780
         776         777         782         781
         777         778         783         782
         778         779         784         783
         780         781         786         785
         781         782         787         786
         782         783         788         787
         783         784         789         788
         785         786         791         790
         786         787         792         791
         787         788         793         792
         788         789         794         793
         790         791         796         795
         791         792         797         796
         792         793         798         797
         793         794         799         798
         800         801         806         805
         801         802         807         806
         802         803         808         807
         803         804         809         808
         805         806         811         810
         806         807         812         811
         807         808         813         812
         808         809         814         813
         810         811         816         815
         811         812         817         816
         812         813         818         817
         813         814         819         818
         815         816         821         820
         816         817         822         821
         817         818         823         822
         818         819         824         823
         825         826         831         830
         826         827         832         831
         827         828         833         832
         828         829         834         833
         830         831         836         835
         831         832         837         836
         832         833         838         837
         833         834         839         838
         835         836         841         840
         836         837         842         841
         837         838         843         842
         838         839         844         843
         840         841         846         845
         841         842         847         846
         842         843         848         847
         843         844         849         848
         850         851         856         855
         851         852         857         856
         852         853         858         857
         853         854         859         858
         855         856         861         860
         856         857         862         861
         857         858         863         862
         858         859         864         863
         860         861         866         865
         861         862         867         866
         862         863         868         867
         863         864         869         868
         865         866         871         870
         866         867         872         871
         867         868         873         872
         868         869         874         873
         875         876         881         880
         876         877         882         881
         877         878         883         882
         878         879         884         883
         880         881         886         885
         881         882         887         886
         882         883         888         887
         883         884         889         888
         885         886         891         890
         886         887         892         891
         887         888         893         892
         888         889         894         893
         890         891         896         895
         891         892         897         896
         892         893         898         897
         893         894         899         898
         900         901         906         905
         901         902         907         906
         902         903         908         907
         903         904         909         908
         905         906         911         910
         906         907         912         911
         907         908         913         912
         908         909         914         913
         910         911         916         915
         911         912         917         916
         912         913         918         917
         913         914         919         918
         915         916         921         920
         916         917         922         921
         917         918         923         922
         918         919         924         923
         925         926         931         930
         926         927         932         931
         927         928         933         932
         928         929         934         933
         930         931         936         935
         931         932         937         936
         932         933         938         937
         933         934         939         938
         935         936         941         940
         936         937         942         941
         937         938         943         942
         938         939         944         943
         940         941         946         945
         941         942         947         946
         942         943         948         947
         943         944         949         948
         950         951         956         955
         951         952         957         956
         952         953         958         957
         953         954         959         958
         955         956         961         960
         956         957         962         961
         957         958         963         962
         958         959         964         963
         960         961         966         965
         961         962         967         966
         962         963         968         967
         963         964         969         968
         965         966         971         970
         966         967         972         971
         967         968         973         972
         968         969         974         973
         975         976         981         980
         976         977         982         981
         977         978         983         982
         978         979         984         983
         980         981         986         985
         981         982         987         986
         982         983         988         987
         983         984         989         988
         985         986         991         990
         986         987         992         991
         987         988         993         992
         988         989         994         993
         990         991         996         995
         991         992         997         996
         992         993         998         997
         993         994         999         998
        1000        1001        1006        1005
        1001        1002        1007        1006
        1002        1003        1008        1007
        1003        1004        1009        1008
        1005        1006        1011        1010
        1006        1007        1012        1011
        1007        1008        1013        1012
        1008        1009        1014        1013
        1010        1011        1016        1015
        1011        1012        1017        1016
        1012        1013        1018        1017
        1013        1014        1019        1018
        1015        1016        1021        1020
        1016        1017        1022        1021
        1017        1018        1023        1022
        1018        1019        1024        1023
        1025        1026        1031        1030
        1026        1027        1032        1031
        1027        1028        1033        1032
        1028        1029        1034        1033
        1030        1031        1036        1035
        1031        1032        1037        1036
        1032        1033        1038        1037
        1033        1034        1039        1038
        1035        1036        1041        1040
        1036        1037        1042        1041
        1037        1038        1043        1042
        1038        1039        1044        1043
        1040        1041        1046        1045
        1041        1042        1047        1046
        1042        1043        1048        1047
        1043        1044        1049        1048
        1050        1051        1056        1055
        1051        1052        1057        1056
        1052        1053        1058        1057
        1053        1054        1059        1058
        1055        1056        1061        1060
        1056        1057        1062        1061
        1057        1058        1063        1062
        1058        1059        1064        1063
        1060        1061        1066        1065
        1061        1062        1067        1066
        1062        1063        1068        1067
        1063        1064        1069        1068
        1065        1066        1071        1070
        1066        1067        1072        1071
        1067        1068        1073        1072
        1068        1069        1074        1073
        1075        1076        1081        1080
        1076        1077        1082        1081
        1077        1078        1083        1082
        1078        1079        1084        1083
        1080        1081        1086        1085
        1081        1082        1087        1086
        1082        1083        1088        1087
        1083        1084        1089        1088
        1085        1086        1091        1090
        1086        1087        1092        1091
        1087        1088        1093        1092
        1088        1089        1094        1093
        1090        1091        1096        1095
        1091        1092        1097        1096
        1092        1093        1098        1097
        1093        1094        1099        1098
        1100        1101        1106        1105
        1101        1102        1107        1106
        1102        1103        1108        1107
        1103        1104        1109        1108
        1105        1106        1111        1110
        1106        1107        1112        1111
        1107        1108        1113        1112
        1108        1109        1114        1113
        1110        1111        1116        1115
        1111        1112        1117        1116
        1112        1113        1118        1117
        1113        1114        1119        1118
        1115        1116        1121        1120
        1116        1117        1122        1121
        1117        1118        1123        1122
        1118        1119        1124        1123
        1125        1126        1131        1130
        1126        1127        1132        1131
        1127        1128        1133        1132
        1128        1129        1134        1133
        1130        1131        1136        1135
        1131        1132        1137        1136
        1132        1133        1138        1137
        1133        1134        1139        1138
        1135        1136        1141        1140
        1136        1137        1142        1141
        1137        1138        1143        1142
        1138        1139        1144        1143
        1140        1141        1146        1145
        1141        1142        1147        1146
        1142        1143        1148        1147
        1143        1144        1149        1148
        1150        1151        1156        1155
        1151        1152        1157        1156
        1152        1153        1158        1157
        1153        1154        1159        1158
        1155        1156        1161        1160
        1156        1157        1162        1161
        1157        1158        1163        1162
        1158        1159        1164        1163
        1160        1161        1166        1165
        1161        1162        1167        1166
        1162        1163        1168        1167
        1163        1164        1169        1168
        1165        1166        1171        1170
        1166        1167        1172        1171
        1167        1168        1173        1172
        1168        1169        1174        1173
        1175        1176        1181        1180
        1176        1177        1182        1181
        1177        1178        1183        1182
        1178        1179        1184        1183
        1180        1181        1186        1185
        1181        1182        1187        1186
        1182        1183        1188        1187
        1183        1184        1189        1188
        1185        1186        1191        1190
        1186        1187        1192        1191
        1187        1188        1193        1192
        1188        1189        1194        1193
        1190        1191        1196        1195
        1191        1192        1197        1196
        1192        1193        1198        1197
        1193        1194        1199        1198
        1200        1201        1206        1205
        1201        1202        1207        1206
        1202        1203        1208        1207
        1203        1204        1209        1208
        1205        1206        1211        1210
        1206        1207        1212        1211
        1207        1208        1213        1212
        1208        1209        1214        1213
        1210        1211        1216        1215
        1211        1212        1217        1216
        1212        1213        1218        1217
        1213        1214        1219        1218
        1215        1216        1221        1220
        1216        1217        1222        1221
        1217        1218        1223        1222
        1218        1219        1224        1223
        1225        1226        1231        1230
        1226        1227        1232        1231
        1227        1228        1233        1232
        1228        1229        1234        1233
        1230        1231        1236        1235
        1231        1232        1237        1236
        1232        1233        1238        1237
        1233        1234        1239        1238
        1235        1236        1241        1240
        1236        1237        1242        1241
        1237        1238        1243        1242
        1238        1239        1244        1243
        1240        1241        1246        1245
        1241        1242        1247        1246
        1242        1243        1248        1247
        1243        1244        1249        1248
        1250        1251        1256        1255
        1251        1252        1257        1256
        1252        1253        1258        1257
        1253        1254        1259        1258
        1255        1256        1261        1260
        1256        1257        1262        1261
        1257        1258        1263        1262
        1258        1259        1264        1263
        1260        1261        1266        1265
        1261        1262        1267        1266
        1262        1263        1268        1267
        1263        1264        1269        1268
        1265        1266        1271        1270
        1266        1267        1272        1271
        1267        1268        1273        1272
        1268        1269        1274        1273
        1275        1276        1281        1280
        1276        1277        1282        1281
        1277        1278        1283        1282
        1278        1279        1284        1283
        1280        1281        1286        1285
        1281        1282        1287        1286
        1282        1283        1288        1287
        1283        1284        1289        1288
        1285        1286        1291        1290
        1286        1287        1292        1291
        1287        1288        1293        1292
        1288        1289        1294        1293
        1290        1291        1296        1295
        1291        1292        1297        1296
        1292        1293        1298        1297
        1293        1294        1299        1298
        1300        1301        1306        1305
        1301        1302        1307        1306
        1302        1303        1308        1307
        1303        1304        1309        1308
        1305        1306        1311        1310
        1306        1307        1312        1311
        1307        1308        1313        1312
        1308        1309        1314        1313
        1310        1311        1316        1315
        1311        1312        1317        1316
        1312        1313        1318        1317
        1313        1314        1319        1318
        1315        1316        1321        1320
        1316        1317        1322        1321
        1317        1318        1323        1322
        1318        1319        1324        1323
        1325        1326        1331        1330
        1326        1327        1332        1331
        1327        1328        1333        1332
        1328        1329        1334        1333
        1330        1331        1336        1335
        1331        1332        1337        1336
        1332        1333        1338        1337
        1333        1334        1339        1338
        1335        1336        1341        1340
        1336        1337        1342        1341
        1337        1338        1343        1342
        1338        1339        1344        1343
        1340        1341        1346        1345
        1341        1342        1347        1346
        1342        1343        1348        1347
        1343        1344        1349        1348
        1350        1351        1356        1355
        1351        1352        1357        1356
        1352        1353        1358        1357
        1353        1354        1359        1358
        1355        1356        1361        1360
        1356        1357        1362        1361
        1357        1358        1363        1362
        1358        1359        1364        1363
        1360        1361        1366        1365
        1361        1362        1367        1366
        1362        1363        1368        1367
        1363        1364        1369        1368
        1365        1366        1371        1370
        1366        1367        1372        1371
        1367        1368        1373        1372
        1368        1369        1374        1373
        1375        1376        1381        1380
        1376        1377        1382        1381
        1377        1378        1383        1382
        1378        1379        1384        1383
        1380        1381        1386        1385
        1381        1382        1387        1386
        1382        1383        1388        1387
        1383        1384        1389        1388
        1385        1386        1391        1390
        1386        1387        1392        1391
        1387        1388        1393        1392
        1388        1389        1394        1393
        1390        1391        1396        1395
        1391        1392        1397        1396
        1392        1393        1398        1397
        1393        1394        1399        1398
        1400        1401        1406        1405
        1401        1402        1407        1406
        1402        1403        1408        1407
        1403        1404        1409        1408
        1405        1406        1411        1410
        1406        1407        1412        1411
        1407        1408        1413        1412
        1408        1409        1414        1413
        1410        1411        1416        1415
        1411        1412        1417        1416
        1412        1413        1418        1417
        1413        1414        1419        1418
        1415        1416        1421        1420
        1416        1417        1422        1421
        1417        1418        1423        1422
        1418        1419        1424        1423
        1425        1426        1431        1430
        1426        1427        1432        1431
        1427        1428        1433        1432
        1428        1429        1434        1433
        1430        1431        1436        1435
        1431        1432        1437        1436
        1432        1433        1438        1437
        1433        1434        1439        1438
        1435        1436        1441        1440
        1436        1437        1442        1441
        1437        1438        1443        1442
        1438        1439        1444        1443
        1440        1441        1446        1445
        1441        1442        1447        1446
        1442        1443        1448        1447
        1443        1444        1449        1448
        1450        1451        1456        1455
        1451        1452        1457        1456
        1452        1453        1458        1457
        1453        1454        1459        1458
        1455        1456        1461        1460
        1456        1457        1462        1461
        1457        1458        1463        1462
        1458        1459        1464        1463
        1460        1461        1466        1465
        1461        1462        1467        1466
        1462        1463        1468        1467
        1463        1464        1469        1468
        1465        1466        1471        1470
        1466        1467        1472        1471
        1467        1468        1473        1472
        1468        1469        1474        1473
        1475        1476        1481        1480
        1476        1477        1482        1481
        1477        1478        1483        1482
        1478        1479        1484        1483
        1480        1481        1486        1485
        1481        1482        1487        1486
        1482        1483        1488        1487
        1483        1484        1489        1488
        1485        1486        1491        1490
        1486        1487        1492        1491
        1487        1488        1493        1492
        1488        1489        1494        1493
        1490        1491        1496        1495
        1491        1492        1497        1496
        1492        1493        1498        1497
        1493        1494        1499        1498
        1500        1501        1506        1505
        1501        1502        1507        1506
        1502        1503        1508        1507
        1503        1504        1509        1508
        1505        1506        1511        1510
        1506        1507        1512        1511
        1507        1508        1513        1512
        1508        1509        1514        1513
        1510        1511        1516        1515
        1511        1512        1517        1516
        1512        1513        1518        1517
        1513        1514        1519        1518
        1515        1516        1521        1520
        1516        1517        1522        1521
        1517        1518        1523        1522
        1518        1519        1524        1523
        1525        1526        1531        1530
        1526        1527        1532        1531
        1527        1528        1533        1532
        1528        1529        1534        1533
        1530        1531        1536        1535
        1531        1532        1537        1536
        1532        1533        1538        1537
        1533        1534        1539        1538
        1535        1536        1541        1540
        1536        1537        1542        1541
        1537        1538        1543        1542
        1538        1539        1544        1543
        1540        1541        1546        1545
        1541        1542        1547        1546
        1542        1543        1548        1547
        1543        1544        1549        1548
        1550        1551        1556        1555
        1551        1552        1557        1556
        1552        1553        1558        1557
        1553        1554        1559        1558
        1555        1556        1561        1560
        1556        1557        1562        1561
        1557        1558        1563        1562
        1558        1559        1564        1563
        1560        1561        1566        1565
        1561        1562        1567        1566
        1562        1563        1568        1567
        1563        1564        1569        1568
        1565        1566        1571        1570
        1566        1567        1572        1571
        1567        1568        1573        1572
        1568        1569        1574        1573
        1575        1576        1581        1580
        1576        1577        1582        1581
        1577        1578        1583        1582
        1578        1579        1584        1583
        1580        1581        1586        1585
        1581        1582        1587        1586
        1582        1583        1588        1587
        1583        1584        1589        1588
        1585        1586        1591        1590
        1586        1587        1592        1591
        1587        1588        1593        1592
        1588        1589        1594        1593
        1590        1591        1596        1595
        1591        1592        1597        1596
        1592        1593        1598        1597
        1593        1594        1599        1598
 </DataArray>
 <DataArray  type="Int32"  Name="offsets"  format="ascii"> 
           4
           8
          12
          16
          20
          24
          28
          32
          36
          40
          44
          48
          52
          56
          60
          64
          68
          72
          76
          80
          84
          88
          92
          96
         100
         104
         108
         112
         116
         120
         124
         128
         132
         136
         140
         144
         148
         152
         156
         160
         164
         168
         172
         176
         180
         184
         188
         192
         196
         200
         204
         208
         212
         216
         220
         224
         228
         232
         236
         240
         244
         248
         252
         256
         260
         264
         268
         272
         276
         280
         284
         288
         292
         296
         300
         304
         308
         312
         316
         320
         324
         328
         332
         336
         340
         344
         348
         352
         356
         360
         364
         368
         372
         376
         380
         384
         388
         392
         396
         400
         404
         408
         412
         416
         420
         424
         428
         432
         436
         440
         444
         448
         452
         456
         460
         464
         468
         472
         476
         480
         484
         488
         492
         496
         500
         504
         508
         512
         516
         520
         524
         528
         532
         536
         540
         544
         548
         552
         556
         560
         564
         568
         572
         576
         580
         584
         588
         592
         596
         600
         604
         608
         612
         616
         620
         624
         628
         632
         636
         640
         644
         648
         652
         656
         660
         664
         668
         672
         676
         680
         684
         688
         692
         696
         700
         704
         708
         712
         716
         720
         724
         728
         732
         736
         740
         744
         748
         752
         756
         760
         764
         768
         772
         776
         780
         784
         788
         792
         796
         800
         804
         808
         812
         816
         820
         824
         828
         832
         836
         840
         844
         848
         852
         856
         860
         864
         868
         872
         876
         880
         884
         888
         892
         896
         900
         904
         908
         912
         916
         920
         924
         928
         932
         936
         940
         944
         948
         952
         956
         960
         964
         968
         972
         976
         980
         984
         988
         992
         996
        1000
        1004
        1008
        1012
        1016
        1020
        1024
        1028
        1032
        1036
        1040
        1044
        1048
        1052
        1056
        1060
        1064
        1068
        1072
        1076
        1080
        1084
        1088
        1092
        1096
        1100
        1104
        1108
        1112
        1116
        1120
        1124
        1128
        1132
        1136
        1140
        1144
        1148
        1152
        1156
        1160
        1164
        1168
        1172
        1176
        1180
        1184
        1188
        1192
        1196
        1200
        1204
        1208
        1212
        1216
        1220
        1224
        1228
        1232
        1236
        1240
        1244
        1248
        1252
        1256
        1260
        1264
        1268
        1272
        1276
        1280
        1284
        1288
        1292
        1296
        1300
        1304
        1308
        1312
        1316
        1320
        1324
        1328
        1332
        1336
        1340
        1344
        1348
        1352
        1356
        1360
        1364
        1368
        1372
        1376
        1380
        1384
        1388
        1392
        1396
        1400
        1404
        1408
        1412
        1416
        1420
        1424
        1428
        1432
        1436
        1440
        1444
        1448
        1452
        1456
        1460
        1464
        1468
        1472
        1476
        1480
        1484
        1488
        1492
        1496
        1500
        1504
        1508
        1512
        1516
        1520
        1524
        1528
        1532
        1536
        1540
        1544
        1548
        1552
        1556
        1560
        1564
        1568
        1572
        1576
        1580
        1584
        1588
        1592
        1596
        1600
        1604
        1608
        1612
        1616
        1620
        1624
        1628
        1632
        1636
        1640
        1644
        1648
        1652
        1656
        1660
        1664
        1668
        1672
        1676
        1680
        1684
        1688
        1692
        1696
        1700
        1704
        1708
        1712
        1716
        1720
        1724
        1728
        1732
        1736
        1740
        1744
        1748
        1752
        1756
        1760
        1764
        1768
        1772
        1776
        1780
        1784
        1788
        1792
        1796
        1800
        1804
        1808
        1812
        1816
        1820
        1824
        1828
        1832
        1836
        1840
        1844
        1848
        1852
        1856
        1860
        1864
        1868
        1872
        1876
        1880
        1884
        1888
        1892
        1896
        1900
        1904
        1908
        1912
        1916
        1920
        1924
        1928
        1932
        1936
        1940
        1944
        1948
        1952
        1956
        1960
        1964
        1968
        1972
        1976
        1980
        1984
        1988
        1992
        1996
        2000
        2004
        2008
        2012
        2016
        2020
        2024
        2028
        2032
        2036
        2040
        2044
        2048
        2052
        2056
        2060
        2064
        2068
        2072
        2076
        2080
        2084
        2088
        2092
        2096
        2100
        2104
        2108
        2112
        2116
        2120
        2124
        2128
        2132
        2136
        2140
        2144
        2148
        2152
        2156
        2160
        2164
        2168
        2172
        2176
        2180
        2184
        2188
        2192
        2196
        2200
        2204
        2208
        2212
        2216
        2220
        2224
        2228
        2232
        2236
        2240
        2244
        2248
        2252
        2256
        2260
        2264
        2268
        2272
        2276
        2280
        2284
        2288
        2292
        2296
        2300
        2304
        2308
        2312
        2316
        2320
        2324
        2328
        2332
        2336
        2340
        2344
        2348
        2352
        2356
        2360
        2364
        2368
        2372
        2376
        2380
        2384
        2388
        2392
        2396
        2400
        2404
        2408
        2412
        2416
        2420
        2424
        2428
        2432
        2436
        2440
        2444
        2448
        2452
        2456
        2460
        2464
        2468
        2472
        2476
        2480
        2484
        2488
        2492
        2496
        2500
        2504
        2508
        2512
        2516
        2520
        2524
        2528
        2532
        2536
        2540
        2544
        2548
        2552
        2556
        2560
        2564
        2568
        2572
        2576
        2580
        2584
        2588
        2592
        2596
        2600
        2604
        2608
        2612
        2616
        2620
        2624
        2628
        2632
        2636
        2640
        2644
        2648
        2652
        2656
        2660
        2664
        2668
        2672
        2676
        2680
        2684
        2688
        2692
        2696
        2700
        2704
        2708
        2712
        2716
        2720
        2724
        2728
        2732
        2736
        2740
        2744
        2748
        2752
        2756
        2760
        2764
        2768
        2772
        2776
        2780
        2784
        2788
        2792
        2796
        2800
        2804
        2808
        2812
        2816
        2820
        2824
        2828
        2832
        2836
        2840
        2844
        2848
        2852
        2856
        2860
        2864
        2868
        2872
        2876
        2880
        2884
        2888
        2892
        2896
        2900
        2904
        2908
        2912
        2916
        2920
        2924
        2928
        2932
        2936
        2940
        2944
        2948
        2952
        2956
        2960
        2964
        2968
        2972
        2976
        2980
        2984
        2988
        2992
        2996
        3000
        3004
        3008
        3012
        3016
        3020
        3024
        3028
        3032
        3036
        3040
        3044
        3048
        3052
        3056
        3060
        3064
        3068
        3072
        3076
        3080
        3084
        3088
        3092
        3096
        3100
        3104
        3108
        3112
        3116
        3120
        3124
        3128
        3132
        3136
        3140
        3144
        3148
        3152
        3156
        3160
        3164
        3168
        3172
        3176
        3180
        3184
        3188
        3192
        3196
        3200
        3204
        3208
        3212
        3216
        3220
        3224
        3228
        3232
        3236
        3240
        3244
        3248
        3252
        3256
        3260
        3264
        3268
        3272
        3276
        3280
        3284
        3288
        3292
        3296
        3300
        3304
        3308
        3312
        3316
        3320
        3324
        3328
        3332
        3336
        3340
        3344
        3348
        3352
        3356
        3360
        3364
        3368
        3372
        3376
        3380
        3384
        3388
        3392
        3396
        3400
        3404
        3408
        3412
        3416
        3420
        3424
        3428
        3432
        3436
        3440
        3444
        3448
        3452
        3456
        3460
        3464
        3468
        3472
        3476
        3480
        3484
        3488
        3492
        3496
        3500
        3504
        3508
        3512
        3516
        3520
        3524
        3528
        3532
        3536
        3540
        3544
        3548
        3552
        3556
        3560
        3564
        3568
        3572
        3576
        3580
        3584
        3588
        3592
        3596
        3600
        3604
        3608
        3612
        3616
        3620
        3624
        3628
        3632
        3636
        3640
        3644
        3648
        3652
        3656
        3660
        3664
        3668
        3672
        3676
        3680
        3684
        3688
        3692
        3696
        3700
        3704
        3708
        3712
        3716
        3720
        3724
        3728
        3732
        3736
        3740
        3744
        3748
        3752
        3756
        3760
        3764
        3768
        3772
        3776
        3780
        3784
        3788
        3792
        3796
        3800
        3804
        3808
        3812
        3816
        3820
        3824
        3828
        3832
        3836
        3840
        3844
        3848
        3852
        3856
        3860
        3864
        3868
        3872
        3876
        3880
        3884
        3888
        3892
        3896
        3900
        3904
        3908
        3912
        3916
        3920
        3924
        3928
        3932
        3936
        3940
        3944
        3948
        3952
        3956
        3960
        3964
        3968
        3972
        3976
        3980
        3984
        3988
        3992
        3996
        4000
        4004
        4008
        4012
        4016
        4020
        4024
        4028
        4032
        4036
        4040
        4044
        4048
        4052
        4056
        4060
        4064
        4068
        4072
        4076
        4080
        4084
        4088
        4092
        4096
 </DataArray>
 <DataArray  type="UInt8"  Name="types"  format="ascii">
 9
 9
 9
 9
 9
 9
 9
 9
 9
 9
 9
 9
 9
 9
 9
 9
 9
 9
 9
 9
 9
 9
 9
 9
 9
 9
 9
 9
 9
 9
 9
 9
 9
 9
 9
 9
 9
 9
 9
 9
 9
 9
 9
 9
 9
 9
 9
 9
 9
 9
 9
 9
 9
 9
 9
 9
 9
 9
 9
 9
 9
 9
 9
 9
 9
 9
 9
 9
 9
 9
 9
 9
 9
 9
 9
 9
 9
 9
 9
 9
 9
 9
 9
 9
 9
 9
 9
 9
 9
 9
 9
 9
 9
 9
 9
 9
 9
 9
 9
 9
 9
 9
 9
 9
 9
 9
 9
 9
 9
 9
 9
 9
 9
 9
 9
 9
 9
 9
 9
 9
 9
 9
 9
 9
 9
 9
 9
 9
 9
 9
 9
 9
 9
 9
 9
 9
 9
 9
 9
 9
 9
 9
 9
 9
 9
 9
 9
 9
 9
 9
 9
 9
 9
 9
 9
 9
 9
 9
 9
 9
 9
 9
 9
 9
 9
 9
 9
 9
 9
 9
 9
 9
 9
 9
 9
 9
 9
 9
 9
 9
 9
 9
 9
 9
 9
 9
 9
 9
 9
 9
 9
 9
 9
 9
 9
 9
 9
 9
 9
 9
 9
 9
 9
 9
 9
 9
 9
 9
 9
 9
 9
 9
 9
 9
 9
 9
 9
 9
 9
 9
 9
 9
 9
 9
 9
 9
 9
 9
 9
 9
 9
 9
 9
 9
 9
 9
 9
 9
 9
 9
 9
 9
 9
 9
 9
 9
 9
 9
 9
 9
 9
 9
 9
 9
 9
 9
 9
 9
 9
 9
 9
 9
 9
 9
 9
 9
 9
 9
 9
 9
 9
 9
 9
 9
 9
 9
 9
 9
 9
 9
 9
 9
 9
 9
 9
 9
 9
 9
 9
 9
 9
 9
 9
 9
 9
 9
 9
 9
 9
 9
 9
 9
 9
 9
 9
 9
 9
 9
 9
 9
 9
 9
 9
 9
 9
 9
 9
 9
 9
 9
 9
 9
 9
 9
 9
 9
 9
 9
 9
 9
 9
 9
 9
 9
 9
 9
 9
 9
 9
 9
 9
 9
 9
 9
 9
 9
 9
 9
 9
 9
 9
 9
 9
 9
 9
 9
 9
 9
 9
 9
 9
 9
 9
 9
 9
 9
 9
 9
 9
 9
 9
 9
 9
 9
 9
 9
 9
 9
 9
 9
 9
 9
 9
 9
 9
 9
 9
 9
 9
 9
 9
 9
 9
 9
 9
 9
 9
 9
 9
 9
 9
 9
 9
 9
 9
 9
 9
 9
 9
 9
 9
 9
 9
 9
 9
 9
 9
 9
 9
 9
 9
 9
 9
 9
 9
 9
 9
 9
 9
 9
 9
 9
 9
 9
 9
 9
 9
 9
 9
 9
 9
 9
 9
 9
 9
 9
 9
 9
 9
 9
 9
 9
 9
 9
 9
 9
 9
 9
 9
 9
 9
 9
 9
 9
 9
 9
 9
 9
 9
 9
 9
 9
 9
 9
 9
 9
 9
 9
 9
 9
 9
 9
 9
 9
 9
 9
 9
 9
 9
 9
 9
 9
 9
 9
 9
 9
 9
 9
 9
 9
 9
 9
 9
 9
 9
 9
 9
 9
 9
 9
 9
 9
 9
 9
 9
 9
 9
 9
 9
 9
 9
 9
 9
 9
 9
 9
 9
 9
 9
 9
 9
 9
 9
 9
 9
 9
 9
 9
 9
 9
 9
 9
 9
 9
 9
 9
 9
 9
 9
 9
 9
 9
 9
 9
 9
 9
 9
 9
 9
 9
 9
 9
 9
 9
 9
 9
 9
 9
 9
 9
 9
 9
 9
 9
 9
 9
 9
 9
 9
 9
 9
 9
 9
 9
 9
 9
 9
 9
 9
 9
 9
 9
 9
 9
 9
 9
 9
 9
 9
 9
 9
 9
 9
 9
 9
 9
 9
 9
 9
 9
 9
 9
 9
 9
 9
 9
 9
 9
 9
 9
 9
 9
 9
 9
 9
 9
 9
 9
 9
 9
 9
 9
 9
 9
 9
 9
 9
 9
 9
 9
 9
 9
 9
 9
 9
 9
 9
 9
 9
 9
 9
 9
 9
 9
 9
 9
 9
 9
 9
 9
 9
 9
 9
 9
 9
 9
 9
 9
 9
 9
 9
 9
 9
 9
 9
 9
 9
 9
 9
 9
 9
 9
 9
 9
 9
 9
 9
 9
 9
 9
 9
 9
 9
 9
 9
 9
 9
 9
 9
 9
 9
 9
 9
 9
 9
 9
 9
 9
 9
 9
 9
 9
 9
 9
 9
 9
 9
 9
 9
 9
 9
 9
 9
 9
 9
 9
 9
 9
 9
 9
 9
 9
 9
 9
 9
 9
 9
 9
 9
 9
 9
 9
 9
 9
 9
 9
 9
 9
 9
 9
 9
 9
 9
 9
 9
 9
 9
 9
 9
 9
 9
 9
 9
 9
 9
 9
 9
 9
 9
 9
 9
 9
 9
 9
 9
 9
 9
 9
 9
 9
 9
 9
 9
 9
 9
 9
 9
 9
 9
 9
 9
 9
 9
 9
 9
 9
 9
 9
 9
 9
 9
 9
 9
 9
 9
 9
 9
 9
 9
 9
 9
 9
 9
 9
 9
 9
 9
 9
 9
 9
 9
 9
 9
 9
 9
 9
 9
 9
 9
 9
 9
 9
 9
 9
 9
 9
 9
 9
 9
 9
 9
 9
 9
 9
 9
 9
 9
 9
 9
 9
 9
 9
 9
 9
 9
 9
 9
 9
 9
 9
 9
 9
 9
 9
 9
 9
 9
 9
 9
 9
 9
 9
 9
 9
 9
 9
 9
 9
 9
 9
 9
 9
 9
 9
 9
 9
 9
 9
 9
 9
 9
 9
 9
 9
 9
 9
 9
 9
 9
 9
 9
 9
 9
 9
 9
 9
 9
 9
 9
 9
 9
 9
 9
 9
 9
 9
 9
 9
 9
 9
 9
 9
 9
 9
 9
 9
 9
 9
 9
 9
 9
 9
 9
 9
 9
 9
 9
 9
 9
 9
 9
 9
 9
 9
 9
 9
 9
 9
 9
 9
 9
 9
 9
 9
 9
 9
 9
 9
 9
 9
 9
 9
 9
 9
 9
 9
 9
 9
 9
 9
 9
 9
 9
 9
 9
 9
 9
 9
 9
 9
 9
 9
 9
 9
 9
 9
 9
 9
 9
 9
 9
 9
 9
 9
 9
 9
 9
 9
 9
 9
 9
 9
 9
 9
 9
 9
 9
 9
 9
 9
 9
 9
 9
 9
 9
 9
 9
 9
 9
 9
 9
 9
 9
 9
 </DataArray>
 </Cells> 
 <PointData>
 <DataArray  type="Float64" Name="disp" NumberOfComponents="3" format="ascii">
   0.0000000000000000        0.0000000000000000        0.0000000000000000     
   6.0960172808219052E-003   3.7906453854467189E-003   0.0000000000000000     
   1.1666101022250106E-002   7.3242581313237402E-003   0.0000000000000000     
   1.6710251224284600E-002   1.0600838237631062E-002   0.0000000000000000     
   2.1228467886925395E-002   1.3620385704368691E-002   0.0000000000000000     
   0.0000000000000000        0.0000000000000000        0.0000000000000000     
   4.8911380186864896E-003   3.0223491818286595E-003   0.0000000000000000     
   9.5736018782237378E-003   6.0609460131937354E-003   0.0000000000000000     
   1.4047391578611748E-002   9.1157904940952269E-003   0.0000000000000000     
   1.8312507119850517E-002   1.2186882624533133E-002   0.0000000000000000     
   0.0000000000000000        0.0000000000000000        0.0000000000000000     
   3.9535099086165336E-003   2.4253147155023605E-003   0.0000000000000000     
   7.9105103976210601E-003   5.0633023155904188E-003   0.0000000000000000     
   1.1871001467013576E-002   7.9139628002641727E-003   0.0000000000000000     
   1.5834983116794085E-002   1.0977296169523625E-002   0.0000000000000000     
   0.0000000000000000        0.0000000000000000        0.0000000000000000     
   3.2831329506120390E-003   1.9995419864678224E-003   0.0000000000000000     
   6.6768265804420697E-003   4.3313270385137914E-003   0.0000000000000000     
   1.0181080889490091E-002   6.9953551561379064E-003   0.0000000000000000     
   1.3795895877756103E-002   9.9916263393401671E-003   0.0000000000000000     
   0.0000000000000000        0.0000000000000000        0.0000000000000000     
   2.8800071446730049E-003   1.7450309947250446E-003   0.0000000000000000     
   5.8725504266867673E-003   3.8650201819638522E-003   0.0000000000000000     
   8.9776298460412865E-003   6.3599675617164227E-003   0.0000000000000000     
   1.2195245402736565E-002   9.2298731339827567E-003   0.0000000000000000     
   2.1228467886925395E-002   1.3620385704368691E-002   0.0000000000000000     
   2.5433540244922035E-002   1.6613615205450228E-002   0.0000000000000000     
   2.9538257533024071E-002   1.9811241414789280E-002   0.0000000000000000     
   3.3542619751231510E-002   2.3213264332385849E-002   0.0000000000000000     
   3.7446626899544352E-002   2.6819683958239936E-002   0.0000000000000000     
   1.8312507119850517E-002   1.2186882624533133E-002   0.0000000000000000     
   2.2407080761609067E-002   1.5342663171174524E-002   0.0000000000000000     
   2.6369244763556409E-002   1.8651572900686461E-002   0.0000000000000000     
   3.0198999125692551E-002   2.2113611813068940E-002   0.0000000000000000     
   3.3896343848017492E-002   2.5728779908321973E-002   0.0000000000000000     
   1.5834983116794085E-002   1.0977296169523625E-002   0.0000000000000000     
   1.9730605826147930E-002   1.4212195115256704E-002   0.0000000000000000     
   2.3486020074260459E-002   1.7577552329351331E-002   0.0000000000000000     
   2.7101225861131662E-002   2.1073367811807520E-002   0.0000000000000000     
   3.0576223186761557E-002   2.4699641562625246E-002   0.0000000000000000     
   1.3795895877756103E-002   9.9916263393401671E-003   0.0000000000000000     
   1.7404115438538630E-002   1.3222211037696769E-002   0.0000000000000000     
   2.0888583465136216E-002   1.6589179700783906E-002   0.0000000000000000     
   2.4249299957548855E-002   2.0092532328601566E-002   0.0000000000000000     
   2.7486264915776545E-002   2.3732268921149772E-002   0.0000000000000000     
   1.2195245402736565E-002   9.2298731339827567E-003   0.0000000000000000     
   1.5427609598781176E-002   1.2372710938494716E-002   0.0000000000000000     
   1.8576934936183696E-002   1.5686455014984169E-002   0.0000000000000000     
   2.1643221414944118E-002   1.9171105363451110E-002   0.0000000000000000     
   2.4626469035062454E-002   2.2826661983895540E-002   0.0000000000000000     
   3.7446626899544352E-002   2.6819683958239936E-002   0.0000000000000000     
   4.1254385133985542E-002   3.0625825014169210E-002   0.0000000000000000     
   4.4970000610578029E-002   3.4627012221991341E-002   0.0000000000000000     
   4.8593473329321818E-002   3.8823245581706335E-002   0.0000000000000000     
   5.2124803290216903E-002   4.3214525093314186E-002   0.0000000000000000     
   3.3896343848017492E-002   2.5728779908321973E-002   0.0000000000000000     
   3.7484455134443331E-002   2.9525910679152150E-002   0.0000000000000000     
   4.0986509188882150E-002   3.3533837618266088E-002   0.0000000000000000     
   4.4402506011333977E-002   3.7752560725663797E-002   0.0000000000000000     
   4.7732445601798783E-002   4.2182080001345254E-002   0.0000000000000000     
   3.0576223186761557E-002   2.4699641562625246E-002   0.0000000000000000     
   3.3940624671836984E-002   2.8500915054009208E-002   0.0000000000000000     
   3.7224042937044816E-002   3.2521729758164059E-002   0.0000000000000000     
   4.0426477982385030E-002   3.6762085675089810E-002   0.0000000000000000     
   4.3547929807857641E-002   4.1221982804786464E-002   0.0000000000000000     
   2.7486264915776545E-002   2.3732268921149772E-002   0.0000000000000000     
   3.0622893746166512E-002   2.7550838138740378E-002   0.0000000000000000     
   3.3682601855065990E-002   3.1590688641685252E-002   0.0000000000000000     
   3.6665389242474984E-002   3.5851820429984402E-002   0.0000000000000000     
   3.9571255908393492E-002   4.0334233503637830E-002   0.0000000000000000     
   2.4626469035062454E-002   2.2826661983895540E-002   0.0000000000000000     
   2.7531262357431911E-002   2.6675679933345658E-002   0.0000000000000000     
   3.0362185942945711E-002   3.0740714268829669E-002   0.0000000000000000     
   3.3119239791603854E-002   3.5021764990347565E-002   0.0000000000000000     
   3.5802423903406322E-002   3.9518832097899359E-002   0.0000000000000000     
   5.2124803290216903E-002   4.3214525093314186E-002   0.0000000000000000     
   5.5557484530749032E-002   4.7803294233320179E-002   0.0000000000000000     
   5.8885011088403952E-002   5.2591996478229597E-002   0.0000000000000000     
   6.2107382963181655E-002   5.7580631828042420E-002   0.0000000000000000     
   6.5224600155082135E-002   6.2769200282758689E-002   0.0000000000000000     
   4.7732445601798783E-002   4.2182080001345254E-002   0.0000000000000000     
   5.0971012312304873E-002   4.6814099636909655E-002   0.0000000000000000     
   5.4112890494880508E-002   5.1640323823956231E-002   0.0000000000000000     
   5.7158080149525704E-002   5.6660752562484970E-002   0.0000000000000000     
   6.0106581276240460E-002   6.1875385852495857E-002   0.0000000000000000     
   4.3547929807857641E-002   4.1221982804786464E-002   0.0000000000000000     
   4.6584536061223536E-002   4.5887480941561663E-002   0.0000000000000000     
   4.9532434390243567E-002   5.0744639879723039E-002   0.0000000000000000     
   5.2391624794917761E-002   5.5793459619270618E-002   0.0000000000000000     
   5.5162107275246106E-002   6.1033940160204372E-002   0.0000000000000000     
   3.9571255908393492E-002   4.0334233503637830E-002   0.0000000000000000     
   4.2398055777505030E-002   4.5023438147276156E-002   0.0000000000000000     
   4.5143642774493155E-002   4.9904944645530011E-002   0.0000000000000000     
   4.7808016899357833E-002   5.4978752998399376E-002   0.0000000000000000     
   5.0391178152099085E-002   6.0244863205884264E-002   0.0000000000000000     
   3.5802423903406322E-002   3.9518832097899359E-002   0.0000000000000000     
   3.8411571461149367E-002   4.4221971254053166E-002   0.0000000000000000     
   4.0946515647629231E-002   4.9121238121377128E-002   0.0000000000000000     
   4.3407256462845906E-002   5.4216632699871252E-002   0.0000000000000000     
   4.5793793906799399E-002   5.9508154989535510E-002   0.0000000000000000     
   6.5224600155082135E-002   6.2769200282758689E-002   0.0000000000000000     
   6.8248596235000403E-002   6.8149808685563931E-002   0.0000000000000000     
   7.1191304773831426E-002   7.3714563879643716E-002   0.0000000000000000     
   7.4052725771575179E-002   7.9463465864998056E-002   0.0000000000000000     
   7.6832859228231715E-002   8.5396514641626925E-002   0.0000000000000000     
   6.0106581276240460E-002   6.1875385852495857E-002   0.0000000000000000     
   6.2966415937425371E-002   6.7280088938496685E-002   0.0000000000000000     
   6.5745606195481074E-002   7.2870727064995242E-002   0.0000000000000000     
   6.8444152050407533E-002   7.8647300231991513E-002   0.0000000000000000     
   7.1062053502204792E-002   8.4609808439485526E-002   0.0000000000000000     
   5.5162107275246106E-002   6.1033940160204372E-002   0.0000000000000000     
   5.7848952666481560E-002   6.6463500636252698E-002   0.0000000000000000     
   6.0457231803877132E-002   7.2079560181143962E-002   0.0000000000000000     
   6.2986944687432780E-002   7.7882118794878150E-002   0.0000000000000000     
   6.5438091317148533E-002   8.3871176477455261E-002   0.0000000000000000     
   5.0391178152099085E-002   6.0244863205884264E-002   0.0000000000000000     
   5.2896206422168988E-002   6.5700043778831999E-002   0.0000000000000000     
   5.5326181599019593E-002   7.1341063228089904E-002   0.0000000000000000     
   5.7681103682650919E-002   7.7167921553657939E-002   0.0000000000000000     
   5.9960972673062940E-002   8.3180618755536201E-002   0.0000000000000000     
   4.5793793906799399E-002   5.9508154989535510E-002   0.0000000000000000     
   4.8108177204487616E-002   6.4989718366234572E-002   0.0000000000000000     
   5.0352455580908465E-002   7.0655236205833041E-002   0.0000000000000000     
   5.2526629036061930E-002   7.6504708508330937E-002   0.0000000000000000     
   5.4630697569948018E-002   8.2538135273728247E-002   0.0000000000000000     
   7.6832859228231715E-002   8.5396514641626925E-002   0.0000000000000000     
   7.9516932883009192E-002   9.1499782450445002E-002   0.0000000000000000     
   8.2090174475115851E-002   9.7759341532366928E-002   0.0000000000000000     
   8.4552584004551679E-002  0.10417519188739274        0.0000000000000000     
   8.6904161471316660E-002  0.11074733351552239        0.0000000000000000     
   7.1062053502204792E-002   8.4609808439485526E-002   0.0000000000000000     
   7.3587743879991938E-002   9.0742529536691097E-002   0.0000000000000000     
   7.6009656512888144E-002   9.7029741372822054E-002   0.0000000000000000     
   7.8327791400893396E-002  0.10347144394787842        0.0000000000000000     
   8.0542148544007694E-002  0.11006763726186020        0.0000000000000000     
   6.5438091317148533E-002   8.3871176477455261E-002   0.0000000000000000     
   6.7801602670267413E-002   9.0030372496083463E-002   0.0000000000000000     
   7.0068409724032499E-002   9.6343346117970879E-002   0.0000000000000000     
   7.2238512478443748E-002  0.10281009734311752        0.0000000000000000     
   7.4311910933501230E-002  0.10943062617152334        0.0000000000000000     
   5.9960972673062940E-002   8.3180618755536201E-002   0.0000000000000000     
   6.2158509253835620E-002   8.9363311328622158E-002   0.0000000000000000     
   6.4266434108548889E-002   9.5700155767813419E-002   0.0000000000000000     
   6.6284747237202776E-002  0.10219115207310998        0.0000000000000000     
   6.8213448639797225E-002  0.10883630024451187        0.0000000000000000     
   5.4630697569948018E-002   8.2538135273728247E-002   0.0000000000000000     
   5.6658463630696557E-002   8.8741346034307111E-002   0.0000000000000000     
   5.8603729666437357E-002   9.5100170322349659E-002   0.0000000000000000     
   6.0466495677170412E-002  0.10161460813785583        0.0000000000000000     
   6.2246761662895736E-002  0.10828465948082569        0.0000000000000000     
   8.6904161471316660E-002  0.11074733351552239        0.0000000000000000     
   8.9156156557566896E-002  0.11746375803752697        0.0000000000000000     
   9.1319818945458472E-002  0.12431245707417755        0.0000000000000000     
   9.3395148634991390E-002  0.13129343062547413        0.0000000000000000     
   9.5382145626165649E-002  0.13840667869141671        0.0000000000000000     
   8.0542148544007694E-002  0.11006763726186020        0.0000000000000000     
   8.2668570275547221E-002  0.11680871537253246        0.0000000000000000     
   8.4722898928828158E-002  0.12368507233766028        0.0000000000000000     
   8.6705134503850506E-002  0.13069670815724371        0.0000000000000000     
   8.8615277000614237E-002  0.13784362283128271        0.0000000000000000     
   7.4311910933501230E-002  0.10943062617152334        0.0000000000000000     
   7.6306619460014463E-002  0.11619643649947385        0.0000000000000000     
   7.8240652428793078E-002  0.12309903222325434        0.0000000000000000     
   8.0114009839837089E-002  0.13013841334286491        0.0000000000000000     
   8.1926691693146467E-002  0.13731457985830553        0.0000000000000000     
   6.8213448639797225E-002  0.10883630024451187        0.0000000000000000     
   7.0070304110968623E-002  0.11562692141835107        0.0000000000000000     
   7.1873079445353288E-002  0.12255433673095972        0.0000000000000000     
   7.3621774642951193E-002  0.12961854618233778        0.0000000000000000     
   7.5316389703762351E-002  0.13681954977248523        0.0000000000000000     
   6.2246761662895736E-002  0.10828465948082569        0.0000000000000000     
   6.3959624228409714E-002  0.11510017012916421        0.0000000000000000     
   6.5620179978508733E-002  0.12205098586077641        0.0000000000000000     
   6.7228428913192778E-002  0.12913710667566228        0.0000000000000000     
   6.8784371032461863E-002  0.13635853257382174        0.0000000000000000     
   9.5382145626165649E-002  0.13840667869141671        0.0000000000000000     
   9.7219494542007609E-002  0.14564084805132549        0.0000000000000000     
   9.8845880005543618E-002  0.15298458548452060        0.0000000000000000     
  0.10026130201677368       0.16043789099100206        0.0000000000000000     
  0.10146576057569780       0.16800076457076990        0.0000000000000000     
   8.8615277000614237E-002  0.13784362283128271        0.0000000000000000     
   9.0412041967841403E-002  0.14511019497868974        0.0000000000000000     
   9.2054144954253972E-002  0.15248080321837729        0.0000000000000000     
   9.3541585959851958E-002  0.15995544755034533        0.0000000000000000     
   9.4874364984635348E-002  0.16753412797459394        0.0000000000000000     
   8.1926691693146467E-002  0.13731457985830553        0.0000000000000000     
   8.3650771791735953E-002  0.14460993671157210        0.0000000000000000     
   8.5258323938620248E-002  0.15200688884466060        0.0000000000000000     
   8.6749348133799351E-002  0.15950543625757094        0.0000000000000000     
   8.8123844377273261E-002  0.16710557895030320        0.0000000000000000     
   7.5316389703762351E-002  0.13681954977248523        0.0000000000000000     
   7.6935684013691275E-002  0.14414007324997261        0.0000000000000000     
   7.8458416958642432E-002  0.15156284236337050        0.0000000000000000     
   7.9884588538615853E-002  0.15908785711267881        0.0000000000000000     
   8.1214198753611536E-002  0.16671511749789769        0.0000000000000000     
   6.8784371032461863E-002  0.13635853257382174        0.0000000000000000     
   7.0266778633707352E-002  0.14370060459389122        0.0000000000000000     
   7.1654424014320553E-002  0.15114866377450703        0.0000000000000000     
   7.2947307174301479E-002  0.15870271011566905        0.0000000000000000     
   7.4145428113650158E-002  0.16636274361737741        0.0000000000000000     
   0.0000000000000000        0.0000000000000000        0.0000000000000000     
   2.8800071446730049E-003   1.7450309947250446E-003   0.0000000000000000     
   5.8725504266867673E-003   3.8650201819638522E-003   0.0000000000000000     
   8.9776298460412865E-003   6.3599675617164227E-003   0.0000000000000000     
   1.2195245402736565E-002   9.2298731339827567E-003   0.0000000000000000     
   0.0000000000000000        0.0000000000000000        0.0000000000000000     
   2.6102796852043282E-003   1.5891111152904779E-003   0.0000000000000000     
   5.2896784560180644E-003   3.5570545910541306E-003   0.0000000000000000     
   8.0381963124412058E-003   5.9038304272909566E-003   0.0000000000000000     
   1.0855833254473757E-002   8.6294386240009565E-003   0.0000000000000000     
   0.0000000000000000        0.0000000000000000        0.0000000000000000     
   2.3400977666109064E-003   1.4591117231805733E-003   0.0000000000000000     
   4.7202071880988686E-003   3.3001031108981531E-003   0.0000000000000000     
   7.1403282644638844E-003   5.5229741631527395E-003   0.0000000000000000     
   9.6004609957059586E-003   8.1277248799443320E-003   0.0000000000000000     
   0.0000000000000000        0.0000000000000000        0.0000000000000000     
   2.0694613888927399E-003   1.3550328183953306E-003   0.0000000000000000     
   4.1641366229291802E-003   3.0941657414959201E-003   0.0000000000000000     
   6.2840257021093242E-003   5.2173987693017706E-003   0.0000000000000000     
   8.4291286264331685E-003   7.7247319018128773E-003   0.0000000000000000     
   0.0000000000000000        0.0000000000000000        0.0000000000000000     
   1.7983705520498280E-003   1.2768744009347497E-003   0.0000000000000000     
   3.6214667605090020E-003   2.9392424828474329E-003   0.0000000000000000     
   5.4692886253775224E-003   4.9871042457380488E-003   0.0000000000000000     
   7.3418361466553875E-003   7.4204596896065992E-003   0.0000000000000000     
   1.2195245402736565E-002   9.2298731339827567E-003   0.0000000000000000     
   1.5427609598781176E-002   1.2372710938494716E-002   0.0000000000000000     
   1.8576934936183696E-002   1.5686455014984169E-002   0.0000000000000000     
   2.1643221414944118E-002   1.9171105363451110E-002   0.0000000000000000     
   2.4626469035062454E-002   2.2826661983895540E-002   0.0000000000000000     
   1.0855833254473757E-002   8.6294386240009565E-003   0.0000000000000000     
   1.3689214857658274E-002   1.1651650406836619E-002   0.0000000000000000     
   1.6484966697537327E-002   1.4888237001450429E-002   0.0000000000000000     
   1.9243088774110906E-002   1.8339198407842393E-002   0.0000000000000000     
   2.1963581087379024E-002   2.2004534626012498E-002   0.0000000000000000     
   9.6004609957059586E-003   8.1277248799443320E-003   0.0000000000000000     
   1.2077057765952656E-002   1.1046985031908546E-002   0.0000000000000000     
   1.4546570959331560E-002   1.4213384389680991E-002   0.0000000000000000     
   1.7009000575842669E-002   1.7626922953261678E-002   0.0000000000000000     
   1.9464346615485979E-002   2.1287600722650603E-002   0.0000000000000000     
   8.4291286264331685E-003   7.7247319018128773E-003   0.0000000000000000     
   1.0591138323664321E-002   1.0558714813710492E-002   0.0000000000000000     
   1.2761747721566399E-002   1.3661897179675857E-002   0.0000000000000000     
   1.4940956820139396E-002   1.7034278999708972E-002   0.0000000000000000     
   1.7128765619383316E-002   2.0675860273809840E-002   0.0000000000000000     
   7.3418361466553875E-003   7.4204596896065992E-003   0.0000000000000000     
   9.2314565307932712E-003   1.0186839752242462E-002   0.0000000000000000     
   1.1130496984241841E-002   1.3233775371435021E-002   0.0000000000000000     
   1.3038957507001099E-002   1.6561266547184275E-002   0.0000000000000000     
   1.4956838099071043E-002   2.0169313279490224E-002   0.0000000000000000     
   2.4626469035062454E-002   2.2826661983895540E-002   0.0000000000000000     
   2.7531262357431911E-002   2.6675679933345658E-002   0.0000000000000000     
   3.0362185942945711E-002   3.0740714268829669E-002   0.0000000000000000     
   3.3119239791603854E-002   3.5021764990347565E-002   0.0000000000000000     
   3.5802423903406322E-002   3.9518832097899359E-002   0.0000000000000000     
   2.1963581087379024E-002   2.2004534626012498E-002   0.0000000000000000     
   2.4630306494011343E-002   2.5882005271905453E-002   0.0000000000000000     
   2.7227127850677539E-002   2.9969369961465944E-002   0.0000000000000000     
   2.9754045157377611E-002   3.4266628694693969E-002   0.0000000000000000     
   3.2211058414111565E-002   3.8773781471589538E-002   0.0000000000000000     
   1.9464346615485979E-002   2.1287600722650603E-002   0.0000000000000000     
   2.1884602144282950E-002   2.5176378988500153E-002   0.0000000000000000     
   2.4241760228255051E-002   2.9274219041462709E-002   0.0000000000000000     
   2.6535820867402287E-002   3.3581120881538286E-002   0.0000000000000000     
   2.8766784061724653E-002   3.8097084508726876E-002   0.0000000000000000     
   1.7128765619383316E-002   2.0675860273809840E-002   0.0000000000000000     
   1.9294149308246741E-002   2.4558801083129748E-002   0.0000000000000000     
   2.1406083075678262E-002   2.8655261508819970E-002   0.0000000000000000     
   2.3464566921677876E-002   3.2965241550880514E-002   0.0000000000000000     
   2.5469600846245583E-002   3.7488741209311380E-002   0.0000000000000000     
   1.4956838099071043E-002   2.0169313279490224E-002   0.0000000000000000     
   1.6858947985902720E-002   2.4029271555794245E-002   0.0000000000000000     
   1.8720096392947163E-002   2.8112497363537724E-002   0.0000000000000000     
   2.0540283320204373E-002   3.2418990702720647E-002   0.0000000000000000     
   2.2319508767674356E-002   3.6948751573343035E-002   0.0000000000000000     
   3.5802423903406322E-002   3.9518832097899359E-002   0.0000000000000000     
   3.8411571461149367E-002   4.4221971254053166E-002   0.0000000000000000     
   4.0946515647629231E-002   4.9121238121377128E-002   0.0000000000000000     
   4.3407256462845906E-002   5.4216632699871252E-002   0.0000000000000000     
   4.5793793906799399E-002   5.9508154989535510E-002   0.0000000000000000     
   3.2211058414111565E-002   3.8773781471589538E-002   0.0000000000000000     
   3.4599355828839211E-002   4.3486284733751900E-002   0.0000000000000000     
   3.6920125609520370E-002   4.8399594922780301E-002   0.0000000000000000     
   3.9173367756155042E-002   5.3513712038674742E-002   0.0000000000000000     
   4.1359082268743221E-002   5.8828636081435230E-002   0.0000000000000000     
   2.8766784061724653E-002   3.8097084508726876E-002   0.0000000000000000     
   3.0935681597257229E-002   4.2819583058231553E-002   0.0000000000000000     
   3.3043545260035098E-002   4.7746089665255398E-002   0.0000000000000000     
   3.5090375050058249E-002   5.2876604329798377E-002   0.0000000000000000     
   3.7076170967326696E-002   5.8211127051860524E-002   0.0000000000000000     
   2.5469600846245583E-002   3.7488741209311380E-002   0.0000000000000000     
   2.7420548766403416E-002   4.2221866227492154E-002   0.0000000000000000     
   2.9316774599173399E-002   4.7160722348802413E-002   0.0000000000000000     
   3.1158278344555541E-002   5.2305309573242156E-002   0.0000000000000000     
   3.2945060002549841E-002   5.7655627900811399E-002   0.0000000000000000     
   2.2319508767674356E-002   3.6948751573343035E-002   0.0000000000000000     
   2.4053957336277777E-002   4.1693134241533668E-002   0.0000000000000000     
   2.5739813626935299E-002   4.6643492973421345E-002   0.0000000000000000     
   2.7377077639646915E-002   5.1799827769006074E-002   0.0000000000000000     
   2.8965749374412632E-002   5.7162138628287854E-002   0.0000000000000000     
   4.5793793906799399E-002   5.9508154989535510E-002   0.0000000000000000     
   4.8108177204487616E-002   6.4989718366234572E-002   0.0000000000000000     
   5.0352455580908465E-002   7.0655236205833041E-002   0.0000000000000000     
   5.2526629036061930E-002   7.6504708508330937E-002   0.0000000000000000     
   5.4630697569948018E-002   8.2538135273728247E-002   0.0000000000000000     
   4.1359082268743221E-002   5.8828636081435230E-002   0.0000000000000000     
   4.3478854430670705E-002   6.4334958264804204E-002   0.0000000000000000     
   4.5534269525323280E-002   7.0023269802524116E-002   0.0000000000000000     
   4.7525327552700947E-002   7.5893570694594945E-002   0.0000000000000000     
   4.9452028512803704E-002   8.1945860941016718E-002   0.0000000000000000     
   3.7076170967326696E-002   5.8211127051860524E-002   0.0000000000000000     
   3.9002227517951474E-002   6.3738197340884706E-002   0.0000000000000000     
   4.0869839208043601E-002   6.9446354706313829E-002   0.0000000000000000     
   4.2679006037603093E-002   7.5335599148147886E-002   0.0000000000000000     
   4.4429728006629934E-002   8.1405930666386836E-002   0.0000000000000000     
   3.2945060002549841E-002   5.7655627900811399E-002   0.0000000000000000     
   3.4678296466329916E-002   6.3199435594476092E-002   0.0000000000000000     
   3.6359164629069428E-002   6.8924490917202180E-002   0.0000000000000000     
   3.7987664490768361E-002   7.4830793868989665E-002   0.0000000000000000     
   3.9563796051426708E-002   8.0918344449838545E-002   0.0000000000000000     
   2.8965749374412632E-002   5.7162138628287854E-002   0.0000000000000000     
   3.0507061275806047E-002   6.2718673025578334E-002   0.0000000000000000     
   3.2002245788400753E-002   6.8457678435189170E-002   0.0000000000000000     
   3.3451302912196744E-002   7.4379154857120378E-002   0.0000000000000000     
   3.4854232647194033E-002   8.0483102291371927E-002   0.0000000000000000     
   5.4630697569948018E-002   8.2538135273728247E-002   0.0000000000000000     
   5.6658463630696557E-002   8.8741346034307111E-002   0.0000000000000000     
   5.8603729666437357E-002   9.5100170322349659E-002   0.0000000000000000     
   6.0466495677170412E-002  0.10161460813785583        0.0000000000000000     
   6.2246761662895736E-002  0.10828465948082569        0.0000000000000000     
   4.9452028512803704E-002   8.1945860941016718E-002   0.0000000000000000     
   5.1308792069799984E-002   8.8167783566324751E-002   0.0000000000000000     
   5.3090037887858196E-002   9.4546981595054355E-002   0.0000000000000000     
   5.4795765966978362E-002  0.10108345502720552        0.0000000000000000     
   5.6425976307160446E-002  0.10777720386277823        0.0000000000000000     
   4.4429728006629934E-002   8.1405930666386836E-002   0.0000000000000000     
   4.6116820840095656E-002   8.7645930877861392E-002   0.0000000000000000     
   4.7735100262971758E-002   9.4044181399402266E-002   0.0000000000000000     
   4.9284566275258235E-002  0.10060068223100940        0.0000000000000000     
   5.0765218876955093E-002  0.10731543337268286        0.0000000000000000     
   3.9563796051426708E-002   8.0918344449838545E-002   0.0000000000000000     
   4.1082549941583571E-002   8.7175787968917076E-002   0.0000000000000000     
   4.2538916791778021E-002   9.3591769735393390E-002   0.0000000000000000     
   4.3932896602010052E-002  0.10016628974926753        0.0000000000000000     
   4.5264489372279657E-002  0.10689934801053949        0.0000000000000000     
   3.4854232647194033E-002   8.0483102291371927E-002   0.0000000000000000     
   3.6205979374263744E-002   8.6757354839491749E-002   0.0000000000000000     
   3.7501487474276993E-002   9.3189746603027729E-002   0.0000000000000000     
   3.8740756947233800E-002   9.9780277581979895E-002   0.0000000000000000     
   3.9923787793134158E-002  0.10652894777634819        0.0000000000000000     
   6.2246761662895736E-002  0.10828465948082569        0.0000000000000000     
   6.3959624228409714E-002  0.11510017012916421        0.0000000000000000     
   6.5620179978508733E-002  0.12205098586077641        0.0000000000000000     
   6.7228428913192778E-002  0.12913710667566228        0.0000000000000000     
   6.8784371032461863E-002  0.13635853257382174        0.0000000000000000     
   5.6425976307160446E-002  0.10777720386277823        0.0000000000000000     
   5.7992407307394592E-002  0.11461637163140559        0.0000000000000000     
   5.9506797366670874E-002  0.12158910186272055        0.0000000000000000     
   6.0969146484989307E-002  0.12869539455672316        0.0000000000000000     
   6.2379454662349877E-002  0.13593524971341345        0.0000000000000000     
   5.0765218876955093E-002  0.10731543337268286        0.0000000000000000     
   5.2186480842980137E-002  0.11417571492456752        0.0000000000000000     
   5.3557774948251174E-002  0.12116880698680833        0.0000000000000000     
   5.4879101192768204E-002  0.12829470955940536        0.0000000000000000     
   5.6150459576531225E-002  0.13555342264235856        0.0000000000000000     
   4.5264489372279657E-002  0.10689934801053949        0.0000000000000000     
   4.6541844835166352E-002  0.11377820000864999        0.0000000000000000     
   4.7773112723249619E-002  0.12079010123303975        0.0000000000000000     
   4.8958293036529467E-002  0.12793505168370881        0.0000000000000000     
   5.0097385775005887E-002  0.13521305136065709        0.0000000000000000     
   3.9923787793134158E-002  0.10652894777634819        0.0000000000000000     
   4.1058499283953227E-002  0.11342382688365304        0.0000000000000000     
   4.2152810691666216E-002  0.12045298460141482        0.0000000000000000     
   4.3206722016273097E-002  0.12761642092963352        0.0000000000000000     
   4.4220233257773890E-002  0.13491413586830911        0.0000000000000000     
   6.8784371032461863E-002  0.13635853257382174        0.0000000000000000     
   7.0266778633707352E-002  0.14370060459389122        0.0000000000000000     
   7.1654424014320553E-002  0.15114866377450703        0.0000000000000000     
   7.2947307174301479E-002  0.15870271011566905        0.0000000000000000     
   7.4145428113650158E-002  0.16636274361737741        0.0000000000000000     
   6.2379454662349877E-002  0.13593524971341345        0.0000000000000000     
   6.3714041975117972E-002  0.14329705040663140        0.0000000000000000     
   6.4949228499658923E-002  0.15076917971021711        0.0000000000000000     
   6.6085014235972767E-002  0.15835163762417057        0.0000000000000000     
   6.7121399184059488E-002  0.16604442414849180        0.0000000000000000     
   5.6150459576531225E-002  0.13555342264235856        0.0000000000000000     
   5.7347460361256895E-002  0.14293493035149651        0.0000000000000000     
   5.8445713808661905E-002  0.15042921680264779        0.0000000000000000     
   5.9445219918746246E-002  0.15803628199581243        0.0000000000000000     
   6.0345978691509913E-002  0.16575612593099037        0.0000000000000000     
   5.0097385775005887E-002  0.13521305136065709        0.0000000000000000     
   5.1167033792124152E-002  0.14261424442848661        0.0000000000000000     
   5.2143879941329491E-002  0.15012877505179908        0.0000000000000000     
   5.3027924222621911E-002  0.15775664323059457        0.0000000000000000     
   5.3819166636001420E-002  0.16549784896487307        0.0000000000000000     
   4.4220233257773890E-002  0.13491413586830911        0.0000000000000000     
   4.5172762267719699E-002  0.14233499263760158        0.0000000000000000     
   4.6043726897661660E-002  0.14986785445767090        0.0000000000000000     
   4.6833127147599761E-002  0.15751272132851707        0.0000000000000000     
   4.7540963017534008E-002  0.16526959325013998        0.0000000000000000     
   0.0000000000000000        0.0000000000000000        0.0000000000000000     
   1.7983705520498280E-003   1.2768744009347497E-003   0.0000000000000000     
   3.6214667605090020E-003   2.9392424828474329E-003   0.0000000000000000     
   5.4692886253775224E-003   4.9871042457380488E-003   0.0000000000000000     
   7.3418361466553875E-003   7.4204596896065992E-003   0.0000000000000000     
   0.0000000000000000        0.0000000000000000        0.0000000000000000     
   1.5350911624501208E-003   1.2175342365520628E-003   0.0000000000000000     
   3.0995391871842248E-003   2.8208398238256630E-003   0.0000000000000000     
   4.6933440742023122E-003   4.8099167618208000E-003   0.0000000000000000     
   6.3165058235043819E-003   7.1847650505374736E-003   0.0000000000000000     
   0.0000000000000000        0.0000000000000000        0.0000000000000000     
   1.2878891264615686E-003   1.1699100910005011E-003   0.0000000000000000     
   2.6056954893007435E-003   2.7244642533035815E-003   0.0000000000000000     
   3.9534190885175246E-003   4.6636624869092411E-003   0.0000000000000000     
   5.3310599241119120E-003   6.9875047918174799E-003   0.0000000000000000     
   0.0000000000000000        0.0000000000000000        0.0000000000000000     
   1.0567644440841704E-003   1.1340019642800650E-003   0.0000000000000000     
   2.1399356668585570E-003   2.6501157712811906E-003   0.0000000000000000     
   3.2495136683231606E-003   4.5483414210033763E-003   0.0000000000000000     
   4.3854984484779794E-003   6.8286789134466225E-003   0.0000000000000000     
   0.0000000000000000        0.0000000000000000        0.0000000000000000     
   8.4171711531792694E-004   1.1098098563907545E-003   0.0000000000000000     
   1.7022597198576668E-003   2.5977943777584886E-003   0.0000000000000000     
   2.5816278136192193E-003   4.4639535641032031E-003   0.0000000000000000     
   3.4798213966025847E-003   6.7082874154248979E-003   0.0000000000000000     
   7.3418361466553875E-003   7.4204596896065992E-003   0.0000000000000000     
   9.2314565307932712E-003   1.0186839752242462E-002   0.0000000000000000     
   1.1130496984241841E-002   1.3233775371435021E-002   0.0000000000000000     
   1.3038957507001099E-002   1.6561266547184275E-002   0.0000000000000000     
   1.4956838099071043E-002   2.0169313279490224E-002   0.0000000000000000     
   6.3165058235043819E-003   7.1847650505374736E-003   0.0000000000000000     
   7.9563540430602001E-003   9.8957402153394564E-003   0.0000000000000000     
   9.6002183408395309E-003   1.2893197781590525E-002   0.0000000000000000     
   1.1248098716842375E-002   1.6177137749290676E-002   0.0000000000000000     
   1.2899995171068735E-002   1.9747560118439905E-002   0.0000000000000000     
   5.3310599241119120E-003   6.9875047918174799E-003   0.0000000000000000     
   6.7241725161858081E-003   9.6497965708364775E-003   0.0000000000000000     
   8.1183113848411186E-003   1.2604343226774404E-002   0.0000000000000000     
   9.5134765300778374E-003   1.5851144759631262E-002   0.0000000000000000     
   1.0909667951895968E-002   1.9390201169407050E-002   0.0000000000000000     
   4.3854984484779794E-003   6.8286789134466225E-003   0.0000000000000000     
   5.5349119501700980E-003   9.4490088187335185E-003   0.0000000000000000     
   6.6847761162465973E-003   1.2367211706986656E-002   0.0000000000000000     
   7.8350909467074775E-003   1.5583287578206038E-002   0.0000000000000000     
   8.9858564415527392E-003   1.9097236432391664E-002   0.0000000000000000     
   3.4798213966025847E-003   6.7082874154248979E-003   0.0000000000000000     
   4.3885723450130670E-003   9.2933769590305883E-003   0.0000000000000000     
   5.2996125350559722E-003   1.2181803222227288E-002   0.0000000000000000     
   6.2129419667312996E-003   1.5373566205015005E-002   0.0000000000000000     
   7.1285606400390495E-003   1.8868665907393729E-002   0.0000000000000000     
   1.4956838099071043E-002   2.0169313279490224E-002   0.0000000000000000     
   1.6858947985902720E-002   2.4029271555794245E-002   0.0000000000000000     
   1.8720096392947163E-002   2.8112497363537724E-002   0.0000000000000000     
   2.0540283320204373E-002   3.2418990702720647E-002   0.0000000000000000     
   2.2319508767674356E-002   3.6948751573343035E-002   0.0000000000000000     
   1.2899995171068735E-002   1.9747560118439905E-002   0.0000000000000000     
   1.4539577378267391E-002   2.3578399779512125E-002   0.0000000000000000     
   1.6150515013187133E-002   2.7643591622981242E-002   0.0000000000000000     
   1.7732808075827951E-002   3.1943135648847244E-002   0.0000000000000000     
   1.9286456566189852E-002   3.6477031857110154E-002   0.0000000000000000     
   1.0909667951895968E-002   1.9390201169407050E-002   0.0000000000000000     
   1.2296616686357282E-002   2.3196795127301870E-002   0.0000000000000000     
   1.3664053769523548E-002   2.7246209304515805E-002   0.0000000000000000     
   1.5011979201394771E-002   3.1538443701048857E-002   0.0000000000000000     
   1.6340392981970944E-002   3.6073498316901022E-002   0.0000000000000000     
   8.9858564415527392E-003   1.9097236432391664E-002   0.0000000000000000     
   1.0130065910172383E-002   2.2884457599163469E-002   0.0000000000000000     
   1.1260712661956414E-002   2.6920350408141402E-002   0.0000000000000000     
   1.2377796696904831E-002   3.1204914859325462E-002   0.0000000000000000     
   1.3481318015017632E-002   3.5738150952715646E-002   0.0000000000000000     
   7.1285606400390495E-003   1.8868665907393729E-002   0.0000000000000000     
   8.0399250497126991E-003   2.2641387195096927E-002   0.0000000000000000     
   8.9404916904857277E-003   2.6666014933858041E-002   0.0000000000000000     
   9.8302605623581327E-003   3.0942549123677079E-002   0.0000000000000000     
   1.0709231665329914E-002   3.5470989764554033E-002   0.0000000000000000     
   2.2319508767674356E-002   3.6948751573343035E-002   0.0000000000000000     
   2.4053957336277777E-002   4.1693134241533668E-002   0.0000000000000000     
   2.5739813626935299E-002   4.6643492973421345E-002   0.0000000000000000     
   2.7377077639646915E-002   5.1799827769006074E-002   0.0000000000000000     
   2.8965749374412632E-002   5.7162138628287854E-002   0.0000000000000000     
   1.9286456566189852E-002   3.6477031857110154E-002   0.0000000000000000     
   2.0804563421157340E-002   4.1231059858139969E-002   0.0000000000000000     
   2.2280231577614919E-002   4.6190999262306770E-002   0.0000000000000000     
   2.3713461035562579E-002   5.1356850069610521E-002   0.0000000000000000     
   2.5104251795000334E-002   5.6728612280051237E-002   0.0000000000000000     
   1.6340392981970944E-002   3.6073498316901022E-002   0.0000000000000000     
   1.7641023135319137E-002   4.0833315835094940E-002   0.0000000000000000     
   1.8905597685506401E-002   4.5799838938653213E-002   0.0000000000000000     
   2.0134116632532745E-002   5.0973067627575870E-002   0.0000000000000000     
   2.1326579976398176E-002   5.6353001901862890E-002   0.0000000000000000     
   1.3481318015017632E-002   3.5738150952715646E-002   0.0000000000000000     
   1.4563336478763159E-002   4.0499902172398530E-002   0.0000000000000000     
   1.5615911950609756E-002   4.5470012002460689E-002   0.0000000000000000     
   1.6639044430557418E-002   5.0648480442902127E-002   0.0000000000000000     
   1.7632733918606151E-002   5.6035307493722840E-002   0.0000000000000000     
   1.0709231665329914E-002   3.5470989764554033E-002   0.0000000000000000     
   1.1571503451489416E-002   4.0230818870050783E-002   0.0000000000000000     
   1.2411174372924976E-002   4.5201518453729217E-002   0.0000000000000000     
   1.3228244429636594E-002   5.0383088515589307E-002   0.0000000000000000     
   1.4022713621624272E-002   5.5775529055631060E-002   0.0000000000000000     
   2.8965749374412632E-002   5.7162138628287854E-002   0.0000000000000000     
   3.0507061275806047E-002   6.2718673025578334E-002   0.0000000000000000     
   3.2002245788400753E-002   6.8457678435189170E-002   0.0000000000000000     
   3.3451302912196744E-002   7.4379154857120378E-002   0.0000000000000000     
   3.4854232647194033E-002   8.0483102291371927E-002   0.0000000000000000     
   2.5104251795000334E-002   5.6728612280051237E-002   0.0000000000000000     
   2.6453859935523460E-002   6.2295333842394982E-002   0.0000000000000000     
   2.7763541536727252E-002   6.8046062705407834E-002   0.0000000000000000     
   2.9033296598611699E-002   7.3980798869089814E-002   0.0000000000000000     
   3.0263125121176817E-002   8.0099542333440868E-002   0.0000000000000000     
   2.1326579976398176E-002   5.6353001901862890E-002   0.0000000000000000     
   2.2484030434625751E-002   6.1928842253129578E-002   0.0000000000000000     
   2.3607510724738583E-002   6.7689789172991219E-002   0.0000000000000000     
   2.4697020846736664E-002   7.3635842661447792E-002   0.0000000000000000     
   2.5752560800619988E-002   7.9767002718499347E-002   0.0000000000000000     
   1.7632733918606151E-002   5.6035307493722840E-002   0.0000000000000000     
   1.8597572773112934E-002   6.1619198257782122E-002   0.0000000000000000     
   1.9534153352434764E-002   6.7388857837939298E-002   0.0000000000000000     
   2.0442475656571632E-002   7.3344286234194395E-002   0.0000000000000000     
   2.1322539685523546E-002   7.9485483446547364E-002   0.0000000000000000     
   1.4022713621624272E-002   5.5775529055631060E-002   0.0000000000000000     
   1.4794486950985002E-002   6.1366401856352615E-002   0.0000000000000000     
   1.5543469419815782E-002   6.7143268700252112E-002   0.0000000000000000     
   1.6269661028116611E-002   7.3106129587329538E-002   0.0000000000000000     
   1.6973061775887487E-002   7.9254984517584906E-002   0.0000000000000000     
   3.4854232647194033E-002   8.0483102291371927E-002   0.0000000000000000     
   3.6205979374263744E-002   8.6757354839491749E-002   0.0000000000000000     
   3.7501487474276993E-002   9.3189746603027729E-002   0.0000000000000000     
   3.8740756947233800E-002   9.9780277581979895E-002   0.0000000000000000     
   3.9923787793134158E-002  0.10652894777634819        0.0000000000000000     
   3.0263125121176817E-002   8.0099542333440868E-002   0.0000000000000000     
   3.1447975200430252E-002   8.6389083094024169E-002   0.0000000000000000     
   3.2582794932379658E-002   9.2836211146402822E-002   0.0000000000000000     
   3.3667584317025046E-002   9.9440926490576800E-002   0.0000000000000000     
   3.4702343354366408E-002  0.10620322912654613        0.0000000000000000     
   2.5752560800619988E-002   7.9767002718499347E-002   0.0000000000000000     
   2.6769403482377212E-002   8.6069424336953068E-002   0.0000000000000000     
   2.7742821787997002E-002   9.2529262509616184E-002   0.0000000000000000     
   2.8672815717479348E-002   9.9146517236488638E-002   0.0000000000000000     
   2.9559385270824256E-002  0.10592118851757050        0.0000000000000000     
   2.1322539685523546E-002   7.9485483446547364E-002   0.0000000000000000     
   2.2170264220104621E-002   8.5798378568278419E-002   0.0000000000000000     
   2.2981568041129014E-002   9.2268900692667771E-002   0.0000000000000000     
   2.3756451148596699E-002   9.8897049819715366E-002   0.0000000000000000     
   2.4494913542507699E-002  0.10568282594942126        0.0000000000000000     
   1.6973061775887487E-002   7.9254984517584906E-002   0.0000000000000000     
   1.7650557413612492E-002   8.5575945788000235E-002   0.0000000000000000     
   1.8299033691775702E-002   9.2055125695557599E-002   0.0000000000000000     
   1.8918490610377117E-002   9.8692524240257026E-002   0.0000000000000000     
   1.9508928169416732E-002  0.10548814142209843        0.0000000000000000     
   3.9923787793134158E-002  0.10652894777634819        0.0000000000000000     
   4.1058499283953227E-002  0.11342382688365304        0.0000000000000000     
   4.2152810691666216E-002  0.12045298460141482        0.0000000000000000     
   4.3206722016273097E-002  0.12761642092963352        0.0000000000000000     
   4.4220233257773890E-002  0.13491413586830911        0.0000000000000000     
   3.4702343354366408E-002  0.10620322912654613        0.0000000000000000     
   3.5695002536030182E-002  0.11311219080274663        0.0000000000000000     
   3.6653492353642805E-002  0.12015688326761420        0.0000000000000000     
   3.7577812807204264E-002  0.12733730652114877        0.0000000000000000     
   3.8467963896714578E-002  0.13465346056335045        0.0000000000000000     
   2.9559385270824256E-002  0.10592118851757050        0.0000000000000000     
   3.0409912938086588E-002  0.11284288701910078        0.0000000000000000     
   3.1231781209321210E-002  0.11990122340731865        0.0000000000000000     
   3.2024990084528124E-002  0.12709619768222405        0.0000000000000000     
   3.2789539563707309E-002  0.13442780984381697        0.0000000000000000     
   2.4494913542507699E-002  0.10568282594942126        0.0000000000000000     
   2.5203230490122457E-002  0.11261591553271549        0.0000000000000000     
   2.5887677258701440E-002  0.11968600502052813        0.0000000000000000     
   2.6548253848244652E-002  0.12689309441285920        0.0000000000000000     
   2.7184960258752094E-002  0.13423718370970869        0.0000000000000000     
   1.9508928169416732E-002  0.10548814142209843        0.0000000000000000     
   2.0074955192137790E-002  0.11243127634359072        0.0000000000000000     
   2.0621180501783503E-002  0.11951122810724270        0.0000000000000000     
   2.1147604098353878E-002  0.12672799671305432        0.0000000000000000     
   2.1654225981848907E-002  0.13408158216102564        0.0000000000000000     
   4.4220233257773890E-002  0.13491413586830911        0.0000000000000000     
   4.5172762267719699E-002  0.14233499263760158        0.0000000000000000     
   4.6043726897661660E-002  0.14986785445767090        0.0000000000000000     
   4.6833127147599761E-002  0.15751272132851707        0.0000000000000000     
   4.7540963017534008E-002  0.16526959325013998        0.0000000000000000     
   3.8467963896714578E-002  0.13465346056335045        0.0000000000000000     
   3.9306764209709959E-002  0.14209258453597054        0.0000000000000000     
   4.0077032333726628E-002  0.14964191758076045        0.0000000000000000     
   4.0778768268764573E-002  0.15730145969772025        0.0000000000000000     
   4.1411972014823814E-002  0.16507121088684995        0.0000000000000000     
   3.2789539563707309E-002  0.13442780984381697        0.0000000000000000     
   3.3511158039761305E-002  0.14188242968072229        0.0000000000000000     
   3.4175573905592574E-002  0.14944642698156488        0.0000000000000000     
   3.4782787161201152E-002  0.15711980174634471        0.0000000000000000     
   3.5332797806587005E-002  0.16490255397506182        0.0000000000000000     
   2.7184960258752094E-002  0.13423718370970869        0.0000000000000000     
   2.7785943757873716E-002  0.14170452807185691        0.0000000000000000     
   2.8339351613259511E-002  0.14928138266008414        0.0000000000000000     
   2.8845183824909453E-002  0.15696774747439043        0.0000000000000000     
   2.9303440392823562E-002  0.16476362251477569        0.0000000000000000     
   2.1654225981848907E-002  0.13408158216102564        0.0000000000000000     
   2.2131121364047220E-002  0.14155887970937436        0.0000000000000000     
   2.2568365456727420E-002  0.14914678461631822        0.0000000000000000     
   2.2965958259889514E-002  0.15684529688185728        0.0000000000000000     
   2.3323899773533496E-002  0.16465441650599150        0.0000000000000000     
   0.0000000000000000        0.0000000000000000        0.0000000000000000     
   8.4171711531792694E-004   1.1098098563907545E-003   0.0000000000000000     
   1.7022597198576668E-003   2.5977943777584886E-003   0.0000000000000000     
   2.5816278136192193E-003   4.4639535641032031E-003   0.0000000000000000     
   3.4798213966025847E-003   6.7082874154248979E-003   0.0000000000000000     
   0.0000000000000000        0.0000000000000000        0.0000000000000000     
   6.3385330664670323E-004   1.0937675202270681E-003   0.0000000000000000     
   1.2781429804172568E-003   2.5616500096456761E-003   0.0000000000000000     
   1.9328690213116608E-003   4.4036474682558249E-003   0.0000000000000000     
   2.5980314293299156E-003   6.6197598960575131E-003   0.0000000000000000     
   0.0000000000000000        0.0000000000000000        0.0000000000000000     
   4.2427918455436447E-004   1.0823087086835048E-003   0.0000000000000000     
   8.5306078065651274E-004   2.5358326038529533E-003   0.0000000000000000     
   1.2863447883064447E-003   4.3605716855083460E-003   0.0000000000000000     
   1.7241312075041602E-003   6.5565259536496815E-003   0.0000000000000000     
   0.0000000000000000        0.0000000000000000        0.0000000000000000     
   2.1299474904091072E-004   1.0754334217600646E-003   0.0000000000000000     
   4.2701312057543425E-004   2.5203421603803198E-003   0.0000000000000000     
   6.4205511460357087E-004   4.3347262158607656E-003   0.0000000000000000     
   8.5812073112532020E-004   6.5185855882014020E-003   0.0000000000000000     
   0.0000000000000000        0.0000000000000000        0.0000000000000000     
   1.0634188299905867E-013   1.0731416594567476E-003   0.0000000000000000     
   1.7402155020815324E-013   2.5151786792277759E-003   0.0000000000000000     
   2.0303919136266391E-013   4.3261110593130845E-003   0.0000000000000000     
   1.9339464383226479E-013   6.5059387997126739E-003   0.0000000000000000     
   3.4798213966025847E-003   6.7082874154248979E-003   0.0000000000000000     
   4.3885723450130670E-003   9.2933769590305883E-003   0.0000000000000000     
   5.2996125350559722E-003   1.2181803222227288E-002   0.0000000000000000     
   6.2129419667312996E-003   1.5373566205015005E-002   0.0000000000000000     
   7.1285606400390495E-003   1.8868665907393729E-002   0.0000000000000000     
   2.5980314293299156E-003   6.6197598960575131E-003   0.0000000000000000     
   3.2706272299175007E-003   9.1769547847113993E-003   0.0000000000000000     
   3.9476534485198989E-003   1.2042199625878144E-002   0.0000000000000000     
   4.6291100851371097E-003   1.5215494419557739E-002   0.0000000000000000     
   5.3149971397691322E-003   1.8696839165750195E-002   0.0000000000000000     
   1.7241312075041602E-003   6.5565259536496815E-003   0.0000000000000000     
   2.1665501340861820E-003   9.0937960887596814E-003   0.0000000000000000     
   2.6137316638890334E-003   1.1942482771321063E-002   0.0000000000000000     
   3.0656757969127128E-003   1.5102586001333825E-002   0.0000000000000000     
   3.5223825331572212E-003   1.8574105778797971E-002   0.0000000000000000     
   8.5812073112532020E-004   6.5185855882014020E-003   0.0000000000000000     
   1.0763410575191116E-003   9.0439008711754310E-003   0.0000000000000000     
   1.2978471811633746E-003   1.1882652658556052E-002   0.0000000000000000     
   1.5226391020581090E-003   1.5034840950343263E-002   0.0000000000000000     
   1.7507168202033152E-003   1.8500465746537072E-002   0.0000000000000000     
   1.9339464383226479E-013   6.5059387997126739E-003   0.0000000000000000     
   2.1628899571964760E-013   9.0272691319586464E-003   0.0000000000000000     
   3.4292381624221810E-013   1.1862709287583106E-002   0.0000000000000000     
   5.7329889364173946E-013   1.5012259266586054E-002   0.0000000000000000     
   9.0741400938371131E-013   1.8475919068967485E-002   0.0000000000000000     
   7.1285606400390495E-003   1.8868665907393729E-002   0.0000000000000000     
   8.0399250497126991E-003   2.2641387195096927E-002   0.0000000000000000     
   8.9404916904857277E-003   2.6666014933858041E-002   0.0000000000000000     
   9.8302605623581327E-003   3.0942549123677079E-002   0.0000000000000000     
   1.0709231665329914E-002   3.5470989764554033E-002   0.0000000000000000     
   5.3149971397691322E-003   1.8696839165750195E-002   0.0000000000000000     
   5.9984778072319830E-003   2.2459004958292398E-002   0.0000000000000000     
   6.6727152823416753E-003   2.6474762891021256E-002   0.0000000000000000     
   7.3377095650982056E-003   3.0744112963936764E-002   0.0000000000000000     
   7.9934606555015809E-003   3.5267055177038931E-002   0.0000000000000000     
   3.5223825331572212E-003   1.8574105778797971E-002   0.0000000000000000     
   3.9780078849839884E-003   2.2328731931940040E-002   0.0000000000000000     
   4.4267078647544427E-003   2.6338154288986587E-002   0.0000000000000000     
   4.8684824724685872E-003   3.0602372849937592E-002   0.0000000000000000     
   5.3033317081264174E-003   3.5121387614793075E-002   0.0000000000000000     
   1.7507168202033152E-003   1.8500465746537072E-002   0.0000000000000000     
   1.9785152829687154E-003   2.2250568116039860E-002   0.0000000000000000     
   2.2024694377240344E-003   2.6256189127754022E-002   0.0000000000000000     
   2.4225792844692695E-003   3.0517328781679561E-002   0.0000000000000000     
   2.6388448232044230E-003   3.5033987077816471E-002   0.0000000000000000     
   9.0741400938371131E-013   1.8475919068967485E-002   0.0000000000000000     
   1.1861643937037536E-012   2.2224513510591844E-002   0.0000000000000000     
   1.2504457918335182E-012   2.6228867407323570E-002   0.0000000000000000     
   1.1002574922653295E-012   3.0488980759162662E-002   0.0000000000000000     
   7.3559929848754368E-013   3.5004853566109120E-002   0.0000000000000000     
   1.0709231665329914E-002   3.5470989764554033E-002   0.0000000000000000     
   1.1571503451489416E-002   4.0230818870050783E-002   0.0000000000000000     
   1.2411174372924976E-002   4.5201518453729217E-002   0.0000000000000000     
   1.3228244429636594E-002   5.0383088515589307E-002   0.0000000000000000     
   1.4022713621624272E-002   5.5775529055631060E-002   0.0000000000000000     
   7.9934606555015809E-003   3.5267055177038931E-002   0.0000000000000000     
   8.6366048263168647E-003   4.0023515513297539E-002   0.0000000000000000     
   9.2637783503091257E-003   4.4993419955682408E-002   0.0000000000000000     
   9.8749812274783640E-003   5.0176768504193517E-002   0.0000000000000000     
   1.0470213457824579E-002   5.5573561158830886E-002   0.0000000000000000     
   5.3033317081264174E-003   3.5121387614793075E-002   0.0000000000000000     
   5.7297213760644679E-003   3.9875441687384647E-002   0.0000000000000000     
   6.1461172806192687E-003   4.4844778171543927E-002   0.0000000000000000     
   6.5525194217908199E-003   5.0029397067270928E-002   0.0000000000000000     
   6.9489277995791214E-003   5.5429298374565658E-002   0.0000000000000000     
   2.6388448232044230E-003   3.5033987077816471E-002   0.0000000000000000     
   2.8508531007322251E-003   3.9786597392312086E-002   0.0000000000000000     
   3.0581911638554041E-003   4.4755593101313794E-002   0.0000000000000000     
   3.2608590125739619E-003   4.9940974204821541E-002   0.0000000000000000     
   3.4588566468878972E-003   5.5342740702835354E-002   0.0000000000000000     
   7.3559929848754368E-013   3.5004853566109120E-002   0.0000000000000000     
   3.2013660385826759E-013   3.9756982628079904E-002   0.0000000000000000     
   1.7533717533435578E-014   4.4725864744991982E-002   0.0000000000000000     
  -1.7220914364651785E-013   4.9911499916845334E-002   0.0000000000000000     
  -2.4909219652202719E-013   5.5313888143639980E-002   0.0000000000000000     
   1.4022713621624272E-002   5.5775529055631060E-002   0.0000000000000000     
   1.4794486950985002E-002   6.1366401856352615E-002   0.0000000000000000     
   1.5543469419815782E-002   6.7143268700252112E-002   0.0000000000000000     
   1.6269661028116611E-002   7.3106129587329538E-002   0.0000000000000000     
   1.6973061775887487E-002   7.9254984517584906E-002   0.0000000000000000     
   1.0470213457824579E-002   5.5573561158830886E-002   0.0000000000000000     
   1.1048781589695141E-002   6.1170075826640163E-002   0.0000000000000000     
   1.1609992171437416E-002   6.6952590414667001E-002   0.0000000000000000     
   1.2153845203051407E-002   7.2921104922911414E-002   0.0000000000000000     
   1.2680340684537109E-002   7.9075619351373388E-002   0.0000000000000000     
   6.9489277995791214E-003   5.5429298374565658E-002   0.0000000000000000     
   7.3344653106965415E-003   6.1029842946443869E-002   0.0000000000000000     
   7.7082548518554441E-003   6.6816391635921388E-002   0.0000000000000000     
   8.0702964230558311E-003   7.2788944442998174E-002   0.0000000000000000     
   8.4205900242977031E-003   7.8947501367674255E-002   0.0000000000000000     
   3.4588566468878972E-003   5.5342740702835354E-002   0.0000000000000000     
   3.6515381139892015E-003   6.0945703215763737E-002   0.0000000000000000     
   3.8382574610698640E-003   6.6734672364015243E-002   0.0000000000000000     
   4.0190146881298851E-003   7.2709648147589817E-002   0.0000000000000000     
   4.1938097951692644E-003   7.8870630566487493E-002   0.0000000000000000     
  -2.4909219652202719E-013   5.5313888143639980E-002   0.0000000000000000     
  -4.2687663300011724E-013   6.0917656634599783E-002   0.0000000000000000     
  -9.1932294025640071E-013   6.6707432598948568E-002   0.0000000000000000     
  -1.7264314299990022E-012   7.2683216036686329E-002   0.0000000000000000     
  -2.8482021428855031E-012   7.8845006947813115E-002   0.0000000000000000     
   1.6973061775887487E-002   7.9254984517584906E-002   0.0000000000000000     
   1.7650557413612492E-002   8.5575945788000235E-002   0.0000000000000000     
   1.8299033691775702E-002   9.2055125695557599E-002   0.0000000000000000     
   1.8918490610377117E-002   9.8692524240257026E-002   0.0000000000000000     
   1.9508928169416732E-002  0.10548814142209843        0.0000000000000000     
   1.2680340684537109E-002   7.9075619351373388E-002   0.0000000000000000     
   1.3187404641053311E-002   8.5402585283468765E-002   0.0000000000000000     
   1.3672963097758796E-002   9.1888454302613387E-002   0.0000000000000000     
   1.4137016054653563E-002   9.8533226408807212E-002   0.0000000000000000     
   1.4579563511737616E-002  0.10533690160205031        0.0000000000000000     
   8.4205900242977031E-003   7.8947501367674255E-002   0.0000000000000000     
   8.7579274805795922E-003   8.5278756342034218E-002   0.0000000000000000     
   9.0811006169000362E-003   9.1769403298162688E-002   0.0000000000000000     
   9.3901094332590369E-003   9.8419442236059612E-002   0.0000000000000000     
   9.6849539296565909E-003  0.10522887315572506        0.0000000000000000     
   4.1938097951692644E-003   7.8870630566487493E-002   0.0000000000000000     
   4.3621259321913325E-003   8.5204458963696619E-002   0.0000000000000000     
   4.5234462491994211E-003   9.1697972682205531E-002   0.0000000000000000     
   4.6777707461935301E-003   9.8351171722014241E-002   0.0000000000000000     
   4.8250994231736587E-003  0.10516405608312272        0.0000000000000000     
  -2.8482021428855031E-012   7.8845006947813115E-002   0.0000000000000000     
  -4.1114650746465475E-012   8.5179693148455957E-002   0.0000000000000000     
  -5.3430489199701725E-012   9.1674162454741928E-002   0.0000000000000000     
  -6.5429533535957263E-012   9.8328414866671043E-002   0.0000000000000000     
  -7.7111771829008191E-012  0.10514245038424329        0.0000000000000000     
   1.9508928169416732E-002  0.10548814142209843        0.0000000000000000     
   2.0074955192137790E-002  0.11243127634359072        0.0000000000000000     
   2.0621180501783503E-002  0.11951122810724270        0.0000000000000000     
   2.1147604098353878E-002  0.12672799671305432        0.0000000000000000     
   2.1654225981848907E-002  0.13408158216102564        0.0000000000000000     
   1.4579563511737616E-002  0.10533690160205031        0.0000000000000000     
   1.5003466699921905E-002  0.11228823743356287        0.0000000000000000     
   1.5411586850117388E-002  0.11937599145456516        0.0000000000000000     
   1.5803923962324069E-002  0.12660016366505719        0.0000000000000000     
   1.6180478036541941E-002  0.13396075406503893        0.0000000000000000     
   9.6849539296565909E-003  0.10522887315572506        0.0000000000000000     
   9.9671446692641361E-003  0.11218606678446824        0.0000000000000000     
   1.0238192215253111E-002  0.11927939384959840        0.0000000000000000     
   1.0498096567623518E-002  0.12650885435111558        0.0000000000000000     
   1.0746857726375354E-002  0.13387444828901970        0.0000000000000000     
   4.8250994231736587E-003  0.10516405608312272        0.0000000000000000     
   4.9659891001644805E-003  0.11212476439630682        0.0000000000000000     
   5.1009965971906710E-003  0.11922143529234244        0.0000000000000000     
   5.2301219142522259E-003  0.12645406877122950        0.0000000000000000     
   5.3533650513491494E-003  0.13382266483296804        0.0000000000000000     
  -7.7111771829008191E-012  0.10514245038424329        0.0000000000000000     
  -7.3770594667676992E-012  0.11210433026907868        0.0000000000000000     
  -4.0699365535731835E-012  0.11920211578279723        0.0000000000000000     
   2.2101913669473477E-012  0.12643580692539899        0.0000000000000000     
   1.1463326815563946E-011  0.13380540369688387        0.0000000000000000     
   2.1654225981848907E-002  0.13408158216102564        0.0000000000000000     
   2.2131121364047220E-002  0.14155887970937436        0.0000000000000000     
   2.2568365456727420E-002  0.14914678461631822        0.0000000000000000     
   2.2965958259889514E-002  0.15684529688185728        0.0000000000000000     
   2.3323899773533496E-002  0.16465441650599150        0.0000000000000000     
   1.6180478036541941E-002  0.13396075406503893        0.0000000000000000     
   1.6533206442484006E-002  0.14144554819332406        0.0000000000000000     
   1.6854066549863260E-002  0.14904233158872621        0.0000000000000000     
   1.7143058358679696E-002  0.15675110425124533        0.0000000000000000     
   1.7400181868933329E-002  0.16457186618088154        0.0000000000000000     
   1.0746857726375354E-002  0.13387444828901970        0.0000000000000000     
   1.0978714577386280E-002  0.14136459712375538        0.0000000000000000     
   1.1187906006533965E-002  0.14896772231576694        0.0000000000000000     
   1.1374432013818396E-002  0.15668382386505453        0.0000000000000000     
   1.1538292599239584E-002  0.16451290177161801        0.0000000000000000     
   5.3533650513491494E-003  0.13382266483296804        0.0000000000000000     
   5.4676457687540493E-003  0.14131602650066832        0.0000000000000000     
   5.5698838267395356E-003  0.14892295679744058        0.0000000000000000     
   5.6600792253056103E-003  0.15664345572328478        0.0000000000000000     
   5.7382319644522697E-003  0.16447752327820098        0.0000000000000000     
   1.1463326815563946E-011  0.13380540369688387        0.0000000000000000     
   1.6587308132934298E-011  0.14129983632406290        0.0000000000000000     
   1.0479976587061957E-011  0.14890803503374700        0.0000000000000000     
  -6.8586658975942211E-012  0.15662999982593614        0.0000000000000000     
  -3.5428620974442548E-011  0.16446573070063036        0.0000000000000000     
   0.0000000000000000        0.0000000000000000        0.0000000000000000     
   1.0634188299905867E-013   1.0731416594567476E-003   0.0000000000000000     
   1.7402155020815324E-013   2.5151786792277759E-003   0.0000000000000000     
   2.0303919136266391E-013   4.3261110593130845E-003   0.0000000000000000     
   1.9339464383226479E-013   6.5059387997126739E-003   0.0000000000000000     
   0.0000000000000000        0.0000000000000000        0.0000000000000000     
  -2.1299474883846076E-004   1.0754334217601743E-003   0.0000000000000000     
  -4.2701312023942233E-004   2.5203421603772298E-003   0.0000000000000000     
  -6.4205511420288423E-004   4.3347262158511656E-003   0.0000000000000000     
  -8.5812073072884720E-004   6.5185855881819852E-003   0.0000000000000000     
   0.0000000000000000        0.0000000000000000        0.0000000000000000     
  -4.2427918438261601E-004   1.0823087086569655E-003   0.0000000000000000     
  -8.5306078035659412E-004   2.5358326038105914E-003   0.0000000000000000     
  -1.2863447879219343E-003   4.3605716854608770E-003   0.0000000000000000     
  -1.7241312070786366E-003   6.5565259536078235E-003   0.0000000000000000     
   0.0000000000000000        0.0000000000000000        0.0000000000000000     
  -6.3385330652612380E-004   1.0937675201471214E-003   0.0000000000000000     
  -1.2781429801774940E-003   2.5616500095278602E-003   0.0000000000000000     
  -1.9328690209541111E-003   4.4036474681422161E-003   0.0000000000000000     
  -2.5980314288559744E-003   6.6197598959901885E-003   0.0000000000000000     
   0.0000000000000000        0.0000000000000000        0.0000000000000000     
  -8.4171711526898421E-004   1.1098098562306422E-003   0.0000000000000000     
  -1.7022597197021221E-003   2.5977943775290363E-003   0.0000000000000000     
  -2.5816278132994135E-003   4.4639535638951828E-003   0.0000000000000000     
  -3.4798213960608583E-003   6.7082874153290822E-003   0.0000000000000000     
   1.9339464383226479E-013   6.5059387997126739E-003   0.0000000000000000     
   2.1628899571964760E-013   9.0272691319586464E-003   0.0000000000000000     
   3.4292381624221810E-013   1.1862709287583106E-002   0.0000000000000000     
   5.7329889364173946E-013   1.5012259266586054E-002   0.0000000000000000     
   9.0741400938371131E-013   1.8475919068967485E-002   0.0000000000000000     
  -8.5812073072884720E-004   6.5185855881819852E-003   0.0000000000000000     
  -1.0763410570669505E-003   9.0439008711233667E-003   0.0000000000000000     
  -1.2978471804668348E-003   1.1882652658428999E-002   0.0000000000000000     
  -1.5226391009284990E-003   1.5034840950098882E-002   0.0000000000000000     
  -1.7507168184519447E-003   1.8500465746133014E-002   0.0000000000000000     
  -1.7241312070786366E-003   6.5565259536078235E-003   0.0000000000000000     
  -2.1665501335752738E-003   9.0937960886836311E-003   0.0000000000000000     
  -2.6137316631604174E-003   1.1942482771120502E-002   0.0000000000000000     
  -3.0656757958340674E-003   1.5102586000918437E-002   0.0000000000000000     
  -3.5223825315962233E-003   1.8574105778077433E-002   0.0000000000000000     
  -2.5980314288559744E-003   6.6197598959901885E-003   0.0000000000000000     
  -3.2706272293086792E-003   9.1769547846394361E-003   0.0000000000000000     
  -3.9476534477378223E-003   1.2042199625657609E-002   0.0000000000000000     
  -4.6291100841434046E-003   1.5215494419044717E-002   0.0000000000000000     
  -5.3149971385254222E-003   1.8696839164800756E-002   0.0000000000000000     
  -3.4798213960608583E-003   6.7082874153290822E-003   0.0000000000000000     
  -4.3885723442671680E-003   9.2933769589907816E-003   0.0000000000000000     
  -5.2996125341990517E-003   1.2181803222040330E-002   0.0000000000000000     
  -6.2129419658565081E-003   1.5373566204477730E-002   0.0000000000000000     
  -7.1285606392395423E-003   1.8868665906302977E-002   0.0000000000000000     
   9.0741400938371131E-013   1.8475919068967485E-002   0.0000000000000000     
   1.1861643937037536E-012   2.2224513510591844E-002   0.0000000000000000     
   1.2504457918335182E-012   2.6228867407323570E-002   0.0000000000000000     
   1.1002574922653295E-012   3.0488980759162662E-002   0.0000000000000000     
   7.3559929848754368E-013   3.5004853566109120E-002   0.0000000000000000     
  -1.7507168184519447E-003   1.8500465746133014E-002   0.0000000000000000     
  -1.9785152806938997E-003   2.2250568115622409E-002   0.0000000000000000     
  -2.2024694353110943E-003   2.6256189127658106E-002   0.0000000000000000     
  -2.4225792823035284E-003   3.0517328782240085E-002   0.0000000000000000     
  -2.6388448216712011E-003   3.5033987079368369E-002   0.0000000000000000     
  -3.5223825315962233E-003   1.8574105778077433E-002   0.0000000000000000     
  -3.9780078830017121E-003   2.2328731931157964E-002   0.0000000000000000     
  -4.4267078626053580E-003   2.6338154288720494E-002   0.0000000000000000     
  -4.8684824704071632E-003   3.0602372850765027E-002   0.0000000000000000     
  -5.3033317064071252E-003   3.5121387617291555E-002   0.0000000000000000     
  -5.3149971385254222E-003   1.8696839164800756E-002   0.0000000000000000     
  -5.9984778057372732E-003   2.2459004957198499E-002   0.0000000000000000     
  -6.6727152806323482E-003   2.6474762890510744E-002   0.0000000000000000     
  -7.3377095632106461E-003   3.0744112964737468E-002   0.0000000000000000     
  -7.9934606534721696E-003   3.5267055179878694E-002   0.0000000000000000     
  -7.1285606392395423E-003   1.8868665906302977E-002   0.0000000000000000     
  -8.0399250489005796E-003   2.2641387193744027E-002   0.0000000000000000     
  -8.9404916893920609E-003   2.6666014933028843E-002   0.0000000000000000     
  -9.8302605607139791E-003   3.0942549124157427E-002   0.0000000000000000     
  -1.0709231662866338E-002   3.5470989767129764E-002   0.0000000000000000     
   7.3559929848754368E-013   3.5004853566109120E-002   0.0000000000000000     
   3.2013660385826759E-013   3.9756982628079904E-002   0.0000000000000000     
   1.7533717533435578E-014   4.4725864744991982E-002   0.0000000000000000     
  -1.7220914364651785E-013   4.9911499916845334E-002   0.0000000000000000     
  -2.4909219652202719E-013   5.5313888143639980E-002   0.0000000000000000     
  -2.6388448216712011E-003   3.5033987079368369E-002   0.0000000000000000     
  -2.8508530999282757E-003   3.9786597394359205E-002   0.0000000000000000     
  -3.0581911635889120E-003   4.4755593102528850E-002   0.0000000000000000     
  -3.2608590126531100E-003   4.9940974203877317E-002   0.0000000000000000     
  -3.4588566471208696E-003   5.5342740698404606E-002   0.0000000000000000     
  -5.3033317064071252E-003   3.5121387617291555E-002   0.0000000000000000     
  -5.7297213747694890E-003   3.9875441690821127E-002   0.0000000000000000     
  -6.1461172796584973E-003   4.4844778173874764E-002   0.0000000000000000     
  -6.5525194210741544E-003   5.0029397066452465E-002   0.0000000000000000     
  -6.9489277990164577E-003   5.5429298368554251E-002   0.0000000000000000     
  -7.9934606534721696E-003   3.5267055179878694E-002   0.0000000000000000     
  -8.6366048242035032E-003   4.0023515517465677E-002   0.0000000000000000     
  -9.2637783481912279E-003   4.4993419959029710E-002   0.0000000000000000     
  -9.8749812254353437E-003   5.0176768504570785E-002   0.0000000000000000     
  -1.0470213455935852E-002   5.5573561154088916E-002   0.0000000000000000     
  -1.0709231662866338E-002   3.5470989767129764E-002   0.0000000000000000     
  -1.1571503448230318E-002   4.0230818874292855E-002   0.0000000000000000     
  -1.2411174369187096E-002   4.5201518457993702E-002   0.0000000000000000     
  -1.3228244425736677E-002   5.0383088518232283E-002   0.0000000000000000     
  -1.4022713617879056E-002   5.5775529055008613E-002   0.0000000000000000     
  -2.4909219652202719E-013   5.5313888143639980E-002   0.0000000000000000     
  -4.2687663300011724E-013   6.0917656634599783E-002   0.0000000000000000     
  -9.1932294025640071E-013   6.6707432598948568E-002   0.0000000000000000     
  -1.7264314299990022E-012   7.2683216036686329E-002   0.0000000000000000     
  -2.8482021428855031E-012   7.8845006947813115E-002   0.0000000000000000     
  -3.4588566471208696E-003   5.5342740698404606E-002   0.0000000000000000     
  -3.6515381145290800E-003   6.0945703205792075E-002   0.0000000000000000     
  -3.8382574624146351E-003   6.6734672345721086E-002   0.0000000000000000     
  -4.0190146907775294E-003   7.2709648118191639E-002   0.0000000000000000     
  -4.1938097996177667E-003   7.8870630523203741E-002   0.0000000000000000     
  -6.9489277990164577E-003   5.5429298368554251E-002   0.0000000000000000     
  -7.3344653102948030E-003   6.1029842932180722E-002   0.0000000000000000     
  -7.7082548517185909E-003   6.6816391609332504E-002   0.0000000000000000     
  -8.0702964232878208E-003   7.2788944400009589E-002   0.0000000000000000     
  -8.4205900250024952E-003   7.8947501304212006E-002   0.0000000000000000     
  -1.0470213455935852E-002   5.5573561154088916E-002   0.0000000000000000     
  -1.1048781587724038E-002   6.1170075813765726E-002   0.0000000000000000     
  -1.1609992168831188E-002   6.6952590389782823E-002   0.0000000000000000     
  -1.2153845199257303E-002   7.2921104882140222E-002   0.0000000000000000     
  -1.2680340679002386E-002   7.9075619290837923E-002   0.0000000000000000     
  -1.4022713617879056E-002   5.5775529055008613E-002   0.0000000000000000     
  -1.4794486946816792E-002   6.1366401850547064E-002   0.0000000000000000     
  -1.5543469413752434E-002   6.7143268687072030E-002   0.0000000000000000     
  -1.6269661018685981E-002   7.3106129564583511E-002   0.0000000000000000     
  -1.6973061761617444E-002   7.9254984483081492E-002   0.0000000000000000     
  -2.8482021428855031E-012   7.8845006947813115E-002   0.0000000000000000     
  -4.1114650746465475E-012   8.5179693148455957E-002   0.0000000000000000     
  -5.3430489199701725E-012   9.1674162454741928E-002   0.0000000000000000     
  -6.5429533535957263E-012   9.8328414866671043E-002   0.0000000000000000     
  -7.7111771829008191E-012  0.10514245038424329        0.0000000000000000     
  -4.1938097996177667E-003   7.8870630523203741E-002   0.0000000000000000     
  -4.3621259387751164E-003   8.5204458910459066E-002   0.0000000000000000     
  -4.5234462580893498E-003   9.1697972629659272E-002   0.0000000000000000     
  -4.6777707575604670E-003   9.8351171680804372E-002   0.0000000000000000     
  -4.8250994371884688E-003  0.10516405606389435        0.0000000000000000     
  -8.4205900250024952E-003   7.8947501304212006E-002   0.0000000000000000     
  -8.7579274822459328E-003   8.5278756263852798E-002   0.0000000000000000     
  -9.0811006204014558E-003   9.1769403220844981E-002   0.0000000000000000     
  -9.3901094394690642E-003   9.8419442175188582E-002   0.0000000000000000     
  -9.6849539394487597E-003  0.10522887312688359        0.0000000000000000     
  -1.2680340679002386E-002   7.9075619290837923E-002   0.0000000000000000     
  -1.3187404634523912E-002   8.5402585208637138E-002   0.0000000000000000     
  -1.3672963092279366E-002   9.1888454228299055E-002   0.0000000000000000     
  -1.4137016052268745E-002   9.8533226349823644E-002   0.0000000000000000     
  -1.4579563514492052E-002  0.10533690157321093        0.0000000000000000     
  -1.6973061761617444E-002   7.9254984483081492E-002   0.0000000000000000     
  -1.7650557395609060E-002   8.5575945744812115E-002   0.0000000000000000     
  -1.8299033673723080E-002   9.2055125652021480E-002   0.0000000000000000     
  -1.8918490595959511E-002   9.8692524204709586E-002   0.0000000000000000     
  -1.9508928162318348E-002  0.10548814140287642        0.0000000000000000     
  -7.7111771829008191E-012  0.10514245038424329        0.0000000000000000     
  -7.3770594667676992E-012  0.11210433026907868        0.0000000000000000     
  -4.0699365535731835E-012  0.11920211578279723        0.0000000000000000     
   2.2101913669473477E-012  0.12643580692539899        0.0000000000000000     
   1.1463326815563946E-011  0.13380540369688387        0.0000000000000000     
  -4.8250994371884688E-003  0.10516405606389435        0.0000000000000000     
  -4.9659891142367213E-003  0.11212476440093733        0.0000000000000000     
  -5.1009966059685965E-003  0.11922143531394126        0.0000000000000000     
  -5.2301219123840927E-003  0.12645406880290627        0.0000000000000000     
  -5.3533650334832115E-003  0.13382266486783226        0.0000000000000000     
  -9.6849539394487597E-003  0.10522887312688359        0.0000000000000000     
  -9.9671446812907398E-003  0.11218606679003627        0.0000000000000000     
  -1.0238192225945197E-002  0.11927939387875294        0.0000000000000000     
  -1.0498096573412141E-002  0.12650885439303355        0.0000000000000000     
  -1.0746857723691562E-002  0.13387444833287820        0.0000000000000000     
  -1.4579563514492052E-002  0.10533690157321093        0.0000000000000000     
  -1.5003466708539108E-002  0.11228823743637557        0.0000000000000000     
  -1.5411586863999741E-002  0.11937599147723228        0.0000000000000000     
  -1.5803923980873952E-002  0.12660016369578098        0.0000000000000000     
  -1.6180478059161726E-002  0.13396075409202177        0.0000000000000000     
  -1.9508928162318348E-002  0.10548814140287642        0.0000000000000000     
  -2.0074955195981833E-002  0.11243127633995524        0.0000000000000000     
  -2.0621180520132225E-002  0.11951122810937927        0.0000000000000000     
  -2.1147604134769515E-002  0.12672799671114846        0.0000000000000000     
  -2.1654226039893705E-002  0.13408158214526283        0.0000000000000000     
   1.1463326815563946E-011  0.13380540369688387        0.0000000000000000     
   1.6587308132934298E-011  0.14129983632406290        0.0000000000000000     
   1.0479976587061957E-011  0.14890803503374700        0.0000000000000000     
  -6.8586658975942211E-012  0.15662999982593614        0.0000000000000000     
  -3.5428620974442548E-011  0.16446573070063036        0.0000000000000000     
  -5.3533650334832115E-003  0.13382266486783226        0.0000000000000000     
  -5.4676457415598302E-003  0.14131602656880568        0.0000000000000000     
  -5.5698838089078325E-003  0.14892295696591290        0.0000000000000000     
  -5.6600792355272159E-003  0.15664345605915403        0.0000000000000000     
  -5.7382320214179831E-003  0.16447752384852893        0.0000000000000000     
  -1.0746857723691562E-002  0.13387444833287820        0.0000000000000000     
  -1.0978714568133258E-002  0.14136459720976322        0.0000000000000000     
  -1.1187905998087017E-002  0.14896772253516508        0.0000000000000000     
  -1.1374432013552833E-002  0.15668382430908370        0.0000000000000000     
  -1.1538292614530715E-002  0.16451290253151923        0.0000000000000000     
  -1.6180478059161726E-002  0.13396075409202177        0.0000000000000000     
  -1.6533206463132971E-002  0.14144554824693553        0.0000000000000000     
  -1.6854066557057571E-002  0.14904233174150336        0.0000000000000000     
  -1.7143058340935519E-002  0.15675110457572536        0.0000000000000000     
  -1.7400181814766814E-002  0.16457186674960139        0.0000000000000000     
  -2.1654226039893705E-002  0.13408158214526283        0.0000000000000000     
  -2.2131121426558972E-002  0.14155887968032263        0.0000000000000000     
  -2.2568365485819492E-002  0.14914678458492794        0.0000000000000000     
  -2.2965958217675258E-002  0.15684529685907886        0.0000000000000000     
  -2.3323899622126283E-002  0.16465441650277532        0.0000000000000000     
   0.0000000000000000        0.0000000000000000        0.0000000000000000     
  -8.4171711526898421E-004   1.1098098562306422E-003   0.0000000000000000     
  -1.7022597197021221E-003   2.5977943775290363E-003   0.0000000000000000     
  -2.5816278132994135E-003   4.4639535638951828E-003   0.0000000000000000     
  -3.4798213960608583E-003   6.7082874153290822E-003   0.0000000000000000     
   0.0000000000000000        0.0000000000000000        0.0000000000000000     
  -1.0567644441055412E-003   1.1340019640531812E-003   0.0000000000000000     
  -2.1399356667910047E-003   2.6501157709519500E-003   0.0000000000000000     
  -3.2495136680563909E-003   4.5483414206963068E-003   0.0000000000000000     
  -4.3854984479016991E-003   6.8286789132862517E-003   0.0000000000000000     
   0.0000000000000000        0.0000000000000000        0.0000000000000000     
  -1.2878891265301392E-003   1.1699100907603924E-003   0.0000000000000000     
  -2.6056954893046696E-003   2.7244642529344297E-003   0.0000000000000000     
  -3.9534190883235912E-003   4.6636624865221141E-003   0.0000000000000000     
  -5.3310599235869040E-003   6.9875047915234434E-003   0.0000000000000000     
   0.0000000000000000        0.0000000000000000        0.0000000000000000     
  -1.5350911625427773E-003   1.2175342363522760E-003   0.0000000000000000     
  -3.0995391872431161E-003   2.8208398234764783E-003   0.0000000000000000     
  -4.6933440741010139E-003   4.8099167613726065E-003   0.0000000000000000     
  -6.3165058231164735E-003   7.1847650500406618E-003   0.0000000000000000     
   0.0000000000000000        0.0000000000000000        0.0000000000000000     
  -1.7983705521434565E-003   1.2768744008288316E-003   0.0000000000000000     
  -3.6214667606063438E-003   2.9392424825780928E-003   0.0000000000000000     
  -5.4692886253886602E-003   4.9871042452477822E-003   0.0000000000000000     
  -7.3418361464904075E-003   7.4204596888379024E-003   0.0000000000000000     
  -3.4798213960608583E-003   6.7082874153290822E-003   0.0000000000000000     
  -4.3885723442671680E-003   9.2933769589907816E-003   0.0000000000000000     
  -5.2996125341990517E-003   1.2181803222040330E-002   0.0000000000000000     
  -6.2129419658565081E-003   1.5373566204477730E-002   0.0000000000000000     
  -7.1285606392395423E-003   1.8868665906302977E-002   0.0000000000000000     
  -4.3854984479016991E-003   6.8286789132862517E-003   0.0000000000000000     
  -5.5349119493334261E-003   9.4490088186732282E-003   0.0000000000000000     
  -6.6847761153580676E-003   1.2367211706808677E-002   0.0000000000000000     
  -7.8350909459756236E-003   1.5583287577692605E-002   0.0000000000000000     
  -8.9858564411860933E-003   1.9097236431325007E-002   0.0000000000000000     
  -5.3310599235869040E-003   6.9875047915234434E-003   0.0000000000000000     
  -6.7241725153901408E-003   9.6497965706223276E-003   0.0000000000000000     
  -8.1183113840288361E-003   1.2604343226502676E-002   0.0000000000000000     
  -9.5134765295029865E-003   1.5851144759164489E-002   0.0000000000000000     
  -1.0909667951812595E-002   1.9390201168607762E-002   0.0000000000000000     
  -6.3165058231164735E-003   7.1847650500406618E-003   0.0000000000000000     
  -7.9563540424373146E-003   9.8957402148380866E-003   0.0000000000000000     
  -9.6002183402113580E-003   1.2893197781122323E-002   0.0000000000000000     
  -1.1248098716438601E-002   1.6177137748893372E-002   0.0000000000000000     
  -1.2899995171119045E-002   1.9747560118151240E-002   0.0000000000000000     
  -7.3418361464904075E-003   7.4204596888379024E-003   0.0000000000000000     
  -9.2314565304749442E-003   1.0186839751320498E-002   0.0000000000000000     
  -1.1130496983905629E-002   1.3233775370667621E-002   0.0000000000000000     
  -1.3038957506782460E-002   1.6561266546879269E-002   0.0000000000000000     
  -1.4956838099105439E-002   2.0169313279955439E-002   0.0000000000000000     
  -7.1285606392395423E-003   1.8868665906302977E-002   0.0000000000000000     
  -8.0399250489005796E-003   2.2641387193744027E-002   0.0000000000000000     
  -8.9404916893920609E-003   2.6666014933028843E-002   0.0000000000000000     
  -9.8302605607139791E-003   3.0942549124157427E-002   0.0000000000000000     
  -1.0709231662866338E-002   3.5470989767129764E-002   0.0000000000000000     
  -8.9858564411860933E-003   1.9097236431325007E-002   0.0000000000000000     
  -1.0130065910013534E-002   2.2884457597777269E-002   0.0000000000000000     
  -1.1260712661481995E-002   2.6920350407120777E-002   0.0000000000000000     
  -1.2377796695591478E-002   3.1204914859355528E-002   0.0000000000000000     
  -1.3481318012341984E-002   3.5738150954481525E-002   0.0000000000000000     
  -1.0909667951812595E-002   1.9390201168607762E-002   0.0000000000000000     
  -1.2296616686598028E-002   2.3196795126280957E-002   0.0000000000000000     
  -1.3664053769499647E-002   2.7246209303632508E-002   0.0000000000000000     
  -1.5011979200517457E-002   3.1538443700662430E-002   0.0000000000000000     
  -1.6340392979651456E-002   3.6073498317370729E-002   0.0000000000000000     
  -1.2899995171119045E-002   1.9747560118151240E-002   0.0000000000000000     
  -1.4539577378654063E-002   2.3578399779255077E-002   0.0000000000000000     
  -1.6150515013445017E-002   2.7643591622564041E-002   0.0000000000000000     
  -1.7732808075491917E-002   3.1943135648078130E-002   0.0000000000000000     
  -1.9286456564794750E-002   3.6477031855797364E-002   0.0000000000000000     
  -1.4956838099105439E-002   2.0169313279955439E-002   0.0000000000000000     
  -1.6858947986181635E-002   2.4029271556699639E-002   0.0000000000000000     
  -1.8720096393318106E-002   2.8112497363915377E-002   0.0000000000000000     
  -2.0540283320514854E-002   3.2418990701602639E-002   0.0000000000000000     
  -2.2319508767771879E-002   3.6948751569761441E-002   0.0000000000000000     
  -1.0709231662866338E-002   3.5470989767129764E-002   0.0000000000000000     
  -1.1571503448230318E-002   4.0230818874292855E-002   0.0000000000000000     
  -1.2411174369187096E-002   4.5201518457993702E-002   0.0000000000000000     
  -1.3228244425736677E-002   5.0383088518232283E-002   0.0000000000000000     
  -1.4022713617879056E-002   5.5775529055008613E-002   0.0000000000000000     
  -1.3481318012341984E-002   3.5738150954481525E-002   0.0000000000000000     
  -1.4563336474695470E-002   4.0499902175879010E-002   0.0000000000000000     
  -1.5615911945613908E-002   4.5470012006928205E-002   0.0000000000000000     
  -1.6639044425097289E-002   5.0648480447629131E-002   0.0000000000000000     
  -1.7632733913145616E-002   5.6035307497981773E-002   0.0000000000000000     
  -1.6340392979651456E-002   3.6073498317370729E-002   0.0000000000000000     
  -1.7641023131444500E-002   4.0833315836800464E-002   0.0000000000000000     
  -1.8905597680439451E-002   4.5799838941994742E-002   0.0000000000000000     
  -2.0134116626636309E-002   5.0973067632953534E-002   0.0000000000000000     
  -2.1326579970035075E-002   5.6353001909676854E-002   0.0000000000000000     
  -1.9286456564794750E-002   3.6477031855797364E-002   0.0000000000000000     
  -2.0804563418477404E-002   4.1231059857057238E-002   0.0000000000000000     
  -2.2280231573663729E-002   4.6190999263193269E-002   0.0000000000000000     
  -2.3713461030353742E-002   5.1356850074205478E-002   0.0000000000000000     
  -2.5104251788547433E-002   5.6728612290093849E-002   0.0000000000000000     
  -2.2319508767771879E-002   3.6948751569761441E-002   0.0000000000000000     
  -2.4053957335794181E-002   4.1693134236649325E-002   0.0000000000000000     
  -2.5739813625286750E-002   4.6643492970523837E-002   0.0000000000000000     
  -2.7377077636249584E-002   5.1799827771384990E-002   0.0000000000000000     
  -2.8965749368682684E-002   5.7162138639232758E-002   0.0000000000000000     
  -1.4022713617879056E-002   5.5775529055008613E-002   0.0000000000000000     
  -1.4794486946816792E-002   6.1366401850547064E-002   0.0000000000000000     
  -1.5543469413752434E-002   6.7143268687072030E-002   0.0000000000000000     
  -1.6269661018685981E-002   7.3106129564583511E-002   0.0000000000000000     
  -1.6973061761617444E-002   7.9254984483081492E-002   0.0000000000000000     
  -1.7632733913145616E-002   5.6035307497981773E-002   0.0000000000000000     
  -1.8597572766837961E-002   6.1619198261059931E-002   0.0000000000000000     
  -1.9534153343253393E-002   6.7388857839937352E-002   0.0000000000000000     
  -2.0442475642391912E-002   7.3344286234614059E-002   0.0000000000000000     
  -2.1322539664253518E-002   7.9485483445090058E-002   0.0000000000000000     
  -2.1326579970035075E-002   5.6353001909676854E-002   0.0000000000000000     
  -2.2484030427052448E-002   6.1928842263839434E-002   0.0000000000000000     
  -2.3607510714105141E-002   6.7689789187115962E-002   0.0000000000000000     
  -2.4697020831193153E-002   7.3635842679506458E-002   0.0000000000000000     
  -2.5752560778316481E-002   7.9767002741010937E-002   0.0000000000000000     
  -2.5104251788547433E-002   5.6728612290093849E-002   0.0000000000000000     
  -2.6453859927460261E-002   6.2295333858885582E-002   0.0000000000000000     
  -2.7763541526307684E-002   6.8046062728607873E-002   0.0000000000000000     
  -2.9033296585089702E-002   7.3980798899260722E-002   0.0000000000000000     
  -3.0263125103806326E-002   8.0099542370844129E-002   0.0000000000000000     
  -2.8965749368682684E-002   5.7162138639232758E-002   0.0000000000000000     
  -3.0507061268061391E-002   6.2718673046198395E-002   0.0000000000000000     
  -3.2002245779861022E-002   6.8457678464413071E-002   0.0000000000000000     
  -3.3451302904081576E-002   7.4379154893876850E-002   0.0000000000000000     
  -3.4854232640723050E-002   8.0483102334589662E-002   0.0000000000000000     
  -1.6973061761617444E-002   7.9254984483081492E-002   0.0000000000000000     
  -1.7650557395609060E-002   8.5575945744812115E-002   0.0000000000000000     
  -1.8299033673723080E-002   9.2055125652021480E-002   0.0000000000000000     
  -1.8918490595959511E-002   9.8692524204709586E-002   0.0000000000000000     
  -1.9508928162318348E-002  0.10548814140287642        0.0000000000000000     
  -2.1322539664253518E-002   7.9485483445090058E-002   0.0000000000000000     
  -2.2170264193101571E-002   8.5798378564961947E-002   0.0000000000000000     
  -2.2981568013199425E-002   9.2268900687826408E-002   0.0000000000000000     
  -2.3756451124547075E-002   9.8897049813683413E-002   0.0000000000000000     
  -2.4494913527144530E-002  0.10568282594253296        0.0000000000000000     
  -2.5752560778316481E-002   7.9767002741010937E-002   0.0000000000000000     
  -2.6769403454601659E-002   8.6069424361670935E-002   0.0000000000000000     
  -2.7742821759175224E-002   9.2529262531528003E-002   0.0000000000000000     
  -2.8672815692037171E-002   9.9146517250582211E-002   0.0000000000000000     
  -2.9559385253187499E-002  0.10592118851883349        0.0000000000000000     
  -3.0263125103806326E-002   8.0099542370844129E-002   0.0000000000000000     
  -3.1447975180109319E-002   8.6389083134939010E-002   0.0000000000000000     
  -3.2582794911650476E-002   9.2836211183126280E-002   0.0000000000000000     
  -3.3667584298429781E-002   9.9440926515405911E-002   0.0000000000000000     
  -3.4702343340447250E-002  0.10620322913177796        0.0000000000000000     
  -3.4854232640723050E-002   8.0483102334589662E-002   0.0000000000000000     
  -3.6205979369624552E-002   8.6757354884766241E-002   0.0000000000000000     
  -3.7501487470625178E-002   9.3189746642621224E-002   0.0000000000000000     
  -3.8740756943724926E-002   9.9780277608154597E-002   0.0000000000000000     
  -3.9923787788923783E-002  0.10652894778136640        0.0000000000000000     
  -1.9508928162318348E-002  0.10548814140287642        0.0000000000000000     
  -2.0074955195981833E-002  0.11243127633995524        0.0000000000000000     
  -2.0621180520132225E-002  0.11951122810937927        0.0000000000000000     
  -2.1147604134769515E-002  0.12672799671114846        0.0000000000000000     
  -2.1654226039893705E-002  0.13408158214526283        0.0000000000000000     
  -2.4494913527144530E-002  0.10568282594253296        0.0000000000000000     
  -2.5203230489181674E-002  0.11261591552242919        0.0000000000000000     
  -2.5887677278848387E-002  0.11968600500142620        0.0000000000000000     
  -2.6548253896144673E-002  0.12689309437952401        0.0000000000000000     
  -2.7184960341070534E-002  0.13423718365672263        0.0000000000000000     
  -2.9559385253187499E-002  0.10592118851883349        0.0000000000000000     
  -3.0409912933701381E-002  0.11284288700545138        0.0000000000000000     
  -3.1231781224653955E-002  0.11990122337960547        0.0000000000000000     
  -3.2024990126045247E-002  0.12709619764129573        0.0000000000000000     
  -3.2789539637875245E-002  0.13442780979052216        0.0000000000000000     
  -3.4702343340447250E-002  0.10620322913177796        0.0000000000000000     
  -3.5695002529540942E-002  0.11311219078902185        0.0000000000000000     
  -3.6653492357548945E-002  0.12015688324391706        0.0000000000000000     
  -3.7577812824471230E-002  0.12733730649646358        0.0000000000000000     
  -3.8467963930307825E-002  0.13465346054666147        0.0000000000000000     
  -3.9923787788923783E-002  0.10652894778136640        0.0000000000000000     
  -4.1058499276700390E-002  0.11342382687314055        0.0000000000000000     
  -4.2152810677533341E-002  0.12045298459436095        0.0000000000000000     
  -4.3206721991422635E-002  0.12761642094502756        0.0000000000000000     
  -4.4220233218368286E-002  0.13491413592514045        0.0000000000000000     
  -2.1654226039893705E-002  0.13408158214526283        0.0000000000000000     
  -2.2131121426558972E-002  0.14155887968032263        0.0000000000000000     
  -2.2568365485819492E-002  0.14914678458492794        0.0000000000000000     
  -2.2965958217675258E-002  0.15684529685907886        0.0000000000000000     
  -2.3323899622126283E-002  0.16465441650277532        0.0000000000000000     
  -2.7184960341070534E-002  0.13423718365672263        0.0000000000000000     
  -2.7785943849494225E-002  0.14170452796856128        0.0000000000000000     
  -2.8339351657284038E-002  0.14928138245057918        0.0000000000000000     
  -2.8845183764439956E-002  0.15696774710277639        0.0000000000000000     
  -2.9303440170961974E-002  0.16476362192515281        0.0000000000000000     
  -3.2789539637875245E-002  0.13442780979052216        0.0000000000000000     
  -3.3511158123021717E-002  0.14188242957028824        0.0000000000000000     
  -3.4175573944362450E-002  0.14944642672359756        0.0000000000000000     
  -3.4782787101897465E-002  0.15711980125045000        0.0000000000000000     
  -3.5332797595626735E-002  0.16490255315084562        0.0000000000000000     
  -3.8467963930307825E-002  0.13465346054666147        0.0000000000000000     
  -3.9306764247141426E-002  0.14209258448550358        0.0000000000000000     
  -4.0077032347054745E-002  0.14964191740398300        0.0000000000000000     
  -4.0778768230047786E-002  0.15730145930209977        0.0000000000000000     
  -4.1411971896120565E-002  0.16507121017985374        0.0000000000000000     
  -4.4220233218368286E-002  0.13491413592514045        0.0000000000000000     
  -4.5172762221853360E-002  0.14233499271420727        0.0000000000000000     
  -4.6043726865360908E-002  0.14986785449173565        0.0000000000000000     
  -4.6833127148890943E-002  0.15751272125772561        0.0000000000000000     
  -4.7540963072443473E-002  0.16526959301217714        0.0000000000000000     
   0.0000000000000000        0.0000000000000000        0.0000000000000000     
  -1.7983705521434565E-003   1.2768744008288316E-003   0.0000000000000000     
  -3.6214667606063438E-003   2.9392424825780928E-003   0.0000000000000000     
  -5.4692886253886602E-003   4.9871042452477822E-003   0.0000000000000000     
  -7.3418361464904075E-003   7.4204596888379024E-003   0.0000000000000000     
   0.0000000000000000        0.0000000000000000        0.0000000000000000     
  -2.0694613889721807E-003   1.3550328183873069E-003   0.0000000000000000     
  -4.1641366230484615E-003   3.0941657413181504E-003   0.0000000000000000     
  -6.2840257022288406E-003   5.2173987687925303E-003   0.0000000000000000     
  -8.4291286265133197E-003   7.7247319008104456E-003   0.0000000000000000     
   0.0000000000000000        0.0000000000000000        0.0000000000000000     
  -2.3400977666689533E-003   1.4591117232249490E-003   0.0000000000000000     
  -4.7202071882235736E-003   3.3001031107755267E-003   0.0000000000000000     
  -7.1403282646638633E-003   5.5229741626517340E-003   0.0000000000000000     
  -9.6004609959898200E-003   8.1277248788535709E-003   0.0000000000000000     
   0.0000000000000000        0.0000000000000000        0.0000000000000000     
  -2.6102796852337739E-003   1.5891111153417577E-003   0.0000000000000000     
  -5.2896784561316836E-003   3.5570545909502232E-003   0.0000000000000000     
  -8.0381963126937312E-003   5.9038304268253959E-003   0.0000000000000000     
  -1.0855833254919916E-002   8.6294386229672781E-003   0.0000000000000000     
   0.0000000000000000        0.0000000000000000        0.0000000000000000     
  -2.8800071446666428E-003   1.7450309947377330E-003   0.0000000000000000     
  -5.8725504267727897E-003   3.8650201818422381E-003   0.0000000000000000     
  -8.9776298463184398E-003   6.3599675613135150E-003   0.0000000000000000     
  -1.2195245403303596E-002   9.2298731331515640E-003   0.0000000000000000     
  -7.3418361464904075E-003   7.4204596888379024E-003   0.0000000000000000     
  -9.2314565304749442E-003   1.0186839751320498E-002   0.0000000000000000     
  -1.1130496983905629E-002   1.3233775370667621E-002   0.0000000000000000     
  -1.3038957506782460E-002   1.6561266546879269E-002   0.0000000000000000     
  -1.4956838099105439E-002   2.0169313279955439E-002   0.0000000000000000     
  -8.4291286265133197E-003   7.7247319008104456E-003   0.0000000000000000     
  -1.0591138323695962E-002   1.0558714812411125E-002   0.0000000000000000     
  -1.2761747721570835E-002   1.3661897178633793E-002   0.0000000000000000     
  -1.4940956820137937E-002   1.7034278999478451E-002   0.0000000000000000     
  -1.7128765619397267E-002   2.0675860274945095E-002   0.0000000000000000     
  -9.6004609959898200E-003   8.1277248788535709E-003   0.0000000000000000     
  -1.2077057766293300E-002   1.1046985030451520E-002   0.0000000000000000     
  -1.4546570959666156E-002   1.4213384388516066E-002   0.0000000000000000     
  -1.7009000576108387E-002   1.7626922953047200E-002   0.0000000000000000     
  -1.9464346615619996E-002   2.1287600724044939E-002   0.0000000000000000     
  -1.0855833254919916E-002   8.6294386229672781E-003   0.0000000000000000     
  -1.3689214858266959E-002   1.1651650405441681E-002   0.0000000000000000     
  -1.6484966698191595E-002   1.4888237000314435E-002   0.0000000000000000     
  -1.9243088774693818E-002   1.8339198407585529E-002   0.0000000000000000     
  -2.1963581087773635E-002   2.2004534627254966E-002   0.0000000000000000     
  -1.2195245403303596E-002   9.2298731331515640E-003   0.0000000000000000     
  -1.5427609599616938E-002   1.2372710937381615E-002   0.0000000000000000     
  -1.8576934937147148E-002   1.5686455014028905E-002   0.0000000000000000     
  -2.1643221415894226E-002   1.9171105363093428E-002   0.0000000000000000     
  -2.4626469035858179E-002   2.2826661984575183E-002   0.0000000000000000     
  -1.4956838099105439E-002   2.0169313279955439E-002   0.0000000000000000     
  -1.6858947986181635E-002   2.4029271556699639E-002   0.0000000000000000     
  -1.8720096393318106E-002   2.8112497363915377E-002   0.0000000000000000     
  -2.0540283320514854E-002   3.2418990701602639E-002   0.0000000000000000     
  -2.2319508767771879E-002   3.6948751569761441E-002   0.0000000000000000     
  -1.7128765619397267E-002   2.0675860274945095E-002   0.0000000000000000     
  -1.9294149308372487E-002   2.4558801085083033E-002   0.0000000000000000     
  -2.1406083076087261E-002   2.8655261509941573E-002   0.0000000000000000     
  -2.3464566922541584E-002   3.2965241549520706E-002   0.0000000000000000     
  -2.5469600847735457E-002   3.7488741203820446E-002   0.0000000000000000     
  -1.9464346615619996E-002   2.1287600724044939E-002   0.0000000000000000     
  -2.1884602144418352E-002   2.5176378990873646E-002   0.0000000000000000     
  -2.4241760228720821E-002   2.9274219042897700E-002   0.0000000000000000     
  -2.6535820868527408E-002   3.3581120880117103E-002   0.0000000000000000     
  -2.8766784063838115E-002   3.8097084502531853E-002   0.0000000000000000     
  -2.1963581087773635E-002   2.2004534627254966E-002   0.0000000000000000     
  -2.4630306494319229E-002   2.5882005274071470E-002   0.0000000000000000     
  -2.7227127851218797E-002   2.9969369962783758E-002   0.0000000000000000     
  -2.9754045158472332E-002   3.4266628693391823E-002   0.0000000000000000     
  -3.2211058416079838E-002   3.8773781465895690E-002   0.0000000000000000     
  -2.4626469035858179E-002   2.2826661984575183E-002   0.0000000000000000     
  -2.7531262358075122E-002   2.6675679934676511E-002   0.0000000000000000     
  -3.0362185943581182E-002   3.0740714269599744E-002   0.0000000000000000     
  -3.3119239792376354E-002   3.5021764989344881E-002   0.0000000000000000     
  -3.5802423904460645E-002   3.9518832093911931E-002   0.0000000000000000     
  -2.2319508767771879E-002   3.6948751569761441E-002   0.0000000000000000     
  -2.4053957335794181E-002   4.1693134236649325E-002   0.0000000000000000     
  -2.5739813625286750E-002   4.6643492970523837E-002   0.0000000000000000     
  -2.7377077636249584E-002   5.1799827771384990E-002   0.0000000000000000     
  -2.8965749368682684E-002   5.7162138639232758E-002   0.0000000000000000     
  -2.5469600847735457E-002   3.7488741203820446E-002   0.0000000000000000     
  -2.7420548768080016E-002   4.2221866219326290E-002   0.0000000000000000     
  -2.9316774599986391E-002   4.7160722342523755E-002   0.0000000000000000     
  -3.1158278343454578E-002   5.2305309573412874E-002   0.0000000000000000     
  -3.2945059998484579E-002   5.7655627911993607E-002   0.0000000000000000     
  -2.8766784063838115E-002   3.8097084502531853E-002   0.0000000000000000     
  -3.0935681600020106E-002   4.2819583048837706E-002   0.0000000000000000     
  -3.3043545262440556E-002   4.7746089657730431E-002   0.0000000000000000     
  -3.5090375051099465E-002   5.2876604329209993E-002   0.0000000000000000     
  -3.7076170965996851E-002   5.8211127063276413E-002   0.0000000000000000     
  -3.2211058416079838E-002   3.8773781465895690E-002   0.0000000000000000     
  -3.4599355831614442E-002   4.3486284725183601E-002   0.0000000000000000     
  -3.6920125612649249E-002   4.8399594916143818E-002   0.0000000000000000     
  -3.9173367759184258E-002   5.3513712038776348E-002   0.0000000000000000     
  -4.1359082271219483E-002   5.8828636093081199E-002   0.0000000000000000     
  -3.5802423904460645E-002   3.9518832093911931E-002   0.0000000000000000     
  -3.8411571462863017E-002   4.4221971248363932E-002   0.0000000000000000     
  -4.0946515650612456E-002   4.9121238117763935E-002   0.0000000000000000     
  -4.3407256467708946E-002   5.4216632702111946E-002   0.0000000000000000     
  -4.5793793914152482E-002   5.9508155001407950E-002   0.0000000000000000     
  -2.8965749368682684E-002   5.7162138639232758E-002   0.0000000000000000     
  -3.0507061268061391E-002   6.2718673046198395E-002   0.0000000000000000     
  -3.2002245779861022E-002   6.8457678464413071E-002   0.0000000000000000     
  -3.3451302904081576E-002   7.4379154893876850E-002   0.0000000000000000     
  -3.4854232640723050E-002   8.0483102334589662E-002   0.0000000000000000     
  -3.2945059998484579E-002   5.7655627911993607E-002   0.0000000000000000     
  -3.4678296460240544E-002   6.3199435617555519E-002   0.0000000000000000     
  -3.6359164623886622E-002   6.8924490949388129E-002   0.0000000000000000     
  -3.7987664489422819E-002   7.4830793907491464E-002   0.0000000000000000     
  -3.9563796056849135E-002   8.0918344491865496E-002   0.0000000000000000     
  -3.7076170965996851E-002   5.8211127063276413E-002   0.0000000000000000     
  -3.9002227515382432E-002   6.3738197364734628E-002   0.0000000000000000     
  -4.0869839207505997E-002   6.9446354738389587E-002   0.0000000000000000     
  -4.2679006042367532E-002   7.5335599184241223E-002   0.0000000000000000     
  -4.4429728019967037E-002   8.1405930702289617E-002   0.0000000000000000     
  -4.1359082271219483E-002   5.8828636093081199E-002   0.0000000000000000     
  -4.3478854433487042E-002   6.4334958287735763E-002   0.0000000000000000     
  -4.5534269530719131E-002   7.0023269831417420E-002   0.0000000000000000     
  -4.7525327562915692E-002   7.5893570724126169E-002   0.0000000000000000     
  -4.9452028530076762E-002   8.1945860965862011E-002   0.0000000000000000     
  -4.5793793914152482E-002   5.9508155001407950E-002   0.0000000000000000     
  -4.8108177214554404E-002   6.4989718386558884E-002   0.0000000000000000     
  -5.0352455593526017E-002   7.0655236228471641E-002   0.0000000000000000     
  -5.2526629051067315E-002   7.6504708527146248E-002   0.0000000000000000     
  -5.4630697587178312E-002   8.2538135282582692E-002   0.0000000000000000     
  -3.4854232640723050E-002   8.0483102334589662E-002   0.0000000000000000     
  -3.6205979369624552E-002   8.6757354884766241E-002   0.0000000000000000     
  -3.7501487470625178E-002   9.3189746642621224E-002   0.0000000000000000     
  -3.8740756943724926E-002   9.9780277608154597E-002   0.0000000000000000     
  -3.9923787788923783E-002  0.10652894778136640        0.0000000000000000     
  -3.9563796056849135E-002   8.0918344491865496E-002   0.0000000000000000     
  -4.1082549953199286E-002   8.7175788009939817E-002   0.0000000000000000     
  -4.2538916805507018E-002   9.3591769769143976E-002   0.0000000000000000     
  -4.3932896613772317E-002  0.10016628976947796        0.0000000000000000     
  -4.5264489377995203E-002  0.10689934801094179        0.0000000000000000     
  -4.4429728019967037E-002   8.1405930702289617E-002   0.0000000000000000     
  -4.6116820860885435E-002   8.7645930909247022E-002   0.0000000000000000     
  -4.7735100285703672E-002   9.4044181421825732E-002   0.0000000000000000     
  -4.9284566294421718E-002  0.10060068224002576        0.0000000000000000     
  -5.0765218887039588E-002  0.10731543336384709        0.0000000000000000     
  -4.9452028530076762E-002   8.1945860965862011E-002   0.0000000000000000     
  -5.1308792092683027E-002   8.8167783582687814E-002   0.0000000000000000     
  -5.3090037911215131E-002   9.4546981600666477E-002   0.0000000000000000     
  -5.4795765985673102E-002  0.10108345501979794        0.0000000000000000     
  -5.6425976316056947E-002  0.10777720384008228        0.0000000000000000     
  -5.4630697587178312E-002   8.2538135282582692E-002   0.0000000000000000     
  -5.6658463648592006E-002   8.8741346030262250E-002   0.0000000000000000     
  -5.8603729682041403E-002   9.5100170305666212E-002   0.0000000000000000     
  -6.0466495687526496E-002  0.10161460810879458        0.0000000000000000     
  -6.2246761665047286E-002  0.10828465943964735        0.0000000000000000     
  -3.9923787788923783E-002  0.10652894778136640        0.0000000000000000     
  -4.1058499276700390E-002  0.11342382687314055        0.0000000000000000     
  -4.2152810677533341E-002  0.12045298459436095        0.0000000000000000     
  -4.3206721991422635E-002  0.12761642094502756        0.0000000000000000     
  -4.4220233218368286E-002  0.13491413592514045        0.0000000000000000     
  -4.5264489377995203E-002  0.10689934801094179        0.0000000000000000     
  -4.6541844827984319E-002  0.11377819999998272        0.0000000000000000     
  -4.7773112693548336E-002  0.12079010124304797        0.0000000000000000     
  -4.8958292974687255E-002  0.12793505174013756        0.0000000000000000     
  -5.0097385671401061E-002  0.13521305149125151        0.0000000000000000     
  -5.0765218887039588E-002  0.10731543336384709        0.0000000000000000     
  -5.2186480836197362E-002  0.11417571491172356        0.0000000000000000     
  -5.3557774914535117E-002  0.12116880700208903        0.0000000000000000     
  -5.4879101122052867E-002  0.12829470963494344        0.0000000000000000     
  -5.6150459458750586E-002  0.13555342281028684        0.0000000000000000     
  -5.6425976316056947E-002  0.10777720384008228        0.0000000000000000     
  -5.7992407301339526E-002  0.11461637160836308        0.0000000000000000     
  -5.9506797340493696E-002  0.12158910187148407        0.0000000000000000     
  -6.0969146433519465E-002  0.12869539462944518        0.0000000000000000     
  -6.2379454580416833E-002  0.13593524988224648        0.0000000000000000     
  -6.2246761665047286E-002  0.10828465943964735        0.0000000000000000     
  -6.3959624223410810E-002  0.11510017008990127        0.0000000000000000     
  -6.5620179971424067E-002  0.12205098585123308        0.0000000000000000     
  -6.7228428909087076E-002  0.12913710672364279        0.0000000000000000     
  -6.8784371036399838E-002  0.13635853270713041        0.0000000000000000     
  -4.4220233218368286E-002  0.13491413592514045        0.0000000000000000     
  -4.5172762221853360E-002  0.14233499271420727        0.0000000000000000     
  -4.6043726865360908E-002  0.14986785449173565        0.0000000000000000     
  -4.6833127148890943E-002  0.15751272125772561        0.0000000000000000     
  -4.7540963072443473E-002  0.16526959301217714        0.0000000000000000     
  -5.0097385671401061E-002  0.13521305149125151        0.0000000000000000     
  -5.1167033673793799E-002  0.14261424463392625        0.0000000000000000     
  -5.2143879871969480E-002  0.15012877530569818        0.0000000000000000     
  -5.3027924265928082E-002  0.15775664350656740        0.0000000000000000     
  -5.3819166855669634E-002  0.16549784923653382        0.0000000000000000     
  -5.6150459458750586E-002  0.13555342281028684        0.0000000000000000     
  -5.7347460229599037E-002  0.14293493062218746        0.0000000000000000     
  -5.8445713739568965E-002  0.15042921716471344        0.0000000000000000     
  -5.9445219988660369E-002  0.15803628243786486        0.0000000000000000     
  -6.0345978976873237E-002  0.16575612644164167        0.0000000000000000     
  -6.2379454580416833E-002  0.13593524988224648        0.0000000000000000     
  -6.3714041889269060E-002  0.14329705067899093        0.0000000000000000     
  -6.4949228468159370E-002  0.15076918006878140        0.0000000000000000     
  -6.6085014317087784E-002  0.15835163805161800        0.0000000000000000     
  -6.7121399436054302E-002  0.16604442462750066        0.0000000000000000     
  -6.8784371036399838E-002  0.13635853270713041        0.0000000000000000     
  -7.0266778652803868E-002  0.14370060480433661        0.0000000000000000     
  -7.1654424057740709E-002  0.15114866401790206        0.0000000000000000     
  -7.2947307251210347E-002  0.15870271034782682        0.0000000000000000     
  -7.4145428233212796E-002  0.16636274379411087        0.0000000000000000     
   0.0000000000000000        0.0000000000000000        0.0000000000000000     
  -2.8800071446666428E-003   1.7450309947377330E-003   0.0000000000000000     
  -5.8725504267727897E-003   3.8650201818422381E-003   0.0000000000000000     
  -8.9776298463184398E-003   6.3599675613135150E-003   0.0000000000000000     
  -1.2195245403303596E-002   9.2298731331515640E-003   0.0000000000000000     
   0.0000000000000000        0.0000000000000000        0.0000000000000000     
  -3.2831329505880048E-003   1.9995419864212898E-003   0.0000000000000000     
  -6.6768265805168718E-003   4.3313270383573332E-003   0.0000000000000000     
  -1.0181080889786601E-002   6.9953551558081285E-003   0.0000000000000000     
  -1.3795895878397191E-002   9.9916263387736792E-003   0.0000000000000000     
   0.0000000000000000        0.0000000000000000        0.0000000000000000     
  -3.9535099086183039E-003   2.4253147154008428E-003   0.0000000000000000     
  -7.9105103977339091E-003   5.0633023154012680E-003   0.0000000000000000     
  -1.1871001467346817E-002   7.9139628000012771E-003   0.0000000000000000     
  -1.5834983117457027E-002   1.0977296169200868E-002   0.0000000000000000     
   0.0000000000000000        0.0000000000000000        0.0000000000000000     
  -4.8911380187575395E-003   3.0223491816763915E-003   0.0000000000000000     
  -9.5736018784239024E-003   6.0609460129740439E-003   0.0000000000000000     
  -1.4047391578999088E-002   9.1157904938929564E-003   0.0000000000000000     
  -1.8312507120483091E-002   1.2186882624433132E-002   0.0000000000000000     
   0.0000000000000000        0.0000000000000000        0.0000000000000000     
  -6.0960172810057113E-003   3.7906453852479360E-003   0.0000000000000000     
  -1.1666101022586849E-002   7.3242581310756592E-003   0.0000000000000000     
  -1.6710251224743414E-002   1.0600838237483172E-002   0.0000000000000000     
  -2.1228467887475400E-002   1.3620385704470470E-002   0.0000000000000000     
  -1.2195245403303596E-002   9.2298731331515640E-003   0.0000000000000000     
  -1.5427609599616938E-002   1.2372710937381615E-002   0.0000000000000000     
  -1.8576934937147148E-002   1.5686455014028905E-002   0.0000000000000000     
  -2.1643221415894226E-002   1.9171105363093428E-002   0.0000000000000000     
  -2.4626469035858179E-002   2.2826661984575183E-002   0.0000000000000000     
  -1.3795895878397191E-002   9.9916263387736792E-003   0.0000000000000000     
  -1.7404115439518829E-002   1.3222211036963116E-002   0.0000000000000000     
  -2.0888583466321685E-002   1.6589179700085568E-002   0.0000000000000000     
  -2.4249299958805766E-002   2.0092532328141042E-002   0.0000000000000000     
  -2.7486264916971072E-002   2.3732268921129535E-002   0.0000000000000000     
  -1.5834983117457027E-002   1.0977296169200868E-002   0.0000000000000000     
  -1.9730605827148216E-002   1.4212195114877976E-002   0.0000000000000000     
  -2.3486020075504065E-002   1.7577552328910531E-002   0.0000000000000000     
  -2.7101225862524583E-002   2.1073367811298527E-002   0.0000000000000000     
  -3.0576223188209763E-002   2.4699641562041970E-002   0.0000000000000000     
  -1.8312507120483091E-002   1.2186882624433132E-002   0.0000000000000000     
  -2.2407080762505110E-002   1.5342663171126198E-002   0.0000000000000000     
  -2.6369244764694304E-002   1.8651572900503777E-002   0.0000000000000000     
  -3.0198999127050683E-002   2.2113611812565877E-002   0.0000000000000000     
  -3.3896343849574247E-002   2.5728779907312496E-002   0.0000000000000000     
  -2.1228467887475400E-002   1.3620385704470470E-002   0.0000000000000000     
  -2.5433540245589498E-002   1.6613615205707779E-002   0.0000000000000000     
  -2.9538257533892383E-002   1.9811241414865323E-002   0.0000000000000000     
  -3.3542619752384061E-002   2.3213264331943095E-002   0.0000000000000000     
  -3.7446626901064525E-002   2.6819683956941107E-002   0.0000000000000000     
  -2.4626469035858179E-002   2.2826661984575183E-002   0.0000000000000000     
  -2.7531262358075122E-002   2.6675679934676511E-002   0.0000000000000000     
  -3.0362185943581182E-002   3.0740714269599744E-002   0.0000000000000000     
  -3.3119239792376354E-002   3.5021764989344881E-002   0.0000000000000000     
  -3.5802423904460645E-002   3.9518832093911931E-002   0.0000000000000000     
  -2.7486264916971072E-002   2.3732268921129535E-002   0.0000000000000000     
  -3.0622893747209536E-002   2.7550838139009645E-002   0.0000000000000000     
  -3.3682601855913069E-002   3.1590688641739958E-002   0.0000000000000000     
  -3.6665389243081679E-002   3.5851820429320475E-002   0.0000000000000000     
  -3.9571255908715380E-002   4.0334233501751221E-002   0.0000000000000000     
  -3.0576223188209763E-002   2.4699641562041970E-002   0.0000000000000000     
  -3.3940624673245962E-002   2.8500915053391737E-002   0.0000000000000000     
  -3.7224042938319553E-002   3.2521729757598684E-002   0.0000000000000000     
  -4.0426477983430520E-002   3.6762085674662826E-002   0.0000000000000000     
  -4.3547929808578884E-002   4.1221982804584160E-002   0.0000000000000000     
  -3.3896343849574247E-002   2.5728779907312496E-002   0.0000000000000000     
  -3.7484455136184425E-002   2.9525910677822800E-002   0.0000000000000000     
  -4.0986509190800630E-002   3.3533837617175932E-002   0.0000000000000000     
  -4.4402506013422875E-002   3.7752560725371920E-002   0.0000000000000000     
  -4.7732445604051155E-002   4.2182080002410749E-002   0.0000000000000000     
  -3.7446626901064525E-002   2.6819683956941107E-002   0.0000000000000000     
  -4.1254385136024904E-002   3.0625825012302817E-002   0.0000000000000000     
  -4.4970000613356306E-002   3.4627012220471702E-002   0.0000000000000000     
  -4.8593473333058732E-002   3.8823245581447771E-002   0.0000000000000000     
  -5.2124803295132208E-002   4.3214525095231021E-002   0.0000000000000000     
  -3.5802423904460645E-002   3.9518832093911931E-002   0.0000000000000000     
  -3.8411571462863017E-002   4.4221971248363932E-002   0.0000000000000000     
  -4.0946515650612456E-002   4.9121238117763935E-002   0.0000000000000000     
  -4.3407256467708946E-002   5.4216632702111946E-002   0.0000000000000000     
  -4.5793793914152482E-002   5.9508155001407950E-002   0.0000000000000000     
  -3.9571255908715380E-002   4.0334233501751221E-002   0.0000000000000000     
  -4.2398055778286384E-002   4.5023438145162922E-002   0.0000000000000000     
  -4.5143642777266950E-002   4.9904944645686344E-002   0.0000000000000000     
  -4.7808016905657072E-002   5.4978753003321515E-002   0.0000000000000000     
  -5.0391178163456757E-002   6.0244863218068399E-002   0.0000000000000000     
  -4.3547929808578884E-002   4.1221982804584160E-002   0.0000000000000000     
  -4.6584536062405056E-002   4.5887480942364722E-002   0.0000000000000000     
  -4.9532434393549499E-002   5.0744639883006613E-002   0.0000000000000000     
  -5.2391624802012211E-002   5.5793459626509792E-002   0.0000000000000000     
  -5.5162107287793180E-002   6.1033940172874272E-002   0.0000000000000000     
  -4.7732445604051155E-002   4.2182080002410749E-002   0.0000000000000000     
  -5.0971012315219041E-002   4.6814099639969367E-002   0.0000000000000000     
  -5.4112890499460102E-002   5.1640323829724714E-002   0.0000000000000000     
  -5.7158080156774330E-002   5.6660752571676777E-002   0.0000000000000000     
  -6.0106581287161745E-002   6.1875385865825562E-002   0.0000000000000000     
  -5.2124803295132208E-002   4.3214525095231021E-002   0.0000000000000000     
  -5.5557484536728333E-002   4.7803294237976850E-002   0.0000000000000000     
  -5.8885011094998746E-002   5.2591996485840661E-002   0.0000000000000000     
  -6.2107382969943462E-002   5.7580631838822484E-002   0.0000000000000000     
  -6.5224600161562465E-002   6.2769200296922290E-002   0.0000000000000000     
  -4.5793793914152482E-002   5.9508155001407950E-002   0.0000000000000000     
  -4.8108177214554404E-002   6.4989718386558884E-002   0.0000000000000000     
  -5.0352455593526017E-002   7.0655236228471641E-002   0.0000000000000000     
  -5.2526629051067315E-002   7.6504708527146248E-002   0.0000000000000000     
  -5.4630697587178312E-002   8.2538135282582692E-002   0.0000000000000000     
  -5.0391178163456757E-002   6.0244863218068399E-002   0.0000000000000000     
  -5.2896206438031210E-002   6.5700043796166202E-002   0.0000000000000000     
  -5.5326181616745643E-002   7.1341063243854128E-002   0.0000000000000000     
  -5.7681103699600063E-002   7.7167921561132155E-002   0.0000000000000000     
  -5.9960972686594470E-002   8.3180618748000285E-002   0.0000000000000000     
  -5.5162107287793180E-002   6.1033940172874272E-002   0.0000000000000000     
  -5.7848952683364187E-002   6.6463500651519930E-002   0.0000000000000000     
  -6.0457231821196979E-002   7.2079560191866704E-002   0.0000000000000000     
  -6.2986944701291597E-002   7.7882118793914545E-002   0.0000000000000000     
  -6.5438091323648015E-002   8.3871176457663468E-002   0.0000000000000000     
  -6.0106581287161745E-002   6.1875385865825562E-002   0.0000000000000000     
  -6.2966415950553314E-002   6.7280088952620082E-002   0.0000000000000000     
  -6.5745606206880025E-002   7.2870727072509384E-002   0.0000000000000000     
  -6.8444152056141905E-002   7.8647300225493419E-002   0.0000000000000000     
  -7.1062053498338926E-002   8.4609808411572215E-002   0.0000000000000000     
  -6.5224600161562465E-002   6.2769200296922290E-002   0.0000000000000000     
  -6.8248596239598641E-002   6.8149808699466644E-002   0.0000000000000000     
  -7.1191304773794803E-002   7.3714563885782153E-002   0.0000000000000000     
  -7.4052725764151020E-002   7.9463465855868790E-002   0.0000000000000000     
  -7.6832859210667237E-002   8.5396514609726554E-002   0.0000000000000000     
  -5.4630697587178312E-002   8.2538135282582692E-002   0.0000000000000000     
  -5.6658463648592006E-002   8.8741346030262250E-002   0.0000000000000000     
  -5.8603729682041403E-002   9.5100170305666212E-002   0.0000000000000000     
  -6.0466495687526496E-002  0.10161460810879458        0.0000000000000000     
  -6.2246761665047286E-002  0.10828465943964735        0.0000000000000000     
  -5.9960972686594470E-002   8.3180618748000285E-002   0.0000000000000000     
  -6.2158509262659666E-002   8.9363311304177170E-002   0.0000000000000000     
  -6.4266434112726409E-002   9.5700155729381453E-002   0.0000000000000000     
  -6.6284747236794714E-002  0.10219115202361309        0.0000000000000000     
  -6.8213448634864574E-002  0.10883630018687214        0.0000000000000000     
  -6.5438091323648015E-002   8.3871176457663468E-002   0.0000000000000000     
  -6.7801602668933175E-002   9.0030372456639501E-002   0.0000000000000000     
  -7.0068409717814029E-002   9.6343346064368673E-002   0.0000000000000000     
  -7.2238512470290561E-002  0.10281009728085097        0.0000000000000000     
  -7.4311910926362815E-002  0.10943062610608643        0.0000000000000000     
  -7.1062053498338926E-002   8.4609808411572215E-002   0.0000000000000000     
  -7.3587743867412556E-002   9.0742529487649229E-002   0.0000000000000000     
  -7.6009656497304290E-002   9.7029741310627887E-002   0.0000000000000000     
  -7.8327791388014073E-002  0.10347144388050822        0.0000000000000000     
  -8.0542148539541961E-002  0.11006763719729021        0.0000000000000000     
  -7.6832859210667237E-002   8.5396514609726554E-002   0.0000000000000000     
  -7.9516932858097841E-002   9.1499782397206353E-002   0.0000000000000000     
  -8.2090174451197179E-002   9.7759341468159108E-002   0.0000000000000000     
  -8.4552583989965235E-002  0.10417519182258481        0.0000000000000000     
  -8.6904161474402067E-002  0.11074733346048349        0.0000000000000000     
  -6.2246761665047286E-002  0.10828465943964735        0.0000000000000000     
  -6.3959624223410810E-002  0.11510017008990127        0.0000000000000000     
  -6.5620179971424067E-002  0.12205098585123308        0.0000000000000000     
  -6.7228428909087076E-002  0.12913710672364279        0.0000000000000000     
  -6.8784371036399838E-002  0.13635853270713041        0.0000000000000000     
  -6.8213448634864574E-002  0.10883630018687214        0.0000000000000000     
  -7.0070304108448223E-002  0.11562692136457170        0.0000000000000000     
  -7.1873079459057868E-002  0.12255433670212491        0.0000000000000000     
  -7.3621774686693481E-002  0.12961854619953186        0.0000000000000000     
  -7.5316389791355104E-002  0.13681954985679243        0.0000000000000000     
  -7.4311910926362815E-002  0.10943062610608643        0.0000000000000000     
  -7.6306619462488831E-002  0.11619643644060791        0.0000000000000000     
  -7.8240652455126722E-002  0.12309903218494841        0.0000000000000000     
  -8.0114009904276501E-002  0.13013841333910789        0.0000000000000000     
  -8.1926691809938154E-002  0.13731457990308635        0.0000000000000000     
  -8.0542148539541961E-002  0.11006763719729021        0.0000000000000000     
  -8.2668570285532594E-002  0.11680871531800995        0.0000000000000000     
  -8.4722898959630658E-002  0.12368507229970349        0.0000000000000000     
  -8.6705134561836095E-002  0.13069670814237094        0.0000000000000000     
  -8.8615277092149003E-002  0.13784362284601220        0.0000000000000000     
  -8.6904161474402067E-002  0.11074733346048349        0.0000000000000000     
  -8.9156156577579554E-002  0.11746375799677773        0.0000000000000000     
  -9.1319818972569647E-002  0.12431245704639024        0.0000000000000000     
  -9.3395148659372332E-002  0.13129343060932097        0.0000000000000000     
  -9.5382145637987636E-002  0.13840667868556994        0.0000000000000000     
  -6.8784371036399838E-002  0.13635853270713041        0.0000000000000000     
  -7.0266778652803868E-002  0.14370060480433661        0.0000000000000000     
  -7.1654424057740709E-002  0.15114866401790206        0.0000000000000000     
  -7.2947307251210347E-002  0.15870271034782682        0.0000000000000000     
  -7.4145428233212796E-002  0.16636274379411087        0.0000000000000000     
  -7.5316389791355104E-002  0.13681954985679243        0.0000000000000000     
  -7.6935684130603033E-002  0.14414007337284920        0.0000000000000000     
  -7.8458417061997590E-002  0.15156284244664467        0.0000000000000000     
  -7.9884588585538804E-002  0.15908785707817880        0.0000000000000000     
  -8.1214198701226675E-002  0.16671511726745167        0.0000000000000000     
  -8.1926691809938154E-002  0.13731457990308635        0.0000000000000000     
  -8.3650771933066068E-002  0.14460993675915335        0.0000000000000000     
  -8.5258324034614669E-002  0.15200688878957835        0.0000000000000000     
  -8.6749348114583930E-002  0.15950543599436143        0.0000000000000000     
  -8.8123844172973864E-002  0.16710557837350254        0.0000000000000000     
  -8.8615277092149003E-002  0.13784362284601220        0.0000000000000000     
  -9.0412042060193015E-002  0.14511019496324906        0.0000000000000000     
  -9.2054144975591931E-002  0.15248080304670319        0.0000000000000000     
  -9.3541585838345723E-002  0.15995544709637469        0.0000000000000000     
  -9.4874364648454376E-002  0.16753412711226345        0.0000000000000000     
  -9.5382145637987636E-002  0.13840667868556994        0.0000000000000000     
  -9.7219494511983862E-002  0.14564084798513627        0.0000000000000000     
  -9.8845879884929377E-002  0.15298458521801916        0.0000000000000000     
 -0.10026130175682413       0.16043789038421852        0.0000000000000000     
 -0.10146576012766817       0.16800076348373444        0.0000000000000000     
 </DataArray>
 <DataArray  type="Float64" Name="stress" NumberOfComponents="3" format="ascii">
   13416757557.138477        4025027267.1415429        2894150182.3248501     
   11766587898.611069        1890436390.8365564        1715907121.8415194     
   10313719011.614967        413514752.96925926        810752086.41523230     
   9058150896.1501732       -405737646.46034765        178685076.04599020     
   7999883552.2166843       -567320807.45226860       -180293909.26620832     
   10539903504.023439        3161971051.2070317        2225889494.4446411     
   9667519307.8580360        1589538349.2108266        1446808113.5957038     
   8943789167.6890678        512619167.20273209        863206407.74308467     
   8368713083.5165300       -68786494.817255020        475084376.88678390     
   7942291055.3404255       -154678636.84913349        282442021.02680153     
   8337789085.0233784        2501336725.5070138        1712476263.2931781     
   8021452208.1893377        1424540754.9103978        1275802060.6212807     
   7805122671.8168535        681102585.85230994        956999182.88497663     
   7688800475.9059296        271022218.33275175        756067630.08426464     
   7672485620.4565668        194299652.35172272        673007402.21914601     
   6810414300.1382904        2043124290.0414872        1353910488.8704610     
   6828386599.6049671        1395443607.9352665        1202888962.9182506     
   6897719523.9983282        918965008.91799474        1092130411.8409076     
   7018413073.3183727        613688492.98967052        1021634835.6384323     
   7190467247.5651035        479614060.15029597        991402234.31082416     
   5957779149.3681793        1787333744.8104537        1150192171.1764896     
   6088322482.1049271        1502246908.2854350        1228068820.4866133     
   6221579724.2334871        1226206436.3997843        1268600094.6108787     
   6357550875.7538557        959212329.15350223        1271785993.5492864     
   6496235936.6660357        701264586.54658842        1237626517.3018355     
   7999883552.2166843       -567320807.45226860       -180293909.26620832     
   7917439893.1262159       -199860557.09505224       -78294573.805731580     
   7793495224.6338234        29262995.255745888       -8922274.0325219315     
   7628049546.7395039        120049849.60012388        27822990.053413395     
   7421102859.4432602        72500005.938087940        31941218.452080645     
   7942291055.3404255       -154678636.84913349        282442021.02680153     
   7739405661.5185966        16458411.869798183        281263701.18617433     
   7513119970.2351875        109594469.05012798        265370283.00214079     
   7263433981.4901981        124729534.69185925        234761766.47470573     
   6990347695.2836294        61863608.794988632        189438151.60386932     
   7672485620.4565668        194299652.35172272        673007402.21914601     
   7400335455.7429953        184466588.58425426        589768924.34114850     
   7122885705.5081873        156968239.74600363        509727285.46361470     
   6840136369.7521439        111804605.83696771        432882485.58654124     
   6552087448.4748707        48975686.857150793        359234524.70993358     
   7190467247.5651035        479614060.15029597        991402234.31082416     
   6900229275.7994089        304163973.04831576        847221095.65919209     
   6622792430.4528227        171384307.34336710        724148733.35189044     
   6358156711.5253496        81275063.035454512        622185147.38891876     
   6106322119.0169830        33836240.124575138        541330337.77027607     
   6496235936.6660357        701264586.54658842        1237626517.3018355     
   6239087121.6878376        375550565.26197958        1053620215.1403062     
   6012840145.0690947        152842671.84222388        908634626.66697299     
   5817495006.8098049        33140906.287315369        802669751.88183701     
   5653051706.9099741        16445268.597261906        735725590.78489745     
   7421102859.4432602        72500005.938087940        31941218.452080645     
   7216825843.0535822       -18709731.795825005        15274607.162257813     
   7024735025.9490013       -69298805.246080399        3475404.6597562437     
   6844830408.1295252       -79267214.412655354       -3456389.0554144592     
   6677111989.5951471       -48614959.295568943       -5520773.9832658237     
   6990347695.2836294        61863608.794988632        189438151.60386932     
   6807235888.6857090        2257204.8521089554        181402060.72451702     
   6631876365.0909472       -31508255.746912956        177486414.63818690     
   6464269124.4993429       -39432773.002064228        177691213.34487543     
   6304414166.9109039       -21516346.913345575        182016456.84458163     
   6552087448.4748707        48975686.857150793        359234524.70993358     
   6388006668.8278370        20332361.853047371        354656051.91212291     
   6227244255.9020214        2750259.2530033588        353451059.91302496     
   6069800209.6974239       -3770620.9429819584        355619548.71264696     
   5915674530.2140474        769721.26509714127        361161518.31097811     
   6106322119.0169830        33836240.124575138        541330337.77027607     
   5959138183.4799662        35515739.206986427        535036580.72507548     
   5810838698.3822308        33476739.753654957        531369340.48428231     
   5661423663.7237682        27719241.764576674        530328617.04790002     
   5510893079.5045786        18243245.239753008        531914410.41592753     
   5653051706.9099741        16445268.597261906        735725590.78489745     
   5520630432.6421013        47807336.913924694        722543647.16337252     
   5382659692.5315685        60671185.755045176        711241256.35195196     
   5239139486.5783682        55036815.120607853        701818418.35063577     
   5090069814.7825012        30904225.010626078        694275133.15942466     
   6677111989.5951471       -48614959.295568943       -5520773.9832658237     
   6485715977.1660500       -13611696.978378534        1672977.4760219171     
   6289686041.5190020        5945154.6122972965        15297939.245112041     
   6089022182.6540070        10055595.476483583        35354111.324006468     
   5883724400.5710554       -1280374.3858416080        61841493.712703288     
   6304414166.9109039       -21516346.913345575        182016456.84458163     
   6124695460.8043976       -1772121.8468554020        179185976.52386934     
   5942358706.9913368        9245277.5311110020        182428145.50704825     
   5757403905.4717207        11535851.220574617        191742963.79411426     
   5569831056.2455559        5099599.2215230465        207130431.38506892     
   5915674530.2140474        769721.26509714127        361161518.31097811     
   5746608670.4132290        4947571.0758044720        350658660.97356731     
   5576940638.4172592        7118180.2359948158        345869891.93412739     
   5406670434.2261381        7281548.7456796169        346795211.19266343     
   5235798057.8398552        5437676.6048309803        353434618.74917549     
   5510893079.5045786        18243245.239753008        531914410.41592753     
   5351455605.9925566        6547381.7896206379        516091030.82511413     
   5193431835.7967768       -436137.27304005623        505623178.52635670     
   5036821768.9172363       -2707311.9482247829        500510853.51965928     
   4881625405.3539429       -266142.23592853546        500754055.80502671     
   5090069814.7825012        30904225.010626078        694275133.15942466     
   4939236267.5423708        3027310.2945759296        675483086.07850456     
   4791832299.1298790       -13417674.996005535        661688005.28372717     
   4647857909.5450344       -18430730.861105204        652889890.77509940     
   4507313098.7878246       -12011857.300748110        649088742.55261338     
   5883724400.5710554       -1280374.3858416080        61841493.712703288     
   5727226377.5598440       -2700188.1315188408        79859436.961390227     
   5572247703.0820522        944493.23420333862        97822462.518286884     
   5418788377.1376772        9653669.7113120556        115730570.38339585     
   5266848399.7267189        23427341.299814224        133583760.55671968     
   5569831056.2455559        5099599.2215230465        207130431.38506892     
   5415172751.9443464        5696098.2445182800        219949899.31589615     
   5261258904.7197161        8774120.8561360836        233774150.23035321     
   5108089514.5716867        14333667.056403399        248603184.12845063     
   4955664581.5002394        22374736.845281839        264437001.01017213     
   5235798057.8398552        5437676.6048309803        353434618.74917549     
   5086007188.4641285        8958803.2611477375        360151571.32917947     
   4936185884.7081575        12378481.983319521        368933007.56823367     
   4786334146.5719547        15696712.771375656        379778927.46634656     
   4636451974.0555029        18913495.625285387        392689331.02350742     
   4881625405.3539429       -266142.23592853546        500754055.80502671     
   4739729687.1191864        7087926.9183478355        500464453.00123811     
   4597028643.0473680        11757576.615728140        503299034.53192466     
   4453522273.1384792        13742806.856220007        509257800.39708650     
   4309210577.3925190        13043617.639821768        518340750.59671968     
   4507313098.7878246       -12011857.300748110        649088742.55261338     
   4376340247.9095316        83469.216134548187        640888544.33206797     
   4243787179.7373443        6911404.7533628941        636872231.12142074     
   4109653894.2712622        8471949.3109467030        637039802.92066395     
   3973940391.5112824        4765102.8888723850        641391259.72980750     
   5266848399.7267189        23427341.299814224        133583760.55671968     
   5052590491.4509716        18559514.807334185        133440402.98317167     
   4836848760.6935644        8745613.3759572506        138499325.21363896     
   4619623207.4544592       -6014362.9943871498        148760527.24809724     
   4400913831.7336922       -25720414.303621531        164224009.08655798     
   4955664581.5002394        22374736.845281839        264437001.01017213     
   4754405300.4394522        15688033.944753170        260161004.52729777     
   4552350484.3069601        6349547.4718663692        261101412.96147367     
   4349500133.1027565       -5640722.5733723640        267258226.31270215     
   4145854246.8268361       -20282776.191025496        278631444.58098668     
   4636451974.0555029        18913495.625285387        392689331.02350742     
   4448231677.6755505        10420023.556478977        385083697.60958457     
   4259904133.6338530        1569059.2818658352        382708594.22576368     
   4071469341.9303999       -7639397.1985936165        385564020.87206310     
   3882927302.5652094       -17205345.884854078        393649977.54846865     
   4309210577.3925190        13043617.639821768        518340750.59671968     
   4134069623.1592646        2755483.6424891949        508208482.23004478     
   3959509708.6742272       -5595851.1941175461        503320869.00653553     
   3785530833.9374161       -12010386.869973183        503677910.92619258     
   3612132998.9488173       -16488123.385102272        509279607.98900723     
   3973940391.5112824        4765102.8888723850        641391259.72980750     
   3811919136.8905935       -7305585.7972333431        629535358.38867891     
   3651167209.4280920       -15145183.956045389        622938237.30376709     
   3491684609.1237755       -18753691.587575912        621599896.47507584     
   3333471335.9776521       -18131108.691792250        625520335.90259886     
   4400913831.7336922       -25720414.303621531        164224009.08655798     
   4230121569.2986512       -29698686.258328915        171439579.61682776     
   4061704983.4346366       -25758036.309603930        192427952.52600607     
   3895664074.1416340       -13898464.457506657        227189127.81409997     
   3731998841.4196610        5880029.2980139256        275723105.48110884     
   4145854246.8268361       -20282776.191025496        278631444.58098668     
   4009375567.5476265       -13816006.266731739        283531561.19913346     
   3874324507.8079762       -2590504.5438866615        298643545.12461889     
   3740701067.6078935        13393728.977509022        323967396.35744816     
   3608505246.9473867        34136694.297486305        359503114.89760971     
   3882927302.5652094       -17205345.884854078        393649977.54846865     
   3770588106.2373142       -3345764.1429324150        395128573.71780843     
   3658728472.4175348        12112359.292708158        403258102.12291104     
   3547348401.1058688        29169024.422065735        418038562.76377171     
   3436447892.3023095        47824231.245107651        439469955.64038968     
   3612132998.9488173       -16488123.385102272        509279607.98900723     
   3513759185.3677311        1712040.1130981445        506230617.17284286     
   3414916877.2633052        18350555.200160742        506271623.52085471     
   3315606074.6355338        33427421.876089811        509402627.03305304     
   3215826777.4844332        46942640.140901089        515623627.70943362     
   3333471335.9776521       -18131108.691792250        625520335.90259886     
   3238888804.9388676        1357406.5013347864        616837691.56422937     
   3142889722.3452859        16124083.178475499        607684109.31846285     
   3045474088.1969190        26168921.339654326        598059589.16530335     
   2946641902.4937553        31491920.984853983        587964131.10475254     
   3731998841.4196610        5880029.2980139256        275723105.48110884     
   3308544099.3136692       -55469682.963916063        338517875.70856351     
   2880609491.7121153       -131752280.21104240        449597095.91681409     
   2448195018.6149931       -222967762.44340658        608960766.10586381     
   2011300680.0223069       -329116129.66097200        816608886.27574408     
   3608505246.9473867        34136694.297486305        359503114.89760971     
   3301550296.3133745        790202.73079705238        394507435.13461757     
   2992072087.9675288       -40967147.875343204        464380247.90113521     
   2680070621.9098501       -91135357.520921469        569121553.19717550     
   2365545898.1403441       -149714426.20592737        708731351.02270246     
   3436447892.3023095        47824231.245107651        439469955.64038968     
   3207661426.1365781        30981568.272532821        448966534.96797204     
   2978308310.0427551        12250072.206319094        479915649.37377644     
   2748388544.0208201       -8370256.9535994530        532317298.85779047     
   2517902128.0707965       -30879419.207158089        606171483.42003202     
   3215826777.4844332        46942640.140901089        515623627.70943362     
   3026877488.7832875        35104413.661346912        501895175.20861799     
   2839318157.9377694        27899380.033887982        496203300.33472079     
   2653148784.9478960        25327539.258559465        498548003.08775985     
   2468369369.8136463        27388891.335330486        508929283.46771306     
   2946641902.4937553        31491920.984853983        587964131.10475254     
   2759198484.2534952        13158738.897200823        553293355.85655534     
   2575101631.6526031        5980775.6074277163        513243200.78399920     
   2394351344.6910744        9958031.1155469418        467813665.88705409     
   2216947623.3689098        25090505.421543002        417004751.16575384     
   5957779149.3681793        1787333744.8104537        1150192171.1764896     
   6088322482.1049271        1502246908.2854350        1228068820.4866133     
   6221579724.2334871        1226206436.3997843        1268600094.6108787     
   6357550875.7538557        959212329.15350223        1271785993.5492864     
   6496235936.6660357        701264586.54658842        1237626517.3018355     
   5434486454.2937136        1630345936.2881141        1033620875.1167195     
   5489831392.9368505        1372466917.1983628        1114022847.8739810     
   5547366863.3851442        1121889670.7924719        1167646550.1831057     
   5607092865.6385975        878614197.07044220        1194491982.0440950     
   5669009399.6972075        642640496.03227329        1194559143.4569478     
   4895139036.4955702        1468541710.9486709        936496165.59660566     
   4905477308.8671551        1246928027.6408050        1018812854.6165776     
   4917482735.4572477        1030871525.0612929        1084918377.9261351     
   4931155316.2658443        820372203.21013391        1134812735.5252783     
   4946495051.2929487        615430062.08732867        1168495927.4140072     
   4339736895.9737444        1301921068.7921233        858818042.61614835     
   4335260229.8958406        1125630239.6127617        942438840.71440327     
   4331927340.4497957        953151999.20624721        1020415577.8399652     
   4329738227.6356010        784486347.57257831        1092748253.9928346     
   4328692891.4532595        619633284.71175528        1159436869.1730120     
   3768280032.7282395        1130484009.8184719        800586506.17534757     
   3779180156.0229120        1008573553.1142339        884900806.16745758     
   3790700678.3627868        888731093.22733474        974138149.92459655     
   3802841599.7478623        770956630.15777433        1068298537.4467652     
   3815602920.1781406        655250163.90555298        1167381968.7339635     
   6496235936.6660357        701264586.54658842        1237626517.3018355     
   6239087121.6878376        375550565.26197958        1053620215.1403062     
   6012840145.0690947        152842671.84222388        908634626.66697299     
   5817495006.8098049        33140906.287315369        802669751.88183701     
   5653051706.9099741        16445268.597261906        735725590.78489745     
   5669009399.6972075        642640496.03227329        1194559143.4569478     
   5518856092.5760536        382959957.45008993        1073814108.7831209     
   5392829252.4255085        203700975.43660545        981114101.22595870     
   5290928879.2455750        104863549.99182010        916459120.78545785     
   5213154973.0362492        86447681.115734339        879849167.46162009     
   4946495051.2929487        615430062.08732867        1168495927.4140072     
   4871978147.5387421        412375274.86054063        1103107560.2742314     
   4814812339.3662987        267157472.90629888        1054788533.6795847     
   4774997626.7756186        179776656.22460556        1023538847.6300663     
   4752534009.7667055        150232824.81545997        1009358502.1256768     
   4328692891.4532595        619633284.71175528        1159436869.1730120     
   4298453286.5759029        463796517.49333298        1141500569.6136336     
   4278789405.8914623        343212164.25130618        1129657924.0278506     
   4269701249.3999424        257880224.98567581        1123908932.4156616     
   4271188817.1013408        207800699.69644046        1124253594.7770669     
   3815602920.1781406        655250163.90555298        1167381968.7339635     
   3798281509.6875339        537223685.34846747        1188993136.8013291     
   3784760452.0010023        431865049.47162449        1205722272.2707565     
   3775039747.1185436        339174256.27502799        1217569375.1422441     
   3769119395.0401583        259151305.75867510        1224534445.4157917     
   5653051706.9099741        16445268.597261906        735725590.78489745     
   5520630432.6421013        47807336.913924694        722543647.16337252     
   5382659692.5315685        60671185.755045176        711241256.35195196     
   5239139486.5783682        55036815.120607853        701818418.35063577     
   5090069814.7825012        30904225.010626078        694275133.15942466     
   5213154973.0362492        86447681.115734339        879849167.46162009     
   5078248594.1220512        84145671.184922457        855941583.62011516     
   4941141199.2856445        74506941.513412476        836011461.45151925     
   4801832788.5270262        57531492.101197720        820058800.95583069     
   4660323361.8461952        33219322.948280573        808083602.13304794     
   4752534009.7667055        150232824.81545997        1009358502.1256768     
   4621136551.5284758        116064944.23386502        978631802.97138906     
   4490886527.2884912        85721843.646413565        953980474.35281122     
   4361783937.0467463        59203523.053102970        935404516.26994491     
   4233828780.8032470        36509982.453940153        922903928.72278833     
   4271188817.1013408        207800699.69644046        1124253594.7770669     
   4149294304.8613725        143565156.06074595        1090614305.2171917     
   4031895676.5401015        94315892.154043198        1065148295.0558312     
   3918992932.1375284        60052907.976331711        1047855564.2929820     
   3810586071.6536508        40776203.527605534        1038736112.9286479     
   3769119395.0401583        259151305.75867510        1224534445.4157917     
   3662721854.1207457        166646306.66557384        1191889090.3575256     
   3564168647.0404825        100289087.03630388        1169514923.5605779     
   3473459773.7993717        60079646.870873213        1157411945.0249426     
   3390595234.3974104        46017986.169278502        1155580154.7506266     
   5090069814.7825012        30904225.010626078        694275133.15942466     
   4939236267.5423708        3027310.2945759296        675483086.07850456     
   4791832299.1298790       -13417674.996005535        661688005.28372717     
   4647857909.5450344       -18430730.861105204        652889890.77509940     
   4507313098.7878246       -12011857.300748110        649088742.55261338     
   4660323361.8461952        33219322.948280573        808083602.13304794     
   4523974403.5119009        10899653.064824104        793817939.92564237     
   4390119444.9012470       -3106684.4064922333        784414861.78290820     
   4258758486.0142326       -8799689.4656813145        779874367.70483828     
   4129891526.8508601       -6179362.1127278805        780196457.69143689     
   4233828780.8032470        36509982.453940153        922903928.72278833     
   4111580462.1705666        19632372.641808987        912073142.43423414     
   3990890564.1575274        7949498.2284858227        905970557.98886871     
   3871759086.7641292        1461359.2139577866        904596175.38669598     
   3754186029.9903693        167955.59823513031        907949994.62771714     
   3810586071.6536508        40776203.527605534        1038736112.9286479     
   3702054443.5183668        29225469.025539398        1030248693.6042762     
   3594145656.8987207        19750872.908935547        1026355093.9016169     
   3486859711.7947173        12352415.177799940        1027055313.8206743     
   3380196608.2063541        7030095.8321368694        1032349353.3614433     
   3390595234.3974104        46017986.169278502        1155580154.7506266     
   3295396347.5552998        39678942.216002464        1148344593.4357698     
   3199884723.1248326        32297439.634870172        1145568469.5211508     
   3104060361.1060028        23873478.425859451        1147251783.0067685     
   3007923261.4988132        14407058.588987827        1153394533.8926225     
   4507313098.7878246       -12011857.300748110        649088742.55261338     
   4376340247.9095316        83469.216134548187        640888544.33206797     
   4243787179.7373443        6911404.7533628941        636872231.12142074     
   4109653894.2712622        8471949.3109467030        637039802.92066395     
   3973940391.5112824        4765102.8888723850        641391259.72980750     
   4129891526.8508601       -6179362.1127278805        780196457.69143689     
   4008507374.7429667        1092028.0870316029        771206412.75793326     
   3886215742.0741739        5338483.0837991238        766521621.01878977     
   3763016628.8444877        6560002.8775904179        766142082.47400939     
   3638910035.0539079        4756587.4683959484        770067797.12359250     
   3754186029.9903693        167955.59823513031        907949994.62771714     
   3642737342.8942070        2719439.3532695770        898954962.50308299     
   3531053911.9701490        4488443.6819846630        894386551.75727940     
   3419135737.2182002        5474968.5843870640        894244762.39030719     
   3306982818.6383486        5679014.0604662895        898529594.40216506     
   3380196608.2063541        7030095.8321368694        1032349353.3614433     
   3279030152.3632612        4965703.0148482323        1024134193.5675164     
   3178301689.4252753        4361286.5479133129        1020467023.3368843     
   3078011219.3923931        5216846.4313211441        1021347842.6695540     
   2978158742.2646170        7532382.6650837660        1026776651.5655174     
   3007923261.4988132        14407058.588987827        1153394533.8926225     
   2917385803.1501269        7830819.0717799664        1146744105.9512329     
   2827959074.4395456        4957011.6815794706        1144763035.7576103     
   2739643075.3670683        5785636.4184043407        1147451323.3117497     
   2652437805.9326978        10316693.282241702        1154808968.6136591     
   3973940391.5112824        4765102.8888723850        641391259.72980750     
   3811919136.8905935       -7305585.7972333431        629535358.38867891     
   3651167209.4280920       -15145183.956045389        622938237.30376709     
   3491684609.1237755       -18753691.587575912        621599896.47507584     
   3333471335.9776521       -18131108.691792250        625520335.90259886     
   3638910035.0539079        4756587.4683959484        770067797.12359250     
   3491219159.3362017       -4232802.3870329857        760422595.73048103     
   3344362781.8487778       -10440531.474865913        755830913.50713217     
   3198340902.5916338       -13866599.795090556        756292750.45355630     
   3053153521.5647707       -14511007.347716928        761808106.56974375     
   3306982818.6383486        5679014.0604662895        898529594.40216506     
   3173035861.5766225       -405015.03839230537        890587792.54117620     
   3039488573.8172712       -5156813.1293374300        887494248.76350391     
   2906340955.3602934       -8576380.2123719454        889248963.06914639     
   2773593006.2056870       -10663716.287497520        895851935.45810282     
   2978158742.2646170        7532382.6650837660        1026776651.5655174     
   2857369243.6118598        4177776.2486934662        1020030948.8207655     
   2736544585.3335719        705971.08052980900        1017928243.0728749     
   2615684767.4297509       -2883032.8394142389        1020468534.3218431     
   2494789789.9003911       -6589235.5111424923        1027651822.5676798     
   2652437805.9326978        10316693.282241702        1154808968.6136591     
   2544219305.4419112        9515571.4742281437        1148752064.5692453     
   2435530816.3976808        7147821.1547412872        1147132896.4352453     
   2326372338.8000064        3213442.3237764835        1149951464.2116539     
   2216743872.6488934       -2287565.0186513662        1157207767.8984716     
   3333471335.9776521       -18131108.691792250        625520335.90259886     
   3238888804.9388676        1357406.5013347864        616837691.56422937     
   3142889722.3452859        16124083.178475499        607684109.31846285     
   3045474088.1969190        26168921.339654326        598059589.16530335     
   2946641902.4937553        31491920.984853983        587964131.10475254     
   3053153521.5647707       -14511007.347716928        761808106.56974375     
   2957522107.9188490       -220364.03719246387        752770934.58932114     
   2861101203.0638757        11438641.909830689        744597376.63755322     
   2763890806.9998517        20466010.493345141        737287432.71445060     
   2665890919.7267756        26861741.713357210        730841102.82000339     
   2773593006.2056870       -10663716.287497520        895851935.45810282     
   2680725715.4842062       -427043.20010507107        887191806.23899174     
   2587695993.8994207        9268193.6762597561        880729842.98459458     
   2494503841.4513273        18421994.341598988        876466045.69490767     
   2401149258.1399245        27034358.795912504        874400414.36993229     
   2494789789.9003911       -6589235.5111424923        1027651822.5676798     
   2408499627.6349392        737369.01258742809        1020100306.5132430     
   2322674094.8519287        9612738.4777836800        1016081508.3595785     
   2237313191.5513468        20036872.884415865        1015595428.1066794     
   2152416917.7332020        32009772.232506275        1018642065.7545440     
   2216743872.6488934       -2287565.0186513662        1157207767.8984716     
   2140843844.3710556        3272872.6009099483        1151496435.4120774     
   2066035505.9213955        12472276.314396262        1150652372.7625141     
   1992318857.2999082        25310646.121795535        1154675579.9497683     
   1919693898.5066004        41787982.023126364        1163566056.9738386     
   2946641902.4937553        31491920.984853983        587964131.10475254     
   2759198484.2534952        13158738.897200823        553293355.85655534     
   2575101631.6526031        5980775.6074277163        513243200.78399920     
   2394351344.6910744        9958031.1155469418        467813665.88705409     
   2216947623.3689098        25090505.421543002        417004751.16575384     
   2665890919.7267756        26861741.713357210        730841102.82000339     
   2468646925.2824244        5546804.8857846260        706933559.76119077     
   2273552354.4232483       -8603386.6578702927        681554589.00204337     
   2080607207.1492577       -15588832.917598367        654704190.54257345     
   1889811483.4604335       -15409533.893416166        626382364.38276291     
   2401149258.1399245        27034358.795912504        874400414.36993229     
   2205270264.9887395        6087340.4775995016        859859437.77061331     
   2010343553.3685429       -11685406.070762634        847754985.59500182     
   1816369123.2793262       -26283880.849176168        838087057.84310174     
   1623346974.7211020       -37708083.857632041        830855654.51489532     
   2152416917.7332020        32009772.232506275        1018642065.7545440     
   1969068503.3724394        14780345.672622204        1012070989.8848304     
   1785475228.4884725       -3265282.6312665939        1011844390.5628589     
   1601637093.0813003       -22127112.679176569        1017962267.7886418     
   1417554097.1509275       -41805144.471100628        1030424621.5621600     
   1919693898.5066004        41787982.023126364        1163566056.9738386     
   1760041640.4335160        31625820.470861197        1163568216.1038351     
   1598947379.7830412        16656983.660627127        1173822803.9056222     
   1436411116.5551605       -3118528.4076197147        1194329820.3791912     
   1272432850.7498956       -27700715.733826637        1225089265.5245473     
   3768280032.7282395        1130484009.8184719        800586506.17534757     
   3779180156.0229120        1008573553.1142339        884900806.16745758     
   3790700678.3627868        888731093.22733474        974138149.92459655     
   3802841599.7478623        770956630.15777433        1068298537.4467652     
   3815602920.1781406        655250163.90555298        1167381968.7339635     
   3207903784.7380314        962371135.42140949        756663552.87972474     
   3235991097.1821895        868111591.61777794        853055408.57996416     
   3263809522.1686530        772955756.28849864        951364155.34540701     
   3291359059.6974220        676903629.43357098        1051589793.1760544     
   3318639709.7684965        579955211.05299592        1153732322.0719051     
   2685743489.9820981        805723046.99462938        721911179.33480215     
   2722428983.8619542        736537713.77746844        829343089.82312512     
   2757956303.7812195        663491800.69167268        935685738.67682683     
   2792325449.7398949        586585307.73724222        1040939125.8959067     
   2825536421.7379789        505818234.91417670        1145103251.4803655     
   2201799148.4604387        660539744.53813159        696329385.54057944     
   2238493816.0622063        613851919.59330511        813763849.89694118     
   2273141023.2004871        560339226.43685699        927102899.91885579     
   2305740769.8752818        500001665.06878722        1036346535.6063236     
   2336293056.0865898        432839235.48909575        1141494756.9593451     
   1756070760.1730545        526821228.05191630        679918171.49705672     
   1784185593.7829466        500054209.06528819        806317688.80141163     
   1809363680.4264562        463498033.52405167        925615639.07149386     
   1831605020.1035831        417152701.42820674        1037812022.3073040     
   1850909612.8143280        361018212.77775371        1142906838.5088422     
   3815602920.1781406        655250163.90555298        1167381968.7339635     
   3798281509.6875339        537223685.34846747        1188993136.8013291     
   3784760452.0010023        431865049.47162449        1205722272.2707565     
   3775039747.1185436        339174256.27502799        1217569375.1422441     
   3769119395.0401583        259151305.75867510        1224534445.4157917     
   3318639709.7684965        579955211.05299592        1153732322.0719051     
   3294170967.4690328        472689836.09096313        1181962602.9952948     
   3273404867.2182765        377766601.29128957        1207093637.3724902     
   3256341409.0162292        295185506.65397656        1229125425.2034898     
   3242980592.8628879        224946552.17902255        1248057966.4882970     
   2825536421.7379789        505818234.91417670        1145103251.4803655     
   2799014022.0632153        410842065.87726432        1179838649.3785181     
   2776096553.6817946        327882334.48482728        1213257586.7822225     
   2756784016.5937157        256939040.73686469        1245360063.6914766     
   2741076410.7989788        198012184.63337731        1276146080.1062827     
   2336293056.0865898        432839235.48909575        1141494756.9593451     
   2312810673.4700837        351680374.70737088        1182621275.9510012     
   2292835511.3915553        282212249.05223852        1224214120.4999535     
   2276367569.8510036        224434858.52369404        1266273290.6062033     
   2263406848.8484282        178348203.12174034        1308798786.2697482     
   1850909612.8143280        361018212.77775371        1142906838.5088422     
   1835560921.6896374        295204762.58128333        1190310482.7127428     
   1823621740.3475595        240756344.99352151        1239963238.5256848     
   1815092068.7880926        197672960.01446235        1291865105.9476681     
   1809971907.0112374        165954607.64411056        1346016084.9786940     
   3769119395.0401583        259151305.75867510        1224534445.4157917     
   3662721854.1207457        166646306.66557384        1191889090.3575256     
   3564168647.0404825        100289087.03630388        1169514923.5605779     
   3473459773.7993717        60079646.870873213        1157411945.0249426     
   3390595234.3974104        46017986.169278502        1155580154.7506266     
   3242980592.8628879        224946552.17902255        1248057966.4882970     
   3165654765.9646754        150519058.43672013        1230904691.0754085     
   3094517042.4833226        96718576.083951235        1221671352.3365571     
   3029567422.4188304        63545105.120722651        1220357950.2717419     
   2970805905.7711992        50998645.547025681        1226964484.8809650     
   2741076410.7989788        198012184.63337731        1276146080.1062827     
   2686104436.2440257        139646837.73849511        1272552615.5127656     
   2635664334.6836424        96387734.158845305        1274527836.0060060     
   2589756106.1178303        68234873.894434810        1282071741.5860052     
   2548379750.5465884        55188256.945256829        1295184332.2527635     
   2263406848.8484282        178348203.12174034        1308798786.2697482     
   2224070864.9587960        134029644.57089412        1316832863.6695971     
   2187610523.6414442        99296561.260985374        1328084374.5689254     
   2154025824.8963718        74148953.192008495        1342553318.9677336     
   2123316768.7235808        58586820.363968611        1360239696.8660209     
   1809971907.0112374        165954607.64411056        1346016084.9786940     
   1779554052.1089861        133667478.93392146        1363745435.5459042     
   1750355609.3567245        105445057.39036375        1382340968.0253146     
   1722376578.7544549        81287343.013445973        1401802682.4169283     
   1695616960.3021734        61194335.803157926        1422130578.7207386     
   3390595234.3974104        46017986.169278502        1155580154.7506266     
   3295396347.5552998        39678942.216002464        1148344593.4357698     
   3199884723.1248326        32297439.634870172        1145568469.5211508     
   3104060361.1060028        23873478.425859451        1147251783.0067685     
   3007923261.4988132        14407058.588987827        1153394533.8926225     
   2970805905.7711992        50998645.547025681        1226964484.8809650     
   2886149791.1139622        40419267.153003454        1218843029.2570992     
   2801724558.0393510        30609494.034402728        1215350499.7076840     
   2717530206.5473623        21569326.191213489        1216486896.2327254     
   2633566736.6380019        13298763.623442054        1222252218.8322194     
   2548379750.5465884        55188256.945256829        1295184332.2527635     
   2474750661.4291277        40513820.116958141        1286811204.6860356     
   2401896073.0652771        28421052.467359304        1283236491.8679781     
   2329815985.4550366        18909953.996459365        1284460193.7985904     
   2258510398.5984054        11980524.704260468        1290482310.4778700     
   2123316768.7235808        58586820.363968611        1360239696.8660209     
   2061198958.5007980        39962601.107861161        1352249119.7225826     
   2000399268.2026093        25732114.933733821        1349226446.0020304     
   1940917697.8290169        15895361.841595888        1351171675.7043631     
   1882754247.3800220        10452341.831443787        1358084808.8295817     
   1695616960.3021734        61194335.803157926        1422130578.7207386     
   1645494682.3289742        38765610.125719488        1415156774.3667381     
   1597234143.4513531        22542681.433539569        1413320362.1098404     
   1550835343.6693139        12525549.726634562        1416621341.9500418     
   1506298282.9828537        8714215.0049917102        1425059713.8873463     
   3007923261.4988132        14407058.588987827        1153394533.8926225     
   2917385803.1501269        7830819.0717799664        1146744105.9512329     
   2827959074.4395456        4957011.6815794706        1144763035.7576103     
   2739643075.3670683        5785636.4184043407        1147451323.3117497     
   2652437805.9326978        10316693.282241702        1154808968.6136591     
   2633566736.6380019        13298763.623442054        1222252218.8322194     
   2555436142.4094520        8393301.1720355749        1216401077.2343326     
   2478139658.2985730        6268205.7795352936        1215038755.5812871     
   2401677284.3053703        6923477.4459576607        1218165253.8730896     
   2326049020.4298410        10359116.171283245        1225780572.1097393     
   2258510398.5984054        11980524.704260468        1290482310.4778700     
   2192270846.1959295        8591092.6304361820        1285107732.4496493     
   2126588784.3906958        7059962.5474183559        1284041436.5633521     
   2061464213.1827080        7387134.4552117586        1287283422.8189802     
   1996897132.5719597        9572608.3538125753        1294833691.2165325     
   1882754247.3800220        10452341.831443787        1358084808.8295817     
   1827889914.5095646        8424193.4469871521        1352864071.5971892     
   1773306452.7159185        7332281.9852319956        1351771078.7038009     
   1719003861.9990807        7176607.4461796284        1354805830.1494157     
   1664982142.3590610        7957169.8298392296        1361968325.9340360     
   1506298282.9828537        8714215.0049917102        1425059713.8873463     
   1462293347.3503530        7892603.6216790080        1419670094.6769490     
   1418292663.2742355        7085164.0929735899        1418227682.0026333     
   1374296230.7544963        6291896.4188643694        1420732475.8643990     
   1330304049.7911379        5512800.5993585587        1427184476.2622528     
   2652437805.9326978        10316693.282241702        1154808968.6136591     
   2544219305.4419112        9515571.4742281437        1148752064.5692453     
   2435530816.3976808        7147821.1547412872        1147132896.4352453     
   2326372338.8000064        3213442.3237764835        1149951464.2116539     
   2216743872.6488934       -2287565.0186513662        1157207767.8984716     
   2326049020.4298410        10359116.171283245        1225780572.1097393     
   2229405531.8940544        8408377.1310830116        1218495847.7816904     
   2132533332.9983170        5695270.2243778706        1215942539.1775842     
   2035432423.7426353        2219795.4511939287        1218120646.2974246     
   1938102804.1270008       -2018047.1884984970        1225030169.1412046     
   1996897132.5719597        9572608.3538125753        1294833691.2165325     
   1912667741.1726990        6723977.6358872652        1286602637.8305912     
   1828450917.6069794        3917239.6964358091        1283396679.9821246     
   1744246661.8748078        1152394.5354712009        1285215817.6711326     
   1660054973.9761755       -1570557.8470253944        1292060050.8976135     
   1664982142.3590610        7957169.8298392296        1361968325.9340360     
   1594005933.2778447        4462372.9886422753        1353072434.7159433     
   1523283570.2236629        1813729.5708965659        1349495318.8488560     
   1452815053.1965191        11239.576605141163        1351236978.3327715     
   1382600382.1964092       -945096.99423295259        1358297413.1677034     
   1330304049.7911379        5512800.5993585587        1427184476.2622528     
   1273420108.2094884        1623563.1893467903        1417905238.4377460     
   1217031290.8483660       -615260.15224260092        1414238455.7777796     
   1161137597.7077746       -1203669.4253924489        1416184128.2823534     
   1105739028.7877114       -141664.63011991978        1423742255.9514668     
   2216743872.6488934       -2287565.0186513662        1157207767.8984716     
   2140843844.3710556        3272872.6009099483        1151496435.4120774     
   2066035505.9213955        12472276.314396262        1150652372.7625141     
   1992318857.2999082        25310646.121795535        1154675579.9497683     
   1919693898.5066004        41787982.023126364        1163566056.9738386     
   1938102804.1270008       -2018047.1884984970        1225030169.1412046     
   1874497097.0486696        4646859.1444408894        1220332724.3820636     
   1811638062.0081625        13800672.270128846        1219970302.5441747     
   1749525699.0054767        25443392.188553810        1223942903.6275375     
   1688160008.0406120        39575018.899712920        1232250527.6321478     
   1660054973.9761755       -1570557.8470253944        1292060050.8976135     
   1607222882.6242886        5742605.5573756695        1287973973.1103144     
   1554792445.5198727        14394616.453343689        1287690671.3286936     
   1502763662.6629241        24385474.840869009        1291210145.5527501     
   1451136534.0534449        35715180.719963968        1298532395.7824876     
   1382600382.1964092       -945096.99423295259        1358297413.1677034     
   1339021201.0979090        6560111.8397130370        1354420181.5968318     
   1295498656.4565184        14254108.864036262        1353813479.1160653     
   1252032748.2722492        22136894.078757644        1356477305.7254119     
   1208623476.5450900        30208467.483846366        1362411661.4248583     
   1105739028.7877114       -141664.63011991978        1423742255.9514668     
   1069892052.4695281        7099377.9914416671        1419671349.8416121     
   1033756694.8181081        13379149.502214551        1418338725.9062893     
   997332955.83345234        18697649.902196944        1419744384.1455057     
   960620835.51555836        23054879.191388905        1423888324.5592544     
   1919693898.5066004        41787982.023126364        1163566056.9738386     
   1760041640.4335160        31625820.470861197        1163568216.1038351     
   1598947379.7830412        16656983.660627127        1173822803.9056222     
   1436411116.5551605       -3118528.4076197147        1194329820.3791912     
   1272432850.7498956       -27700715.733826637        1225089265.5245473     
   1688160008.0406120        39575018.899712920        1232250527.6321478     
   1554250074.6706855        31814583.797067821        1228376414.5667541     
   1419508553.3779066        21282188.951582491        1233497416.4974799     
   1283935444.1622794        7977834.3632608056        1247613533.4243104     
   1147530747.0238008       -8098479.9678878188        1270724765.3472667     
   1451136534.0534449        35715180.719963968        1298532395.7824876     
   1339376600.5990462        29278774.630640090        1291494160.9520016     
   1227395493.8763409        22105124.313632190        1292193727.4419572     
   1115193213.8853226        14194229.768918812        1300631095.2523642     
   1002769760.6260079        5546090.9965348244        1316806264.3832138     
   1208623476.5450900        30208467.483846366        1362411661.4248583     
   1115421218.2185895        24018392.971562982        1352921455.2595799     
   1022608201.2783284        19125789.746739388        1349911736.7390783     
   930184425.72430444        15530657.809375107        1353382505.8633549     
   838149891.55651057        13232997.159446239        1363333762.6324031     
   960620835.51555836        23054879.191388905        1423888324.5592544     
   882383927.52932358        16033438.819843054        1412658297.4894876     
   805146675.58387816        12344185.250920206        1406651444.3888280     
   728909079.67920601        11987118.484575182        1405867765.2572761     
   653671139.81531739        14962238.520855486        1410307260.0948272     
   1756070760.1730545        526821228.05191630        679918171.49705672     
   1784185593.7829466        500054209.06528819        806317688.80141163     
   1809363680.4264562        463498033.52405167        925615639.07149386     
   1831605020.1035831        417152701.42820674        1037812022.3073040     
   1850909612.8143280        361018212.77775371        1142906838.5088422     
   1326351028.9261250        397905308.67783755        669570487.85080469     
   1339666956.7701962        375498985.23209941        791709075.27954972     
   1350780324.3885334        345750794.36724639        908559141.72096121     
   1359691131.7811353        308660736.08327812        1020120687.1750387     
   1366399378.9480033        264228810.38019517        1126393711.6417818     
   890432658.52583241        267129797.55774972        662179285.24839354     
   894129812.16676402        250638209.12170589        780913493.99895179     
   896358592.32260907        229252042.40204048        896172227.80911434     
   897118998.99336779        202971297.39875361        1007955486.6788820     
   896411032.17903996        171795974.11184484        1116263270.6082537     
   448315648.97217596        134494694.69165277        657744563.68982351     
   447574159.97264916        125471880.73410763        773930944.95961726     
   446098484.22868401        114001777.62843451        888454897.33595431     
   443888621.74028027        100084385.37463287        1001316420.8188343     
   440944572.50743818        83719703.972703189        1112515515.4082577     
  0.26515608619027431        7.9546825857082296E-002   656266323.17509449     
  0.18785214912912659        6.9304869764331561E-002   770761428.16154695     
  0.10675786891416778        4.6428132915602278E-002   885407150.30148077     
   2.1873124019440110E-002   1.0916578853107092E-002   1000203489.5948962     
  -6.6802149892328216E-002  -3.7230071932856920E-002   1115150446.0417929     
   1850909612.8143280        361018212.77775371        1142906838.5088422     
   1835560921.6896374        295204762.58128333        1190310482.7127428     
   1823621740.3475595        240756344.99352151        1239963238.5256848     
   1815092068.7880926        197672960.01446235        1291865105.9476681     
   1809971907.0112374        165954607.64411056        1346016084.9786940     
   1366399378.9480033        264228810.38019517        1126393711.6417818     
   1360613019.5432570        216586270.40290856        1181692622.3607669     
   1357383792.4723415        177467504.87172416        1237904774.2816248     
   1356711697.7352586        146872513.78664768        1295030167.4043558     
   1358596735.3320062        124801297.14767313        1353068801.7289603     
   896411032.17903996        171795974.11184484        1116263270.6082537     
   896370231.90232790        141179312.57616690        1178463007.4854124     
   898034186.51066697        116245167.32399222        1240240115.1572752     
   901402896.00405669        96993538.355320096        1301594593.6238434     
   906476360.38249743        83424425.670150846        1362526442.8851159     
   440944572.50743818        83719703.972703189        1112515515.4082577     
   442832558.76685077        68983889.101061344        1180621638.0866792     
   445572922.46253425        57089332.350322306        1246969261.1526375     
   449165663.59448779        48036033.720483109        1311558384.6061316     
   453610782.16271192        41823993.211546764        1374389008.4471631     
  -6.6802149892328216E-002  -3.7230071932856920E-002   1115150446.0417929     
  0.13682579565691738       -2.2407387872836033E-002   1188168514.1645672     
  0.32794346879795555       -4.9286088889129290E-002   1258092212.2677090     
  0.50655150182319597      -0.11786343850311062        1324921540.3512194     
  0.67264900151684914      -0.22814221894435485        1388656498.4150977     
   1809971907.0112374        165954607.64411056        1346016084.9786940     
   1779554052.1089861        133667478.93392146        1363745435.5459042     
   1750355609.3567245        105445057.39036375        1382340968.0253146     
   1722376578.7544549        81287343.013445973        1401802682.4169283     
   1695616960.3021734        61194335.803157926        1422130578.7207386     
   1358596735.3320062        124801297.14767313        1353068801.7289603     
   1333367803.3851187        99861288.384929180        1372063960.8156381     
   1309053430.5808735        77969810.097661972        1392488927.9679084     
   1285653616.9192729        59126862.285875380        1414343703.1857686     
   1263168362.4003162        43332444.949567676        1437628286.4692218     
   906476360.38249743        83424425.670150846        1362526442.8851159     
   888046711.82923234        66314644.986330390        1382431748.6493583     
   870226769.41126418        51237218.086833388        1404330488.6325819     
   853016533.12859225        38192144.971657544        1428222662.8347874     
   836416002.98121715        27179425.640804350        1454108271.2559764     
   453610782.16271192        41823993.211546764        1374389008.4471631     
   443590777.44132793        33027548.738126680        1394848799.0470634     
   433875625.84789485        25247281.357876405        1417865650.0193360     
   424465327.38241041        18483191.070788950        1443439561.3639815     
   415359882.04487681        12735277.876870587        1471570533.0809996     
  0.67264900151684914      -0.22814221894435485        1388656498.4150977     
  0.22140566623674882      -0.35968203575798852        1409315112.0087523     
 -0.10923358142919762       -8.9208053718762004E-002   1433094412.1281703     
 -0.31927205842477957       0.58326858395785341        1459994398.7733512     
 -0.40870631055336126        1.6577589575797744        1490015071.9442964     
   1695616960.3021734        61194335.803157926        1422130578.7207386     
   1645494682.3289742        38765610.125719488        1415156774.3667381     
   1597234143.4513531        22542681.433539569        1413320362.1098404     
   1550835343.6693139        12525549.726634562        1416621341.9500418     
   1506298282.9828537        8714215.0049917102        1425059713.8873463     
   1263168362.4003162        43332444.949567676        1437628286.4692218     
   1227644349.8982325        27131209.609966516        1434307459.6499178     
   1193516641.5886569        15584321.578726172        1435641562.5564089     
   1160785237.4715891        8691780.8558434844        1441630595.1886938     
   1129450137.5470290        6453587.4413216710        1452274557.5467715     
   836416002.98121715        27179425.640804350        1454108271.2559764     
   814111792.03223002        16792141.463643670        1453897414.5844493     
   792738450.37267721        9507754.9179310501        1457859025.2674098     
   772295978.00255895        5326266.0036658347        1465993103.3048570     
   752784374.92187476        4247674.7208486497        1478299648.6967888     
   415359882.04487681        12735277.876870587        1471570533.0809996     
   404897008.73096436        7748405.6867426932        1473926639.1703334     
   394899569.80341178        4312981.4511477202        1479972750.2428460     
   385367565.26222283        2429005.1700972170        1489708866.2985358     
   376300995.10739368        2096476.8435812593        1503134987.3374069     
 -0.40870631055336126        1.6577589575797744        1490015071.9442964     
  -5.5664035651887822E-003   2.2792555274472117        1494395133.4075704     
 -0.11913741513471654        1.1783813279548965        1501982737.4827144     
 -0.74942111811121115       -1.6448678156712513        1512777884.1697307     
  -1.8964160370265730       -6.1904880260383193        1526780573.4686186     
   1506298282.9828537        8714215.0049917102        1425059713.8873463     
   1462293347.3503530        7892603.6216790080        1419670094.6769490     
   1418292663.2742355        7085164.0929735899        1418227682.0026333     
   1374296230.7544963        6291896.4188643694        1420732475.8643990     
   1330304049.7911379        5512800.5993585587        1427184476.2622528     
   1129450137.5470290        6453587.4413216710        1452274557.5467715     
   1095888570.3457210        5670017.5913248658        1447018196.5099039     
   1062330191.5327084        4897075.7023124695        1445839210.4532592     
   1028775001.1079925        4134761.7742889524        1448737599.3768370     
   995222999.07157171        3383075.8072502017        1455713363.2806394     
   752784374.92187476        4247674.7208486497        1478299648.6967888     
   730038085.99215448        3613719.3562837839        1473175305.4706912     
   707293922.28264642        2986848.0590926707        1472258505.6689522     
   684551883.79334843        2367060.8292680979        1475549249.2915769     
   661811970.52426422        1754357.6668228507        1483047536.3385608     
   376300995.10739368        2096476.8435812593        1503134987.3374069     
   364741894.28965688        1723708.9165633172        1498141421.5593100     
   353183855.52405089        1354481.1633152366        1497485567.6497130     
   341626878.81056702        988793.58380775154        1501167425.6086166     
   330070964.14921576        626646.17807485163        1509186995.4360170     
  -1.8964160370265730       -6.1904880260383193        1526780573.4686186     
  -4.7617699161018257       -13.727829221362523        1521916544.7757585     
  -8.7430822883736177       -24.985031019841109        1521520396.3955379     
  -13.840353302532534       -39.962096172249879        1525592128.3279567     
  -20.053577296898659       -58.659003204237216        1534131740.5730119     
   1330304049.7911379        5512800.5993585587        1427184476.2622528     
   1273420108.2094884        1623563.1893467903        1417905238.4377460     
   1217031290.8483660       -615260.15224260092        1414238455.7777796     
   1161137597.7077746       -1203669.4253924489        1416184128.2823534     
   1105739028.7877114       -141664.63011991978        1423742255.9514668     
   995222999.07157171        3383075.8072502017        1455713363.2806394     
   953106545.33472991        630095.47303569317        1447460314.4149241     
   911361435.83131874       -885070.74974620342        1444692203.2478018     
   869987670.56133521       -1162422.8611013889        1447409029.7792652     
   828985249.52478099       -201960.86102539301        1455610794.0093222     
   661811970.52426422        1754357.6668228507        1483047536.3385608     
   634098669.01523471        28333.723310112953        1475676266.4466867     
   606632931.75253582       -872476.06576758623        1473662416.7874558     
   579414758.73616314       -948071.70042356849        1477005987.3608673     
   552444149.96612239       -198453.18064108491        1485706978.1669166     
   330070964.14921576        626646.17807485163        1509186995.4360170     
   316396479.25099868       -181722.05984094739        1502553094.5330353     
   302845778.61201590       -577476.10031150281        1501149096.3967466     
   289418862.23225754       -560615.94336746633        1504975001.0271499     
   276115730.11173224       -131141.58897703886        1514030808.4242442     
  -20.053577296898659       -58.659003204237216        1534131740.5730119     
  -23.957977268729280       -71.876417317984206        1528090798.6739721     
  -23.590240704086774       -70.853375616264728        1527152242.0756750     
  -18.950384279191979       -55.589933686481579        1531316070.7781217     
  -10.038391638080700       -26.086039784311634        1540582284.7813094     
   1105739028.7877114       -141664.63011991978        1423742255.9514668     
   1069892052.4695281        7099377.9914416671        1419671349.8416121     
   1033756694.8181081        13379149.502214551        1418338725.9062893     
   997332955.83345234        18697649.902196944        1419744384.1455057     
   960620835.51555836        23054879.191388905        1423888324.5592544     
   828985249.52478099       -201960.86102539301        1455610794.0093222     
   800134122.87615716        4639060.1052490175        1451549290.9444447     
   771066709.56540835        8759125.5311076343        1450684779.6789887     
   741783009.59253621        12158235.416554511        1453017260.2129545     
   712283022.95754099        14836389.761591911        1458546732.5463426     
   552444149.96612239       -198453.18064108491        1485706978.1669166     
   531899471.91530329        2635725.8088090718        1481738988.5966496     
   511210601.87347627        4989264.8282314837        1481426700.4506907     
   490377539.84064132        6862163.8776285648        1484770113.7290435     
   469400285.81679648        8254422.9569933712        1491769228.4317038     
   276115730.11173224       -131141.58897703886        1514030808.4242442     
   265188099.58696789        1089375.1021241844        1510240442.7982237     
   254188371.74231076        2069567.3935851008        1510564488.2213962     
   243116546.57775879        2809435.2853945792        1515002944.6937666     
   231972624.09331691        3308978.7775726318        1523555812.2153387     
  -10.038391638080700       -26.086039784311634        1540582284.7813094     
   5.8911496560130931        7.9851944653611273        1537053653.5491679     
   19.171910899499665        33.227162573565863        1538098142.9911070     
   29.803895752454913        49.639875005832117        1543715753.1071329     
   37.787100188795350        57.223320770494439        1553906483.8972464     
   960620835.51555836        23054879.191388905        1423888324.5592544     
   882383927.52932358        16033438.819843054        1412658297.4894876     
   805146675.58387816        12344185.250920206        1406651444.3888280     
   728909079.67920601        11987118.484575182        1405867765.2572761     
   653671139.81531739        14962238.520855486        1410307260.0948272     
   712283022.95754099        14836389.761591911        1458546732.5463426     
   649111635.30790901        8222208.3981460333        1450770733.6712601     
   586689996.69131434        4107190.4781598151        1449266439.7764394     
   525018107.10776097        2491336.0016493499        1454033850.8618703     
   464095966.55726027        3374644.9686363041        1465072966.9275565     
   469400285.81679648        8254422.9569933712        1491769228.4317038     
   424290221.39276057        2946241.4683189392        1487155699.5756094     
   379679998.99403149       -695799.93599878252        1489862406.7109275     
   335569618.62060589       -2671701.2559742928        1499889349.8376470     
   291959080.27248430       -2981462.4915985018        1517236528.9557805     
   231972624.09331691        3308978.7775726318        1523555812.2153387     
   207919685.78388274        205538.03037126362        1521813195.2025390     
   184116682.49202389       -2064785.9915802553        1528439345.1922996     
   160563614.21772772       -3501993.2883224562        1543434262.1846225     
   137260480.96099678       -4106083.8598467782        1566797946.1794996     
   37.787100188795350        57.223320770494439        1553906483.8972464     
   28.481278416289637        98.084312329669558        1554743220.5520432     
   47.185288826373338        232.31141255192151        1564997255.2205539     
   93.899128170729071        459.90460609924469        1584668587.9027770     
   168.62279320103949        780.86389012364248        1613757218.5987120     
  0.26515608619027431        7.9546825857082296E-002   656266323.17509449     
  0.18785214912912659        6.9304869764331561E-002   770761428.16154695     
  0.10675786891416778        4.6428132915602278E-002   885407150.30148077     
   2.1873124019440110E-002   1.0916578853107092E-002   1000203489.5948962     
  -6.6802149892328216E-002  -3.7230071932856920E-002   1115150446.0417929     
  -448315648.47235602       -134494694.54170680        657744563.69112623     
  -447574159.62657434       -125471880.65576299        773930944.94336188     
  -446098484.03296232       -114001777.61038572        888454897.31460083     
  -443888621.69152045       -100084385.40557489        1001316420.8048425     
  -440944572.60224873       -83719704.041331083        1112515515.4140871     
  -890432658.11748898       -267129797.43524671        662179285.22483850     
  -894129811.87570286       -250638209.11124152        780913493.95308101     
  -896358592.13446605       -229252042.45573473        896172227.76584852     
  -897118998.89377892       -202971297.46872640        1007955486.6631404     
  -896411032.15364122       -171795974.15021628        1116263270.6449571     
  -1326351028.6702430       -397905308.60107291        669570487.77623105     
  -1339666956.5595334       -375498985.29713058        791709075.19070458     
  -1350780324.1977534       -345750794.48961872        908559141.65522456     
  -1359691131.5849016       -308660736.17853689        1020120687.1697905     
  -1366399378.7209795       -264228810.36388546        1126393711.7344031     
  -1756070760.1306179       -526821228.03918535        679918171.34530413     
  -1784185593.6780663       -500054209.21343040        806317688.65623260     
  -1809363680.2228231       -463498033.71203744        925615638.98272860     
  -1831605019.7648890       -417152701.53500652        1037812022.3247926     
  -1850909612.3042626       -361018212.68233716        1142906838.6824245     
  -6.6802149892328216E-002  -3.7230071932856920E-002   1115150446.0417929     
  0.13682579565691738       -2.2407387872836033E-002   1188168514.1645672     
  0.32794346879795555       -4.9286088889129290E-002   1258092212.2677090     
  0.50655150182319597      -0.11786343850311062        1324921540.3512194     
  0.67264900151684914      -0.22814221894435485        1388656498.4150977     
  -440944572.60224873       -83719704.041331083        1112515515.4140871     
  -442832558.47436547       -68983889.086324647        1180621638.0758591     
  -445572921.81133759       -57089332.347502947        1246969261.0974174     
  -449165662.61316401       -48036033.824862212        1311558384.4787612     
  -453610780.87984520       -41823993.518403530        1374389008.2198908     
  -896411032.15364122       -171795974.15021628        1116263270.6449571     
  -896370231.58888090       -141179312.50123933        1178463007.4846585     
  -898034185.94132006       -116245167.24292850        1240240115.0635636     
  -901402895.21095932       -96993538.375283062        1301594593.3816719     
  -906476359.39779842       -83424425.898304641        1362526442.4389844     
  -1366399378.7209795       -264228810.36388546        1126393711.7344031     
  -1360613019.2067196       -216586270.26715097        1181692622.3909647     
  -1357383792.0620046       -177467504.73556513        1237904774.1661475     
  -1356711697.2868350       -146872513.76912886        1295030167.0599513     
  -1358596734.8812091       -124801297.36784154        1353068801.0723758     
  -1850909612.3042626       -361018212.68233716        1142906838.6824245     
  -1835560921.3278825       -295204762.38405973        1190310482.7947774     
  -1823621740.1733921       -240756344.82541311        1239963238.4051690     
  -1815092068.8407910       -197672960.00639868        1291865105.5135996     
  -1809971907.3300796       -165954607.92701751        1346016084.1200686     
  0.67264900151684914      -0.22814221894435485        1388656498.4150977     
  0.22140566623674882      -0.35968203575798852        1409315112.0087523     
 -0.10923358142919762       -8.9208053718762004E-002   1433094412.1281703     
 -0.31927205842477957       0.58326858395785341        1459994398.7733512     
 -0.40870631055336126        1.6577589575797744        1490015071.9442964     
  -453610780.87984520       -41823993.518403530        1374389008.2198908     
  -443590776.99092466       -33027549.353803620        1394848799.0168185     
  -433875626.04717571       -25247281.673108518        1417865650.2505381     
  -424465328.04859543       -18483190.476308241        1443439561.9210498     
  -415359882.99518728       -12735275.763417169        1471570534.0283542     
  -906476359.39779842       -83424425.898304641        1362526442.4389844     
  -888046711.42291820       -66314645.513827771        1382431748.5291157     
  -870226769.45898151       -51237218.499163210        1404330488.9670684     
  -853016533.50598848       -38192144.854310960        1428222663.7528412     
  -836416003.56394005       -27179424.579272300        1454108272.8864357     
  -1358596734.8812091       -124801297.36784154        1353068801.0723758     
  -1333367803.0745726       -99861288.839747906        1372063960.5456429     
  -1309053430.3446524       -77969810.567378104        1392488928.2777593     
  -1285653616.6914504       -59126862.550733507        1414343704.2687259     
  -1263168362.1149642       -43332444.789810896        1437628288.5185418     
  -1809971907.3300796       -165954607.92701751        1346016084.1200686     
  -1779554051.9458888       -133667479.33156747        1363745435.0664020     
  -1750355608.7041888       -105445057.87775522        1382340968.1826127     
  -1722376577.6049793       -81287343.565573156        1401802683.4687033     
  -1695616958.6482606       -61194336.395030320        1422130580.9246712     
 -0.40870631055336126        1.6577589575797744        1490015071.9442964     
  -5.5664035651887822E-003   2.2792555274472117        1494395133.4075704     
 -0.11913741513471654        1.1783813279548965        1501982737.4827144     
 -0.74942111811121115       -1.6448678156712513        1512777884.1697307     
  -1.8964160370265730       -6.1904880260383193        1526780573.4686186     
  -415359882.99518728       -12735275.763417169        1471570534.0283542     
  -404897008.97970355       -7748402.4623404890        1473926639.2877009     
  -394899569.99735993       -4312979.2717312723        1479972749.4801548     
  -385367566.04815972       -2429006.1915997714        1489708864.6057131     
  -376300997.13210243       -2096483.2219438553        1503134984.6643775     
  -836416003.56394005       -27179424.579272300        1454108272.8864357     
  -814111792.16115725       -16792139.466129005        1453897415.0060232     
  -792738450.30794680       -9507752.8515583873        1457859024.3799493     
  -772295978.00430799       -5326264.7355605066        1465993101.0082150     
  -752784375.25023949       -4247675.1181315184        1478299644.8908217     
  -1263168362.1149642       -43332444.789810896        1437628288.5185418     
  -1227644349.5499282       -27131208.732113898        1434307460.5625324     
  -1193516641.0508947       -15584319.561091244        1435641562.1820974     
  -1160785236.6178615       -8691777.2767391205        1441630593.3772368     
  -1129450136.2508311       -6453581.8790588975        1452274554.1479492     
  -1695616958.6482606       -61194336.395030320        1422130580.9246712     
  -1645494681.1460176       -38765610.260297596        1415156775.9572310     
  -1597234142.2262037       -22542679.400330901        1413320362.8865995     
  -1550835341.8888249       -12525543.815145135        1416621341.7127757     
  -1506298280.1338735       -8714203.5047181845        1425059712.4357607     
  -1.8964160370265730       -6.1904880260383193        1526780573.4686186     
  -4.7617699161018257       -13.727829221362523        1521916544.7757585     
  -8.7430822883736177       -24.985031019841109        1521520396.3955379     
  -13.840353302532534       -39.962096172249879        1525592128.3279567     
  -20.053577296898659       -58.659003204237216        1534131740.5730119     
  -376300997.13210243       -2096483.2219438553        1503134984.6643775     
  -364741899.97659934       -1723724.3152830750        1498141416.9040809     
  -353183866.16256815       -1354509.8801915199        1497485561.2062652     
  -341626895.69001031       -988839.91667769849        1501167417.5709310     
  -330070988.55892074       -626714.42472739518        1509186985.9980776     
  -752784375.25023949       -4247675.1181315184        1478299644.8908217     
  -730038087.36004329       -3613722.5533129871        1473175298.7999873     
  -707293925.03683400       -2986855.2117855847        1472258496.5214763     
  -684551888.28061092       -2367073.0935438871        1475549238.0552897     
  -661811977.09137273       -1754376.1985874772        1483047523.4014273     
  -1129450136.2508311       -6453581.8790588975        1452274554.1479492     
  -1095888566.9121041       -5670008.4419304132        1447018190.4634752     
  -1062330185.3658798       -4897060.9798104763        1445839202.3411696     
  -1028774991.6121575       -4134739.4926963449        1448737589.7810292     
  -995222985.65093374       -3383043.9805802107        1455713352.7830565     
  -1506298280.1338735       -8714203.5047181845        1425059712.4357607     
  -1462293338.6327817       -7892581.9811362028        1419670091.8945491     
  -1418292647.1497078       -7085127.1842777133        1418227678.6653476     
  -1374296205.6846471       -6291839.1141303182        1420732472.7481549     
  -1330304014.2376020       -5512717.7707018852        1427184474.1429698     
  -20.053577296898659       -58.659003204237216        1534131740.5730119     
  -23.957977268729280       -71.876417317984206        1528090798.6739721     
  -23.590240704086774       -70.853375616264728        1527152242.0756750     
  -18.950384279191979       -55.589933686481579        1531316070.7781217     
  -10.038391638080700       -26.086039784311634        1540582284.7813094     
  -330070988.55892074       -626714.42472739518        1509186985.9980776     
  -316396508.67959052        181638.17709635198        1502553093.5339322     
  -302845808.12775260        577393.02061371505        1501149103.4905481     
  -289418886.90340668        560550.10582296550        1504975015.8679302     
  -276115745.00655252        131109.43272809684        1514030830.6660736     
  -661811977.09137273       -1754376.1985874772        1483047523.4014273     
  -634098678.79968750       -28357.388951778412        1475676266.1726170     
  -606632943.43511248        872451.66364821792        1473662428.4845920     
  -579414770.99765015        948050.95920649171        1477006010.3373492     
  -552444161.48730171        198440.49771946669        1485707011.7308927     
  -995222985.65093374       -3383043.9805802107        1455713352.7830565     
  -953106534.31825912       -630058.57453060150        1447460316.5900269     
  -911361429.51232123        885105.07572829723        1444692217.0578001     
  -869987671.23311162        1162446.9702263474        1447409054.1863799     
  -828985259.48063934        201967.10893261433        1455610827.9757624     
  -1330304014.2376020       -5512717.7707018852        1427184474.1429698     
  -1273420075.2353106       -1623465.3796617389        1417905244.7861602     
  -1217031266.3593767        615353.25685685873        1414238469.2101765     
  -1161137587.6097927        1203738.1388776302        1416184147.4150181     
  -1105739038.9865649        141689.26637279987        1423742279.4006839     
  -10.038391638080700       -26.086039784311634        1540582284.7813094     
   5.8911496560130931        7.9851944653611273        1537053653.5491679     
   19.171910899499665        33.227162573565863        1538098142.9911070     
   29.803895752454913        49.639875005832117        1543715753.1071329     
   37.787100188795350        57.223320770494439        1553906483.8972464     
  -276115745.00655252        131109.43272809684        1514030830.6660736     
  -265188092.30014858       -1089367.5707512945        1510240458.8799603     
  -254188345.69915956       -2069531.5922749788        1510564497.2653577     
  -243116505.20358577       -2809382.6318524331        1515002945.8222678     
  -231972570.81342688       -3308920.6894804239        1523555804.5506885     
  -552444161.48730171        198440.49771946669        1485707011.7308927     
  -531899473.43995267       -2635728.0112372041        1481739012.0247300     
  -511210594.95465559       -4989261.7270340025        1481426711.9875059     
  -490377526.03141290       -6862160.6496769786        1484770111.6192219     
  -469400266.67022336       -8254424.7791641057        1491769210.9198799     
  -828985259.48063934        201967.10893261433        1455610827.9757624     
  -800134137.52826512       -4639073.3362797201        1451549312.9834726     
  -771066728.59458208       -8759157.1771252155        1450684787.1575522     
  -741783032.67958903       -12158284.413606256        1453017250.4979999     
  -712283049.78328538       -14836455.045719981        1458546703.0048144     
  -1105739038.9865649        141689.26637279987        1423742279.4006839     
  -1069892084.5650877       -7099403.5458752513        1419671361.7561905     
  -1033756746.6189367       -13379217.942545712        1418338722.7754955     
  -997333025.14811337       -18697753.923641741        1419744362.4585950     
  -960620920.15262127       -23055011.489174664        1423888280.8054934     
   37.787100188795350        57.223320770494439        1553906483.8972464     
   28.481278416289637        98.084312329669558        1554743220.5520432     
   47.185288826373338        232.31141255192151        1564997255.2205539     
   93.899128170729071        459.90460609924469        1584668587.9027770     
   168.62279320103949        780.86389012364248        1613757218.5987120     
  -231972570.81342688       -3308920.6894804239        1523555804.5506885     
  -207919658.59994048       -205447.30767908692        1521813235.7021928     
  -184116652.52778414        2065005.6030206382        1528439439.4269569     
  -160563552.59696504        3502438.0425963923        1543434415.7249861     
  -137260358.80747658        4106850.0110724345        1566798164.5962708     
  -469400266.67022336       -8254424.7791641057        1491769210.9198799     
  -424290219.91014564       -2946254.9683763683        1487155746.7250640     
  -379680013.44256306        695780.53409735858        1489862529.6630583     
  -335569647.26747435        2671681.7282569706        1499889559.7338674     
  -291959121.38487697        2981448.6141089201        1517236836.9374886     
  -712283049.78328538       -14836455.045719981        1458546703.0048144     
  -649111655.44933856       -8222324.8977783322        1450770753.6206610     
  -586690035.55904067       -4107442.8953290284        1449266525.9288695     
  -525018190.11239612       -2491809.0383937657        1454034019.9294350     
  -464096119.10941207       -3375423.3269916773        1465073235.6223655     
  -960620920.15262127       -23055011.489174664        1423888280.8054934     
  -882383965.21751034       -16033657.095857263        1412658256.3889802     
  -805146718.87721574       -12344664.685258895        1406651428.2243769     
  -728909181.13173997       -11988034.257392943        1405867796.3116860     
  -653671351.98107624       -14963765.812231004        1410307360.6508985     
  -1756070760.1306179       -526821228.03918535        679918171.34530413     
  -1784185593.6780663       -500054209.21343040        806317688.65623260     
  -1809363680.2228231       -463498033.71203744        925615638.98272860     
  -1831605019.7648890       -417152701.53500652        1037812022.3247926     
  -1850909612.3042626       -361018212.68233716        1142906838.6824245     
  -2201799148.6218834       -660539744.58656502        696329385.32705522     
  -2238493816.0162601       -613851919.65631759        813763849.73198581     
  -2273141022.9407272       -560339226.49304008        927102899.83036733     
  -2305740769.3952856       -500001665.09673190        1036346535.6221994     
  -2336293055.3799353       -432839235.46739328        1141494757.1074822     
  -2685743490.2673092       -805723047.08019269        721911179.11648214     
  -2722428983.8575201       -736537713.75012505        829343089.66050255     
  -2757956303.5106044       -663491800.62963414        935685738.57585645     
  -2792325449.2265615       -586585307.71872067        1040939125.8625438     
  -2825536421.0053916       -505818235.01738381        1145103251.5205650     
  -3207903785.0668950       -962371135.52006853        756663552.71358490     
  -3235991097.2018471       -868111591.49485242        853055408.44178236     
  -3263809521.9324532       -772955756.12182033        951364155.21919632     
  -3291359059.2587156       -676903629.40097284        1051589793.0458263     
  -3318639709.1806331       -579955211.33231020        1153732321.9216733     
  -3768280033.0206418       -1130484009.9061925        800586506.11836326     
  -3779180156.0492396       -1008573552.8904995        884900806.07582533     
  -3790700678.2062750       -888731092.96959805        974138149.76038647     
  -3802841599.4917479       -770956630.14348888        1068298537.1720471     
  -3815602919.9056592       -655250164.41217148        1167381968.3108072     
  -1850909612.3042626       -361018212.68233716        1142906838.6824245     
  -1835560921.3278825       -295204762.38405973        1190310482.7947774     
  -1823621740.1733921       -240756344.82541311        1239963238.4051690     
  -1815092068.8407910       -197672960.00639868        1291865105.5135996     
  -1809971907.3300796       -165954607.92701751        1346016084.1200686     
  -2336293055.3799353       -432839235.46739328        1141494757.1074822     
  -2312810673.1958551       -351680374.79247206        1182621275.9628749     
  -2292835511.5289602       -282212249.17483646        1224214120.3161576     
  -2276367570.3792529       -224434858.61448771        1266273290.1673293     
  -2263406849.7467284       -178348203.11142313        1308798785.5163918     
  -2825536421.0053916       -505818235.01738381        1145103251.5205650     
  -2799014021.8997531       -410842066.25166178        1179838649.3078194     
  -2776096554.0065961       -327882334.86087894        1213257586.5928137     
  -2756784017.3259201       -256939040.84503710        1245360063.3755484     
  -2741076411.8577275       -198012184.20413530        1276146079.6560235     
  -3318639709.1806331       -579955211.33231020        1153732321.9216733     
  -3294170967.4395752       -472689836.76162899        1181962602.8296099     
  -3273404867.6062970       -377766601.88354254        1207093637.2351372     
  -3256341409.6807961       -295185506.69804883        1229125425.1382556     
  -3242980593.6630731       -224946551.20515132        1248057966.5389652     
  -3815602919.9056592       -655250164.41217148        1167381968.3108072     
  -3798281509.8153243       -537223686.32237363        1188993136.5282469     
  -3784760452.3280625       -431865050.24282312        1205722272.2431285     
  -3775039747.4438772       -339174256.17352247        1217569375.4554515     
  -3769119395.1627660       -259151304.11447024        1224534446.1652164     
  -1809971907.3300796       -165954607.92701751        1346016084.1200686     
  -1779554051.9458888       -133667479.33156747        1363745435.0664020     
  -1750355608.7041888       -105445057.87775522        1382340968.1826127     
  -1722376577.6049793       -81287343.565573156        1401802683.4687033     
  -1695616958.6482606       -61194336.395030320        1422130580.9246712     
  -2263406849.7467284       -178348203.11142313        1308798785.5163918     
  -2224070864.7400336       -134029644.18656361        1316832863.2978427     
  -2187610522.4406271       -99296560.952668548        1328084374.6968641     
  -2154025822.8485103       -74148953.409739852        1342553319.7134547     
  -2123316765.9636838       -58586821.557780623        1360239698.3476155     
  -2741076411.8577275       -198012184.20413530        1276146079.6560235     
  -2686104435.9494090       -139646836.56612873        1272552615.2803280     
  -2635664333.3131771       -96387733.168419957        1274527835.9698932     
  -2589756103.9490352       -68234874.011005759        1282071741.7247195     
  -2548379747.8569832       -55188259.093890190        1295184332.5448058     
  -3242980593.6630731       -224946551.20515132        1248057966.5389652     
  -3165654765.5740132       -150519056.47026253        1230904691.0138569     
  -3094517041.3218398       -96718574.525001049        1221671352.0017006     
  -3029567420.9065561       -63545105.369368196        1220357949.5024960     
  -2970805904.3281627       -50998649.003364682        1226964483.5162420     
  -3769119395.1627660       -259151304.11447024        1224534446.1652164     
  -3662721853.6138468       -166646303.89896560        1191889090.4984295     
  -3564168646.4666166       -100289085.02242029        1169514922.7922857     
  -3473459773.7210736       -60079647.484832764        1157411943.0467844     
  -3390595235.3772163       -46017991.286202312        1155580151.2619262     
  -1695616958.6482606       -61194336.395030320        1422130580.9246712     
  -1645494681.1460176       -38765610.260297596        1415156775.9572310     
  -1597234142.2262037       -22542679.400330901        1413320362.8865995     
  -1550835341.8888249       -12525543.815145135        1416621341.7127757     
  -1506298280.1338735       -8714203.5047181845        1425059712.4357607     
  -2123316765.9636838       -58586821.557780623        1360239698.3476155     
  -2061198956.8558834       -39962603.049459696        1352249120.9473851     
  -2000399267.0257633       -25732115.466729522        1349226446.9530232     
  -1940917696.4733198       -15895358.809595346        1351171676.3645296     
  -1882754245.1985548       -10452333.078054667        1358084809.1819046     
  -2548379747.8569832       -55188259.093890190        1295184332.5448058     
  -2474750659.9748864       -40513824.061363697        1286811205.2339985     
  -2401896072.0657120       -28421055.605246305        1283236492.8381195     
  -2329815984.1294613       -18909953.725542068        1284460195.3571694     
  -2258510396.1661339       -11980518.422250390        1290482312.7911479     
  -2970805904.3281627       -50998649.003364682        1226964483.5162420     
  -2886149790.5030193       -40419273.296006203        1218843028.8170707     
  -2801724557.3460484       -30609499.815875411        1215350500.5418873     
  -2717530204.8572469       -21569328.562984109        1216486898.6906953     
  -2633566733.0366144       -13298759.537317514        1222252223.2634912     
  -3390595235.3772163       -46017991.286202312        1155580151.2619262     
  -3295396348.4402895       -39678950.753391981        1148344591.6966031     
  -3199884722.8667760       -32297448.098628879        1145568470.0643299     
  -3104060358.6566787       -23873483.321918249        1147251786.3651066     
  -3007923255.8099990       -14407056.423262358        1153394540.5989311     
  -1506298280.1338735       -8714203.5047181845        1425059712.4357607     
  -1462293338.6327817       -7892581.9811362028        1419670091.8945491     
  -1418292647.1497078       -7085127.1842777133        1418227678.6653476     
  -1374296205.6846471       -6291839.1141303182        1420732472.7481549     
  -1330304014.2376020       -5512717.7707018852        1427184474.1429698     
  -1882754245.1985548       -10452333.078054667        1358084809.1819046     
  -1827889905.3574350       -8424174.8465645313        1352864072.0196607     
  -1773306435.7353237       -7332250.6784318686        1351771079.3359108     
  -1719003836.3322136       -7176560.5736361742        1354805831.1306574     
  -1664982107.1481051       -7957104.5321812630        1361968327.4038975     
  -2258510396.1661339       -11980518.422250390        1290482312.7911479     
  -2192270837.5093169       -8591077.3401629925        1285107735.4400508     
  -2126588769.2724895       -7059937.6580476761        1284041439.7339361     
  -2061464191.4556530       -7387099.3758987188        1287283425.6728017     
  -1996897104.0588100       -9572562.4937244654        1294833693.2566490     
  -2633566733.0366144       -13298759.537317514        1222252223.2634912     
  -2555436135.0884223       -8393289.4619286060        1216401082.1557229     
  -2478139647.7612076       -6268188.1231290102        1215038759.8594224     
  -2401677271.0549722       -6923455.5209311247        1218165256.3745885     
  -2326049004.9697151       -10359091.655321360        1225780571.7012231     
  -3007923255.8099990       -14407056.423262358        1153394540.5989311     
  -2917385798.0947533       -7830811.2118585110        1146744112.1666727     
  -2827959071.2014790       -4957002.0736815929        1144763039.7123690     
  -2739643075.1301694       -5785629.0087243319        1147451323.2360170     
  -2652437809.8808260       -10316692.016989827        1154808962.7376199     
  -1330304014.2376020       -5512717.7707018852        1427184474.1429698     
  -1273420075.2353106       -1623465.3796617389        1417905244.7861602     
  -1217031266.3593767        615353.25685685873        1414238469.2101765     
  -1161137587.6097927        1203738.1388776302        1416184147.4150181     
  -1105739038.9865649        141689.26637279987        1423742279.4006839     
  -1664982107.1481051       -7957104.5321812630        1361968327.4038975     
  -1594005904.7612431       -4462299.2439186573        1353072437.0746174     
  -1523283552.6261563       -1813661.4615697861        1349495321.8225169     
  -1452815050.7428482       -11191.185144126415        1351236981.6475923     
  -1382600399.1113091        945111.58537381887        1358297416.5498469     
  -1996897104.0588100       -9572562.4937244654        1294833693.2566490     
  -1912667720.2977993       -6723928.9113634825        1286602635.1419094     
  -1828450906.9139857       -3917196.5863206387        1283396673.4006996     
  -1744246663.9073677       -1152365.5185983181        1285215808.0330188     
  -1660054991.2779427        1570564.2918112278        1292060039.0388670     
  -2326049004.9697151       -10359091.655321360        1225780571.7012231     
  -2229405521.8449788       -8408354.3819864988        1218495838.9880319     
  -2132533329.2228618       -5695252.1173875332        1215942523.9447222     
  -2035432427.1033561       -2219784.8614865541        1218120626.5712941     
  -1938102815.4864674        2018047.3856812716        1225030146.8677502     
  -2652437809.8808260       -10316692.016989827        1154808962.7376199     
  -2544219309.4027858       -9515575.6558177471        1148752048.6129878     
  -2435530819.5527802       -7147828.0547562838        1147132873.4545882     
  -2326372340.3308144       -3213449.2138280869        1149951437.2624249     
  -2216743871.7368827        2287560.8669843674        1157207740.0364935     
  -1105739038.9865649        141689.26637279987        1423742279.4006839     
  -1069892084.5650877       -7099403.5458752513        1419671361.7561905     
  -1033756746.6189367       -13379217.942545712        1418338722.7754955     
  -997333025.14811337       -18697753.923641741        1419744362.4585950     
  -960620920.15262127       -23055011.489174664        1423888280.8054934     
  -1382600399.1113091        945111.58537381887        1358297416.5498469     
  -1339021241.7283623       -6560133.6422071457        1354420180.1256726     
  -1295498717.4278331       -14254155.811177373        1353813471.7192972     
  -1252032826.2097166       -22136954.921526492        1356477291.3307161     
  -1208623568.0740166       -30208530.973265171        1362411638.9599290     
  -1660054991.2779427        1570564.2918112278        1292060039.0388670     
  -1607222918.4935336       -5742619.6191129088        1287973964.4600828     
  -1554792495.3986263       -14394635.828377843        1287690667.2530887     
  -1502763721.9932206       -24385484.335984647        1291210147.4178896     
  -1451136598.2773206       -35715165.141939938        1298532404.9544861     
  -1938102815.4864674        2018047.3856812716        1225030146.8677502     
  -1874497114.8605967       -4646861.4765788317        1220332714.7594137     
  -1811638080.5313201       -13800657.994153500        1219970309.3768699     
  -1749525712.4986293       -25443342.167019248        1223942930.7201190     
  -1688160010.7625315       -39574913.995190978        1232250578.7891626     
  -2216743871.7368827        2287560.8669843674        1157207740.0364935     
  -2140843830.8295579       -3272859.2146290541        1151496431.0236712     
  -2066035472.8259075       -12472222.308488011        1150652398.0906408     
  -1992318797.7259359       -25310528.414606690        1154675641.2374029     
  -1919693805.5296445       -41787777.532999277        1163566160.4639564     
  -960620920.15262127       -23055011.489174664        1423888280.8054934     
  -882383965.21751034       -16033657.095857263        1412658256.3889802     
  -805146718.87721574       -12344664.685258895        1406651428.2243769     
  -728909181.13173997       -11988034.257392943        1405867796.3116860     
  -653671351.98107624       -14963765.812231004        1410307360.6508985     
  -1208623568.0740166       -30208530.973265171        1362411638.9599290     
  -1115421203.5767670       -24018466.706010282        1352921389.8069441     
  -1022608112.5396209       -19125980.639090002        1349911634.0943220     
  -930184294.96256876       -15531072.772482276        1353382371.8220668     
  -838149750.84560657       -13233743.106198907        1363333602.9901714     
  -1451136598.2773206       -35715165.141939938        1298532404.9544861     
  -1339376546.5366371       -29278707.696362257        1291494105.3888681     
  -1227395333.1213288       -22105044.668701589        1292193596.4520690     
  -1115192958.0314004       -14194176.058972359        1300630878.1440883     
  -1002769421.2668526       -5546101.8671749234        1316805950.4649251     
  -1688160010.7625315       -39574913.995190978        1232250578.7891626     
  -1554249994.0971148       -31814380.066895664        1228376403.1347480     
  -1419508380.6223500       -21281856.774112284        1233497315.2976081     
  -1283935170.3382540       -7977344.1168790460        1247613315.2777469     
  -1147530363.2448068        8099157.9048367143        1270724403.0751474     
  -1919693805.5296445       -41787777.532999277        1163566160.4639564     
  -1760041546.2581918       -31625483.817592263        1163568283.0445843     
  -1598947255.0426810       -16656416.955311000        1173822790.6309493     
  -1436410931.8831120        3119423.0538241863        1194329683.2230339     
  -1272432576.7794814        27702036.209825516        1225088960.8208492     
  -3768280033.0206418       -1130484009.9061925        800586506.11836326     
  -3779180156.0492396       -1008573552.8904995        884900806.07582533     
  -3790700678.2062750       -888731092.96959805        974138149.76038647     
  -3802841599.4917479       -770956630.14348888        1068298537.1720471     
  -3815602919.9056592       -655250164.41217148        1167381968.3108072     
  -4339736896.1831341       -1301921068.8549402        858818042.66993618     
  -4335260229.9741106       -1125630239.4919608        942438840.66190302     
  -4331927340.4456396       -953151999.06415486        1020415577.6447971     
  -4329738227.5977201       -784486347.57152236        1092748253.6186192     
  -4328692891.4303551       -619633285.01406455        1159436868.5833681     
  -4895139036.6089544       -1468541710.9826863        936496165.70742226     
  -4905477308.9799442       -1246928027.6177104        1018812854.5897601     
  -4917482735.5836010       -1030871525.0282903        1084918377.7268536     
  -4931155316.4199247       -820372203.21442592        1134812735.1187029     
  -4946495051.4889135       -615430062.17611659        1168495926.7653077     
  -5434486454.2981043       -1630345936.2894311        1033620875.2308211     
  -5489831393.0667410       -1372466917.2677493        1114022847.8593967     
  -5547366863.6201611       -1121889670.8620057        1167646550.0065560     
  -5607092865.9583597       -878614197.07219851        1194491981.6722989     
  -5669009400.0813398       -642640495.89832854        1194559142.8566256     
  -5957779149.2505836       -1787333744.7751751        1150192171.2401333     
  -6088322482.2345009       -1502246908.4420774        1228068820.4708128     
  -6221579724.5553150       -1226206436.5652990        1268600094.4839039     
  -6357550876.2130251       -959212329.14483988        1271785993.2794073     
  -6496235937.2076321       -701264586.18070030        1237626516.8573222     
  -3815602919.9056592       -655250164.41217148        1167381968.3108072     
  -3798281509.8153243       -537223686.32237363        1188993136.5282469     
  -3784760452.3280625       -431865050.24282312        1205722272.2431285     
  -3775039747.4438772       -339174256.17352247        1217569375.4554515     
  -3769119395.1627660       -259151304.11447024        1224534446.1652164     
  -4328692891.4303551       -619633285.01406455        1159436868.5833681     
  -4298453286.6653652       -463796518.03383040        1141500569.3556886     
  -4278789405.9823537       -343212164.66020107        1129657924.1748171     
  -4269701249.3813281       -257880224.89318061        1123908933.0407536     
  -4271188816.8622832       -207800698.73276806        1124253595.9534986     
  -4946495051.4889135       -615430062.17611659        1168495926.7653077     
  -4871978147.6225071       -412375274.97741580        1103107560.0337830     
  -4814812339.3169880       -267157472.98168015        1054788533.8984327     
  -4774997626.5723600       -179776656.18891239        1023538848.3592579     
  -4752534009.3886204       -150232824.59910965        1009358503.4162567     
  -5669009400.0813398       -642640495.89832854        1194559142.8566256     
  -5518856092.6867552       -382959957.15313363        1073814108.5625305     
  -5392829252.3319645       -203700975.20726252        981114101.41397607     
  -5290928879.0169716       -104863550.06071854        916459121.41096330     
  -5213154972.7417793       -86447681.713499546        879849168.55349100     
  -6496235937.2076321       -701264586.18070030        1237626516.8573222     
  -6239087121.8581047       -375550564.56098223        1053620214.9419311     
  -6012840145.0272837       -152842671.33694792        908634626.72144628     
  -5817495006.7151690       -33140906.508599281        802669752.19587028     
  -5653051706.9217587       -16445270.075932980        735725591.36520088     
  -3769119395.1627660       -259151304.11447024        1224534446.1652164     
  -3662721853.6138468       -166646303.89896560        1191889090.4984295     
  -3564168646.4666166       -100289085.02242029        1169514922.7922857     
  -3473459773.7210736       -60079647.484832764        1157411943.0467844     
  -3390595235.3772163       -46017991.286202312        1155580151.2619262     
  -4271188816.8622832       -207800698.73276806        1124253595.9534986     
  -4149294304.8134952       -143565154.63700533        1090614305.2651427     
  -4031895676.9839807       -94315891.272162437        1065148293.7975227     
  -3918992933.3737450       -60052908.638240099        1047855561.5506401     
  -3810586073.9827833       -40776206.735235691        1038736108.5244930     
  -4752534009.3886204       -150232824.59910965        1009358503.4162567     
  -4621136551.8111229       -116064944.11443973        978631802.91914499     
  -4490886528.2704906       -85721843.752650499        953980472.90286398     
  -4361783938.7667236       -59203523.513742447        935404513.36741281     
  -4233828783.2998157       -36509983.397709370        922903924.31279051     
  -5213154972.7417793       -86447681.713499546        879849168.55349100     
  -5078248594.6067352       -84145672.331269026        855941583.46043766     
  -4941141200.3261442       -74506942.463883162        836011460.10830724     
  -4801832789.9000044       -57531492.111330032        820058798.49710310     
  -4660323363.3283148       -33219321.273623466        808083598.62681901     
  -5653051706.9217587       -16445270.075932980        735725591.36520088     
  -5520630433.2003288       -47807339.287492514        722543646.88902020     
  -5382659693.1509399       -60671187.405853271        711241255.41385627     
  -5239139486.7735929       -55036814.431017876        701818416.93970966     
  -5090069814.0682831       -30904220.362977982        694275131.46657789     
  -3390595235.3772163       -46017991.286202312        1155580151.2619262     
  -3295396348.4402895       -39678950.753391981        1148344591.6966031     
  -3199884722.8667760       -32297448.098628879        1145568470.0643299     
  -3104060358.6566787       -23873483.321918249        1147251786.3651066     
  -3007923255.8099990       -14407056.423262358        1153394540.5989311     
  -3810586073.9827833       -40776206.735235691        1038736108.5244930     
  -3702054444.2314711       -29225473.568585157        1030248692.1147314     
  -3594145655.4330568       -19750876.911593199        1026355095.4828691     
  -3486859707.5875344       -12352416.764245033        1027055318.6289062     
  -3380196600.6949124       -7030093.1265583038        1032349361.5528399     
  -4233828783.2998157       -36509983.397709370        922903924.31279051     
  -4111580462.6059813       -19632373.158782244        912073141.53753102     
  -3990890562.4545250       -7949498.0611119270        905970560.38502002     
  -3871759082.8454423       -1461358.1046898365        904596180.85525489     
  -3754186023.7787371       -167953.28952813148        907950002.94823587     
  -4660323363.3283148       -33219321.273623466        808083598.62681901     
  -4523974403.5638199       -10899649.523975611        793817939.96500194     
  -4390119443.9311810        3106688.4528136253        784414864.77077854     
  -4258758484.4303975        8799692.6567513943        779874373.04415274     
  -4129891525.0614734        6179363.0878288746        780196464.78512096     
  -5090069814.0682831       -30904220.362977982        694275131.46657789     
  -4939236267.1049862       -3027302.6641662121        675483087.39714086     
  -4791832299.8630304        13417682.630177259        661688008.64014828     
  -4647857912.3424053        18430735.520079613        652889895.19559860     
  -4507313104.5431232        12011856.005510092        649088747.06349421     
  -3007923255.8099990       -14407056.423262358        1153394540.5989311     
  -2917385798.0947533       -7830811.2118585110        1146744112.1666727     
  -2827959071.2014790       -4957002.0736815929        1144763039.7123690     
  -2739643075.1301694       -5785629.0087243319        1147451323.2360170     
  -2652437809.8808260       -10316692.016989827        1154808962.7376199     
  -3380196600.6949124       -7030093.1265583038        1032349361.5528399     
  -3279030150.1621122       -4965699.2538285255        1024134199.4117460     
  -3178301693.5272012       -4361285.0407235622        1020467026.0766660     
  -3078011230.7901735       -5216850.4872303009        1021347841.5476015     
  -2978158761.9510269       -7532395.5933518410        1026776645.8245485     
  -3754186023.7787371       -167953.28952813148        907950002.94823587     
  -3642737343.7767849       -2719439.7599980831        898954966.84306931     
  -3531053920.7486353       -4488449.4764785767        894386552.37197554     
  -3419135754.6942902       -5474982.4389715195        894244759.53495586     
  -3306982845.6137471       -5679038.6474733353        898529588.33200908     
  -4129891525.0614734        6179363.0878288746        780196464.78512096     
  -4008507378.9387665       -1092032.7303593159        771206414.46064150     
  -3886215752.8657813       -5338495.3809485435        766521618.59829712     
  -3763016646.8425179       -6560024.8639438152        766142077.19808507     
  -3638910060.8689761       -4756621.1793470383        770067790.26000679     
  -4507313104.5431232        12011856.005510092        649088747.06349421     
  -4376340255.6480608       -83478.164905309677        640888542.26446676     
  -4243787189.8786373       -6911422.7541310787        636872224.75562823     
  -4109653907.2348537       -8471977.7621512413        637039794.53698742     
  -3973940407.7167125       -4765143.1889734268        641391251.60853970     
  -2652437809.8808260       -10316692.016989827        1154808962.7376199     
  -2544219309.4027858       -9515575.6558177471        1148752048.6129878     
  -2435530819.5527802       -7147828.0547562838        1147132873.4545882     
  -2326372340.3308144       -3213449.2138280869        1149951437.2624249     
  -2216743871.7368827        2287560.8669843674        1157207740.0364935     
  -2978158761.9510269       -7532395.5933518410        1026776645.8245485     
  -2857369256.7704415       -4177793.5295782089        1020030936.3757250     
  -2736544590.9222107       -705989.24032592773        1017928225.6466439     
  -2615684764.4063392        2883017.2743974924        1020468513.6373035     
  -2494789777.2228251        6589226.0146002769        1027651800.3477049     
  -3306982845.6137471       -5679038.6474733353        898529588.33200908     
  -3173035879.2920208        404986.05048298836        890587783.40395677     
  -3039488581.0069733        5156783.9595079422        887494236.94915390     
  -2906340950.7586050        8576355.0796074867        889248948.96759510     
  -2773592988.5469112        10663699.410777807        895851919.45928454     
  -3638910060.8689761       -4756621.1793470383        770067790.26000679     
  -3491219176.9675212        4232763.0843617916        760422589.69768298     
  -3344362789.8070707        10440491.544734716        755830907.36211467     
  -3198340899.3876138        13866564.201787949        756292743.25329745     
  -3053153505.7091579        14510981.055506825        761808097.37123358     
  -3973940407.7167125       -4765143.1889734268        641391251.60853970     
  -3811919149.7969413        7305537.5720760822        629535355.25690258     
  -3651167217.3224940        15145133.515375376        622938236.88552856     
  -3491684610.2933640        18753644.640954733        621599896.49441290     
  -3333471328.7095571        18131070.948786259        625520334.08355641     
  -2216743871.7368827        2287560.8669843674        1157207740.0364935     
  -2140843830.8295579       -3272859.2146290541        1151496431.0236712     
  -2066035472.8259075       -12472222.308488011        1150652398.0906408     
  -1992318797.7259359       -25310528.414606690        1154675641.2374029     
  -1919693805.5296445       -41787777.532999277        1163566160.4639564     
  -2494789777.2228251        6589226.0146002769        1027651800.3477049     
  -2408499591.0099988       -737360.26330089569        1020100309.8864738     
  -2322674030.1199207       -9612697.6170184612        1016081539.6257490     
  -2237313094.5525851       -20036786.046541333        1015595489.5655296     
  -2152416784.3079863       -32009625.551861882        1018642159.7058169     
  -2773592988.5469112        10663699.410777807        895851919.45928454     
  -2680725673.8265581        427041.89717781544        887191814.72740340     
  -2587695926.8480082       -9268174.7557674646        880729874.31674290     
  -2494503747.6112628       -18421950.548070908        876466098.22730279     
  -2401149136.1163278       -27034285.479721069        874400486.45907855     
  -3053153505.7091579        14510981.055506825        761808097.37123358     
  -2957522079.2792277        220347.26683354378        752770945.54646397     
  -2861101163.0101695       -11438653.724745393        744597402.16362953     
  -2763890756.9019780       -20466021.919208407        737287467.22272313     
  -2665890860.9546556       -26861757.316578031        730841140.72375286     
  -3333471328.7095571        18131070.948786259        625520334.08355641     
  -3238888807.3680134       -1357444.1543505192        616837702.34365678     
  -3142889738.6064043       -16124134.523934484        607684123.16639972     
  -3045474122.4247308       -26169000.159970403        598059596.55179191     
  -2946641958.8229837       -31492041.062431455        587964122.49982929     
  -1919693805.5296445       -41787777.532999277        1163566160.4639564     
  -1760041546.2581918       -31625483.817592263        1163568283.0445843     
  -1598947255.0426810       -16656416.955311000        1173822790.6309493     
  -1436410931.8831120        3119423.0538241863        1194329683.2230339     
  -1272432576.7794814        27702036.209825516        1225088960.8208492     
  -2152416784.3079863       -32009625.551861882        1018642159.7058169     
  -1969068478.0740428       -14780151.761237741        1012071067.0896046     
  -1785475295.1992428        3265577.4989063740        1011844430.1906856     
  -1601637235.6835721        22127562.228593767        1017962249.0090632     
  -1417554299.5270593        41805802.427805066        1030424523.5447373     
  -2401149136.1163278       -27034285.479721069        874400486.45907855     
  -2205270295.1725426       -6087285.2896795273        859859497.45895541     
  -2010343732.8911083        11685452.692553401        847755034.88769507     
  -1816369449.2720084        26283928.466979027        838087098.74529684     
  -1623347444.3152571        37708142.033598542        830855689.03177309     
  -2665890860.9546556       -26861757.316578031        730841140.72375286     
  -2468646997.5537066       -5546884.4029197693        706933574.15264547     
  -2273552568.1183004        8603208.6256020069        681554604.72197521     
  -2080607572.6484320        15588521.768963695        654704232.43173754     
  -1889812011.1441164        15409055.027200341        626382457.28192532     
  -2946641958.8229837       -31492041.062431455        587964122.49982929     
  -2759198585.2175217       -13158949.100951791        553293297.17067480     
  -2575101800.8808055       -5981154.7019506693        513243139.69352233     
  -2394351605.8128352       -9958657.8654372692        467813650.06837344     
  -2216948000.0136065       -25091458.591400504        417004828.29522073     
  -5957779149.2505836       -1787333744.7751751        1150192171.2401333     
  -6088322482.2345009       -1502246908.4420774        1228068820.4708128     
  -6221579724.5553150       -1226206436.5652990        1268600094.4839039     
  -6357550876.2130251       -959212329.14483988        1271785993.2794073     
  -6496235937.2076321       -701264586.18070030        1237626516.8573222     
  -6810414299.9579573       -2043124289.9873872        1353910488.8595049     
  -6828386599.7200232       -1395443608.0794218        1202888962.8574789     
  -6897719524.3578577       -918965009.09068871        1092130411.7264199     
  -7018413073.8714628       -613688493.02118778        1021634835.4663278     
  -7190467248.2608376       -479614059.87091923        991402234.07720268     
  -8337789084.9117956       -2501336725.4735389        1712476263.2130837     
  -8021452208.3418503       -1424540755.0576575        1275802060.5163324     
  -7805122672.1865501       -681102586.02392292        956999182.77910316     
  -7688800476.4458914       -271022218.37233162        756067630.00139630     
  -7672485621.1198769       -194299652.10288715        673007402.18321109     
  -10539903504.112093       -3161971051.2336283        2225889494.3008695     
  -9667519308.0999813       -1589538349.3767848        1446808113.4473734     
  -8943789168.0413837       -512619167.36499977        863206407.64195418     
  -8368713083.9363060        68786494.801727295        475084376.88461190     
  -7942291055.7847471        154678637.12339449        282442021.17534769     
  -13416757557.558853       -4025027267.2676558        2894150182.1228619     
  -11766587898.994415       -1890436391.0368025        1715907121.6506014     
  -10313719011.922367       -413514753.11392069        810752086.31497312     
  -9058150896.3427124        405737646.50098848        178685076.11597711     
  -7999883552.2554512        567320807.80792570       -180293908.94638690     
  -6496235937.2076321       -701264586.18070030        1237626516.8573222     
  -6239087121.8581047       -375550564.56098223        1053620214.9419311     
  -6012840145.0272837       -152842671.33694792        908634626.72144628     
  -5817495006.7151690       -33140906.508599281        802669752.19587028     
  -5653051706.9217587       -16445270.075932980        735725591.36520088     
  -7190467248.2608376       -479614059.87091923        991402234.07720268     
  -6900229276.1412764       -304163972.44587922        847221095.54976416     
  -6622792430.5819302       -171384306.88822079        724148733.34929478     
  -6358156711.5827980       -81275063.197942257        622185147.47579336     
  -6106322119.1438780       -33836241.375043392        541330337.92926157     
  -7672485621.1198769       -194299652.10288715        673007402.18321109     
  -7400335456.1386747       -184466588.04504538        589768924.32863235     
  -7122885705.7591963       -156968239.32627678        509727285.43308413     
  -6840136369.9814434       -111804605.94659185        432882485.49656457     
  -6552087448.8054132       -48975687.905980349        359234524.51907629     
  -7942291055.7847471        154678637.12339449        282442021.17534769     
  -7739405661.8503027       -16458411.358477592        281263701.27853417     
  -7513119970.5590925       -109594468.65112591        265370282.97281146     
  -7263433981.9111118       -124729534.75454760        234761766.25818139     
  -6990347695.9063654       -61863609.668744087        189438151.13464153     
  -7999883552.2554512        567320807.80792570       -180293908.94638690     
  -7917439893.2761593        199860557.61381960       -78294573.600529060     
  -7793495224.9816074       -29262994.862757683       -8922274.0315182470     
  -7628049547.3717985       -120049849.62180710        27822989.760645621     
  -7421102860.4467287       -72500006.663324356        31941217.775961868     
  -5653051706.9217587       -16445270.075932980        735725591.36520088     
  -5520630433.2003288       -47807339.287492514        722543646.88902020     
  -5382659693.1509399       -60671187.405853271        711241255.41385627     
  -5239139486.7735929       -55036814.431017876        701818416.93970966     
  -5090069814.0682831       -30904220.362977982        694275131.46657789     
  -6106322119.1438780       -33836241.375043392        541330337.92926157     
  -5959138183.7300339       -35515741.152394295        535036580.46999782     
  -5810838698.3445826       -33476741.024392128        531369339.90367961     
  -5661423662.9875231       -27719240.991033554        530328616.23031074     
  -5510893077.6588631       -18243241.052323103        531914409.44988841     
  -6552087448.8054132       -48975687.905980349        359234524.51907629     
  -6388006669.1507778       -20332363.484606028        354656051.66098118     
  -6227244255.8808928       -2750260.3457272053        353451059.58776534     
  -6069800208.9957561        3770621.5106587410        355619548.29942447     
  -5915674528.4953671       -769717.91544890404        361161517.79596263     
  -6990347695.9063654       -61863609.668744087        189438151.13464153     
  -6807235889.4625692       -2257206.2841339111        181402060.46197039     
  -6631876365.7598734        31508254.630139351        177486414.46610859     
  -6464269124.7982836        39432773.074066162        177691213.14705262     
  -6304414166.5777950        21516349.047645092        182016456.50480637     
  -7421102860.4467287       -72500006.663324356        31941217.775961868     
  -7216825844.6654005        18709730.449029922        15274606.872969348     
  -7024735027.9815273        69298803.903195381        3475404.5387131642     
  -6844830410.3951082        79267213.699178696       -3456389.2268042443     
  -6677111991.9061470        48614959.836974621       -5520774.4235853991     
  -5090069814.0682831       -30904220.362977982        694275131.46657789     
  -4939236267.1049862       -3027302.6641662121        675483087.39714086     
  -4791832299.8630304        13417682.630177259        661688008.64014828     
  -4647857912.3424053        18430735.520079613        652889895.19559860     
  -4507313104.5431232        12011856.005510092        649088747.06349421     
  -5510893077.6588631       -18243241.052323103        531914409.44988841     
  -5351455606.5244865       -6547375.7165808678        516091031.77591389     
  -5193431839.4351349        436142.80242013931        505623181.00488025     
  -5036821776.3908024        2707314.5046896935        500510857.13678026     
  -4881625417.3914919        266139.39021348953        500754060.17162400     
  -5915674528.4953671       -769717.91544890404        361161517.79596263     
  -5746608671.5027876       -4947566.4366362095        350658661.47315562     
  -5576940642.8789167       -7118176.1868469715        345869893.64377987     
  -5406670442.6237459       -7281547.1660647392        346795214.30784011     
  -5235798070.7372837       -5437679.3743031025        353434623.46533138     
  -6304414166.5777950        21516349.047645092        182016456.50480637     
  -6124695462.0398874        1772125.1756668091        179185976.48886821     
  -5942358710.1943665       -9245274.3376090527        182428146.55685565     
  -5757403911.0412359       -11535849.492184401        191742966.70877531     
  -5569831064.5804939       -5099600.2880456448        207130436.94461930     
  -6677111991.9061470        48614959.836974621       -5520774.4235853991     
  -6485715978.1357822        13611699.120334625        1672976.8230480882     
  -6289686041.3814907       -5945151.6498796940        15297939.744101673     
  -6089022181.6432667       -10055592.473660946        35354114.339581199     
  -5883724398.9211187        1280376.6489846706        61841500.609477460     
  -4507313104.5431232        12011856.005510092        649088747.06349421     
  -4376340255.6480608       -83478.164905309677        640888542.26446676     
  -4243787189.8786373       -6911422.7541310787        636872224.75562823     
  -4109653907.2348537       -8471977.7621512413        637039794.53698742     
  -3973940407.7167125       -4765143.1889734268        641391251.60853970     
  -4881625417.3914919        266139.39021348953        500754060.17162400     
  -4739729695.4379663       -7087934.2687728405        500464451.80650771     
  -4597028647.9651966       -11757589.530307293        503299029.15506792     
  -4453522274.9731941       -13742826.394392729        509257792.21731257     
  -4309210576.4619608       -13043644.861041546        518340740.99323905     
  -5235798070.7372837       -5437679.3743031025        353434623.46533138     
  -5086007194.5153208       -8958808.1588704586        360151571.61980921     
  -4936185884.1292391       -12378489.729727030        368933003.91145968     
  -4786334139.5790558       -15696724.086896420        379778920.34027457     
  -4636451960.8647633       -18913511.230373383        392689320.90626836     
  -5569831064.5804939       -5099600.2880456448        207130436.94461930     
  -5415172752.8801212       -5696099.8351960182        219949901.70437947     
  -5261258898.3707676       -8774123.3523931503        233774149.02480015     
  -5108089501.0524340       -14333670.839658976        248603178.90587676     
  -4955664560.9251127       -22374742.296975851        264436991.34761763     
  -5883724398.9211187        1280376.6489846706        61841500.609477460     
  -5727226370.5323839        2700190.7022335529        79859442.060210302     
  -5572247690.6897802       -944490.39830732346        97822464.495093435     
  -5418788359.3933258       -9653666.6526613235        115730567.91411835     
  -5266848376.6430130       -23427338.060833693        133583752.31729130     
  -3973940407.7167125       -4765143.1889734268        641391251.60853970     
  -3811919149.7969413        7305537.5720760822        629535355.25690258     
  -3651167217.3224940        15145133.515375376        622938236.88552856     
  -3491684610.2933640        18753644.640954733        621599896.49441290     
  -3333471328.7095571        18131070.948786259        625520334.08355641     
  -4309210576.4619608       -13043644.861041546        518340740.99323905     
  -4134069624.4945073       -2755518.0261914730        508208477.92246020     
  -3959509710.6190586        5595815.1686410904        503320867.81414026     
  -3785530834.8356190        12010354.723449707        503677910.66829115     
  -3612132997.1441803        16488100.638245344        509279606.48490065     
  -4636451960.8647633       -18913511.230373383        392689320.90626836     
  -4448231672.0433264       -10420045.479829311        385083693.02853733     
  -4259904133.9605784       -1569082.1915857792        382708593.09547740     
  -4071469346.6165218        7639378.6343531609        385564021.10708809     
  -3882927310.0111542        17205336.997999191        393649977.06337112     
  -4955664560.9251127       -22374742.296975851        264436991.34761763     
  -4754405292.4433908       -15688044.788836718        260161000.57514533     
  -4552350487.3470478       -6349558.5653033257        261101412.72954309     
  -4349500145.6360788        5640716.3736655712        267258227.81081390     
  -4145854267.3104854        20282780.028039455        278631445.81896216     
  -5266848376.6430130       -23427338.060833693        133583752.31729130     
  -5052590485.6947126       -18559515.953228474        133440400.56227358     
  -4836848770.7784634       -8745613.9524841309        138499326.71632507     
  -4619623231.8942871        6014367.9413688183        148760530.77946723     
  -4400913869.0421581        25720429.728383303        164224012.75168005     
  -3333471328.7095571        18131070.948786259        625520334.08355641     
  -3238888807.3680134       -1357444.1543505192        616837702.34365678     
  -3142889738.6064043       -16124134.523934484        607684123.16639972     
  -3045474122.4247308       -26169000.159970403        598059596.55179191     
  -2946641958.8229837       -31492041.062431455        587964122.49982929     
  -3612132997.1441803        16488100.638245344        509279606.48490065     
  -3513759211.2330079       -1712066.6915302277        506230625.04914987     
  -3414916935.1708107       -18350600.184532166        506271637.38738209     
  -3315606168.9575825       -33427499.840782523        509402643.49959463     
  -3215826912.5933304       -46942765.660279632        515623643.38579303     
  -3882927310.0111542        17205336.997999191        393649977.06337112     
  -3770588141.7836804        3345752.7655956745        395128579.11789107     
  -3658728540.6742163       -12112388.526833057        403258116.15772998     
  -3547348506.6827660       -29169086.879304171        418038588.18288940     
  -3436448039.8093266       -47824342.291824341        439469995.19336373     
  -4145854267.3104854        20282780.028039455        278631445.81896216     
  -4009375599.0200310        13816014.217010260        283531564.54987532     
  -3874324555.1166286        2590500.4491622448        298643559.47744232     
  -3740701135.6002827       -13393761.275550842        323967430.60167170     
  -3608505340.4709802       -34136770.957078695        359503177.92254519     
  -4400913869.0421581        25720429.728383303        164224012.75168005     
  -4230121582.9420495        29698717.662734509        171439581.34510681     
  -4061704978.4980392        25758066.743458271        192427967.34652716     
  -3895664055.7101083        13898476.970566511        227189170.75593388     
  -3731998814.5782776       -5880051.6559929848        275723191.57333189     
  -2946641958.8229837       -31492041.062431455        587964122.49982929     
  -2759198585.2175217       -13158949.100951791        553293297.17067480     
  -2575101800.8808055       -5981154.7019506693        513243139.69352233     
  -2394351605.8128352       -9958657.8654372692        467813650.06837344     
  -2216948000.0136065       -25091458.591400504        417004828.29522073     
  -3215826912.5933304       -46942765.660279632        515623643.38579303     
  -3026877556.9555821       -35104590.462600112        501895129.69477654     
  -2839318178.5665765       -27899672.760733724        496203222.81439340     
  -2653148777.4263148       -25328012.554677486        498547922.74464357     
  -2468369353.5347962       -27389609.844434381        508929229.48553467     
  -3436448039.8093266       -47824342.291824341        439469995.19336373     
  -3207661447.9717646       -30981707.607683778        448966507.16381341     
  -2978308221.3629451       -12250290.352679014        479915564.90353614     
  -2748388359.9828720        8369909.4731508493        532317168.41252732     
  -2517901863.8315420        30878891.869858027        606171317.69077861     
  -3608505340.4709802       -34136770.957078695        359503177.92254519     
  -3301550258.2660751       -790300.53620314598        394507429.57780015     
  -2992071929.2699170        40966992.522192955        464380165.96095735     
  -2680070353.4825101        91135108.218072534        569121387.07201660     
  -2365545530.9038372        149714046.55150926        708731092.91097999     
  -3731998814.5782776       -5880051.6559929848        275723191.57333189     
  -3308543987.8385172        55469630.751824856        338517896.93672502     
  -2880609302.2874918        131752175.86386895        449597025.98665178     
  -2448194757.9252248        222967583.68004704        608960578.72312713     
  -2011300354.7516897        329115854.20045316        816608555.14611781     
 </DataArray>
 <DataArray  type="Float64" Name="VM" NumberOfComponents="1" format="ascii">
   12935831193.924437     
   11340871497.216938     
   10210331834.424818     
   9272849539.9349995     
   8303975422.9596863     
   10130375568.802780     
   9322040023.6505318     
   8826367386.3591537     
   8443509944.9649553     
   8035654044.8218822     
   7982325416.1824512     
   7734929799.3059444     
   7669112968.7873774     
   7669562231.5492697     
   7666344862.6195889     
   6491594392.5855045     
   6586829552.5991964     
   6757404453.2558355     
   6961237641.6970797     
   7171668903.7216005     
   5657736356.7152529     
   5890900769.6382704     
   6116431474.9183769     
   6331873268.4032297     
   6537004768.6938715     
   8303975422.9596863     
   8020384826.9405289     
   7778920358.6628361     
   7568892125.6284218     
   7385326981.5377684     
   8035654044.8218822     
   7746523113.9962063     
   7473075029.8687105     
   7213349095.9823685     
   6967352460.7082701     
   7666344862.6195889     
   7380878016.6241961     
   7100812537.1364765     
   6826226542.8993702     
   6557324446.6366472     
   7171668903.7216005     
   6910877613.1847544     
   6657993964.2763386     
   6409161090.9355249     
   6161234887.1485338     
   6537004768.6938715     
   6328862482.0790606     
   6142917840.3827391     
   5965264923.6087656     
   5786896796.1205273     
   7385326981.5377684     
   7226247305.4720812     
   7059642093.5472679     
   6884808863.4900188     
   6701558542.6290817     
   6967352460.7082701     
   6813356025.9399605     
   6654790757.8502178     
   6491375571.9764585     
   6323064041.6746397     
   6557324446.6366472     
   6407378722.0899343     
   6255896019.4136934     
   6102849458.1871634     
   5948274140.1466007     
   6161234887.1485338     
   6013296806.9154377     
   5866813382.3980570     
   5721826737.2796965     
   5578399196.5270157     
   5786896796.1205273     
   5637546207.5600557     
   5492515488.0559511     
   5351720595.8960466     
   5215219555.2227955     
   6701558542.6290817     
   6492533173.7228355     
   6286771410.7161665     
   6084308773.5172834     
   5885339492.5257702     
   6323064041.6746397     
   6133439017.1578045     
   5946142767.1303234     
   5761224899.6396399     
   5578830445.6873894     
   5948274140.1466007     
   5776156890.5314255     
   5605488188.4390459     
   5436319529.4690914     
   5268765356.6457911     
   5578399196.5270157     
   5422373263.1043768     
   5266969134.9457388     
   5112215806.5368824     
   4958208320.4464731     
   5215219555.2227955     
   5074440232.0992861     
   4933520559.8457584     
   4792429643.2812510     
   4651247729.8138123     
   5885339492.5257702     
   5730246630.6904955     
   5574351093.0721998     
   5417677562.4871483     
   5260264871.1108570     
   5578830445.6873894     
   5425718099.7133293     
   5272448234.5634880     
   5119079694.4342194     
   4965683353.2546206     
   5268765356.6457911     
   5119678926.1115837     
   4971248989.8805227     
   4823567905.4356031     
   4676747571.3374634     
   4958208320.4464731     
   4814861046.1970139     
   4673188464.3798361     
   4533307415.9433565     
   4395371388.4448061     
   4651247729.8138123     
   4514886827.0996752     
   4381468427.3486595     
   4251113884.2263298     
   4124007389.7634997     
   5260264871.1108570     
   5048629569.0309973     
   4838432328.7208519     
   4629808627.3281727     
   4422986095.0047073     
   4965683353.2546206     
   4767921963.3237877     
   4571602752.5109472     
   4376870848.8817854     
   4183959214.2465954     
   4676747571.3374634     
   4492815522.4530544     
   4310394326.7246284     
   4129649304.3267879     
   3950836428.2378812     
   4395371388.4448061     
   4225396486.1094933     
   4057080349.8698344     
   3890620509.3496842     
   3726316024.2011304     
   4124007389.7634997     
   3968321242.3476915     
   3814538649.6044869     
   3662902453.0710726     
   3513776670.1775045     
   4422986095.0047073     
   4255421735.2349377     
   4088253654.5662808     
   3922420195.9932480     
   3759517968.7378774     
   4183959214.2465954     
   4046213948.8949404     
   3909986887.3042374     
   3775948431.1363697     
   3645136548.8170280     
   3950836428.2378812     
   3833841562.8223891     
   3718867596.6075096     
   3606289996.4563951     
   3496643722.2959452     
   3726316024.2011304     
   3620676616.3873191     
   3516853888.2332125     
   3414967346.9809484     
   3315175598.8838811     
   3513776670.1775045     
   3409907954.4457903     
   3306838294.7662597     
   3204516543.7308431     
   3102901913.8626738     
   3759517968.7378774     
   3387749679.5978293     
   3049788389.7057319     
   2775201196.5900211     
   2610775663.8761916     
   3645136548.8170280     
   3371132515.7247615     
   3118284366.5071697     
   2899488129.4919086     
   2734826966.4083028     
   3496643722.2959452     
   3285633295.0272455     
   3086250646.5984983     
   2902895018.4975514     
   2742420030.2550735     
   3315175598.8838811     
   3132516431.4311471     
   2953293738.6696210     
   2778181520.9691038     
   2608259696.3244267     
   3102901913.8626738     
   2914694232.4026604     
   2721403833.9512463     
   2523038520.7102413     
   2319814830.8311996     
   5657736356.7152529     
   5890900769.6382704     
   6116431474.9183769     
   6331873268.4032297     
   6537004768.6938715     
   5151377905.7387772     
   5311350384.8486462     
   5467959159.0235634     
   5618310707.0230131     
   5760940375.4953632     
   4643421183.9939127     
   4755596585.7860813     
   4868899597.2421255     
   4980694769.5970554     
   5089056287.2112083     
   4134129314.4659858     
   4224476013.8207927     
   4320746679.2276535     
   4421281223.9267006     
   4524622296.0589981     
   3625019233.2739754     
   3719810534.9825883     
   3825856301.0711384     
   3943087332.1452560     
   4071405895.4740105     
   6537004768.6938715     
   6328862482.0790606     
   6142917840.3827391     
   5965264923.6087656     
   5786896796.1205273     
   5760940375.4953632     
   5652447277.5827789     
   5559975853.6347275     
   5474467201.8866224     
   5390379994.7866049     
   5089056287.2112083     
   5054471285.7338505     
   5030428851.8859177     
   5011724672.4892616     
   4995155309.2734365     
   4524622296.0589981     
   4539523196.6449080     
   4559131701.6778812     
   4580970783.1245060     
   4603315919.3676996     
   4071405895.4740105     
   4112923408.2815495     
   4151832358.5729671     
   4187241755.5784593     
   4218424116.2534370     
   5786896796.1205273     
   5637546207.5600557     
   5492515488.0559511     
   5351720595.8960466     
   5215219555.2227955     
   5390379994.7866049     
   5250360428.1035595     
   5113611620.7922840     
   4980174766.7614594     
   4850144523.3822622     
   4995155309.2734365     
   4868796849.3626194     
   4745595768.6124783     
   4625513595.4752035     
   4508582603.7051210     
   4603315919.3676996     
   4495539877.0563154     
   4391859408.9054928     
   4291942320.5404401     
   4195684188.7758989     
   4218424116.2534370     
   4134576412.8851643     
   4056994490.4032793     
   3984803051.4693851     
   3917693430.5950780     
   5215219555.2227955     
   5074440232.0992861     
   4933520559.8457584     
   4792429643.2812510     
   4651247729.8138123     
   4850144523.3822622     
   4723091595.5376873     
   4597033514.5360689     
   4472045294.6194820     
   4348296429.7623672     
   4508582603.7051210     
   4395496729.4525127     
   4284611192.1575575     
   4176092102.9436603     
   4070184494.3020453     
   4195684188.7758989     
   4096596644.2113743     
   4000937380.4437857     
   3908938467.9235973     
   3820896621.0102262     
   3917693430.5950780     
   3832302125.4204645     
   3751524841.6202822     
   3675624560.6882753     
   3604917673.9813895     
   4651247729.8138123     
   4514886827.0996752     
   4381468427.3486595     
   4251113884.2263298     
   4124007389.7634997     
   4348296429.7623672     
   4224693261.8227658     
   4104219899.4224863     
   3987050646.0662222     
   3873421395.9972606     
   4070184494.3020453     
   3960302591.3696556     
   3853867518.5633039     
   3751109247.8417778     
   3652321659.9985723     
   3820896621.0102262     
   3725900327.1294117     
   3634806460.1261420     
   3547897548.9046941     
   3465525137.1519389     
   3604917673.9813895     
   3526105764.0637889     
   3451783031.5090337     
   3382271528.6261210     
   3317969201.6622066     
   4124007389.7634997     
   3968321242.3476915     
   3814538649.6044869     
   3662902453.0710726     
   3513776670.1775045     
   3873421395.9972606     
   3733381087.9973083     
   3596335559.3769493     
   3462638170.2757893     
   3332764033.4216394     
   3652321659.9985723     
   3528297283.2231517     
   3408391054.7993493     
   3293039377.7057610     
   3182791347.0137200     
   3465525137.1519389     
   3357681999.3040228     
   3255038950.4139767     
   3158072878.8530755     
   3067354410.0042186     
   3317969201.6622066     
   3226116339.6866312     
   3140413086.9249172     
   3061324555.1131291     
   2989384389.7819829     
   3513776670.1775045     
   3409907954.4457903     
   3306838294.7662597     
   3204516543.7308431     
   3102901913.8626738     
   3332764033.4216394     
   3232271807.6901093     
   3133142126.4378104     
   3035411620.7956514     
   2939127698.5597854     
   3182791347.0137200     
   3090107317.3734860     
   2999888057.5083790     
   2912303767.9828048     
   2827554303.5997119     
   3067354410.0042186     
   2986789070.7386236     
   2910299811.3399181     
   2838211629.5506377     
   2770905955.1616859     
   2989384389.7819829     
   2924730498.8349943     
   2866163420.4160700     
   2814138458.7823710     
   2769189172.3226991     
   3102901913.8626738     
   2914694232.4026604     
   2721403833.9512463     
   2523038520.7102413     
   2319814830.8311996     
   2939127698.5597854     
   2753147377.0349202     
   2565584640.9593911     
   2376450363.8019848     
   2185820351.7419972     
   2827554303.5997119     
   2658553088.5387769     
   2494228333.3431792     
   2335551029.9673858     
   2183770583.1188655     
   2770905955.1616859     
   2630819032.5748453     
   2503048091.2298379     
   2389542242.2303767     
   2292551644.8806968     
   2769189172.3226991     
   2665475002.3626089     
   2581444646.5006847     
   2519332703.1965518     
   2481457457.9305410     
   3625019233.2739754     
   3719810534.9825883     
   3825856301.0711384     
   3943087332.1452560     
   4071405895.4740105     
   3138029649.8850365     
   3255635932.5069413     
   3382663759.3495841     
   3518640841.2127771     
   3663106603.6593180     
   2694793043.4062757     
   2830612237.3446136     
   2973749544.5340533     
   3123121747.3455777     
   3277817060.4020977     
   2298799738.2828374     
   2449530532.1524105     
   2604991255.0011797     
   2763260820.9091802     
   2922910636.3211350     
   1955263646.2728424     
   2119346025.3021104     
   2284794034.7437716     
   2448651817.8027172     
   2608964658.4162784     
   4071405895.4740105     
   4112923408.2815495     
   4151832358.5729671     
   4187241755.5784593     
   4218424116.2534370     
   3663106603.6593180     
   3702564475.3372297     
   3740658918.7729349     
   3776495332.8977599     
   3809327084.5412159     
   3277817060.4020977     
   3321050392.7611351     
   3364515982.6501870     
   3407391290.8223448     
   3448998208.1851630     
   2922910636.3211350     
   2975765686.3392682     
   3030803987.0521274     
   3087339991.7745481     
   3144838134.0489793     
   2608964658.4162784     
   2676766810.6806469     
   2749006704.8574858     
   2825170003.9568839     
   2904899991.6274924     
   4218424116.2534370     
   4134576412.8851643     
   4056994490.4032793     
   3984803051.4693851     
   3917693430.5950780     
   3809327084.5412159     
   3756715824.3674965     
   3709923935.4092464     
   3668463322.3480234     
   3632231690.8084025     
   3448998208.1851630     
   3423115944.4413385     
   3402239700.7645812     
   3386134205.4903555     
   3374781744.6128874     
   3144838134.0489793     
   3141418485.8073707     
   3141608143.2558570     
   3145306790.1763062     
   3152501266.7005529     
   2904899991.6274924     
   2919968485.1804261     
   2936476924.3595181     
   2954375327.6647897     
   2973628359.0815883     
   3917693430.5950780     
   3832302125.4204645     
   3751524841.6202822     
   3675624560.6882753     
   3604917673.9813895     
   3632231690.8084025     
   3559715334.7366977     
   3492287012.9071074     
   3430210120.3844619     
   3373800363.2763734     
   3374781744.6128874     
   3315632644.3454938     
   3262167342.4122381     
   3214631762.3790345     
   3173324501.9841547     
   3152501266.7005529     
   3107008260.3046088     
   3067901706.0289860     
   3035384205.4737368     
   3009713717.3525496     
   2973628359.0815883     
   2941661606.1148934     
   2916861751.7608314     
   2899356853.9867477     
   2889337261.7599940     
   3604917673.9813895     
   3526105764.0637889     
   3451783031.5090337     
   3382271528.6261210     
   3317969201.6622066     
   3373800363.2763734     
   3308741531.5129185     
   3248790467.2048011     
   3194253200.8607383     
   3145493534.8197398     
   3173324501.9841547     
   3121185178.7499189     
   3074687511.9645801     
   3034099008.0524268     
   2999726177.9136009     
   3009713717.3525496     
   2969272233.5644746     
   2934880287.5595441     
   2906748299.6583486     
   2885108917.8397665     
   2889337261.7599940     
   2858883061.3174696     
   2834724804.2785878     
   2817006406.1377592     
   2805881705.0528011     
   3317969201.6622066     
   3226116339.6866312     
   3140413086.9249172     
   3061324555.1131291     
   2989384389.7819829     
   3145493534.8197398     
   3066882853.5076399     
   2995185182.0217748     
   2930857479.0131631     
   2874413762.9632711     
   2999726177.9136009     
   2934539385.9853544     
   2877048268.0891242     
   2827671617.9799151     
   2786870955.2143769     
   2885108917.8397665     
   2833050797.2575536     
   2789452660.8740029     
   2754665018.6068516     
   2729067054.7602248     
   2805881705.0528011     
   2766025980.6272674     
   2735347429.7990999     
   2714106123.7638168     
   2702580525.7400002     
   2989384389.7819829     
   2924730498.8349943     
   2866163420.4160700     
   2814138458.7823710     
   2769189172.3226991     
   2874413762.9632711     
   2823594572.6609545     
   2778885337.7523708     
   2740635394.0653133     
   2709237073.2724304     
   2786870955.2143769     
   2747835437.4162807     
   2714709543.9091668     
   2687734843.9998174     
   2667171602.9766932     
   2729067054.7602248     
   2699555290.8159652     
   2675534820.9894114     
   2657151100.5846457     
   2644554632.0943279     
   2702580525.7400002     
   2680209704.7988839     
   2662715783.6634016     
   2650169276.3665800     
   2642640876.5131288     
   2769189172.3226991     
   2665475002.3626089     
   2581444646.5006847     
   2519332703.1965518     
   2481457457.9305410     
   2709237073.2724304     
   2625639634.5853376     
   2559256697.7437229     
   2511559163.6792374     
   2484030986.7855310     
   2667171602.9766932     
   2599892905.9792023     
   2547381104.7143607     
   2510568025.2787561     
   2490372003.0081654     
   2644554632.0943279     
   2590200792.2958951     
   2548199409.5168333     
   2519120980.1649923     
   2503520713.4745526     
   2642640876.5131288     
   2598368952.7090840     
   2564074789.5487056     
   2540099828.3756909     
   2526782370.4722633     
   1955263646.2728424     
   2119346025.3021104     
   2284794034.7437716     
   2448651817.8027172     
   2608964658.4162784     
   1653707194.6477323     
   1820184946.5908873     
   1988355317.4425290     
   2155524717.4341760     
   2319937590.8629961     
   1393489063.3722360     
   1570879433.1081734     
   1749256176.9650989     
   1926617042.4228127     
   2101713076.7025821     
   1206923113.0731113     
   1398862099.2108831     
   1590346049.3033822     
   1780598606.2639041     
   1969161667.2712922     
   1136686615.0356803     
   1334997954.0901487     
   1533570169.7069380     
   1732403261.8860490     
   1931497230.6274810     
   2608964658.4162784     
   2676766810.6806469     
   2749006704.8574858     
   2825170003.9568839     
   2904899991.6274924     
   2319937590.8629961     
   2406798633.7329397     
   2496060626.4905362     
   2587331426.7811980     
   2680334189.0128613     
   2101713076.7025821     
   2205263575.5893421     
   2308716707.2922683     
   2411835427.5307579     
   2514452560.6313825     
   1969161667.2712922     
   2086124036.7942202     
   2200262251.4650168     
   2311501093.5790834     
   2419788340.6301670     
   1931497230.6274810     
   2057968234.4866517     
   2179079632.2544007     
   2294831423.9307303     
   2405223609.5156393     
   2904899991.6274924     
   2919968485.1804261     
   2936476924.3595181     
   2954375327.6647897     
   2973628359.0815883     
   2680334189.0128613     
   2702289526.8627720     
   2726666421.0261912     
   2753450358.4430494     
   2782635640.7546334     
   2514452560.6313825     
   2543125382.5018749     
   2575221203.6749382     
   2610742660.3433099     
   2649696159.6131291     
   2419788340.6301670     
   2453573393.5209742     
   2491778543.2166767     
   2534407281.9270806     
   2581463886.4208584     
   2405223609.5156393     
   2441005377.8737822     
   2482192333.8490429     
   2528784477.4414206     
   2580781808.6509171     
   2973628359.0815883     
   2941661606.1148934     
   2916861751.7608314     
   2899356853.9867477     
   2889337261.7599940     
   2782635640.7546334     
   2765185878.4918194     
   2754872916.5052748     
   2751782139.3842101     
   2756032370.6853671     
   2649696159.6131291     
   2644020117.5422015     
   2645193054.9325914     
   2653255232.6808448     
   2668260543.6348591     
   2581463886.4208584     
   2584229775.4172006     
   2593302740.1181703     
   2608692300.6746593     
   2630411051.2018819     
   2580781808.6509171     
   2588368297.6455822     
   2601510413.4114485     
   2620208155.9485192     
   2644461525.2567945     
   2889337261.7599940     
   2858883061.3174696     
   2834724804.2785878     
   2817006406.1377592     
   2805881705.0528011     
   2756032370.6853671     
   2734296103.8143268     
   2719323477.1310086     
   2711210662.2605400     
   2710058585.4061246     
   2668260543.6348591     
   2653500886.5931239     
   2645901804.0781574     
   2645511910.7437544     
   2652381400.2354889     
   2630411051.2018819     
   2620246948.0455952     
   2617565923.8116832     
   2622381174.1808209     
   2634706161.5920711     
   2644461525.2567945     
   2636036780.4312878     
   2635350631.3094096     
   2642403077.8911600     
   2657194120.1765332     
   2805881705.0528011     
   2766025980.6272674     
   2735347429.7990999     
   2714106123.7638168     
   2702580525.7400002     
   2710058585.4061246     
   2682020883.7887759     
   2663229947.9757690     
   2653840592.4569855     
   2654014385.4549794     
   2652381400.2354889     
   2633424478.9884429     
   2623657047.6665502     
   2623149204.3565407     
   2631972622.8507309     
   2634706161.5920711     
   2621671540.6392298     
   2617677713.9555016     
   2622741906.1136265     
   2636881489.6468425     
   2657194120.1765332     
   2646730901.8818250     
   2645105274.1677952     
   2652317237.0344462     
   2668366790.4817734     
   2702580525.7400002     
   2680209704.7988839     
   2662715783.6634016     
   2650169276.3665800     
   2642640876.5131288     
   2654014385.4549794     
   2637709289.7635884     
   2627037440.3032365     
   2622050449.3583379     
   2622799120.7430210     
   2631972622.8507309     
   2620720005.0922580     
   2615852788.9734707     
   2617399289.6961327     
   2625386910.1553664     
   2636881489.6468425     
   2629166333.7981710     
   2628593762.9650807     
   2635172156.6596847     
   2648909510.3428144     
   2668366790.4817734     
   2662255021.9065294     
   2664064130.6879373     
   2673794116.8260074     
   2691444980.3207407     
   2642640876.5131288     
   2598368952.7090840     
   2564074789.5487056     
   2540099828.3756909     
   2526782370.4722633     
   2622799120.7430210     
   2594279004.5974288     
   2577388603.6160831     
   2572350198.0467072     
   2579369436.6163630     
   2625386910.1553664     
   2610302096.5405707     
   2608350348.3780875     
   2619640210.7864952     
   2644265401.4134841     
   2648909510.3428144     
   2644037463.0207758     
   2653801777.3480148     
   2678231355.9368172     
   2717349501.8235455     
   2691444980.3207407     
   2692894250.7194052     
   2710654759.7478447     
   2744726507.4060693     
   2795109493.6940951     
   1136686615.0356803     
   1334997954.0901487     
   1533570169.7069380     
   1732403261.8860490     
   1931497230.6274810     
   1206923112.9285698     
   1398862099.0942011     
   1590346049.2209463     
   1780598606.2273965     
   1969161667.2956214     
   1393489063.1325219     
   1570879432.8986228     
   1749256176.8078015     
   1926617042.3480592     
   2101713076.7462223     
   1653707194.3950186     
   1820184946.3311193     
   1988355317.2191100     
   2155524717.3005881     
   2319937590.8800683     
   1955263646.0844226     
   2119346025.0330832     
   2284794034.4589844     
   2448651817.5787096     
   2608964658.3384728     
   1931497230.6274810     
   2057968234.4866517     
   2179079632.2544007     
   2294831423.9307303     
   2405223609.5156393     
   1969161667.2956214     
   2086124036.7196751     
   2200262251.2479186     
   2311501093.1738076     
   2419788339.9900537     
   2101713076.7462223     
   2205263575.4811916     
   2308716706.9457989     
   2411835426.8552861     
   2514452559.5339251     
   2319937590.8800683     
   2406798633.6284671     
   2496060626.1375089     
   2587331426.0452342     
   2680334187.7549520     
   2608964658.3384728     
   2676766810.6078348     
   2749006704.6275315     
   2825170003.3954644     
   2904899990.5515141     
   2405223609.5156393     
   2441005377.8737822     
   2482192333.8490429     
   2528784477.4414206     
   2580781808.6509171     
   2419788339.9900537     
   2453573393.3436255     
   2491778543.6207900     
   2534407283.0334849     
   2581463888.3511481     
   2514452559.5339251     
   2543125382.0908551     
   2575221204.1763349     
   2610742661.9879923     
   2649696162.6350465     
   2680334187.7549520     
   2702289526.2086153     
   2726666421.2915549     
   2753450359.9517961     
   2782635643.8373919     
   2904899990.5515141     
   2919968484.3099508     
   2936476924.0766592     
   2954375328.3618670     
   2973628361.1610236     
   2580781808.6509171     
   2588368297.6455822     
   2601510413.4114485     
   2620208155.9485192     
   2644461525.2567945     
   2581463888.3511481     
   2584229775.8995552     
   2593302739.0040736     
   2608692297.8158073     
   2630411046.4571047     
   2649696162.6350465     
   2644020118.5717745     
   2645193053.7481852     
   2653255229.0564985     
   2668260537.3459544     
   2782635643.8373919     
   2765185879.9452729     
   2754872916.1142688     
   2751782136.9220014     
   2756032365.9094343     
   2973628361.1610236     
   2941661607.7205381     
   2916861752.7647557     
   2899356854.2459040     
   2889337261.0942411     
   2644461525.2567945     
   2636036780.4312878     
   2635350631.3094096     
   2642403077.8911600     
   2657194120.1765332     
   2630411046.4571047     
   2620246939.7887602     
   2617565912.2631550     
   2622381159.5726962     
   2634706144.1700482     
   2668260537.3459544     
   2653500875.4227362     
   2645901788.5951171     
   2645511891.5257845     
   2652381377.8712535     
   2756032365.9094343     
   2734296094.6567512     
   2719323464.6372914     
   2711210647.4754019     
   2710058569.3737788     
   2889337261.0942411     
   2858883058.2002025     
   2834724800.3631787     
   2817006403.0705695     
   2805881704.4698105     
   2657194120.1765332     
   2646730901.8818250     
   2645105274.1677952     
   2652317237.0344462     
   2668366790.4817734     
   2634706144.1700482     
   2621671537.4064894     
   2617677724.7534914     
   2622741930.7397628     
   2636881527.8337979     
   2652381377.8712535     
   2633424478.0346847     
   2623657067.2507281     
   2623149243.5807505     
   2631972680.7764215     
   2710058569.3737788     
   2682020889.9444246     
   2663229974.1710191     
   2653840636.5747104     
   2654014445.4286518     
   2805881704.4698105     
   2766025997.6765466     
   2735347460.4684539     
   2714106164.1198363     
   2702580572.0139370     
   2668366790.4817734     
   2662255021.9065294     
   2664064130.6879373     
   2673794116.8260074     
   2691444980.3207407     
   2636881527.8337979     
   2629166361.1543212     
   2628593777.7515383     
   2635172157.1837368     
   2648909494.9558492     
   2631972680.7764215     
   2620720044.9179244     
   2615852807.5258651     
   2617399283.8304439     
   2625386876.7538867     
   2654014445.4286518     
   2637709328.5965075     
   2627037453.7073603     
   2622050432.9819837     
   2622799070.1724763     
   2702580572.0139370     
   2680209731.4685841     
   2662715785.6995559     
   2650169248.5136914     
   2642640813.2934837     
   2691444980.3207407     
   2692894250.7194052     
   2710654759.7478447     
   2744726507.4060693     
   2795109493.6940951     
   2648909494.9558492     
   2644037534.3746490     
   2653801945.8679705     
   2678231631.5663695     
   2717349893.8800259     
   2625386876.7538867     
   2610302175.8052158     
   2608350559.7528214     
   2619640573.7317476     
   2644265935.3389030     
   2622799070.1724763     
   2594279028.8679528     
   2577388729.4366159     
   2572350453.8313193     
   2579369852.8128161     
   2642640813.2934837     
   2598368862.6404691     
   2564074703.4700451     
   2540099781.7385826     
   2526782404.5962391     
   1955263646.0844226     
   2119346025.0330832     
   2284794034.4589844     
   2448651817.5787096     
   2608964658.3384728     
   2298799738.2109613     
   2449530531.9387779     
   2604991254.6955423     
   2763260820.5633450     
   2922910635.9876432     
   2694793043.4553781     
   2830612237.2040191     
   2973749544.2328811     
   3123121746.9062648     
   3277817059.8406935     
   3138029650.0304418     
   3255635932.4435525     
   3382663759.0845046     
   3518640840.7368212     
   3663106602.9490185     
   3625019233.4763474     
   3719810534.9933619     
   3825856300.8766232     
   3943087331.7040968     
   4071405894.7207251     
   2608964658.3384728     
   2676766810.6078348     
   2749006704.6275315     
   2825170003.3954644     
   2904899990.5515141     
   2922910635.9876432     
   2975765686.1334805     
   3030803986.8920021     
   3087339991.5779533     
   3144838133.7325792     
   3277817059.8406935     
   3321050392.4466724     
   3364515982.5789585     
   3407391291.0051303     
   3448998208.6423383     
   3663106602.9490185     
   3702564474.9415030     
   3740658918.7605996     
   3776495333.3655701     
   3809327085.6056428     
   4071405894.7207251     
   4112923407.8318934     
   4151832358.5587420     
   4187241756.1693487     
   4218424117.6453857     
   2904899990.5515141     
   2919968484.3099508     
   2936476924.0766592     
   2954375328.3618670     
   2973628361.1610236     
   3144838133.7325792     
   3141418485.3093095     
   3141608142.6985188     
   3145306789.6834869     
   3152501266.4052963     
   3448998208.6423383     
   3423115944.3690839     
   3402239700.0373039     
   3386134203.9688206     
   3374781742.1640296     
   3809327085.6056428     
   3756715824.7353663     
   3709923934.7343011     
   3668463320.2461634     
   3632231686.8903232     
   4218424117.6453857     
   4134576413.6821132     
   4056994490.0766268     
   3984803049.4196877     
   3917693426.1960416     
   2973628361.1610236     
   2941661607.7205381     
   2916861752.7647557     
   2899356854.2459040     
   2889337261.0942411     
   3152501266.4052963     
   3107008260.2040834     
   3067901706.3519769     
   3035384206.4455113     
   3009713719.1761227     
   3374781742.1640296     
   3315632642.4831161     
   3262167341.6976390     
   3214631763.3870678     
   3173324505.2916398     
   3632231686.8903232     
   3559715331.3722658     
   3492287010.9564190     
   3430210120.7413006     
   3373800366.8669977     
   3917693426.1960416     
   3832302121.0312123     
   3751524838.3621387     
   3675624559.7368779     
   3604917676.5779781     
   2889337261.0942411     
   2858883058.2002025     
   2834724800.3631787     
   2817006403.0705695     
   2805881704.4698105     
   3009713719.1761227     
   2969272234.1933064     
   2934880287.5740538     
   2906748299.6272106     
   2885108918.3112659     
   3173324505.2916398     
   3121185181.6820493     
   3074687514.0479312     
   3034099008.7808061     
   2999726176.7379665     
   3373800366.8669977     
   3308741535.7880731     
   3248790470.6772037     
   3194253201.9693003     
   3145493531.9189272     
   3604917676.5779781     
   3526105769.1848879     
   3451783036.7151651     
   3382271531.3456063     
   3317969199.1786513     
   2805881704.4698105     
   2766025997.6765466     
   2735347460.4684539     
   2714106164.1198363     
   2702580572.0139370     
   2885108918.3112659     
   2833050805.2447219     
   2789452674.1383147     
   2754665034.9514842     
   2729067072.0837493     
   2999726176.7379665     
   2934539384.6341810     
   2877048266.1333299     
   2827671615.0290065     
   2786870950.9545116     
   3145493531.9189272     
   3066882843.9412074     
   2995185167.1967711     
   2930857460.4193487     
   2874413742.2153168     
   3317969199.1786513     
   3226116324.1228676     
   3140413061.5251327     
   3061324523.2953925     
   2989384355.2062631     
   2702580572.0139370     
   2680209731.4685841     
   2662715785.6995559     
   2650169248.5136914     
   2642640813.2934837     
   2729067072.0837493     
   2699555303.3513975     
   2675534828.0053506     
   2657151101.1106539     
   2644554624.8993964     
   2786870950.9545116     
   2747835442.1122093     
   2714709561.0986962     
   2687734877.0231509     
   2667171654.9147429     
   2874413742.2153168     
   2823594571.2243323     
   2778885363.3636937     
   2740635454.4157500     
   2709237175.9035993     
   2989384355.2062631     
   2924730488.6314497     
   2866163446.3661008     
   2814138532.9228144     
   2769189306.8177171     
   2642640813.2934837     
   2598368862.6404691     
   2564074703.4700451     
   2540099781.7385826     
   2526782404.5962391     
   2644554624.8993964     
   2590200668.3038526     
   2548199174.2395358     
   2519120642.1915884     
   2503520285.0063796     
   2667171654.9147429     
   2599892812.1170583     
   2547380847.1130147     
   2510567586.5501771     
   2490371366.6145558     
   2709237175.9035993     
   2625639629.1634402     
   2559256545.6745448     
   2511558822.7927532     
   2484030411.7003298     
   2769189306.8177171     
   2665475135.5554061     
   2581444723.3823662     
   2519332658.8785529     
   2481457217.9168577     
   3625019233.4763474     
   3719810534.9933619     
   3825856300.8766232     
   3943087331.7040968     
   4071405894.7207251     
   4134129314.6731520     
   4224476013.8853469     
   4320746679.1255522     
   4421281223.6158247     
   4524622295.4821548     
   4643421184.1553917     
   4755596585.8762579     
   4868899597.2328262     
   4980694769.4575911     
   5089056286.9105778     
   5151377905.8111200     
   5311350384.9390144     
   5467959159.1037750     
   5618310707.0793924     
   5760940375.5294628     
   5657736356.6562414     
   5890900769.7047825     
   6116431475.0834723     
   6331873268.6698980     
   6537004769.0931187     
   4071405894.7207251     
   4112923407.8318934     
   4151832358.5587420     
   4187241756.1693487     
   4218424117.6453857     
   4524622295.4821548     
   4539523196.3297863     
   4559131701.7079134     
   4580970783.6056643     
   4603315920.4168043     
   5089056286.9105778     
   5054471285.6069527     
   5030428851.9456234     
   5011724672.7617378     
   4995155309.7981682     
   5760940375.5294628     
   5652447277.6862459     
   5559975853.7480640     
   5474467201.9500389     
   5390379994.7593737     
   6537004769.0931187     
   6328862482.4467154     
   6142917840.6012239     
   5965264923.5368319     
   5786896795.6353216     
   4218424117.6453857     
   4134576413.6821132     
   4056994490.0766268     
   3984803049.4196877     
   3917693426.1960416     
   4603315920.4168043     
   4495539877.6593637     
   4391859408.7785616     
   4291942319.3590665     
   4195684186.1834555     
   4995155309.7981682     
   4868796849.6498451     
   4745595768.6101294     
   4625513595.1139021     
   4508582602.8957844     
   5390379994.7593737     
   5250360427.9543648     
   5113611620.6859560     
   4980174766.8579760     
   4850144523.8418665     
   5786896795.6353216     
   5637546206.8568087     
   5492515487.5044231     
   5351720595.8615294     
   5215219556.0922709     
   3917693426.1960416     
   3832302121.0312123     
   3751524838.3621387     
   3675624559.7368779     
   3604917676.5779781     
   4195684186.1834555     
   4096596641.7091012     
   4000937378.5695829     
   3908938467.2648072     
   3820896622.2034216     
   4508582602.8957844     
   4395496729.0611477     
   4284611192.1705008     
   4176092103.3787446     
   4070184495.2056932     
   4850144523.8418665     
   4723091597.2948189     
   4597033517.0736761     
   4472045297.4286947     
   4348296432.3444023     
   5215219556.0922709     
   5074440235.9092760     
   4933520565.6375723     
   4792429650.0834064     
   4651247736.6560202     
   3604917676.5779781     
   3526105769.1848879     
   3451783036.7151651     
   3382271531.3456063     
   3317969199.1786513     
   3820896622.2034216     
   3725900331.6628742     
   3634806466.6751461     
   3547897556.0622134     
   3465525143.4185781     
   4070184495.2056932     
   3960302594.9498010     
   3853867524.3815136     
   3751109255.4223719     
   3652321668.8294382     
   4348296432.3444023     
   4224693264.5341306     
   4104219902.4716864     
   3987050649.6574116     
   3873421400.3463426     
   4651247736.6560202     
   4514886829.3832588     
   4381468425.6981974     
   4251113879.2811527     
   4124007382.2104115     
   3317969199.1786513     
   3226116324.1228676     
   3140413061.5251327     
   3061324523.2953925     
   2989384355.2062631     
   3465525143.4185781     
   3357681991.8202057     
   3255038931.1333790     
   3158072849.8360505     
   3067354373.4641514     
   3652321668.8294382     
   3528297279.1988635     
   3408391038.9370108     
   3293039351.0583668     
   3182791310.6762233     
   3873421400.3463426     
   3733381082.3874354     
   3596335544.2326078     
   3462638146.0111723     
   3332764000.3962703     
   4124007382.2104115     
   3968321230.0157499     
   3814538632.6311007     
   3662902431.5823874     
   3513776644.1942492     
   2989384355.2062631     
   2924730488.6314497     
   2866163446.3661008     
   2814138532.9228144     
   2769189306.8177171     
   3067354373.4641514     
   2986789048.1911077     
   2910299808.7034335     
   2838211653.0192757     
   2770906011.1797104     
   3182791310.6762233     
   3090107287.9777350     
   2999888035.4716940     
   2912303753.8096080     
   2827554297.8691058     
   3332764000.3962703     
   3232271781.4658728     
   3133142102.7825274     
   3035411595.3688107     
   2939127666.8616204     
   3513776644.1942492     
   3409907944.7351770     
   3306838293.6663146     
   3204516543.4452376     
   3102901906.3811660     
   2769189306.8177171     
   2665475135.5554061     
   2581444723.3823662     
   2519332658.8785529     
   2481457217.9168577     
   2770906011.1797104     
   2630819174.2908487     
   2503048292.4697680     
   2389542469.2943387     
   2292551855.1099768     
   2827554297.8691058     
   2658553194.2197661     
   2494228547.7273264     
   2335551348.4118805     
   2183770998.2802706     
   2939127666.8616204     
   2753147417.3612947     
   2565584763.7359309     
   2376450581.3721299     
   2185820679.3064737     
   3102901906.3811660     
   2914694195.7858133     
   2721403780.8076534     
   2523038464.2815132     
   2319814785.1890082     
   5657736356.6562414     
   5890900769.7047825     
   6116431475.0834723     
   6331873268.6698980     
   6537004769.0931187     
   6491594392.4291897     
   6586829552.6288090     
   6757404453.4782181     
   6961237642.1414490     
   7171668904.4203787     
   7982325416.0388260     
   7734929799.3488951     
   7669112969.0354929     
   7669562232.0380974     
   7666344863.3837719     
   10130375568.780878     
   9322040023.7539959     
   8826367386.6034641     
   8443509945.3745356     
   8035654045.4217978     
   12935831194.133307     
   11340871497.425562     
   10210331834.638018     
   9272849540.1529655     
   8303975423.1731405     
   6537004769.0931187     
   6328862482.4467154     
   6142917840.6012239     
   5965264923.5368319     
   5786896795.6353216     
   7171668904.4203787     
   6910877613.7525663     
   6657993964.6169090     
   6409161090.9389162     
   6161234886.7030602     
   7666344863.3837719     
   7380878017.2698135     
   7100812537.5801535     
   6826226543.0570135     
   6557324446.4181614     
   8035654045.4217978     
   7746523114.5916557     
   7473075030.3835707     
   7213349096.3509474     
   6967352460.8614597     
   8303975423.1731405     
   8020384827.3533888     
   7778920359.2059975     
   7568892126.2468328     
   7385326982.1751442     
   5786896795.6353216     
   5637546206.8568087     
   5492515487.5044231     
   5351720595.8615294     
   5215219556.0922709     
   6161234886.7030602     
   6013296806.1419744     
   5866813381.5810604     
   5721826736.7046127     
   5578399196.4849939     
   6557324446.4181614     
   6407378721.5615473     
   6255896018.7941570     
   6102849457.6994925     
   5948274140.0088520     
   6967352460.8614597     
   6813356025.9801283     
   6654790757.9429045     
   6491375572.2951021     
   6323064042.3838692     
   7385326982.1751442     
   7226247306.4060440     
   7059642094.8982363     
   6884808865.3928652     
   6701558545.2147655     
   5215219556.0922709     
   5074440235.9092760     
   4933520565.6375723     
   4792429650.0834064     
   4651247736.6560202     
   5578399196.4849939     
   5422373266.8899879     
   5266969141.9738035     
   5112215816.2253447     
   4958208332.2203970     
   5948274140.0088520     
   5776156894.0096760     
   5605488195.2007370     
   5436319539.1948328     
   5268765369.0317450     
   6323064042.3838692     
   6133439020.0516396     
   5946142772.0162182     
   5761224906.3510599     
   5578830454.0928898     
   6701558545.2147655     
   6492533175.7664061     
   6286771412.0613937     
   6084308774.0567741     
   5885339492.2252684     
   4651247736.6560202     
   4514886829.3832588     
   4381468425.6981974     
   4251113879.2811527     
   4124007382.2104115     
   4958208332.2203970     
   4814861050.4002733     
   4673188461.1545191     
   4533307405.4484053     
   4395371370.8732662     
   5268765369.0317450     
   5119678929.7548323     
   4971248984.6656675     
   4823567891.2476025     
   4676747548.0663214     
   5578830454.0928898     
   5425718100.1451473     
   5272448226.8316126     
   5119079678.3250561     
   4965683328.5279007     
   5885339492.2252684     
   5730246625.1641541     
   5574351082.2066574     
   5417677546.1209126     
   5260264849.0290384     
   4124007382.2104115     
   3968321230.0157499     
   3814538632.6311007     
   3662902431.5823874     
   3513776644.1942492     
   4395371370.8732662     
   4225396469.0633130     
   4057080333.6962190     
   3890620494.3865061     
   3726316010.7055254     
   4676747548.0663214     
   4492815504.9032621     
   4310394315.4340591     
   4129649299.8313613     
   3950836431.0213003     
   4965683328.5279007     
   4767921949.3456135     
   4571602749.9884291     
   4376870858.5307798     
   4183959236.7603068     
   5260264849.0290384     
   5048629562.5196571     
   4838432338.6352520     
   4629808654.5449829     
   4422986140.4073133     
   3513776644.1942492     
   3409907944.7351770     
   3306838293.6663146     
   3204516543.4452376     
   3102901906.3811660     
   3726316010.7055254     
   3620676631.9021802     
   3516853928.6941576     
   3414967408.3808441     
   3315175677.2003522     
   3950836431.0213003     
   3833841593.8627076     
   3718867653.9293904     
   3606290078.5074201     
   3496643828.1195965     
   4183959236.7603068     
   4046213984.8050270     
   3909986935.4544578     
   3775948491.3039908     
   3645136622.3837395     
   4422986140.4073133     
   4255421764.8817320     
   4088253667.0487871     
   3922420191.3746424     
   3759517949.9937854     
   3102901906.3811660     
   2914694195.7858133     
   2721403780.8076534     
   2523038464.2815132     
   2319814785.1890082     
   3315175677.2003522     
   3132516391.6074867     
   2953293581.3811908     
   2778181248.8845348     
   2608259316.9633579     
   3496643828.1195965     
   3285633238.1429501     
   3086250417.3981752     
   2902894606.7338099     
   2742419428.2448034     
   3645136622.3837395     
   3371132428.6459832     
   3118284100.0087466     
   2899487656.2818460     
   2734826253.0595565     
   3759517949.9937854     
   3387749549.8293710     
   3049788121.9829516     
   2775200739.5815229     
   2610774941.2447705     
 </DataArray>
 <DataArray  type="Float64" Name="strain" NumberOfComponents="3" format="ascii">
  0.20348748961660024        0.0000000000000000       0.12541317456741016     
  0.18665761635600170       -2.7325666312446067E-002   7.4355975279799175E-002
  0.16982774309540316       -4.4676682508587182E-002   3.5132590411326735E-002
  0.15299786983480462       -5.2053048588423328E-002   7.7430199619929092E-003
  0.13616799657420608       -4.9454764551954564E-002  -7.8127360682023611E-003
  0.15985520314435550        0.0000000000000000        9.6455211425934440E-002
  0.15317763005157981       -2.1845290719109733E-002   6.2695018255813834E-002
  0.14650005695880414       -3.6175293051733143E-002   3.7405611002200335E-002
  0.13982248386602844       -4.2990006997870235E-002   2.0586989665093969E-002
  0.13314491077325274       -4.2289432557521017E-002   1.2239154244494732E-002
  0.12645646778952124        0.0000000000000000        7.4207304742704386E-002
  0.12656816636193696       -1.6364915125773392E-002   5.5284755960255498E-002
  0.12667986493435268       -2.7673903594879104E-002   4.1469964591682319E-002
  0.12679156350676840       -3.3926965407317121E-002   3.2762930636984801E-002
  0.12690326207918418       -3.5124100563087464E-002   2.9163654096162995E-002
  0.10329128355209741        0.0000000000000000        5.8669454517719981E-002
  0.10682922528707312       -1.0884539532437058E-002   5.2125188393124196E-002
  0.11036716702204882       -1.9172514138025065E-002   4.7325651179772665E-002
  0.11390510875702452       -2.4863923816764017E-002   4.4270842877665396E-002
  0.11744305049200024       -2.7958768568653914E-002   4.2960763486802382E-002
   9.0359650432084049E-002   0.0000000000000000        4.9841660750981218E-002
   9.3960806826988277E-002  -5.4041639391007208E-003   5.3216315554419906E-002
   9.7561963221892520E-002  -1.0671124681171026E-002   5.4972670766471415E-002
  0.10116311961679675       -1.5800882226210906E-002   5.5110726387135739E-002
  0.10476427601170099       -2.0793436574220371E-002   5.3630482416412877E-002
  0.13616799657420608       -4.9454764551954564E-002  -7.8127360682023611E-003
  0.13295663433757887       -4.2918208750548623E-002  -3.3927648649150349E-003
  0.12974527210095166       -3.8479759535573352E-002  -3.8663187474261701E-004
  0.12653390986432445       -3.6139416907028786E-002   1.2056629023145804E-003
  0.12332254762769723       -3.5897180864914835E-002   1.3841194662568279E-003
  0.13314491077325274       -4.2289432557521017E-002   1.2239154244494732E-002
  0.12890780229929430       -3.8422721443096351E-002   1.2188093718067554E-002
  0.12467069382533583       -3.5739025367007141E-002   1.1499378930092768E-002
  0.12043358535137734       -3.4238344329253337E-002   1.0173009880570582E-002
  0.11619647687741888       -3.3920678329835002E-002   8.2089865695010034E-003
  0.12690326207918418       -3.5124100563087464E-002   2.9163654096162995E-002
  0.12241659131946198       -3.3927234135644073E-002   2.5556653388116433E-002
  0.11792992055973978       -3.2998291198440881E-002   2.2088182370089970E-002
  0.11344324980001756       -3.2337271751477922E-002   1.8758241042083453E-002
  0.10895657904029542       -3.1944175794755170E-002   1.5566829404097121E-002
  0.11744305049200024       -2.7958768568653914E-002   4.2960763486802382E-002
  0.11348300139808190       -2.9431746828191784E-002   3.6712914145231659E-002
  0.10952295230416353       -3.0257557029874659E-002   3.1379778445248585E-002
  0.10556290321024522       -3.0436199173702508E-002   2.6961356386853146E-002
  0.10160285411632686       -2.9967673259675337E-002   2.3457647970045299E-002
  0.10476427601170099       -2.0793436574220371E-002   5.3630482416412877E-002
  0.10210703253515406       -2.4936259520739527E-002   4.5656875989413273E-002
   9.9449789058607130E-002  -2.7516822861308410E-002   3.9374167155568830E-002
   9.6792545582060185E-002  -2.8535126595927107E-002   3.4782355914879604E-002
   9.4135302105513255E-002  -2.7991170724595504E-002   3.1881442267345558E-002
  0.12332254762769723       -3.5897180864914835E-002   1.3841194662568279E-003
  0.12037397937653882       -3.6395958078531659E-002   6.6189964369783860E-004
  0.11742541112538044       -3.6278655217179684E-002   1.5060086858943722E-004
  0.11447684287422204       -3.5545272280858554E-002  -1.4977685906795990E-004
  0.11152827462306364       -3.4195809269568556E-002  -2.3923353927485236E-004
  0.11619647687741888       -3.3920678329835002E-002   8.2089865695010034E-003
  0.11344264545383460       -3.3998559362560063E-002   7.8607559647290715E-003
  0.11068881403025034       -3.3684519421236618E-002   7.6910779676547664E-003
  0.10793498260666604       -3.2978558505864453E-002   7.6999525782779354E-003
  0.10518115118308180       -3.1880676616443615E-002   7.8873797965985371E-003
  0.10895657904029542       -3.1944175794755170E-002   1.5566829404097121E-002
  0.10636511600453205       -3.1601160646588397E-002   1.5368428916191994E-002
  0.10377365296876867       -3.1090383625293386E-002   1.5316212596231081E-002
  0.10118218993300530       -3.0411844730870153E-002   1.5410180444214702E-002
   9.8590726897241979E-002  -2.9565543963318619E-002   1.5650332460142385E-002
  0.10160285411632686       -2.9967673259675337E-002   2.3457647970045299E-002
   9.9141391028631176E-002  -2.9203761930616724E-002   2.3184918498086605E-002
   9.6679927940935564E-002  -2.8496247829350237E-002   2.3026004754318902E-002
   9.4218464853239911E-002  -2.7845130955875895E-002   2.2980906738742334E-002
   9.1757001765544216E-002  -2.7250411310193678E-002   2.3049624451356859E-002
   9.4135302105513255E-002  -2.7991170724595504E-002   3.1881442267345558E-002
   9.1771470526132062E-002  -2.6806363214645093E-002   3.1310224710412810E-002
   8.9407638946750911E-002  -2.5902112033407088E-002   3.0820454441917916E-002
   8.7043807367369760E-002  -2.5278417180881710E-002   3.0412131461860885E-002
   8.4679975787988554E-002  -2.4935278657068738E-002   3.0085255770241737E-002
  0.11152827462306364       -3.4195809269568556E-002  -2.3923353927485236E-004
  0.10816332477099272       -3.2655441502136562E-002   7.2495690627616405E-005
  0.10479837491892188       -3.1349344297390058E-002   6.6291070062152180E-004
  0.10143342506685103       -3.0277517655328642E-002   1.5320114907069471E-003
   9.8068475214780126E-002  -2.9439961575952633E-002   2.6797980608838090E-003
  0.10518115118308180       -3.1880676616443615E-002   7.8873797965985371E-003
  0.10208711828930758       -3.0653012668136248E-002   7.7647256493676708E-003
   9.8993085395533392E-002  -2.9557705576104834E-002   7.9052196386387580E-003
   9.5899052501759147E-002  -2.8594755340349030E-002   8.3088617644116181E-003
   9.2805019607984984E-002  -2.7764161960869060E-002   8.9756520266863205E-003
   9.8590726897241979E-002  -2.9565543963318619E-002   1.5650332460142385E-002
   9.5752073318174799E-002  -2.8650583834136073E-002   1.5195208642187916E-002
   9.2913419739107689E-002  -2.7766066854819721E-002   1.4987695317145520E-002
   9.0074766160040565E-002  -2.6911993025369361E-002   1.5027792485015415E-002
   8.7236112580973441E-002  -2.6088362345785432E-002   1.5315500145797606E-002
   9.1757001765544216E-002  -2.7250411310193678E-002   2.3049624451356859E-002
   8.9158189857594508E-002  -2.6648155000135773E-002   2.2363944669088278E-002
   8.6559377949644814E-002  -2.5974428133534552E-002   2.1910337736142125E-002
   8.3960566041695064E-002  -2.5229230710389929E-002   2.1688803652518570E-002
   8.1361754133745356E-002  -2.4412562730701859E-002   2.1699342418217825E-002
   8.4679975787988554E-002  -2.4935278657068738E-002   3.0085255770241737E-002
   8.2305467907566626E-002  -2.4645726166135584E-002   2.9270933730068532E-002
   7.9930960027144685E-002  -2.4182789412249488E-002   2.8673146895628179E-002
   7.7556452146722771E-002  -2.3546468395410261E-002   2.8291895266920976E-002
   7.5181944266300815E-002  -2.2736763115618258E-002   2.8127178843946582E-002
   9.8068475214780126E-002  -2.9439961575952633E-002   2.6797980608838090E-003
   9.5467273899988325E-002  -2.8681135023324533E-002   3.4605756016602429E-003
   9.2866072585196524E-002  -2.7845496961506871E-002   4.2389733757924319E-003
   9.0264871270404723E-002  -2.6933047390499849E-002   5.0149913832804871E-003
   8.7663669955612922E-002  -2.5943786310303363E-002   5.7886296241245194E-003
   9.2805019607984984E-002  -2.7764161960869060E-002   8.9756520266863205E-003
   9.0224398707849846E-002  -2.6980928788979758E-002   9.5311623036888338E-003
   8.7643777807714596E-002  -2.6160059175996314E-002   1.0130213176648639E-002
   8.5063156907579429E-002  -2.5301553121918376E-002   1.0772804645566195E-002
   8.2482536007444263E-002  -2.4405410626746504E-002   1.1458936710440792E-002
   8.7236112580973441E-002  -2.6088362345785432E-002   1.5315500145797606E-002
   8.4721992458096390E-002  -2.5280722554634844E-002   1.5606568090931111E-002
   8.2207872335219367E-002  -2.4474621390485465E-002   1.5987096994623459E-002
   7.9693752212342359E-002  -2.3670058853336843E-002   1.6457086856875018E-002
   7.7179632089465294E-002  -2.2867034943189424E-002   1.7016537677685323E-002
   8.1361754133745356E-002  -2.4412562730701859E-002   2.1699342418217825E-002
   7.8960055150728042E-002  -2.3580516320290137E-002   2.1686792963386985E-002
   7.6558356167710825E-002  -2.2789183604974707E-002   2.1809624829716736E-002
   7.4156657184693553E-002  -2.2038564584755393E-002   2.2067838017207082E-002
   7.1754958201676211E-002  -2.1328659259632232E-002   2.2461432525857854E-002
   7.5181944266300815E-002  -2.2736763115618258E-002   2.8127178843946582E-002
   7.2938586785744858E-002  -2.1880310085945417E-002   2.7771836921056281E-002
   7.0695229305188928E-002  -2.1103745819464011E-002   2.7597796681928230E-002
   6.8451871824632970E-002  -2.0407070316173864E-002   2.7605058126562103E-002
   6.6208514344077013E-002  -1.9790283576075207E-002   2.7793621254958323E-002
   8.7663669955612922E-002  -2.5943786310303363E-002   5.7886296241245194E-003
   8.4117043950146186E-002  -2.4953627210465956E-002   5.7824174626041058E-003
   8.0570417944679618E-002  -2.4038483580535203E-002   6.0016374259243555E-003
   7.7023791939212910E-002  -2.3198355420512080E-002   6.4462895140842136E-003
   7.3477165933746313E-002  -2.2433242730395486E-002   7.1163737270841798E-003
   8.2482536007444263E-002  -2.4405410626746504E-002   1.1458936710440792E-002
   7.9161648170933768E-002  -2.3510559269784709E-002   1.1273643529516236E-002
   7.5840760334423329E-002  -2.2655926630337025E-002   1.1314394561663860E-002
   7.2519872497912807E-002  -2.1841512708403323E-002   1.1581189806883760E-002
   6.9198984661402396E-002  -2.1067317503984606E-002   1.2074029265176089E-002
   7.7179632089465294E-002  -2.2867034943189424E-002   1.7016537677685323E-002
   7.4085094510143445E-002  -2.2067491329103101E-002   1.6686960229748665E-002
   7.0990556930821555E-002  -2.1273369680138168E-002   1.6584039083116425E-002
   6.7896019351499637E-002  -2.0484669996295227E-002   1.6707774237789401E-002
   6.4801481772177760E-002  -1.9701392277573615E-002   1.7058165693766975E-002
   7.1754958201676211E-002  -2.1328659259632232E-002   2.2461432525857854E-002
   6.8887382967775301E-002  -2.0624423388421506E-002   2.2022367563301941E-002
   6.6019807733874378E-002  -1.9890812729939762E-002   2.1810570990283207E-002
   6.3152232499973468E-002  -1.9127827284186633E-002   2.1826042806801678E-002
   6.0284657266072461E-002  -1.8335467051162457E-002   2.2068783012856981E-002
   6.6208514344077013E-002  -1.9790283576075207E-002   2.7793621254958323E-002
   6.3568513543829391E-002  -1.9181355447740189E-002   2.7279865530176084E-002
   6.0928512743581756E-002  -1.8508255779741217E-002   2.6993990283163238E-002
   5.8288511943334141E-002  -1.7770984572078478E-002   2.6935995513919953E-002
   5.5648511143086499E-002  -1.6969541824751466E-002   2.7105881222445949E-002
   7.3477165933746313E-002  -2.2433242730395486E-002   7.1163737270841798E-003
   7.0650519586269167E-002  -2.1645585950798740E-002   7.4290484500625364E-003
   6.7823873238791965E-002  -2.0737825522333247E-002   8.3385446094602633E-003
   6.4997226891314763E-002  -1.9709961444999945E-002   9.8448622052776658E-003
   6.2170580543837617E-002  -1.8561993718798075E-002   1.1948001237514716E-002
   6.9198984661402396E-002  -2.1067317503984606E-002   1.2074029265176089E-002
   6.6892006157127426E-002  -2.0277144608850328E-002   1.2286367651962449E-002
   6.4585027652852373E-002  -1.9414797614771329E-002   1.2941220288733485E-002
   6.2278049148577347E-002  -1.8480276521747649E-002   1.4038587175489420E-002
   5.9971070644302349E-002  -1.7473581329778831E-002   1.5578468312229754E-002
   6.4801481772177760E-002  -1.9701392277573615E-002   1.7058165693766975E-002
   6.2859863924669898E-002  -1.8908703266902110E-002   1.7122238194438366E-002
   6.0918246077162036E-002  -1.8091769707209202E-002   1.7474517758659477E-002
   5.8976628229654146E-002  -1.7250591598494912E-002   1.8115004386430107E-002
   5.7035010382146284E-002  -1.6385168940759753E-002   1.9043698077750221E-002
   6.0284657266072461E-002  -1.8335467051162457E-002   2.2068783012856981E-002
   5.8554092888896694E-002  -1.7540261924953685E-002   2.1936660077489858E-002
   5.6823528511720948E-002  -1.6768741799647179E-002   2.1938437019237037E-002
   5.5092964134545119E-002  -1.6020906675242842E-002   2.2074113838098965E-002
   5.3362399757369380E-002  -1.5296756551740481E-002   2.2343690534075457E-002
   5.5648511143086499E-002  -1.6969541824751466E-002   2.7105881222445949E-002
   5.3974693049807787E-002  -1.6171820583005425E-002   2.6729633301116607E-002
   5.2300874956529048E-002  -1.5445713892085169E-002   2.6332978070466723E-002
   5.0627056863250378E-002  -1.4791221751990356E-002   2.5915915530496478E-002
   4.8953238769971652E-002  -1.4208344162721209E-002   2.5478445681205941E-002
   6.2170580543837617E-002  -1.8561993718798075E-002   1.1948001237514716E-002
   5.5419750070047402E-002  -1.7467215212633613E-002   1.4669107947371085E-002
   4.8668919596257132E-002  -1.6598918795411283E-002   1.9482540823061945E-002
   4.1918089122466917E-002  -1.5957104467131743E-002   2.6388299864587433E-002
   3.5167258648676647E-002  -1.5541772227794404E-002   3.5386385071948911E-002
   5.9971070644302349E-002  -1.7473581329778831E-002   1.5578468312229754E-002
   5.5021887258235591E-002  -1.6494581436053590E-002   1.7095322189166762E-002
   5.0072703872168861E-002  -1.5643146237760031E-002   2.0123144075715860E-002
   4.5123520486102117E-002  -1.4919275734897944E-002   2.4661933971877603E-002
   4.0174337100035373E-002  -1.4322969927467177E-002   3.0711691877650438E-002
   5.7035010382146284E-002  -1.6385168940759753E-002   1.9043698077750221E-002
   5.3306115927580305E-002  -1.5521947659474011E-002   1.9455216515278789E-002
   4.9577221473014327E-002  -1.4687373680108459E-002   2.0796344806196979E-002
   4.5848327018448334E-002  -1.3881447002664093E-002   2.3067082950504254E-002
   4.2119432563882397E-002  -1.3104167627139951E-002   2.6267430948201387E-002
   5.3362399757369380E-002  -1.5296756551740481E-002   2.2343690534075457E-002
   5.0272436078081392E-002  -1.4549313882893988E-002   2.1748790925706779E-002
   4.7182472398793383E-002  -1.3731601122457381E-002   2.1502143014504569E-002
   4.4092508719505472E-002  -1.2843618270430157E-002   2.1603746800469593E-002
   4.1002545040217456E-002  -1.1885365326812725E-002   2.2053602283600898E-002
   4.8953238769971652E-002  -1.4208344162721209E-002   2.5478445681205941E-002
   4.5920847709738921E-002  -1.3576680106314132E-002   2.3976045420450731E-002
   4.2888456649506246E-002  -1.2775828564805886E-002   2.2240538700639967E-002
   3.9856065589273501E-002  -1.1805789538196255E-002   2.0271925521772344E-002
   3.6823674529040784E-002  -1.0666563026485498E-002   1.8070205883849333E-002
   9.0359650432084049E-002   0.0000000000000000        4.9841660750981218E-002
   9.3960806826988277E-002  -5.4041639391007208E-003   5.3216315554419906E-002
   9.7561963221892520E-002  -1.0671124681171026E-002   5.4972670766471415E-002
  0.10116311961679675       -1.5800882226210906E-002   5.5110726387135739E-002
  0.10476427601170099       -2.0793436574220371E-002   5.3630482416412877E-002
   8.2423044556787992E-002   0.0000000000000000        4.4790237921724513E-002
   8.4634855296289030E-002  -4.5747083447115408E-003   4.8274323407872508E-002
   8.6846666035790054E-002  -9.0386731370511921E-003   5.0598017174601252E-002
   8.9058476775291079E-002  -1.3391894377018950E-002   5.1761319221910788E-002
   9.1270287514792103E-002  -1.7634372064614819E-002   5.1764229549801075E-002
   7.4242942053516142E-002   0.0000000000000000        4.0581500509186248E-002
   7.5523315009581898E-002  -3.7452527503223582E-003   4.4148557033385029E-002
   7.6803687965647668E-002  -7.4062215929313561E-003   4.7013129710132523E-002
   7.8084060921713411E-002  -1.0982906527826991E-002   4.9175218539428731E-002
   7.9364433877779167E-002  -1.4475307555009264E-002   5.0634823521273645E-002
   6.5819342922268459E-002   0.0000000000000000        3.7215448513366431E-002
   6.6626185966866883E-002  -2.9157971559331773E-003   4.0839016430957477E-002
   6.7433029011465348E-002  -5.7737700488115200E-003   4.4218008373065158E-002
   6.8239872056063786E-002  -8.5739186786350334E-003   4.7352424339689496E-002
   6.9046715100662223E-002  -1.1316243045403712E-002   5.0242264330830518E-002
   5.7152247163044970E-002   0.0000000000000000        3.4692081934265061E-002
   5.7943468168144031E-002  -2.0863415615439956E-003   3.8345701600589831E-002
   5.8734689173243100E-002  -4.1413185046916875E-003   4.2212653163399186E-002
   5.9525910178342169E-002  -6.1649308294430740E-003   4.6292936622693161E-002
   6.0317131183441244E-002  -8.1571785357981534E-003   5.0586551978471755E-002
  0.10476427601170099       -2.0793436574220371E-002   5.3630482416412877E-002
  0.10210703253515406       -2.4936259520739527E-002   4.5656875989413273E-002
   9.9449789058607130E-002  -2.7516822861308410E-002   3.9374167155568830E-002
   9.6792545582060185E-002  -2.8535126595927107E-002   3.4782355914879604E-002
   9.4135302105513255E-002  -2.7991170724595504E-002   3.1881442267345558E-002
   9.1270287514792103E-002  -1.7634372064614819E-002   5.1764229549801075E-002
   9.0066135089017105E-002  -2.1211614505378767E-002   4.6531944713935243E-002
   8.8861982663242120E-002  -2.3569130004850787E-002   4.2514944386458212E-002
   8.7657830237467149E-002  -2.4706918563030873E-002   3.9713228567369842E-002
   8.6453677811692164E-002  -2.4624980179919015E-002   3.8126797256670203E-002
   7.9364433877779167E-002  -1.4475307555009264E-002   5.0634823521273645E-002
   7.9137759418009657E-002  -1.7486969490018031E-002   4.7801327611883361E-002
   7.8911084958240146E-002  -1.9621437148393178E-002   4.5707503126115337E-002
   7.8684410498470622E-002  -2.0878710530134667E-002   4.4353350063969538E-002
   7.8457736038701126E-002  -2.1258789635242525E-002   4.3738868425445991E-002
   6.9046715100662223E-002  -1.1316243045403712E-002   5.0242264330830518E-002
   6.9321905522131716E-002  -1.3762324474657299E-002   4.9465024683257461E-002
   6.9597095943601181E-002  -1.5673744291935545E-002   4.8951843374540192E-002
   6.9872286365070674E-002  -1.7050502497238454E-002   4.8702720404678670E-002
   7.0147476786540139E-002  -1.7892599090566029E-002   4.8717655773672902E-002
   6.0317131183441244E-002  -8.1571785357981534E-003   5.0586551978471755E-002
   6.0618573401383227E-002  -1.0037679459296546E-002   5.1523035928057598E-002
   6.0920015619325245E-002  -1.1726051435477936E-002   5.2247965131732785E-002
   6.1221457837267255E-002  -1.3222294464342253E-002   5.2761339589497240E-002
   6.1522900055209259E-002  -1.4526408545889540E-002   5.3063159301350978E-002
   9.4135302105513255E-002  -2.7991170724595504E-002   3.1881442267345558E-002
   9.1771470526132062E-002  -2.6806363214645093E-002   3.1310224710412810E-002
   8.9407638946750911E-002  -2.5902112033407088E-002   3.0820454441917916E-002
   8.7043807367369760E-002  -2.5278417180881710E-002   3.0412131461860885E-002
   8.4679975787988554E-002  -2.4935278657068738E-002   3.0085255770241737E-002
   8.6453677811692164E-002  -2.4624980179919015E-002   3.8126797256670203E-002
   8.4216748212776249E-002  -2.3988815117528216E-002   3.7090801956871658E-002
   8.1979818613860347E-002  -2.3463923637871351E-002   3.6227163329565833E-002
   7.9742889014944446E-002  -2.3050305740948501E-002   3.5535881374752665E-002
   7.7505959416028530E-002  -2.2747961426759639E-002   3.5016956092432078E-002
   7.8457736038701126E-002  -2.1258789635242525E-002   4.3738868425445991E-002
   7.6438617804305276E-002  -2.1171267020411298E-002   4.2407378128760193E-002
   7.4419499569909439E-002  -2.1025735242335558E-002   4.1339153888621819E-002
   7.2400381335513589E-002  -2.0822194301015347E-002   4.0534195705030945E-002
   7.0381263101117753E-002  -2.0560644196450567E-002   3.9992503577987497E-002
   7.0147476786540139E-002  -1.7892599090566029E-002   4.8717655773672902E-002
   6.8437079300719142E-002  -1.8353718923294429E-002   4.7259953226078302E-002
   6.6726681814898145E-002  -1.8587546846799786E-002   4.6156426119086019E-002
   6.5016284329077148E-002  -1.8594082861082113E-002   4.5407074452695886E-002
   6.3305886843256151E-002  -1.8373326966141496E-002   4.5011898226908077E-002
   6.1522900055209259E-002  -1.4526408545889540E-002   5.3063159301350978E-002
   6.0212132702017890E-002  -1.5536170826177496E-002   5.1648527248826105E-002
   5.8901365348826527E-002  -1.6149358451264015E-002   5.0678980020958372E-002
   5.7590597995635165E-002  -1.6365971421148973E-002   5.0154517617747515E-002
   5.6279830642443782E-002  -1.6186009735832410E-002   5.0075140039193819E-002
   8.4679975787988554E-002  -2.4935278657068738E-002   3.0085255770241737E-002
   8.2305467907566626E-002  -2.4645726166135584E-002   2.9270933730068532E-002
   7.9930960027144685E-002  -2.4182789412249488E-002   2.8673146895628179E-002
   7.7556452146722771E-002  -2.3546468395410261E-002   2.8291895266920976E-002
   7.5181944266300815E-002  -2.2736763115618258E-002   2.8127178843946582E-002
   7.7505959416028530E-002  -2.2747961426759639E-002   3.5016956092432078E-002
   7.5345075126540900E-002  -2.2438211133145772E-002   3.4398777396777838E-002
   7.3184190837053256E-002  -2.2002375297947775E-002   3.3991310677259357E-002
   7.1023306547565626E-002  -2.1440453921165857E-002   3.3794555933876327E-002
   6.8862422258077982E-002  -2.0752447002799768E-002   3.3808513166628931E-002
   7.0381263101117753E-002  -2.0560644196450567E-002   3.9992503577987497E-002
   6.8428179172967063E-002  -2.0230696100156015E-002   3.9523169505483478E-002
   6.6475095244816360E-002  -1.9821961183646205E-002   3.9258724179517646E-002
   6.4522011316665698E-002  -1.9334439446921349E-002   3.9199167600090158E-002
   6.2568927388514980E-002  -1.8768130889981263E-002   3.9344499767201078E-002
   6.3305886843256151E-002  -1.8373326966141496E-002   4.5011898226908077E-002
   6.1554780046845080E-002  -1.8023181067166175E-002   4.4644110056185300E-002
   5.9803673250434002E-002  -1.7641547069344676E-002   4.4475387402403400E-002
   5.8052566454022958E-002  -1.7228424972676921E-002   4.4505730265562551E-002
   5.6301459657611880E-002  -1.6783814777162821E-002   4.4735138645662545E-002
   5.6279830642443782E-002  -1.6186009735832410E-002   5.0075140039193819E-002
   5.4724877748174985E-002  -1.5815666034176459E-002   4.9761599048883359E-002
   5.3169924853906196E-002  -1.5461132955042995E-002   4.9641300345916538E-002
   5.1614971959637421E-002  -1.5122410498432357E-002   4.9714243930293306E-002
   5.0060019065368611E-002  -1.4799498664344268E-002   4.9980429802013643E-002
   7.5181944266300815E-002  -2.2736763115618258E-002   2.8127178843946582E-002
   7.2938586785744858E-002  -2.1880310085945417E-002   2.7771836921056281E-002
   7.0695229305188928E-002  -2.1103745819464011E-002   2.7597796681928230E-002
   6.8451871824632970E-002  -2.0407070316173864E-002   2.7605058126562103E-002
   6.6208514344077013E-002  -1.9790283576075207E-002   2.7793621254958323E-002
   6.8862422258077982E-002  -2.0752447002799768E-002   3.3808513166628931E-002
   6.6802996105280954E-002  -2.0024336405597642E-002   3.3418944552843777E-002
   6.4743569952483898E-002  -1.9342103992307548E-002   3.3215936910814224E-002
   6.2684143799686842E-002  -1.8705749762929262E-002   3.3199490240540405E-002
   6.0624717646889814E-002  -1.8115273717462937E-002   3.3369604542022341E-002
   6.2568927388514980E-002  -1.8768130889981263E-002   3.9344499767201078E-002
   6.0698691851470435E-002  -1.8168362725249874E-002   3.8954715041800266E-002
   5.8828456314425896E-002  -1.7580462165150999E-002   3.8756750576148774E-002
   5.6958220777381399E-002  -1.7004429209684549E-002   3.8750606370246646E-002
   5.5087985240336819E-002  -1.6440263858850640E-002   3.8936282424093818E-002
   5.6301459657611880E-002  -1.6783814777162821E-002   4.4735138645662545E-002
   5.4625674024313453E-002  -1.6312389044902172E-002   4.4379148387925713E-002
   5.2949888391015026E-002  -1.5818820337994491E-002   4.4220237677931651E-002
   5.1274102757716614E-002  -1.5303108656439947E-002   4.4258406515680672E-002
   4.9598317124418201E-002  -1.4765254000238356E-002   4.4493654901172422E-002
   5.0060019065368611E-002  -1.4799498664344268E-002   4.9980429802013643E-002
   4.8583942623809884E-002  -1.4456415364554304E-002   4.9692244591220097E-002
   4.7107866182251198E-002  -1.4057178510838070E-002   4.9606398216163111E-002
   4.5631789740692451E-002  -1.3601788103195268E-002   4.9722890676842491E-002
   4.4155713299133759E-002  -1.3090244141626128E-002   5.0041721973258568E-002
   6.6208514344077013E-002  -1.9790283576075207E-002   2.7793621254958323E-002
   6.3568513543829391E-002  -1.9181355447740189E-002   2.7279865530176084E-002
   6.0928512743581756E-002  -1.8508255779741217E-002   2.6993990283163238E-002
   5.8288511943334141E-002  -1.7770984572078478E-002   2.6935995513919953E-002
   5.5648511143086499E-002  -1.6969541824751466E-002   2.7105881222445949E-002
   6.0624717646889814E-002  -1.8115273717462937E-002   3.3369604542022341E-002
   5.8208150000871858E-002  -1.7526642503131559E-002   3.2951645814987510E-002
   5.5791582354853958E-002  -1.6895822767158321E-002   3.2752672918642395E-002
   5.3375014708836023E-002  -1.6222814509543014E-002   3.2772685852987440E-002
   5.0958447062818102E-002  -1.5507617730285805E-002   3.3011684618022230E-002
   5.5087985240336819E-002  -1.6440263858850640E-002   3.8936282424093818E-002
   5.2885956101469005E-002  -1.5871929558522985E-002   3.8592137676784301E-002
   5.0683926962601211E-002  -1.5283389754575313E-002   3.8458084113085170E-002
   4.8481897823733411E-002  -1.4674644447007664E-002   3.8534121732996342E-002
   4.6279868684865610E-002  -1.4045693635820061E-002   3.8820250536517789E-002
   4.9598317124418201E-002  -1.4765254000238356E-002   4.4493654901172422E-002
   4.7601931845620865E-002  -1.4217216613914410E-002   4.4201341115566506E-002
   4.5605546566823550E-002  -1.3670956741992361E-002   4.4110223866491244E-002
   4.3609161288026256E-002  -1.3126474384472326E-002   4.4220303153946539E-002
   4.1612776009228900E-002  -1.2583769541354331E-002   4.4531578977932793E-002
   4.4155713299133759E-002  -1.3090244141626128E-002   5.0041721973258568E-002
   4.2356077233327377E-002  -1.2562503669305752E-002   4.9779256131333965E-002
   4.0556441167520968E-002  -1.2058523729409382E-002   4.9709092178860631E-002
   3.8756805101714559E-002  -1.1578304321937093E-002   4.9831230115838343E-002
   3.6957169035908150E-002  -1.1121845446888656E-002   5.0145669942267102E-002
   5.5648511143086499E-002  -1.6969541824751466E-002   2.7105881222445949E-002
   5.3974693049807787E-002  -1.6171820583005425E-002   2.6729633301116607E-002
   5.2300874956529048E-002  -1.5445713892085169E-002   2.6332978070466723E-002
   5.0627056863250378E-002  -1.4791221751990356E-002   2.5915915530496478E-002
   4.8953238769971652E-002  -1.4208344162721209E-002   2.5478445681205941E-002
   5.0958447062818102E-002  -1.5507617730285805E-002   3.3011684618022230E-002
   4.9293136952166777E-002  -1.4791283273547451E-002   3.2620073832203916E-002
   4.7627826841515439E-002  -1.4114861983488866E-002   3.2265886320960641E-002
   4.5962516730864135E-002  -1.3478353860110173E-002   3.1949122084292861E-002
   4.4297206620212803E-002  -1.2881758903411256E-002   3.1669781122200147E-002
   4.6279868684865610E-002  -1.4045693635820061E-002   3.8820250536517789E-002
   4.4680897140737294E-002  -1.3410745964089449E-002   3.8444978270356311E-002
   4.3081925596609054E-002  -1.2784010074892778E-002   3.8164959862665764E-002
   4.1482954052480800E-002  -1.2165485968229988E-002   3.7980195313446000E-002
   3.9883982508352511E-002  -1.1555173644101080E-002   3.7890684622697068E-002
   4.1612776009228900E-002  -1.2583769541354331E-002   4.4531578977932793E-002
   4.0137973615519379E-002  -1.2030208654631572E-002   4.4204346615573861E-002
   3.8663171221809893E-002  -1.1453158166296582E-002   4.4030198695581738E-002
   3.7188368828100365E-002  -1.0852618076349803E-002   4.4009135217956109E-002
   3.5713566434390831E-002  -1.0228588384790904E-002   4.4141156182696907E-002
   3.6957169035908150E-002  -1.1121845446888656E-002   5.0145669942267102E-002
   3.5664366376513046E-002  -1.0649671345173445E-002   4.9898178867856691E-002
   3.4371563717117942E-002  -1.0122306257700373E-002   4.9861602819708944E-002
   3.3078761057722825E-002  -9.5397501844696163E-003   5.0035941797823294E-002
   3.1785958398327707E-002  -8.9020031254808951E-003   5.0421195802199670E-002
   4.8953238769971652E-002  -1.4208344162721209E-002   2.5478445681205941E-002
   4.5920847709738921E-002  -1.3576680106314132E-002   2.3976045420450731E-002
   4.2888456649506246E-002  -1.2775828564805886E-002   2.2240538700639967E-002
   3.9856065589273501E-002  -1.1805789538196255E-002   2.0271925521772344E-002
   3.6823674529040784E-002  -1.0666563026485498E-002   1.8070205883849333E-002
   4.4297206620212803E-002  -1.2881758903411256E-002   3.1669781122200147E-002
   4.1116381396944818E-002  -1.2250787878315711E-002   3.0633787589651601E-002
   3.7935556173676818E-002  -1.1511151549747412E-002   2.9534032190088544E-002
   3.4754730950408950E-002  -1.0662849917706260E-002   2.8370514923511517E-002
   3.1573905727140972E-002  -9.7058829821924375E-003   2.7143235789919729E-002
   3.9883982508352511E-002  -1.1555173644101080E-002   3.7890684622697068E-002
   3.6724067714090994E-002  -1.0924895650317040E-002   3.7260575636726578E-002
   3.3564152919829525E-002  -1.0246474534688757E-002   3.6736049375783411E-002
   3.0404238125567983E-002  -9.5199102972162337E-003   3.6317105839867740E-002
   2.7244323331306525E-002  -8.7452029378993767E-003   3.6003745028978795E-002
   3.5713566434390831E-002  -1.0228588384790904E-002   4.4141156182696907E-002
   3.2743906661177546E-002  -9.5990034223184945E-003   4.3856409561675982E-002
   2.9774246887964206E-002  -8.9817975196301372E-003   4.3846590257723889E-002
   2.6804587114750891E-002  -8.3769706767261119E-003   4.4111698270841146E-002
   2.3834927341537630E-002  -7.7845228936063160E-003   4.4651733601026936E-002
   3.1785958398327707E-002  -8.9020031254808951E-003   5.0421195802199670E-002
   2.9175898238204295E-002  -8.2731111943198932E-003   5.0421289364499522E-002
   2.6565838078080883E-002  -7.7171205045714203E-003   5.0865654835910296E-002
   2.3955777917957444E-002  -7.2340310562361322E-003   5.1754292216431616E-002
   2.1345717757834060E-002  -6.8238428493132552E-003   5.3087201506063719E-002
   5.7152247163044970E-002   0.0000000000000000        3.4692081934265061E-002
   5.7943468168144031E-002  -2.0863415615439956E-003   3.8345701600589831E-002
   5.8734689173243100E-002  -4.1413185046916875E-003   4.2212653163399186E-002
   5.9525910178342169E-002  -6.1649308294430740E-003   4.6292936622693161E-002
   6.0317131183441244E-002  -8.1571785357981534E-003   5.0586551978471755E-002
   4.8653207401860146E-002   0.0000000000000000        3.2788753958121405E-002
   4.9592626994947597E-002  -1.7114289589479801E-003   3.6965734371798446E-002
   5.0532046588035055E-002  -3.4364516727016202E-003   4.1225780064967639E-002
   5.1471466181122506E-002  -5.1750681412609245E-003   4.5568891037629025E-002
   5.2410885774209964E-002  -6.9272783646258862E-003   4.9995067289782556E-002
   4.0733776264728488E-002   0.0000000000000000        3.1282817771174760E-002
   4.1691127828811896E-002  -1.3365163563519630E-003   3.5938200559002091E-002
   4.2648479392895296E-002  -2.7315848407115538E-003   4.0546382009329161E-002
   4.3605830956978710E-002  -4.1852054530787724E-003   4.5107362122155957E-002
   4.4563182521062096E-002  -5.6973781934536154E-003   4.9621140897482506E-002
   3.3393953751649989E-002   0.0000000000000000        3.0174273373425108E-002
   3.4238970669736912E-002  -9.6160375375594753E-004   3.5263100162200786E-002
   3.5083987587823835E-002  -2.0267180087214869E-003   4.0174458996483753E-002
   3.5929004505910758E-002  -3.1953427648966216E-003   4.4908349876274026E-002
   3.6774021423997688E-002  -4.4674780222813534E-003   4.9464772801571619E-002
   2.6633739862624659E-002   0.0000000000000000        2.9463120764872459E-002
   2.7236155517722668E-002  -5.8669115115993035E-004   3.4940433181394503E-002
   2.7838571172820677E-002  -1.3218511767314201E-003   4.0110011026431400E-002
   2.8440986827918686E-002  -2.2054800767144708E-003   4.4971854299983176E-002
   2.9043402483016699E-002  -3.2375778511090775E-003   4.9525963002049832E-002
   6.0317131183441244E-002  -8.1571785357981534E-003   5.0586551978471755E-002
   6.0618573401383227E-002  -1.0037679459296546E-002   5.1523035928057598E-002
   6.0920015619325245E-002  -1.1726051435477936E-002   5.2247965131732785E-002
   6.1221457837267255E-002  -1.3222294464342253E-002   5.2761339589497240E-002
   6.1522900055209259E-002  -1.4526408545889540E-002   5.3063159301350978E-002
   5.2410885774209964E-002  -6.9272783646258862E-003   4.9995067289782556E-002
   5.2539400277362397E-002  -8.5926909024957795E-003   5.1218379463129439E-002
   5.2667914780514830E-002  -1.0070914314569891E-002   5.2307390952807904E-002
   5.2796429283667269E-002  -1.1361948600848203E-002   5.3262101758817890E-002
   5.2924943786819688E-002  -1.2465793761330730E-002   5.4082511881159541E-002
   4.4563182521062096E-002  -5.6973781934536154E-003   4.9621140897482506E-002
   4.4596023371667265E-002  -7.1477023456950027E-003   5.1126341473069117E-002
   4.4628864222272441E-002  -8.4157771936618515E-003   5.2574495427229646E-002
   4.4661705072877610E-002  -9.5016027373541669E-003   5.3965602759963982E-002
   4.4694545923482765E-002  -1.0405178976771939E-002   5.5299663471272256E-002
   3.6774021423997688E-002  -4.4674780222813534E-003   4.9464772801571619E-002
   3.6788442684297873E-002  -5.7027137888942363E-003   5.1246921957876716E-002
   3.6802863944598065E-002  -6.7606400727538022E-003   5.3049278554997990E-002
   3.6817285204898256E-002  -7.6412568738601179E-003   5.4871842592935482E-002
   3.6831706465198441E-002  -8.3445641922131383E-003   5.6714614071689089E-002
   2.9043402483016699E-002  -3.2375778511090775E-003   4.9525963002049832E-002
   2.9116658215254207E-002  -4.2577252320934646E-003   5.1580120917552187E-002
   2.9189913947491715E-002  -5.1055029518457720E-003   5.3731740336113012E-002
   2.9263169679729233E-002  -5.7809110103660914E-003   5.5980821257732287E-002
   2.9336425411966738E-002  -6.2839494076543448E-003   5.8327363682410073E-002
   6.1522900055209259E-002  -1.4526408545889540E-002   5.3063159301350978E-002
   6.0212132702017890E-002  -1.5536170826177496E-002   5.1648527248826105E-002
   5.8901365348826527E-002  -1.6149358451264015E-002   5.0678980020958372E-002
   5.7590597995635165E-002  -1.6365971421148973E-002   5.0154517617747515E-002
   5.6279830642443782E-002  -1.6186009735832410E-002   5.0075140039193819E-002
   5.2924943786819688E-002  -1.2465793761330730E-002   5.4082511881159541E-002
   5.2008317473894325E-002  -1.3319622855878042E-002   5.3339203279934369E-002
   5.1091691160968955E-002  -1.3860608944350759E-002   5.2939091934584140E-002
   5.0175064848043557E-002  -1.4088752026748773E-002   5.2882177845108819E-002
   4.9258438535118194E-002  -1.4004052103072234E-002   5.3168461011508489E-002
   4.4694545923482765E-002  -1.0405178976771939E-002   5.5299663471272256E-002
   4.4070173082041281E-002  -1.1103074885578542E-002   5.5143946672219848E-002
   4.3445800240599818E-002  -1.1571859437437458E-002   5.5229539560260263E-002
   4.2821427399158327E-002  -1.1811532632348571E-002   5.5556442135393555E-002
   4.2197054557716857E-002  -1.1822094470311996E-002   5.6124654397619753E-002
   3.6831706465198441E-002  -8.3445641922131383E-003   5.6714614071689089E-002
   3.6397699526458799E-002  -8.8865269152790787E-003   5.7062757425682543E-002
   3.5963692587719143E-002  -9.2831099305241312E-003   5.7550322897986762E-002
   3.5529685648979487E-002  -9.5343132379483841E-003   5.8177310488601787E-002
   3.5095678710239837E-002  -9.6401368375517611E-003   5.8943720197527576E-002
   2.9336425411966738E-002  -6.2839494076543448E-003   5.8327363682410073E-002
   2.8990896807146831E-002  -6.6699789449795738E-003   5.9095635540322516E-002
   2.8645368202326923E-002  -6.9943604236108927E-003   5.9901441947763631E-002
   2.8299839597507016E-002  -7.2570938435481732E-003   6.0744782904733556E-002
   2.7954310992687102E-002  -7.4581792047915679E-003   6.1625658411232007E-002
   5.6279830642443782E-002  -1.6186009735832410E-002   5.0075140039193819E-002
   5.4724877748174985E-002  -1.5815666034176459E-002   4.9761599048883359E-002
   5.3169924853906196E-002  -1.5461132955042995E-002   4.9641300345916538E-002
   5.1614971959637421E-002  -1.5122410498432357E-002   4.9714243930293306E-002
   5.0060019065368611E-002  -1.4799498664344268E-002   4.9980429802013643E-002
   4.9258438535118194E-002  -1.4004052103072234E-002   5.3168461011508489E-002
   4.7900400182801020E-002  -1.3757094503019755E-002   5.2816531267807630E-002
   4.6542361830483839E-002  -1.3498464556290043E-002   5.2665188320666308E-002
   4.5184323478166644E-002  -1.3228162262883255E-002   5.2714432170084771E-002
   4.3826285125849490E-002  -1.2946187622799310E-002   5.2964262816062840E-002
   4.2197054557716857E-002  -1.1822094470311996E-002   5.6124654397619753E-002
   4.1043275256567341E-002  -1.1698522971863003E-002   5.5761818869728211E-002
   3.9889495955417818E-002  -1.1535796157537062E-002   5.5606914647612381E-002
   3.8735716654268310E-002  -1.1333914027334193E-002   5.5659941731272249E-002
   3.7581937353118787E-002  -1.1092876581254352E-002   5.5920900120707703E-002
   3.5095678710239837E-002  -9.6401368375517611E-003   5.8943720197527576E-002
   3.4153502969473989E-002  -9.6399514407063021E-003   5.8597461854645247E-002
   3.3211327228708155E-002  -9.5731277587841508E-003   5.8466479326754653E-002
   3.2269151487942301E-002  -9.4396657917851529E-003   5.8550772613855731E-002
   3.1326975747176480E-002  -9.2395655397093795E-003   5.8850341715948544E-002
   2.7954310992687102E-002  -7.4581792047915679E-003   6.1625658411232007E-002
   2.7231083321520973E-002  -7.5813799095495460E-003   6.1323460222558648E-002
   2.6507855650354854E-002  -7.6104593600311056E-003   6.1243882358093089E-002
   2.5784627979188728E-002  -7.5454175562359943E-003   6.1386924817835142E-002
   2.5061400308022605E-002  -7.3862544981644074E-003   6.1752587601785008E-002
   5.0060019065368611E-002  -1.4799498664344268E-002   4.9980429802013643E-002
   4.8583942623809884E-002  -1.4456415364554304E-002   4.9692244591220097E-002
   4.7107866182251198E-002  -1.4057178510838070E-002   4.9606398216163111E-002
   4.5631789740692451E-002  -1.3601788103195268E-002   4.9722890676842491E-002
   4.4155713299133759E-002  -1.3090244141626128E-002   5.0041721973258568E-002
   4.3826285125849490E-002  -1.2946187622799310E-002   5.2964262816062840E-002
   4.2548635867630691E-002  -1.2637292359180000E-002   5.2710713346821078E-002
   4.1270986609411871E-002  -1.2286228195167274E-002   5.2651679408522445E-002
   3.9993337351193051E-002  -1.1892995130760890E-002   5.2787161001167211E-002
   3.8715688092974265E-002  -1.1457593165961150E-002   5.3117158124755370E-002
   3.7581937353118787E-002  -1.1092876581254352E-002   5.5920900120707703E-002
   3.6494891973446644E-002  -1.0818169353805709E-002   5.5688001739484801E-002
   3.5407846593774508E-002  -1.0515277879496507E-002   5.5641795584411929E-002
   3.4320801214102407E-002  -1.0184202158326678E-002   5.5782281655489145E-002
   3.3233755834430265E-002  -9.8249421902962542E-003   5.6109459952716406E-002
   3.1326975747176480E-002  -9.2395655397093795E-003   5.8850341715948544E-002
   3.0422710941257810E-002  -8.9990463484313707E-003   5.8624109769211535E-002
   2.9518446135339150E-002  -8.7443275638257253E-003   5.8576746743831370E-002
   2.8614181329420448E-002  -8.4754091858924106E-003   5.8708252639808015E-002
   2.7709916523501819E-002  -8.1922912146313170E-003   5.9018627457141558E-002
   2.5061400308022605E-002  -7.3862544981644074E-003   6.1752587601785008E-002
   2.4332092771064157E-002  -7.1799233430571152E-003   6.1519037436001123E-002
   2.3602785234105722E-002  -6.9733772481549508E-003   6.1456532886780782E-002
   2.2873477697147284E-002  -6.7666162134580755E-003   6.1565073954123951E-002
   2.2144170160188839E-002  -6.5596402389663799E-003   6.1844660638030957E-002
   4.4155713299133759E-002  -1.3090244141626128E-002   5.0041721973258568E-002
   4.2356077233327377E-002  -1.2562503669305752E-002   4.9779256131333965E-002
   4.0556441167520968E-002  -1.2058523729409382E-002   4.9709092178860631E-002
   3.8756805101714559E-002  -1.1578304321937093E-002   4.9831230115838343E-002
   3.6957169035908150E-002  -1.1121845446888656E-002   5.0145669942267102E-002
   3.8715688092974265E-002  -1.1457593165961150E-002   5.3117158124755370E-002
   3.7114716979245496E-002  -1.1006888040618890E-002   5.2801486737206582E-002
   3.5513745865516727E-002  -1.0567745494585286E-002   5.2690843364361986E-002
   3.3912774751787951E-002  -1.0140165527859945E-002   5.2785228006221728E-002
   3.2311803638059175E-002  -9.7241481404433117E-003   5.3084640662785537E-002
   3.3233755834430265E-002  -9.8249421902962542E-003   5.6109459952716406E-002
   3.1844175798032212E-002  -9.4512724119320407E-003   5.5752780972658948E-002
   3.0454595761634146E-002  -9.0769672597609680E-003   5.5613856132558731E-002
   2.9065015725236107E-002  -8.7020267337828520E-003   5.5692685432415741E-002
   2.7675435688838054E-002  -8.3264508339979670E-003   5.5989268872229922E-002
   2.7709916523501819E-002  -8.1922912146313170E-003   5.9018627457141558E-002
   2.6544453689687532E-002  -7.8956567832451849E-003   5.8633138837690876E-002
   2.5378990855873234E-002  -7.5861890249367056E-003   5.8478130483450422E-002
   2.4213528022058957E-002  -7.2638879397058428E-003   5.8553602394420097E-002
   2.3048065188244652E-002  -6.9287535275525947E-003   5.8859554570600478E-002
   2.2144170160188839E-002  -6.5596402389663799E-003   6.1844660638030957E-002
   2.1215550654211407E-002  -6.3400411545583291E-003   6.1442560332302332E-002
   2.0286931148233982E-002  -6.0954107901125404E-003   6.1283666417037114E-002
   1.9358311642256539E-002  -5.8257491456287468E-003   6.1367978892235317E-002
   1.8429692136279124E-002  -5.5310562211072223E-003   6.1695497757896900E-002
   3.6957169035908150E-002  -1.1121845446888656E-002   5.0145669942267102E-002
   3.5664366376513046E-002  -1.0649671345173445E-002   4.9898178867856691E-002
   3.4371563717117942E-002  -1.0122306257700373E-002   4.9861602819708944E-002
   3.3078761057722825E-002  -9.5397501844696163E-003   5.0035941797823294E-002
   3.1785958398327707E-002  -8.9020031254808951E-003   5.0421195802199670E-002
   3.2311803638059175E-002  -9.7241481404433117E-003   5.3084640662785537E-002
   3.1218383988422291E-002  -9.2950378328360006E-003   5.2881084723222754E-002
   3.0124964338785400E-002  -8.8281791055386666E-003   5.2865379776914231E-002
   2.9031544689148512E-002  -8.3235719585514865E-003   5.3037525823859961E-002
   2.7938125039511638E-002  -7.7812163918745125E-003   5.3397522864059743E-002
   2.7675435688838054E-002  -8.3264508339979670E-003   5.5989268872229922E-002
   2.6758335015951262E-002  -7.9404043204985147E-003   5.5812205501446957E-002
   2.5841234343064491E-002  -7.5340519533769676E-003   5.5799929090910062E-002
   2.4924133670177723E-002  -7.1073937326334696E-003   5.5952439640619175E-002
   2.4007032997290928E-002  -6.6604296582678246E-003   5.6269737150574470E-002
   2.3048065188244652E-002  -6.9287535275525947E-003   5.8859554570600478E-002
   2.2284219459099919E-002  -6.5857708081609942E-003   5.8691541202529382E-002
   2.1520373729955126E-002  -6.2399248012153206E-003   5.8665250761696167E-002
   2.0756528000810365E-002  -5.8912155067152852E-003   5.8780683248101179E-002
   1.9992682271665604E-002  -5.5396429246613449E-003   5.9037838661743863E-002
   1.8429692136279124E-002  -5.5310562211072223E-003   6.1695497757896900E-002
   1.7796037317868260E-002  -5.2311372958236124E-003   6.1519091826469863E-002
   1.7162382499457396E-002  -4.9457976490536321E-003   6.1461344789272537E-002
   1.6528727681046552E-002  -4.6750372807973124E-003   6.1522256646305243E-002
   1.5895072862635695E-002  -4.4188561910546431E-003   6.1701827397567688E-002
   3.1785958398327707E-002  -8.9020031254808951E-003   5.0421195802199670E-002
   2.9175898238204295E-002  -8.2731111943198932E-003   5.0421289364499522E-002
   2.6565838078080883E-002  -7.7171205045714203E-003   5.0865654835910296E-002
   2.3955777917957444E-002  -7.2340310562361322E-003   5.1754292216431616E-002
   2.1345717757834060E-002  -6.8238428493132552E-003   5.3087201506063719E-002
   2.7938125039511638E-002  -7.7812163918745125E-003   5.3397522864059743E-002
   2.5745094992192755E-002  -7.2410073100689643E-003   5.3229644631226009E-002
   2.3552064944873864E-002  -6.7428396176964916E-003   5.3451554714890798E-002
   2.1359034897555019E-002  -6.2867133147570496E-003   5.4063253115053458E-002
   1.9166004850236118E-002  -5.8726284012504681E-003   5.5064739831714893E-002
   2.4007032997290928E-002  -6.6604296582678246E-003   5.6269737150574470E-002
   2.2176549470164238E-002  -6.2089034258178966E-003   5.5964746974586740E-002
   2.0346065943037520E-002  -5.7685587308211675E-003   5.5995061522484811E-002
   1.8515582415910781E-002  -5.3393955732779653E-003   5.6360680794269119E-002
   1.6685098888784125E-002  -4.9214139531877921E-003   5.7061604789939269E-002
   1.9992682271665604E-002  -5.5396429246613449E-003   5.9037838661743863E-002
   1.8470261672118678E-002  -5.1767995415668983E-003   5.8626596394581801E-002
   1.6947841072571777E-002  -4.7942778439459856E-003   5.8496175258693398E-002
   1.5425420473024865E-002  -4.3920778317986043E-003   5.8646575254078716E-002
   1.3902999873477945E-002  -3.9701995051251160E-003   5.9077796380737471E-002
   1.5895072862635695E-002  -4.4188561910546431E-003   6.1701827397567688E-002
   1.4626231598056177E-002  -4.1446956573159000E-003   6.1215192891211134E-002
   1.3357390333476701E-002  -3.8199969570707204E-003   6.0954895923515884E-002
   1.2088549068897225E-002  -3.4447600903197775E-003   6.0920936494481964E-002
   1.0819707804317680E-002  -3.0189850570623289E-003   6.1113314604109181E-002
   2.6633739862624659E-002   0.0000000000000000        2.9463120764872459E-002
   2.7236155517722668E-002  -5.8669115115993035E-004   3.4940433181394503E-002
   2.7838571172820677E-002  -1.3218511767314201E-003   4.0110011026431400E-002
   2.8440986827918686E-002  -2.2054800767144708E-003   4.4971854299983176E-002
   2.9043402483016699E-002  -3.2375778511090775E-003   4.9525963002049832E-002
   2.0116323938712898E-002   0.0000000000000000        2.9014721140201535E-002
   2.0450287686676109E-002  -4.4001836331599223E-004   3.4307393262113822E-002
   2.0784251434639325E-002  -9.9138838248856095E-004   3.9370896141241653E-002
   2.1118215182602533E-002  -1.6541100575177079E-003   4.4205229777585009E-002
   2.1452178930565745E-002  -2.4281833884034296E-003   4.8810394171143884E-002
   1.3504895320975124E-002   0.0000000000000000        2.8694435694097055E-002
   1.3648972490504204E-002  -2.9334557547205497E-004   3.3839584739954576E-002
   1.3793049660033281E-002  -6.6092558824570359E-004   3.8834129871728289E-002
   1.3937126829562361E-002  -1.1027400383209450E-003   4.3678071089418222E-002
   1.4081203999091442E-002  -1.6187889256977853E-003   4.8371408393024333E-002
   6.7994540094113353E-003   0.0000000000000000        2.8502264426559020E-002
   6.8322099292069480E-003  -1.4667278762811858E-004   3.3537007614916750E-002
   6.8649658490025616E-003  -3.3046279400284536E-004   3.8499712217891356E-002
   6.8977217687981743E-003  -5.5137001912418729E-004   4.3390378235482821E-002
   6.9304776885937870E-003  -8.0939446299213742E-004   4.8209005667691165E-002
   4.0215339738858269E-012   0.0000000000000000        2.8438207337587430E-002
   2.7843448033304519E-012   2.1582041709322652E-013   3.3399661887000366E-002
   1.5471571506581183E-012   2.4001287068919908E-013   3.8367643179730834E-002
   3.0996917272513302E-013   7.2577360787917655E-014   4.3342151215778835E-002
  -9.2721880520785227E-013  -2.8649044941930768E-013   4.8323185995144360E-002
   2.9043402483016699E-002  -3.2375778511090775E-003   4.9525963002049832E-002
   2.9116658215254207E-002  -4.2577252320934646E-003   5.1580120917552187E-002
   2.9189913947491715E-002  -5.1055029518457720E-003   5.3731740336113012E-002
   2.9263169679729233E-002  -5.7809110103660914E-003   5.5980821257732287E-002
   2.9336425411966738E-002  -6.2839494076543448E-003   5.8327363682410073E-002
   2.1452178930565745E-002  -2.4281833884034296E-003   4.8810394171143884E-002
   2.1593952307039744E-002  -3.1932939243344768E-003   5.1206680302299898E-002
   2.1735725683513740E-002  -3.8291272144996388E-003   5.3642540218870410E-002
   2.1877499059987739E-002  -4.3356832588988320E-003   5.6117973920855421E-002
   2.2019272436461741E-002  -4.7129620575321468E-003   5.8632981408254944E-002
   1.4081203999091442E-002  -1.6187889256977853E-003   4.8371408393024333E-002
   1.4233607302157964E-002  -2.1288626165755246E-003   5.1066730324367871E-002
   1.4386010605224488E-002  -2.5527514771534641E-003   5.3743738323481921E-002
   1.4538413908291010E-002  -2.8904555074316151E-003   5.6402432390366554E-002
   1.4690817211357537E-002  -3.1419747074099731E-003   5.9042812525021686E-002
   6.9304776885937870E-003  -8.0939446299213742E-004   4.8209005667691165E-002
   7.0356232006088728E-003  -1.0644313088165650E-003   5.1160270983756098E-002
   7.1407687126239594E-003  -1.2763757398072998E-003   5.4035334649947621E-002
   7.2459142246390478E-003  -1.4452277559643873E-003   5.6834196666265699E-002
   7.3510597366541319E-003  -1.5709873572877803E-003   5.9556857032710402E-002
  -9.2721880520785227E-013  -2.8649044941930768E-013   4.8323185995144360E-002
   2.3924668669794702E-012  -1.0575854428318543E-012   5.1487302280464581E-002
   5.7121549244115721E-012  -2.4611521588085994E-012   5.4517329198267392E-002
   9.0318422229021533E-012  -4.4971481508344902E-012   5.7413266748552842E-002
   1.2351527786669259E-011  -7.1656153233234932E-012   6.0175114931320897E-002
   2.9336425411966738E-002  -6.2839494076543448E-003   5.8327363682410073E-002
   2.8990896807146831E-002  -6.6699789449795738E-003   5.9095635540322516E-002
   2.8645368202326923E-002  -6.9943604236108927E-003   5.9901441947763631E-002
   2.8299839597507016E-002  -7.2570938435481732E-003   6.0744782904733556E-002
   2.7954310992687102E-002  -7.4581792047915679E-003   6.1625658411232007E-002
   2.2019272436461741E-002  -4.7129620575321468E-003   5.8632981408254944E-002
   2.1723490281160666E-002  -5.0024842105101074E-003   5.9456104968677648E-002
   2.1427708125859583E-002  -5.2457703179433351E-003   6.0341186878609364E-002
   2.1131925970558504E-002  -5.4428203798317747E-003   6.1288227138049975E-002
   2.0836143815257432E-002  -5.5936343961754537E-003   6.2297225746999613E-002
   1.4690817211357537E-002  -3.1419747074099731E-003   5.9042812525021686E-002
   1.4469205305555554E-002  -3.3349894760406548E-003   5.9905375774805522E-002
   1.4247593399753570E-002  -3.4971802122757646E-003   6.0854321174078553E-002
   1.4025981493951583E-002  -3.6285469161153354E-003   6.1889648722840786E-002
   1.3804369588149597E-002  -3.7290895875593463E-003   6.3011358421092317E-002
   7.3510597366541319E-003  -1.5709873572877803E-003   5.9556857032710402E-002
   7.2280418803314997E-003  -1.6674947415711953E-003   6.0443447958706084E-002
   7.1050240240088649E-003  -1.7485901066082005E-003   6.1440844834171227E-002
   6.9820061676862284E-003  -1.8142734523989026E-003   6.2549047659105864E-002
   6.8589883113635945E-003  -1.8645447789432078E-003   6.3768056433509981E-002
   1.2351527786669259E-011  -7.1656153233234932E-012   6.0175114931320897E-002
   5.4885046160690898E-012  -7.1017289271502193E-012   6.1070321520379264E-002
  -1.3745194218928170E-012  -9.4063298816671193E-013   6.2100757858887377E-002
  -8.2375438935355927E-012   1.1317503358088121E-011   6.3266423946845216E-002
  -1.5100566630454892E-011   2.9672847512429712E-011   6.4567319784252841E-002
   2.7954310992687102E-002  -7.4581792047915679E-003   6.1625658411232007E-002
   2.7231083321520973E-002  -7.5813799095495460E-003   6.1323460222558648E-002
   2.6507855650354854E-002  -7.6104593600311056E-003   6.1243882358093089E-002
   2.5784627979188728E-002  -7.5454175562359943E-003   6.1386924817835142E-002
   2.5061400308022605E-002  -7.3862544981644074E-003   6.1752587601785008E-002
   2.0836143815257432E-002  -5.5936343961754537E-003   6.2297225746999613E-002
   2.0325083116920706E-002  -5.6860349226583867E-003   6.2153323251496445E-002
   1.9814022418583987E-002  -5.7078445149645156E-003   6.2211134377444383E-002
   1.9302961720247269E-002  -5.6590631730938879E-003   6.2470659124843397E-002
   1.8791901021910543E-002  -5.5396908970464509E-003   6.2931897493693434E-002
   1.3804369588149597E-002  -3.7290895875593463E-003   6.3011358421092317E-002
   1.3484569159885615E-002  -3.7906899357670887E-003   6.3002221298659469E-002
   1.3164768731621632E-002  -3.8052296698978683E-003   6.3173891094921095E-002
   1.2844968303357653E-002  -3.7727087899516979E-003   6.3526367809877138E-002
   1.2525167875093671E-002  -3.6931272959285638E-003   6.4059651443527516E-002
   6.8589883113635945E-003  -1.8645447789432078E-003   6.3768056433509981E-002
   6.7095414504156920E-003  -1.8953449488757768E-003   6.3870154364047776E-002
   6.5600945894677912E-003  -1.9026148248312636E-003   6.4132152510523330E-002
   6.4106477285198948E-003  -1.8863544068094941E-003   6.4554050872936558E-002
   6.2612008675719888E-003  -1.8465636948106143E-003   6.5135849451287628E-002
  -1.5100566630454892E-011   2.9672847512429712E-011   6.4567319784252841E-002
  -1.1489051029989206E-011   3.8015424141946141E-011   6.4757122447661380E-002
  -7.8775302253530910E-012   2.0235375874921857E-011   6.5085918624250963E-002
  -4.2660128901639283E-012  -2.3667358003964800E-011   6.5553708314021658E-002
  -6.5449382025128955E-013  -9.3692720248839123E-011   6.6160491516973480E-002
   2.5061400308022605E-002  -7.3862544981644074E-003   6.1752587601785008E-002
   2.4332092771064157E-002  -7.1799233430571152E-003   6.1519037436001123E-002
   2.3602785234105722E-002  -6.9733772481549508E-003   6.1456532886780782E-002
   2.2873477697147284E-002  -6.7666162134580755E-003   6.1565073954123951E-002
   2.2144170160188839E-002  -6.5596402389663799E-003   6.1844660638030957E-002
   1.8791901021910543E-002  -5.5396908970464509E-003   6.2931897493693434E-002
   1.8236459417805391E-002  -5.3849425585398569E-003   6.2704121848762506E-002
   1.7681017813700246E-002  -5.2300330292916683E-003   6.2653032452974572E-002
   1.7125576209595098E-002  -5.0749623093018139E-003   6.2778629306329603E-002
   1.6570134605489943E-002  -4.9197303985703544E-003   6.3080912408827711E-002
   1.2525167875093671E-002  -3.6931272959285638E-003   6.4059651443527516E-002
   1.2149232836421157E-002  -3.5899617740227097E-003   6.3837596570396615E-002
   1.1773297797748645E-002  -3.4866888104283546E-003   6.3797868578987935E-002
   1.1397362759076133E-002  -3.3833084051456070E-003   6.3940467469301668E-002
   1.1021427720403622E-002  -3.2798205581742734E-003   6.4265393241337634E-002
   6.2612008675719888E-003  -1.8465636948106143E-003   6.5135849451287628E-002
   6.0704130269114646E-003  -1.7949809895055624E-003   6.4919461600903436E-002
   5.8796251862509395E-003  -1.7433445915650009E-003   6.4891041264820898E-002
   5.6888373455904117E-003  -1.6916545009893727E-003   6.5050588443040055E-002
   5.4980495049298883E-003  -1.6399107177781647E-003   6.5398103135560742E-002
  -6.5449382025128955E-013  -9.3692720248839123E-011   6.6160491516973480E-002
  -1.0723685828217810E-011  -2.0498830410886626E-010   6.5949716940282871E-002
  -2.0792883040354759E-011  -3.7270177222215040E-010   6.5932550510473309E-002
  -3.0862074180959542E-011  -5.9683316969150191E-010   6.6108992227544794E-002
  -4.0931272260458229E-011  -8.7738216691946036E-010   6.6479042091497187E-002
   2.2144170160188839E-002  -6.5596402389663799E-003   6.1844660638030957E-002
   2.1215550654211407E-002  -6.3400411545583291E-003   6.1442560332302332E-002
   2.0286931148233982E-002  -6.0954107901125404E-003   6.1283666417037114E-002
   1.9358311642256539E-002  -5.8257491456287468E-003   6.1367978892235317E-002
   1.8429692136279124E-002  -5.5310562211072223E-003   6.1695497757896900E-002
   1.6570134605489943E-002  -4.9197303985703544E-003   6.3080912408827711E-002
   1.5881958611546988E-002  -4.7550311354563890E-003   6.2723280291313382E-002
   1.5193782617604044E-002  -4.5715583583190306E-003   6.2603328807404740E-002
   1.4505606623661094E-002  -4.3693120671583659E-003   6.2721057957101492E-002
   1.3817430629718144E-002  -4.1482922619743290E-003   6.3076467740403958E-002
   1.1021427720403622E-002  -3.2798205581742734E-003   6.4265393241337634E-002
   1.0568169481637361E-002  -3.1700211163543379E-003   6.3945971546023092E-002
   1.0114911242871101E-002  -3.0477059265254722E-003   6.3858704727456417E-002
   9.6616530041048372E-003  -2.9128749886878757E-003   6.4003592785637581E-002
   9.2083947653385789E-003  -2.7655283028412969E-003   6.4380635720566390E-002
   5.4980495049298883E-003  -1.6399107177781647E-003   6.5398103135560742E-002
   5.2741832644825157E-003  -1.5850110972523423E-003   6.5110634096431530E-002
   5.0503170240351562E-003  -1.5238534947319381E-003   6.5049794177192352E-002
   4.8264507835877966E-003  -1.4564379102174124E-003   6.5215583377843167E-002
   4.6025845431404231E-003  -1.3827643437082787E-003   6.5608001698383919E-002
  -4.0931272260458229E-011  -8.7738216691946036E-010   6.6479042091497187E-002
  -3.9917534555566903E-011  -1.0781504022894239E-009   6.6217267942538793E-002
  -3.8903800320122528E-011  -1.0629383900839784E-009   6.6176597156612588E-002
  -3.7890069554125105E-011  -8.3174697337873305E-010   6.6357029733718612E-002
  -3.6876328379786827E-011  -3.8457537154812371E-010   6.6758565673856740E-002
   1.8429692136279124E-002  -5.5310562211072223E-003   6.1695497757896900E-002
   1.7796037317868260E-002  -5.2311372958236124E-003   6.1519091826469863E-002
   1.7162382499457396E-002  -4.9457976490536321E-003   6.1461344789272537E-002
   1.6528727681046552E-002  -4.6750372807973124E-003   6.1522256646305243E-002
   1.5895072862635695E-002  -4.4188561910546431E-003   6.1701827397567688E-002
   1.3817430629718144E-002  -4.1482922619743290E-003   6.3076467740403958E-002
   1.3312373414076373E-002  -3.9233529459599681E-003   6.2900469274259269E-002
   1.2807316198434601E-002  -3.7093481223085811E-003   6.2863007119422845E-002
   1.2302258982792830E-002  -3.5062777910201057E-003   6.2964081275894701E-002
   1.1797201767151058E-002  -3.3141419520945070E-003   6.3203691743674850E-002
   9.2083947653385789E-003  -2.7655283028412969E-003   6.4380635720566390E-002
   8.8518125695443428E-003  -2.6155685960963654E-003   6.4208689505854816E-002
   8.4952303737501136E-003  -2.4728985955635233E-003   6.4195157019529936E-002
   8.1386481779558793E-003  -2.3375183012427306E-003   6.4340038261591889E-002
   7.7820659821616414E-003  -2.2094277131340934E-003   6.4643333232040495E-002
   4.6025845431404231E-003  -1.3827643437082787E-003   6.5608001698383919E-002
   4.4143547842721773E-003  -1.3077842462327696E-003   6.5443752521256365E-002
   4.2261250254039210E-003  -1.2364490688184689E-003   6.5457794489593837E-002
   4.0378952665356734E-003  -1.1687588114655508E-003   6.5650127603396558E-002
   3.8496655076674189E-003  -1.1047134741737075E-003   6.6020751862664678E-002
  -3.6876328379786827E-011  -3.8457537154812371E-010   6.6758565673856740E-002
   5.8259855273412597E-011   1.0363082614261998E-010   6.6605658320463945E-002
   1.5339603545716507E-010   4.5792648839526606E-010   6.6650919529614633E-002
   2.4853222084508797E-010   6.7831177133492737E-010   6.6894349301309095E-002
   3.4366839929411697E-010   7.6478651189759717E-010   6.7335947635547344E-002
   1.5895072862635695E-002  -4.4188561910546431E-003   6.1701827397567688E-002
   1.4626231598056177E-002  -4.1446956573159000E-003   6.1215192891211134E-002
   1.3357390333476701E-002  -3.8199969570707204E-003   6.0954895923515884E-002
   1.2088549068897225E-002  -3.4447600903197775E-003   6.0920936494481964E-002
   1.0819707804317680E-002  -3.0189850570623289E-003   6.1113314604109181E-002
   1.1797201767151058E-002  -3.3141419520945070E-003   6.3203691743674850E-002
   1.0777416213141086E-002  -3.1085213699037773E-003   6.2866731792421277E-002
   9.7576306591311071E-003  -2.8649968088205746E-003   6.2801545723645713E-002
   8.7378451051211038E-003  -2.5835682688446493E-003   6.3008133537347716E-002
   7.7180595511111560E-003  -2.2642357499756960E-003   6.3486495233527451E-002
   7.7820659821616414E-003  -2.2094277131340934E-003   6.4643333232040495E-002
   7.0567724825377487E-003  -2.0723470824918211E-003   6.4443413648276410E-002
   6.3314789829138525E-003  -1.9099966605701374E-003   6.4560704290806861E-002
   5.6061854832899702E-003  -1.7223764473692678E-003   6.4995205159631364E-002
   4.8808919836660636E-003  -1.5094864428890631E-003   6.5746916254750487E-002
   3.8496655076674189E-003  -1.1047134741737075E-003   6.6020751862664678E-002
   3.4643004062461895E-003  -1.0361727950798927E-003   6.5945238458776687E-002
   3.0789353048249661E-003  -9.5499651231979038E-004   6.6232371624999647E-002
   2.6935702034037411E-003  -8.6118462589401291E-004   6.6882151361333644E-002
   2.3082051019825134E-003  -7.5473713580243018E-004   6.7894577667778316E-002
   3.4366839929411697E-010   7.6478651189759717E-010   6.7335947635547344E-002
  -1.5733588043520541E-011   1.4923321467463779E-009   6.7372206223921871E-002
  -3.7513558232005195E-010   3.6359304317334917E-009   6.7816547726224002E-002
  -7.3453756098407208E-010   7.1955811274670989E-009   6.8668972142453669E-002
  -1.0939395639342209E-009   1.2171284202722177E-008   6.9929479472610856E-002
   4.0215339738858269E-012   0.0000000000000000        2.8438207337587430E-002
   2.7843448033304519E-012   2.1582041709322652E-013   3.3399661887000366E-002
   1.5471571506581183E-012   2.4001287068919908E-013   3.8367643179730834E-002
   3.0996917272513302E-013   7.2577360787917655E-014   4.3342151215778835E-002
  -9.2721880520785227E-013  -2.8649044941930768E-013   4.8323185995144360E-002
  -6.7994540018307334E-003   0.0000000000000000        2.8502264426615471E-002
  -6.8322099238307572E-003   1.4667278720348863E-004   3.3537007614212348E-002
  -6.8649658458307776E-003   3.3046279332504987E-004   3.8499712216966034E-002
  -6.8977217678307997E-003   5.5137001836468719E-004   4.3390378234876507E-002
  -6.9304776898308227E-003   8.0939446232239191E-004   4.8209005667943776E-002
  -1.3504895314781917E-002   0.0000000000000000        2.8694435693076337E-002
  -1.3648972485705506E-002   2.9334557419115597E-004   3.3839584737966846E-002
  -1.3793049656629093E-002   6.6092558641008513E-004   3.8834129869853434E-002
  -1.3937126827552684E-002   1.1027400366567883E-003   4.3678071088736087E-002
  -1.4081203998476273E-002   1.6187889249312678E-003   4.8371408394614811E-002
  -2.0116323934832019E-002   0.0000000000000000        2.9014721136970012E-002
  -2.0450287682839904E-002   4.4001836117882418E-004   3.4307393258263867E-002
  -2.0784251430847795E-002   9.9138837949512126E-004   3.9370896138393063E-002
  -2.1118215178855676E-002   1.6541100549488938E-003   4.4205229777357587E-002
  -2.1452178926863564E-002   2.4281833875401402E-003   4.8810394175157465E-002
  -2.6633739861981039E-002   0.0000000000000000        2.9463120758296511E-002
  -2.7236155515233954E-002   5.8669114816649152E-004   3.4940433175103411E-002
  -2.7838571168486866E-002   1.3218511725801591E-003   4.0110011022584907E-002
  -2.8440986821739785E-002   2.2054800732410028E-003   4.4971854300741014E-002
  -2.9043402474992694E-002   3.2375778501490269E-003   4.9525963009571732E-002
  -9.2721880520785227E-013  -2.8649044941930768E-013   4.8323185995144360E-002
   2.3924668669794702E-012  -1.0575854428318543E-012   5.1487302280464581E-002
   5.7121549244115721E-012  -2.4611521588085994E-012   5.4517329198267392E-002
   9.0318422229021533E-012  -4.4971481508344902E-012   5.7413266748552842E-002
   1.2351527786669259E-011  -7.1656153233234932E-012   6.0175114931320897E-002
  -6.9304776898308227E-003   8.0939446232239191E-004   4.8209005667943776E-002
  -7.0356231958078009E-003   1.0644313075997497E-003   5.1160270983287223E-002
  -7.1407687017847792E-003   1.2763757365983060E-003   5.4035334647554750E-002
  -7.2459142077617557E-003   1.4452277493181166E-003   5.6834196660746322E-002
  -7.3510597137387357E-003   1.5709873457591672E-003   5.9556857022861932E-002
  -1.4081203998476273E-002   1.6187889249312678E-003   4.8371408394614811E-002
  -1.4233607297308484E-002   2.1288626162570819E-003   5.1066730324335202E-002
  -1.4386010596140694E-002   2.5527514756577920E-003   5.3743738319421086E-002
  -1.4538413894972907E-002   2.8904555031334122E-003   5.6402432379872448E-002
  -1.4690817193805118E-002   3.1419746986839150E-003   5.9042812505689324E-002
  -2.1452178926863564E-002   2.4281833875401402E-003   4.8810394175157465E-002
  -2.1593952302109573E-002   3.1932939249144157E-003   5.1206680303608469E-002
  -2.1735725677355586E-002   3.8291272147172708E-003   5.3642540213866392E-002
  -2.1877499052601602E-002   4.3356832569486923E-003   5.6117973905931220E-002
  -2.2019272427847611E-002   4.7129620516086872E-003   5.8632981379802954E-002
  -2.9043402474992694E-002   3.2375778501490269E-003   4.9525963009571732E-002
  -2.9116658210211078E-002   4.2577252335717509E-003   5.1580120921107024E-002
  -2.9189913945429469E-002   5.1055029537767412E-003   5.3731740330890662E-002
  -2.9263169680647856E-002   5.7809110107639779E-003   5.5980821238922653E-002
  -2.9336425415866237E-002   6.2839494045334385E-003   5.8327363645202975E-002
   1.2351527786669259E-011  -7.1656153233234932E-012   6.0175114931320897E-002
   5.4885046160690898E-012  -7.1017289271502193E-012   6.1070321520379264E-002
  -1.3745194218928170E-012  -9.4063298816671193E-013   6.2100757858887377E-002
  -8.2375438935355927E-012   1.1317503358088121E-011   6.3266423946845216E-002
  -1.5100566630454892E-011   2.9672847512429712E-011   6.4567319784252841E-002
  -7.3510597137387357E-003   1.5709873457591672E-003   5.9556857022861932E-002
  -7.2280418697463922E-003   1.6674947290578959E-003   6.0443447957395473E-002
  -7.1050240257540531E-003   1.7485901023507368E-003   6.1440844844189990E-002
  -6.9820061817617157E-003   1.8142734656378398E-003   6.2549047683245498E-002
  -6.8589883377693697E-003   1.8645448189189839E-003   6.3768056474562018E-002
  -1.4690817193805118E-002   3.1419746986839150E-003   5.9042812505689324E-002
  -1.4469205296146165E-002   3.3349894652174618E-003   5.9905375769595010E-002
  -1.4247593398487210E-002   3.4971802056421881E-003   6.0854321188572966E-002
  -1.4025981500828254E-002   3.6285469199580926E-003   6.1889648762623123E-002
  -1.3804369603169307E-002   3.7290896081651620E-003   6.3011358491745550E-002
  -2.2019272427847611E-002   4.7129620516086872E-003   5.8632981379802954E-002
  -2.1723490273710802E-002   5.0024842013770641E-003   5.9456104956977861E-002
  -2.1427708119573983E-002   5.2457703089336264E-003   6.0341186892036235E-002
  -2.1131925965437171E-002   5.4428203742783593E-003   6.1288227184978117E-002
  -2.0836143811300348E-002   5.5936343974113054E-003   6.2297225835803480E-002
  -2.9336425415866237E-002   6.2839494045334385E-003   5.8327363645202975E-002
  -2.8990896802440311E-002   6.6699789375366525E-003   5.9095635519544089E-002
  -2.8645368189014375E-002   6.9943604122250248E-003   5.9901441954579887E-002
  -2.8299839575588459E-002   7.2570938285986784E-003   6.0744782950310480E-002
  -2.7954310962162523E-002   7.4581791866574626E-003   6.1625658506735750E-002
  -1.5100566630454892E-011   2.9672847512429712E-011   6.4567319784252841E-002
  -1.1489051029989206E-011   3.8015424141946141E-011   6.4757122447661380E-002
  -7.8775302253530910E-012   2.0235375874921857E-011   6.5085918624250963E-002
  -4.2660128901639283E-012  -2.3667358003964800E-011   6.5553708314021658E-002
  -6.5449382025128955E-013  -9.3692720248839123E-011   6.6160491516973480E-002
  -6.8589883377693697E-003   1.8645448189189839E-003   6.3768056474562018E-002
  -6.7095414706833563E-003   1.8953450038595096E-003   6.3870154369133708E-002
  -6.5600946035973421E-003   1.9026148621246117E-003   6.4132152477473378E-002
  -6.4106477365113296E-003   1.8863543937141358E-003   6.4554050799580903E-002
  -6.2612008694253214E-003   1.8465635986281148E-003   6.5135849335456353E-002
  -1.3804369603169307E-002   3.7290896081651620E-003   6.3011358491745550E-002
  -1.3484569172021977E-002   3.7906899697036367E-003   6.3002221316927676E-002
  -1.3164768740874654E-002   3.8052297040137607E-003   6.3173891056464468E-002
  -1.2844968309727331E-002   3.7727088110955315E-003   6.3526367710355983E-002
  -1.2525167878580001E-002   3.6931272909490054E-003   6.4059651278602275E-002
  -2.0836143811300348E-002   5.5936343974113054E-003   6.2297225835803480E-002
  -2.0325083115504902E-002   5.6860349355477430E-003   6.2153323291043075E-002
  -1.9814022419709455E-002   5.7078445459029532E-003   6.2211134361224225E-002
  -1.9302961723913999E-002   5.6590632284769897E-003   6.2470659046346931E-002
  -1.8791901028118556E-002   5.5396909832698404E-003   6.2931897346411136E-002
  -2.7954310962162523E-002   7.4581791866574626E-003   6.1625658506735750E-002
  -2.7231083301132136E-002   7.5813799013917937E-003   6.1323460291480017E-002
  -2.6507855640101739E-002   7.6104593877921699E-003   6.1243882391752651E-002
  -2.5784627979071356E-002   7.5454176458583716E-003   6.1386924807553617E-002
  -2.5061400318040966E-002   7.3862546755907310E-003   6.1752587538882964E-002
  -6.5449382025128955E-013  -9.3692720248839123E-011   6.6160491516973480E-002
  -1.0723685828217810E-011  -2.0498830410886626E-010   6.5949716940282871E-002
  -2.0792883040354759E-011  -3.7270177222215040E-010   6.5932550510473309E-002
  -3.0862074180959542E-011  -5.9683316969150191E-010   6.6108992227544794E-002
  -4.0931272260458229E-011  -8.7738216691946036E-010   6.6479042091497187E-002
  -6.2612008694253214E-003   1.8465635986281148E-003   6.5135849335456353E-002
  -6.0704130447002402E-003   1.7949807612949453E-003   6.4919461399176842E-002
  -5.8796252199751781E-003   1.7433441661429822E-003   6.4891040985604831E-002
  -5.6888373952501169E-003   1.6916538131720900E-003   6.5050588094740347E-002
  -5.4980495705250418E-003   1.6399097023824805E-003   6.5398102726583363E-002
  -1.2525167878580001E-002   3.6931272909490054E-003   6.4059651278602275E-002
  -1.2149232843234157E-002   3.5899617275783335E-003   6.3837596281332787E-002
  -1.1773297807888305E-002   3.4866887049877435E-003   6.3797868182597306E-002
  -1.1397362772542463E-002   3.3833082231773236E-003   6.3940466982395888E-002
  -1.1021427737196608E-002   3.2798202821470723E-003   6.4265392680728520E-002
  -1.8791901028118556E-002   5.5396909832698404E-003   6.2931897346411136E-002
  -1.8236459406325414E-002   5.3849426938616801E-003   6.2704121586750594E-002
  -1.7681017784532276E-002   5.2300332438325568E-003   6.2653032101450679E-002
  -1.7125576162739142E-002   5.0749626331825148E-003   6.2778628890511265E-002
  -1.6570134540945993E-002   4.9197308619116642E-003   6.3080911953932450E-002
  -2.5061400318040966E-002   7.3862546755907310E-003   6.1752587538882964E-002
  -2.4332092733974013E-002   7.1799236601449712E-003   6.1519037315430458E-002
  -2.3602785149907077E-002   6.9733777826772453E-003   6.1456532742165060E-002
  -2.2873477565840135E-002   6.7666170431877302E-003   6.1565073819086713E-002
  -2.2144169981773189E-002   6.5596414416763116E-003   6.1844660546195362E-002
  -4.0931272260458229E-011  -8.7738216691946036E-010   6.6479042091497187E-002
  -3.9917534555566903E-011  -1.0781504022894239E-009   6.6217267942538793E-002
  -3.8903800320122528E-011  -1.0629383900839784E-009   6.6176597156612588E-002
  -3.7890069554125105E-011  -8.3174697337873305E-010   6.6357029733718612E-002
  -3.6876328379786827E-011  -3.8457537154812371E-010   6.6758565673856740E-002
  -5.4980495705250418E-003   1.6399097023824805E-003   6.5398102726583363E-002
  -5.2741833355453233E-003   1.5850098463495582E-003   6.5110634053137065E-002
  -5.0503171005656117E-003   1.5238522576489916E-003   6.5049794484590417E-002
  -4.8264508655858924E-003   1.4564369362807493E-003   6.5215584020943643E-002
  -4.6025846306061817E-003   1.3827638822448973E-003   6.5608002662196518E-002
  -1.1021427737196608E-002   3.2798202821470723E-003   6.4265392680728520E-002
  -1.0568169526383366E-002   3.1700207708492412E-003   6.3945971534146731E-002
  -1.0114911315570116E-002   3.0477055782363663E-003   6.3858705234332319E-002
  -9.6616531047568691E-003   2.9128747043083592E-003   6.4003593781285131E-002
  -9.2083948939436257E-003   2.7655281490651662E-003   6.4380637175005348E-002
  -1.6570134540945993E-002   4.9197308619116642E-003   6.3080911953932450E-002
  -1.5881958612431666E-002   4.7550316953491184E-003   6.2723280385567834E-002
  -1.5193782683917328E-002   4.5715588988237445E-003   6.2603329405838001E-002
  -1.4505606755402993E-002   4.3693124723359978E-003   6.2721059014743133E-002
  -1.3817430826888653E-002   4.1482924158854073E-003   6.3076469212283034E-002
  -2.2144169981773189E-002   6.5596414416763116E-003   6.1844660546195362E-002
  -2.1215550593690201E-002   6.3400426198488569E-003   6.1442560607400276E-002
  -2.0286931205607230E-002   6.0954122194111643E-003   6.1283666999107644E-002
  -1.9358311817524267E-002   5.8257502403635912E-003   6.1367979721317453E-002
  -1.8429692429441279E-002   5.5310566827057039E-003   6.1695498774029633E-002
  -3.6876328379786827E-011  -3.8457537154812371E-010   6.6758565673856740E-002
   5.8259855273412597E-011   1.0363082614261998E-010   6.6605658320463945E-002
   1.5339603545716507E-010   4.5792648839526606E-010   6.6650919529614633E-002
   2.4853222084508797E-010   6.7831177133492737E-010   6.6894349301309095E-002
   3.4366839929411697E-010   7.6478651189759717E-010   6.7335947635547344E-002
  -4.6025846306061817E-003   1.3827638822448973E-003   6.5608002662196518E-002
  -4.4143547004820531E-003   1.3077843353215546E-003   6.5443753218131617E-002
  -4.2261247703579505E-003   1.2364495352912147E-003   6.5457794881498832E-002
  -4.0378948402338341E-003   1.1687594821537216E-003   6.5650127652298274E-002
  -3.8496649101097125E-003   1.1047141759091272E-003   6.6020751530529831E-002
  -9.2083948939436257E-003   2.7655281490651662E-003   6.4380637175005348E-002
  -8.8518125839430264E-003   2.6155685670124773E-003   6.4208690521071629E-002
  -8.4952302739424237E-003   2.4728986126560451E-003   6.4195157519458590E-002
  -8.1386479639418297E-003   2.3375182859957811E-003   6.4340038170166286E-002
  -7.7820656539412357E-003   2.2094275870317148E-003   6.4643332473194801E-002
  -1.3817430826888653E-002   4.1482924158854073E-003   6.3076469212283034E-002
  -1.3312373592123021E-002   3.9233527987033306E-003   6.2900470229283814E-002
  -1.2807316357357408E-002   3.7093476900208235E-003   6.2863007443493935E-002
  -1.2302259122591787E-002   3.5062770898378415E-003   6.2964080854913326E-002
  -1.1797201887826157E-002   3.3141409981544273E-003   6.3203690463541962E-002
  -1.8429692429441279E-002   5.5310566827057039E-003   6.1695498774029633E-002
  -1.7796037725022085E-002   5.2311370303941840E-003   6.1519092342768256E-002
  -1.7162383020602884E-002   4.9457967673855879E-003   6.1461344653604810E-002
  -1.6528728316183679E-002   4.6750358936798707E-003   6.1522255706539117E-002
  -1.5895073611764482E-002   4.4188544092768622E-003   6.1701825501571383E-002
   3.4366839929411697E-010   7.6478651189759717E-010   6.7335947635547344E-002
  -1.5733588043520541E-011   1.4923321467463779E-009   6.7372206223921871E-002
  -3.7513558232005195E-010   3.6359304317334917E-009   6.7816547726224002E-002
  -7.3453756098407208E-010   7.1955811274670989E-009   6.8668972142453669E-002
  -1.0939395639342209E-009   1.2171284202722177E-008   6.9929479472610856E-002
  -3.8496649101097125E-003   1.1047141759091272E-003   6.6020751530529831E-002
  -3.4643004067939458E-003   1.0361741712050510E-003   6.5945240213761691E-002
  -3.0789359034781721E-003   9.5500002268926465E-004   6.6232375708501462E-002
  -2.6935714001623994E-003   8.6119173036143179E-004   6.6882158014749393E-002
  -2.3082068968466388E-003   7.5474929422192361E-004   6.7894587132505069E-002
  -7.7820656539412357E-003   2.2094275870317148E-003   6.4643332473194801E-002
  -7.0567723903272126E-003   2.0723468500777886E-003   6.4443415691419439E-002
  -6.3314791267132051E-003   1.9099964094477714E-003   6.4560709618732531E-002
  -5.6061858630991907E-003   1.7223762651416546E-003   6.4995214255134257E-002
  -4.8808925994851607E-003   1.5094864171595335E-003   6.5746929600624504E-002
  -1.1797201887826157E-002   3.3141409981544273E-003   6.3203690463541962E-002
  -1.0777415966333418E-002   3.1085195289503875E-003   6.2866732656895311E-002
  -9.7576300448406986E-003   2.8649927962063858E-003   6.2801549456917682E-002
  -8.7378441233479671E-003   2.5835607999220847E-003   6.3008140863608855E-002
  -7.7180582018552425E-003   2.2642235400971988E-003   6.3486506876969176E-002
  -1.5895073611764482E-002   4.4188544092768622E-003   6.1701825501571383E-002
  -1.4626231134812553E-002   4.1446922078232640E-003   6.1215191110189138E-002
  -1.3357388657860635E-002   3.8199891829650973E-003   6.0954895223056332E-002
  -1.2088546180908702E-002   3.4447453347021505E-003   6.0920937840173064E-002
  -1.0819703703956782E-002   3.0189606630348642E-003   6.1113318961538932E-002
  -2.6633739861981039E-002   0.0000000000000000        2.9463120758296511E-002
  -2.7236155515233954E-002   5.8669114816649152E-004   3.4940433175103411E-002
  -2.7838571168486866E-002   1.3218511725801591E-003   4.0110011022584907E-002
  -2.8440986821739785E-002   2.2054800732410028E-003   4.4971854300741014E-002
  -2.9043402474992694E-002   3.2375778501490269E-003   4.9525963009571732E-002
  -3.3393953754098565E-002   0.0000000000000000        3.0174273364172392E-002
  -3.4238970668656075E-002   9.6160375247600523E-004   3.5263100155052719E-002
  -3.5083987583213593E-002   2.0267180064863022E-003   4.0174458992649251E-002
  -3.5929004497771103E-002   3.1953427620308970E-003   4.4908349876961975E-002
  -3.6774021412328627E-002   4.4674780191097897E-003   4.9464772807990894E-002
  -4.0733776269054188E-002   0.0000000000000000        3.1282817761714224E-002
  -4.1691127828874713E-002   1.3365163567855163E-003   3.5938200551955110E-002
  -4.2648479388695232E-002   2.7315848403924496E-003   4.0546382004953779E-002
  -4.3605830948515757E-002   4.1852054508207965E-003   4.5107362120710232E-002
  -4.4563182508336276E-002   5.6973781880705621E-003   4.9621140899224481E-002
  -4.8653207406847906E-002   0.0000000000000000        3.2788753950922012E-002
  -4.9592626995889857E-002   1.7114289610950287E-003   3.6965734365810569E-002
  -5.0532046584931788E-002   3.4364516742985945E-003   4.1225780059498507E-002
  -5.1471466173973725E-002   5.1750681396106951E-003   4.5568891031985810E-002
  -5.2410885763015669E-002   6.9272783570313301E-003   4.9995067283272507E-002
  -5.7152247167479735E-002   0.0000000000000000        3.4692081931795744E-002
  -5.7943468169701501E-002   2.0863415654045403E-003   3.8345701596619097E-002
  -5.8734689171923260E-002   4.1413185082047384E-003   4.2212653156283413E-002
  -5.9525910174145019E-002   6.1649308284005902E-003   4.6292936610788711E-002
  -6.0317131176366792E-002   8.1571785259921016E-003   5.0586551960134979E-002
  -2.9043402474992694E-002   3.2375778501490269E-003   4.9525963009571732E-002
  -2.9116658210211078E-002   4.2577252335717509E-003   5.1580120921107024E-002
  -2.9189913945429469E-002   5.1055029537767412E-003   5.3731740330890662E-002
  -2.9263169680647856E-002   5.7809110107639779E-003   5.5980821238922653E-002
  -2.9336425415866237E-002   6.2839494045334385E-003   5.8327363645202975E-002
  -3.6774021412328627E-002   4.4674780191097897E-003   4.9464772807990894E-002
  -3.6788442679301897E-002   5.7027137861047437E-003   5.1246921958391249E-002
  -3.6802863946275154E-002   6.7606400713975260E-003   5.3049278547033493E-002
  -3.6817285213248445E-002   7.6412568749881365E-003   5.4871842573917605E-002
  -3.6831706480221695E-002   8.3445641968765902E-003   5.6714614039043640E-002
  -4.4563182508336276E-002   5.6973781880705621E-003   4.9621140899224481E-002
  -4.4596023367070907E-002   7.1477023386377356E-003   5.1126341470005505E-002
  -4.4628864225805538E-002   8.4157771890183315E-003   5.2574495419021927E-002
  -4.4661705084540156E-002   9.5016027392123160E-003   5.3965602746273759E-002
  -4.4694545943274787E-002   1.0405178989219718E-002   5.5299663451761016E-002
  -5.2410885763015669E-002   6.9272783570313301E-003   4.9995067283272507E-002
  -5.2539400273518111E-002   8.5926908911707275E-003   5.1218379455949765E-002
  -5.2667914784020574E-002   1.0070914306639112E-002   5.2307390946855950E-002
  -5.2796429294523023E-002   1.1361948603436501E-002   5.3262101755991074E-002
  -5.2924943805025458E-002   1.2465793781562843E-002   5.4082511883355160E-002
  -6.0317131176366792E-002   8.1571785259921016E-003   5.0586551960134979E-002
  -6.0618573398643537E-002   1.0037679443703727E-002   5.1523035916224029E-002
  -6.0920015620920261E-002   1.1726051424259927E-002   5.2247965130535576E-002
  -6.1221457843197005E-002   1.3222294467660678E-002   5.2761339603069564E-002
  -6.1522900065473743E-002   1.4526408573905990E-002   5.3063159333826042E-002
  -2.9336425415866237E-002   6.2839494045334385E-003   5.8327363645202975E-002
  -2.8990896802440311E-002   6.6699789375366525E-003   5.9095635519544089E-002
  -2.8645368189014375E-002   6.9943604122250248E-003   5.9901441954579887E-002
  -2.8299839575588459E-002   7.2570938285986784E-003   6.0744782950310480E-002
  -2.7954310962162523E-002   7.4581791866574626E-003   6.1625658506735750E-002
  -3.6831706480221695E-002   8.3445641968765902E-003   5.6714614039043640E-002
  -3.6397699524734414E-002   8.8865269205907760E-003   5.7062757409573187E-002
  -3.5963692569247106E-002   9.2831099296586585E-003   5.7550322903530779E-002
  -3.5529685613759805E-002   9.5343132240802205E-003   5.8177310520916375E-002
  -3.5095678658272490E-002   9.6401368038554064E-003   5.8943720261730004E-002
  -4.4694545943274787E-002   1.0405178989219718E-002   5.5299663451761016E-002
  -4.4070173082992839E-002   1.1103074903644899E-002   5.5143946662147551E-002
  -4.3445800222710856E-002   1.1571859447092221E-002   5.5229539558695376E-002
  -4.2821427362428895E-002   1.1811532619561747E-002   5.5556442141404511E-002
  -4.2197054502146940E-002   1.1822094421053413E-002   5.6124654410274921E-002
  -5.2924943805025458E-002   1.2465793781562843E-002   5.4082511883355160E-002
  -5.2008317477215571E-002   1.3319622886699023E-002   5.3339203277267135E-002
  -5.1091691149405656E-002   1.3860608964525848E-002   5.2939091920073698E-002
  -5.0175064821595762E-002   1.4088752015043310E-002   5.2882177811774830E-002
  -4.9258438493785889E-002   1.4004052038251402E-002   5.3168460952370489E-002
  -6.1522900065473743E-002   1.4526408573905990E-002   5.3063159333826042E-002
  -6.0212132707402624E-002   1.5536170869753143E-002   5.1648527254931950E-002
  -5.8901365349331512E-002   1.6149358481959412E-002   5.0678979987665712E-002
  -5.7590597991260400E-002   1.6365971410524822E-002   5.0154517532027321E-002
  -5.6279830633189268E-002   1.6186009655449377E-002   5.0075139888016804E-002
  -2.7954310962162523E-002   7.4581791866574626E-003   6.1625658506735750E-002
  -2.7231083301132136E-002   7.5813799013917937E-003   6.1323460291480017E-002
  -2.6507855640101739E-002   7.6104593877921699E-003   6.1243882391752651E-002
  -2.5784627979071356E-002   7.5454176458583716E-003   6.1386924807553617E-002
  -2.5061400318040966E-002   7.3862546755907310E-003   6.1752587538882964E-002
  -3.5095678658272490E-002   9.6401368038554064E-003   5.8943720261730004E-002
  -3.4153502932350761E-002   9.6399514001217559E-003   5.8597461907720021E-002
  -3.3211327206429074E-002   9.5731277440166580E-003   5.8466479367964341E-002
  -3.2269151480507352E-002   9.4396658355400086E-003   5.8550772642462952E-002
  -3.1326975754585637E-002   9.2395656746918631E-003   5.8850341731215866E-002
  -4.2197054502146940E-002   1.1822094421053413E-002   5.6124654410274921E-002
  -4.1043275212607956E-002   1.1698522898851704E-002   5.5761818893473272E-002
  -3.9889495923068966E-002   1.1535796100241120E-002   5.5606914689651843E-002
  -3.8735716633529982E-002   1.1333914025221607E-002   5.5659941798810675E-002
  -3.7581937343990977E-002   1.1092876673793162E-002   5.5920900220949740E-002
  -4.9258438493785889E-002   1.4004052038251402E-002   5.3168460952370489E-002
  -4.7900400141903623E-002   1.3757094397581660E-002   5.2816531248739737E-002
  -4.6542361790021428E-002   1.3498464456465652E-002   5.2665188356815114E-002
  -4.5184323438139197E-002   1.3228162214903168E-002   5.2714432276596793E-002
  -4.3826285086256987E-002   1.2946187672894446E-002   5.2964263008084614E-002
  -5.6279830633189268E-002   1.6186009655449377E-002   5.0075139888016804E-002
  -5.4724877720237861E-002   1.5815665896311580E-002   4.9761598973519464E-002
  -5.3169924807286460E-002   1.5461132812690067E-002   4.9641300369454293E-002
  -5.1614971894335060E-002   1.5122410404584757E-002   4.9714244075821284E-002
  -5.0060018981383667E-002   1.4799498671995620E-002   4.9980430092620348E-002
  -2.5061400318040966E-002   7.3862546755907310E-003   6.1752587538882964E-002
  -2.4332092733974013E-002   7.1799236601449712E-003   6.1519037315430458E-002
  -2.3602785149907077E-002   6.9733777826772453E-003   6.1456532742165060E-002
  -2.2873477565840135E-002   6.7666170431877302E-003   6.1565073819086713E-002
  -2.2144169981773189E-002   6.5596414416763116E-003   6.1844660546195362E-002
  -3.1326975754585637E-002   9.2395656746918631E-003   5.8850341731215866E-002
  -3.0422710881724428E-002   8.9990466126777663E-003   5.8624109787518627E-002
  -2.9518446008863237E-002   8.7443280007027530E-003   5.8576746771222807E-002
  -2.8614181136002045E-002   8.4754098387671319E-003   5.8708252682328488E-002
  -2.7709916263140844E-002   8.1922921268708371E-003   5.9018627520835559E-002
  -3.7581937343990977E-002   1.1092876673793162E-002   5.5920900220949740E-002
  -3.6494891905121132E-002   1.0818169565210534E-002   5.5688001869068873E-002
  -3.5407846466251260E-002   1.0515278218728323E-002   5.5641795721803895E-002
  -3.4320801027381387E-002   1.0184202634346618E-002   5.5782281779154744E-002
  -3.3233755588511542E-002   9.8249428120653071E-003   5.6109460041121453E-002
  -4.3826285086256987E-002   1.2946187672894446E-002   5.2964263008084614E-002
  -4.2548635804164063E-002   1.2637292517743301E-002   5.2710713560081321E-002
  -4.1270986522071153E-002   1.2286228436753890E-002   5.2651679593908304E-002
  -3.9993337239978215E-002   1.1892995429926008E-002   5.2787161109565502E-002
  -3.8715687957885318E-002   1.1457593497259888E-002   5.3117158107053003E-002
  -5.0060018981383667E-002   1.4799498671995620E-002   4.9980430092620348E-002
  -4.8583942578853262E-002   1.4456415470276124E-002   4.9692244860555818E-002
  -4.7107866176322906E-002   1.4057178654779366E-002   4.9606398387535985E-002
  -4.5631789773792536E-002   1.3601788225505443E-002   4.9722890673560734E-002
  -4.4155713371262159E-002   1.3090244182454303E-002   5.0041721718630194E-002
  -2.2144169981773189E-002   6.5596414416763116E-003   6.1844660546195362E-002
  -2.1215550593690201E-002   6.3400426198488569E-003   6.1442560607400276E-002
  -2.0286931205607230E-002   6.0954122194111643E-003   6.1283666999107644E-002
  -1.9358311817524267E-002   5.8257502403635912E-003   6.1367979721317453E-002
  -1.8429692429441279E-002   5.5310566827057039E-003   6.1695498774029633E-002
  -2.7709916263140844E-002   8.1922921268708371E-003   5.9018627520835559E-002
  -2.6544453583134460E-002   7.8956578697409047E-003   5.8633138939900090E-002
  -2.5378990903128094E-002   7.5861900721046205E-003   5.8478130612309068E-002
  -2.4213528223121748E-002   7.2638887339618388E-003   5.8553602538062334E-002
  -2.3048065543115351E-002   6.9287538553127748E-003   5.8859554717160034E-002
  -3.3233755588511542E-002   9.8249428120653071E-003   5.6109460041121453E-002
  -3.1844175693739839E-002   9.4512731196329386E-003   5.5752780856149403E-002
  -3.0454595798968160E-002   9.0769679247979171E-003   5.5613855847363648E-002
  -2.9065015904196471E-002   8.7020272275601992E-003   5.5692685014764154E-002
  -2.7675436009424771E-002   8.3264510279199011E-003   5.5989268358350899E-002
  -3.8715687957885318E-002   1.1457593497259888E-002   5.3117158107053003E-002
  -3.7114716925506379E-002   1.1006888369525118E-002   5.2801486356148043E-002
  -3.5513745893127426E-002   1.0567745777491182E-002   5.2690842704271296E-002
  -3.3912774860748500E-002   1.0140165721158671E-002   5.2785227151422746E-002
  -3.2311803828369533E-002   9.7241482005270274E-003   5.3084639697602506E-002
  -4.4155713371262159E-002   1.3090244182454303E-002   5.0041721718630194E-002
  -4.2356077278434004E-002   1.2562503619416965E-002   4.9779255439896142E-002
  -4.0556441185605883E-002   1.2058523630184628E-002   4.9709091183032156E-002
  -3.8756805092777763E-002   1.1578304214756936E-002   4.9831228948038417E-002
  -3.6957168999949636E-002   1.1121845373134154E-002   5.0145668734914717E-002
  -1.8429692429441279E-002   5.5310566827057039E-003   6.1695498774029633E-002
  -1.7796037725022085E-002   5.2311370303941840E-003   6.1519092342768256E-002
  -1.7162383020602884E-002   4.9457967673855879E-003   6.1461344653604810E-002
  -1.6528728316183679E-002   4.6750358936798707E-003   6.1522255706539117E-002
  -1.5895073611764482E-002   4.4188544092768622E-003   6.1701825501571383E-002
  -2.3048065543115351E-002   6.9287538553127748E-003   5.8859554717160034E-002
  -2.2284220027261673E-002   6.5857706479383604E-003   5.8691541138779141E-002
  -2.1520374511407998E-002   6.2399243236195417E-003   5.8665250441169547E-002
  -2.0756528995554309E-002   5.8912148823564749E-003   5.8780682624331032E-002
  -1.9992683479700617E-002   5.5396423241489967E-003   5.9037837688263595E-002
  -2.7675436009424771E-002   8.3264510279199011E-003   5.5989268358350899E-002
  -2.6758335543463331E-002   7.9404042654824536E-003   5.5812205126603592E-002
  -2.5841235077501887E-002   7.5340518798535025E-003   5.5799928914300516E-002
  -2.4924134611540420E-002   7.1073938710330253E-003   5.5952439721441885E-002
  -2.4007034145578976E-002   6.6604302390209369E-003   5.6269737548027735E-002
  -3.2311803828369533E-002   9.7241482005270274E-003   5.3084639697602506E-002
  -3.1218384273627053E-002   9.2950378830266717E-003   5.2881084306241263E-002
  -3.0124964718884571E-002   8.8281794360873765E-003   5.2865380072997695E-002
  -2.9031545164142060E-002   8.3235728597094924E-003   5.3037526997871828E-002
  -2.7938125609399570E-002   7.7812181538928077E-003   5.3397525080863720E-002
  -3.6957168999949636E-002   1.1121845373134154E-002   5.0145668734914717E-002
  -3.5664366217752819E-002   1.0649671500570640E-002   4.9898178677692417E-002
  -3.4371563435556016E-002   1.0122306992321403E-002   4.9861603917261105E-002
  -3.3078760653359227E-002   9.5397518483862319E-003   5.0035944453620793E-002
  -3.1785957871162410E-002   8.9020060687649005E-003   5.0421200286771439E-002
  -1.5895073611764482E-002   4.4188544092768622E-003   6.1701825501571383E-002
  -1.4626231134812553E-002   4.1446922078232640E-003   6.1215191110189138E-002
  -1.3357388657860635E-002   3.8199891829650973E-003   6.0954895223056332E-002
  -1.2088546180908702E-002   3.4447453347021505E-003   6.0920937840173064E-002
  -1.0819703703956782E-002   3.0189606630348642E-003   6.1113318961538932E-002
  -1.9992683479700617E-002   5.5396423241489967E-003   5.9037837688263595E-002
  -1.8470261059416068E-002   5.1767982394503309E-003   5.8626593558300910E-002
  -1.6947838639131563E-002   4.7942742187132709E-003   5.8496170810753950E-002
  -1.5425416218847068E-002   4.3920702619381392E-003   5.8646569445622895E-002
  -1.3902993798562448E-002   3.9701863691247175E-003   5.9077789462907426E-002
  -2.4007034145578976E-002   6.6604302390209369E-003   5.6269737548027735E-002
  -2.2176548903795473E-002   6.2089042710771480E-003   5.5964744566850952E-002
  -2.0346063662011974E-002   5.7685592544616179E-003   5.5995055846256324E-002
  -1.8515578420228478E-002   5.3393951891741297E-003   5.6360671386243830E-002
  -1.6685093178445003E-002   4.9214120752146817E-003   5.7061591186813421E-002
  -2.7938125609399570E-002   7.7812181538928077E-003   5.3397525080863720E-002
  -2.5745094667950767E-002   7.2410103027039791E-003   5.3229644135839083E-002
  -2.3552063726501937E-002   6.7428442902098783E-003   5.3451550329563016E-002
  -2.1359032785053172E-002   6.2867201164099528E-003   5.4063243662035701E-002
  -1.9166001843604296E-002   5.8726377813046460E-003   5.5064724133256387E-002
  -3.1785957871162410E-002   8.9020060687649005E-003   5.0421200286771439E-002
  -2.9175898351881904E-002   8.2731163343310876E-003   5.0421292265265316E-002
  -2.6565838832601461E-002   7.7171293259582219E-003   5.0865654260674464E-002
  -2.3955779313320987E-002   7.2340450436459633E-003   5.1754286272998135E-002
  -2.1345719794040485E-002   6.8238634873944992E-003   5.3087188302236799E-002
  -5.7152247167479735E-002   0.0000000000000000        3.4692081931795744E-002
  -5.7943468169701501E-002   2.0863415654045403E-003   3.8345701596619097E-002
  -5.8734689171923260E-002   4.1413185082047384E-003   4.2212653156283413E-002
  -5.9525910174145019E-002   6.1649308284005902E-003   4.6292936610788711E-002
  -6.0317131176366792E-002   8.1571785259921016E-003   5.0586551960134979E-002
  -6.5819342925444196E-002   0.0000000000000000        3.7215448515697233E-002
  -6.6626185968775384E-002   2.9157971583378753E-003   4.0839016428682463E-002
  -6.7433029012106557E-002   5.7737700511589513E-003   4.4218008364607875E-002
  -6.8239872055437731E-002   8.5739186784632281E-003   4.7352424323473495E-002
  -6.9046715098768932E-002   1.1316243040250699E-002   5.0242264305279283E-002
  -7.4242942055235808E-002   0.0000000000000000        4.0581500513988296E-002
  -7.5523315011577177E-002   3.7452527512712116E-003   4.4148557032222938E-002
  -7.6803687967918560E-002   7.4062215941131642E-003   4.7013129701496993E-002
  -7.8084060924259957E-002   1.0982906528525861E-002   4.9175218521810463E-002
  -7.9364433880601312E-002   1.4475307554509294E-002   5.0634823493163332E-002
  -8.2423044556854577E-002   0.0000000000000000        4.4790237926668919E-002
  -8.4634855298106937E-002   4.5747083442045479E-003   4.8274323407240527E-002
  -8.6846666039359324E-002   9.0386731370673788E-003   5.0598017166950761E-002
  -8.9058476780611670E-002   1.3391894378588492E-002   5.1761319205799620E-002
  -9.1270287521864030E-002   1.7634372068767890E-002   5.1764229523787106E-002
  -9.0359650430300517E-002   0.0000000000000000        4.9841660753739109E-002
  -9.3960806828364635E-002   5.4041639371378829E-003   5.3216315553735218E-002
  -9.7561963226428766E-002   1.0671124680021592E-002   5.4972670760969164E-002
 -0.10116311962449288        1.5800882228651128E-002   5.5110726375440983E-002
 -0.10476427602255703        2.0793436583026487E-002   5.3630482397150625E-002
  -6.0317131176366792E-002   8.1571785259921016E-003   5.0586551960134979E-002
  -6.0618573398643537E-002   1.0037679443703727E-002   5.1523035916224029E-002
  -6.0920015620920261E-002   1.1726051424259927E-002   5.2247965130535576E-002
  -6.1221457843197005E-002   1.3222294467660678E-002   5.2761339603069564E-002
  -6.1522900065473743E-002   1.4526408573905990E-002   5.3063159333826042E-002
  -6.9046715098768932E-002   1.1316243040250699E-002   5.0242264305279283E-002
  -6.9321905520920254E-002   1.3762324466096315E-002   4.9465024672079839E-002
  -6.9597095943071563E-002   1.5673744285575084E-002   4.8951843380908744E-002
  -6.9872286365222899E-002   1.7050502498686962E-002   4.8702720431765989E-002
  -7.0147476787374208E-002   1.7892599105431950E-002   4.8717655824651609E-002
  -7.9364433880601312E-002   1.4475307554509294E-002   5.0634823493163332E-002
  -7.9137759418821368E-002   1.7486969488488938E-002   4.7801327601463932E-002
  -7.8911084957041397E-002   1.9621437146890273E-002   4.5707503135598751E-002
  -7.8684410495261453E-002   2.0878710529713265E-002   4.4353350095567845E-002
  -7.8457736033481468E-002   2.1258789636957941E-002   4.3738868481371124E-002
  -9.1270287521864030E-002   1.7634372068767890E-002   5.1764229523787106E-002
  -9.0066135092346927E-002   2.1211614510881549E-002   4.6531944704376327E-002
  -8.8861982662829755E-002   2.3569130008205444E-002   4.2514944394605632E-002
  -8.7657830233312611E-002   2.4706918560739553E-002   3.9713228594475077E-002
  -8.6453677803795495E-002   2.4624980168483905E-002   3.8126797303984612E-002
 -0.10476427602255703        2.0793436583026487E-002   5.3630482397150625E-002
 -0.10210703254149685        2.4936259533274156E-002   4.5656875980817017E-002
  -9.9449789060436666E-002   2.7516822869520625E-002   3.9374167157929338E-002
  -9.6792545579376485E-002   2.8535126591765859E-002   3.4782355928487711E-002
  -9.4135302098316304E-002   2.7991170700009907E-002   3.1881442292492040E-002
  -6.1522900065473743E-002   1.4526408573905990E-002   5.3063159333826042E-002
  -6.0212132707402624E-002   1.5536170869753143E-002   5.1648527254931950E-002
  -5.8901365349331512E-002   1.6149358481959412E-002   5.0678979987665712E-002
  -5.7590597991260400E-002   1.6365971410524822E-002   5.0154517532027321E-002
  -5.6279830633189268E-002   1.6186009655449377E-002   5.0075139888016804E-002
  -7.0147476787374208E-002   1.7892599105431950E-002   4.8717655824651609E-002
  -6.8437079307039891E-002   1.8353718946784055E-002   4.7259953228156182E-002
  -6.6726681826705533E-002   1.8587546863717195E-002   4.6156426064559317E-002
  -6.5016284346371217E-002   1.8594082856231393E-002   4.5407074333861069E-002
  -6.3305886866036873E-002   1.8373326924326652E-002   4.5011898036061364E-002
  -7.8457736033481468E-002   2.1258789636957941E-002   4.3738868481371124E-002
  -7.6438617809613196E-002   2.1171267023814958E-002   4.2407378126496281E-002
  -7.4419499585744925E-002   2.1025735245474946E-002   4.1339153825790773E-002
  -7.2400381361876681E-002   2.0822194301937911E-002   4.0534195579254556E-002
  -7.0381263138008382E-002   2.0560644193203921E-002   3.9992503386887590E-002
  -8.6453677803795495E-002   2.4624980168483905E-002   3.8126797303984612E-002
  -8.4216748215122580E-002   2.3988815100845863E-002   3.7090801949952297E-002
  -8.1979818626449652E-002   2.3463923627232666E-002   3.6227163271359983E-002
  -7.9742889037776751E-002   2.3050305747644523E-002   3.5535881268207802E-002
  -7.7505959449103795E-002   2.2747961462081179E-002   3.5016955940495489E-002
  -9.4135302098316304E-002   2.7991170700009907E-002   3.1881442292492040E-002
  -9.1771470523568016E-002   2.6806363177876769E-002   3.1310224698524208E-002
  -8.9407638948819743E-002   2.5902112008990480E-002   3.0820454401267107E-002
  -8.7043807374071455E-002   2.5278417193350999E-002   3.0412131400720750E-002
  -8.4679975799323168E-002   2.4935278730958452E-002   3.0085255696885041E-002
  -5.6279830633189268E-002   1.6186009655449377E-002   5.0075139888016804E-002
  -5.4724877720237861E-002   1.5815665896311580E-002   4.9761598973519464E-002
  -5.3169924807286460E-002   1.5461132812690067E-002   4.9641300369454293E-002
  -5.1614971894335060E-002   1.5122410404584757E-002   4.9714244075821284E-002
  -5.0060018981383667E-002   1.4799498671995620E-002   4.9980430092620348E-002
  -6.3305886866036873E-002   1.8373326924326652E-002   4.5011898036061364E-002
  -6.1554780036014931E-002   1.8023180995014272E-002   4.4644109991638363E-002
  -5.9803673205992981E-002   1.7641546995305398E-002   4.4475387470924332E-002
  -5.8052566375971018E-002   1.7228424925200256E-002   4.4505730473919272E-002
  -5.6301459545949083E-002   1.6783814784698592E-002   4.4735139000623064E-002
  -7.0381263138008382E-002   2.0560644193203921E-002   3.9992503386887590E-002
  -6.8428179177639117E-002   2.0230696093716870E-002   3.9523169466626346E-002
  -6.6475095217269853E-002   1.9821961177920761E-002   3.9258724283350865E-002
  -6.4522011256900588E-002   1.9334439445815713E-002   3.9199167837061046E-002
  -6.2568927296531310E-002   1.8768130897401550E-002   3.9344500127756886E-002
  -7.7505959449103795E-002   2.2747961462081179E-002   3.5016955940495489E-002
  -7.5345075145110449E-002   2.2438211192419504E-002   3.4398777398483418E-002
  -7.3184190841117089E-002   2.2002375360536133E-002   3.3991310806733739E-002
  -7.1023306537123715E-002   2.1440453966431176E-002   3.3794556165246618E-002
  -6.8862422233130369E-002   2.0752447010104515E-002   3.3808513474021910E-002
  -8.4679975799323168E-002   2.4935278730958452E-002   3.0085255696885041E-002
  -8.2305467938428939E-002   2.4645726291122161E-002   2.9270933787209436E-002
  -7.9930960077534724E-002   2.4182789543151440E-002   2.8673147041073092E-002
  -7.7556452216640495E-002   2.3546468487046692E-002   2.8291895458475939E-002
  -7.5181944355746266E-002   2.2736763122807452E-002   2.8127179039418082E-002
  -5.0060018981383667E-002   1.4799498671995620E-002   4.9980430092620348E-002
  -4.8583942578853262E-002   1.4456415470276124E-002   4.9692244860555818E-002
  -4.7107866176322906E-002   1.4057178654779366E-002   4.9606398387535985E-002
  -4.5631789773792536E-002   1.3601788225505443E-002   4.9722890673560734E-002
  -4.4155713371262159E-002   1.3090244182454303E-002   5.0041721718630194E-002
  -5.6301459545949083E-002   1.6783814784698592E-002   4.4735139000623064E-002
  -5.4625674006432728E-002   1.6312389096580088E-002   4.4379148641175661E-002
  -5.2949888466916409E-002   1.5818820383623949E-002   4.4220237796655529E-002
  -5.1274102927400075E-002   1.5303108645830364E-002   4.4258406467062729E-002
  -4.9598317387883686E-002   1.4765253883199270E-002   4.4493654652397102E-002
  -6.2568927296531310E-002   1.8768130897401550E-002   3.9344500127756886E-002
  -6.0698691864146420E-002   1.8168362722883954E-002   3.8954715229866335E-002
  -5.8828456431761530E-002   1.7580462112468536E-002   3.8756750602785606E-002
  -5.6958220999376648E-002   1.7004429066155260E-002   3.8750606246514753E-002
  -5.5087985566991751E-002   1.6440263583944181E-002   3.8936282161053729E-002
  -6.8862422233130369E-002   2.0752447010104515E-002   3.3808513474021910E-002
  -6.6802996151994309E-002   2.0024336349187842E-002   3.3418944626627797E-002
  -6.4743570070858278E-002   1.9342103841313095E-002   3.3215936805926209E-002
  -6.2684143989722246E-002   1.8705749486480194E-002   3.3199490011917021E-002
  -6.0624717908586194E-002   1.8115273284689093E-002   3.3369604244600296E-002
  -7.5181944355746266E-002   2.2736763122807452E-002   2.8127179039418082E-002
  -7.2938586869976479E-002   2.1880309975491882E-002   2.7771836831460228E-002
  -7.0695229384206637E-002   2.1103745570157671E-002   2.7597796406077221E-002
  -6.8451871898436809E-002   2.0407069906805082E-002   2.7605057763269457E-002
  -6.6208514412667008E-002   1.9790282985434005E-002   2.7793620903036720E-002
  -4.4155713371262159E-002   1.3090244182454303E-002   5.0041721718630194E-002
  -4.2356077278434004E-002   1.2562503619416965E-002   4.9779255439896142E-002
  -4.0556441185605883E-002   1.2058523630184628E-002   4.9709091183032156E-002
  -3.8756805092777763E-002   1.1578304214756936E-002   4.9831228948038417E-002
  -3.6957168999949636E-002   1.1121845373134154E-002   5.0145668734914717E-002
  -4.9598317387883686E-002   1.4765253883199270E-002   4.4493654652397102E-002
  -4.7601931978526135E-002   1.4217216391692572E-002   4.4201340576281417E-002
  -4.5605546569168549E-002   1.3670956467272288E-002   4.4110223111354568E-002
  -4.3609161159810977E-002   1.3126474109938321E-002   4.4220302257616487E-002
  -4.1612775750453419E-002   1.2583769319690796E-002   4.4531578015067214E-002
  -5.5087985566991751E-002   1.6440263583944181E-002   3.8936282161053729E-002
  -5.2885956251786090E-002   1.5871929163968151E-002   3.8592137280838129E-002
  -5.0683926936580422E-002   1.5283389304359997E-002   3.8458083601130004E-002
  -4.8481897621374788E-002   1.4674644005119817E-002   3.8534121121929124E-002
  -4.6279868306169085E-002   1.4045693266247522E-002   3.8820249843235663E-002
  -6.0624717908586194E-002   1.8115273284689093E-002   3.3369604244600296E-002
  -5.8208150098213826E-002   1.7526641936243634E-002   3.2951645553566264E-002
  -5.5791582287841514E-002   1.6895822141447598E-002   3.2752672652358303E-002
  -5.3375014477469167E-002   1.6222813900301201E-002   3.2772685540976225E-002
  -5.0958446667096827E-002   1.5507617212804234E-002   3.3011684219420120E-002
  -6.6208514412667008E-002   1.9790282985434005E-002   2.7793620903036720E-002
  -6.3568513517809400E-002   1.9181354708519310E-002   2.7279865394465780E-002
  -6.0928512622951778E-002   1.8508254978535393E-002   2.6993990265039569E-002
  -5.8288511728094176E-002   1.7770983795482732E-002   2.6935995514757893E-002
  -5.5648510833236547E-002   1.6969541159360890E-002   2.7105881143620780E-002
  -3.6957168999949636E-002   1.1121845373134154E-002   5.0145668734914717E-002
  -3.5664366217752819E-002   1.0649671500570640E-002   4.9898178677692417E-002
  -3.4371563435556016E-002   1.0122306992321403E-002   4.9861603917261105E-002
  -3.3078760653359227E-002   9.5397518483862319E-003   5.0035944453620793E-002
  -3.1785957871162410E-002   8.9020060687649005E-003   5.0421200286771439E-002
  -4.1612775750453419E-002   1.2583769319690796E-002   4.4531578015067214E-002
  -4.0137973048850147E-002   1.2030208617328314E-002   4.4204346761747199E-002
  -3.8663170347246922E-002   1.1453158523649296E-002   4.4030200050449123E-002
  -3.7188367645643712E-002   1.0852619038653904E-002   4.4009137881172951E-002
  -3.5713564944040460E-002   1.0228590162342233E-002   4.4141160253918732E-002
  -4.6279868306169085E-002   1.4045693266247522E-002   3.8820249843235663E-002
  -4.4680896439928522E-002   1.3410745734085752E-002   3.8444978638187480E-002
  -4.3081924573687966E-002   1.2784010054977250E-002   3.8164961220392195E-002
  -4.1482952707447361E-002   1.2165486228921800E-002   3.7980197589849787E-002
  -3.9883980841206854E-002   1.1555174255919620E-002   3.7890687746560070E-002
  -5.0958446667096827E-002   1.5507617212804234E-002   3.3011684219420120E-002
  -4.9293136390987966E-002   1.4791282850843364E-002   3.2620074307013441E-002
  -4.7627826114879097E-002   1.4114861586305091E-002   3.2265887427090613E-002
  -4.5962515838770264E-002   1.3478353419189751E-002   3.1949123579651337E-002
  -4.4297205562661375E-002   1.2881758349496980E-002   3.1669782764695960E-002
  -5.5648510833236547E-002   1.6969541159360890E-002   2.7105881143620780E-002
  -5.3974692902028470E-002   1.6171819967600892E-002   2.6729633768225125E-002
  -5.2300874970820393E-002   1.5445713117633111E-002   2.6332978670543988E-002
  -5.0627057039612330E-002   1.4791220609457482E-002   2.5915915850577648E-002
  -4.8953239108404240E-002   1.4208342443074395E-002   2.5478445308325937E-002
  -3.1785957871162410E-002   8.9020060687649005E-003   5.0421200286771439E-002
  -2.9175898351881904E-002   8.2731163343310876E-003   5.0421292265265316E-002
  -2.6565838832601461E-002   7.7171293259582219E-003   5.0865654260674464E-002
  -2.3955779313320987E-002   7.2340450436459633E-003   5.1754286272998135E-002
  -2.1345719794040485E-002   6.8238634873944992E-003   5.3087188302236799E-002
  -3.5713564944040460E-002   1.0228590162342233E-002   4.4141160253918732E-002
  -3.2743907209094522E-002   9.5990065276829184E-003   4.3856412907216202E-002
  -2.9774249474148577E-002   8.9818027676446532E-003   4.3846591974929711E-002
  -2.6804591739202504E-002   8.3769788822277563E-003   4.4111697457059409E-002
  -2.3834934004256680E-002   7.7845348714320473E-003   4.4651729353605285E-002
  -3.9883980841206854E-002   1.1555174255919620E-002   3.7890687746560070E-002
  -3.6724068493093981E-002   1.0924896721034721E-002   3.7260578223221402E-002
  -3.3564156144981240E-002   1.0246476209331432E-002   3.6736051511800122E-002
  -3.0404243796868367E-002   9.5199127208096916E-003   3.6317107612296194E-002
  -2.7244331448755613E-002   8.7452062554695953E-003   3.6003746524710167E-002
  -4.4297205562661375E-002   1.2881758349496980E-002   3.1669782764695960E-002
  -4.1116382203880517E-002   1.2250786914386538E-002   3.0633788213281304E-002
  -3.7935558845099686E-002   1.1511149651018203E-002   2.9534032871285591E-002
  -3.4754735486318689E-002   1.0662846559391556E-002   2.8370516738708627E-002
  -3.1573912127537941E-002   9.7058776395072544E-003   2.7143239815550099E-002
  -4.8953239108404240E-002   1.4208342443074395E-002   2.5478445308325937E-002
  -4.5920848341453935E-002   1.3576677107738411E-002   2.3976042877395909E-002
  -4.2888457574503672E-002   1.2775823092704849E-002   2.2240536053385968E-002
  -3.9856066807553402E-002   1.1805780397973555E-002   2.0271924836296182E-002
  -3.6823676040603104E-002   1.0666549023544691E-002   1.8070209226126233E-002
  -9.0359650430300517E-002   0.0000000000000000        4.9841660753739109E-002
  -9.3960806828364635E-002   5.4041639371378829E-003   5.3216315553735218E-002
  -9.7561963226428766E-002   1.0671124680021592E-002   5.4972670760969164E-002
 -0.10116311962449288        1.5800882228651128E-002   5.5110726375440983E-002
 -0.10476427602255703        2.0793436583026487E-002   5.3630482397150625E-002
 -0.10329128354936236        0.0000000000000000        5.8669454517245215E-002
 -0.10682922528826995        1.0884539530609754E-002   5.2125188390490754E-002
 -0.11036716702717753        1.9172514136944478E-002   4.7325651174811530E-002
 -0.11390510876608512        2.4863923819004187E-002   4.4270842870207536E-002
 -0.11744305050499271        2.7958768576788869E-002   4.2960763476678786E-002
 -0.12645646778782890        0.0000000000000000        7.4207304739233634E-002
 -0.12656816636374255        1.6364915124081624E-002   5.5284755955707740E-002
 -0.12667986493965622        2.7673903593867368E-002   4.1469964587094468E-002
 -0.12679156351556986        3.3926965409357260E-002   3.2762930633393840E-002
 -0.12690326209148350        3.5124100570551264E-002   2.9163654094605813E-002
 -0.15985520314570009        0.0000000000000000        9.6455211419704340E-002
 -0.15317763005478244        2.1845290717553492E-002   6.2695018249386184E-002
 -0.14650005696386473        3.6175293050790258E-002   3.7405610997818015E-002
 -0.13982248387294707        4.2990006999710319E-002   2.0586989664999850E-002
 -0.13314491078202945        4.2289432564313653E-002   1.2239154250931732E-002
 -0.20348748962297594        0.0000000000000000       0.12541317455865736     
 -0.18665761636138958        2.7325666311025367E-002   7.4355975271526056E-002
 -0.16982774309980320        4.4676682507713159E-002   3.5132590406982168E-002
 -0.15299786983821684        5.2053048590063378E-002   7.7430199650256742E-003
 -0.13616799657663048        4.9454764558076014E-002  -7.8127360543434332E-003
 -0.10476427602255703        2.0793436583026487E-002   5.3630482397150625E-002
 -0.10210703254149685        2.4936259533274156E-002   4.5656875980817017E-002
  -9.9449789060436666E-002   2.7516822869520625E-002   3.9374167157929338E-002
  -9.6792545579376485E-002   2.8535126591765859E-002   3.4782355928487711E-002
  -9.4135302098316304E-002   2.7991170700009907E-002   3.1881442292492040E-002
 -0.11744305050499271        2.7958768576788869E-002   4.2960763476678786E-002
 -0.11348300140679188        2.9431746839941729E-002   3.6712914140489779E-002
 -0.10952295230859106        3.0257557038105967E-002   3.1379778445136106E-002
 -0.10556290321039025        3.0436199171281614E-002   2.6961356390617711E-002
 -0.10160285411218942        2.9967673239468667E-002   2.3457647976934670E-002
 -0.12690326209148350        3.5124100570551264E-002   2.9163654094605813E-002
 -0.12241659132875270        3.3927234146609288E-002   2.5556653387574069E-002
 -0.11792992056602189        3.2998291206691371E-002   2.2088182368766980E-002
 -0.11344324980329111        3.2337271750797356E-002   1.8758241038184464E-002
 -0.10895657904056032        3.1944175778927393E-002   1.5566829395826640E-002
 -0.13314491078202945        4.2289432564313653E-002   1.2239154250931732E-002
 -0.12890780230737933        3.8422721453276888E-002   1.2188093722069814E-002
 -0.12467069383272925        3.5739025375276699E-002   1.1499378928821830E-002
 -0.12043358535807913        3.4238344330313100E-002   1.0173009871187860E-002
 -0.11619647688342903        3.3920678318386091E-002   8.2089865491677995E-003
 -0.13616799657663048        4.9454764558076014E-002  -7.8127360543434332E-003
 -0.13295663434267174        4.2918208759944454E-002  -3.3927648560229257E-003
 -0.12974527210871301        3.8479759543862076E-002  -3.8663187469912402E-004
 -0.12653390987475427        3.6139416909828873E-002   1.2056628896279769E-003
 -0.12332254764079553        3.5897180857844907E-002   1.3841194369583476E-003
  -9.4135302098316304E-002   2.7991170700009907E-002   3.1881442292492040E-002
  -9.1771470523568016E-002   2.6806363177876769E-002   3.1310224698524208E-002
  -8.9407638948819743E-002   2.5902112008990480E-002   3.0820454401267107E-002
  -8.7043807374071455E-002   2.5278417193350999E-002   3.0412131400720750E-002
  -8.4679975799323168E-002   2.4935278730958452E-002   3.0085255696885041E-002
 -0.10160285411218942        2.9967673239468667E-002   2.3457647976934670E-002
  -9.9141391023071929E-002   2.9203761899443598E-002   2.3184918487033239E-002
  -9.6679927933954413E-002   2.8496247807983044E-002   2.3026004729159451E-002
  -9.4218464844836897E-002   2.7845130965087062E-002   2.2980906703313465E-002
  -9.1757001755719436E-002   2.7250411370755595E-002   2.3049624409495165E-002
 -0.10895657904056032        3.1944175778927393E-002   1.5566829395826640E-002
 -0.10636511600175660        3.1601160621010455E-002   1.5368428905309185E-002
 -0.10377365296295292        3.1090383606975677E-002   1.5316212582136498E-002
 -0.10118218992414924        3.0411844736823096E-002   1.5410180426308394E-002
  -9.8590726885345550E-002   2.9565544010552690E-002   1.5650332437825046E-002
 -0.11619647688342903        3.3920678318386091E-002   8.2089865491677995E-003
 -0.11344264545962215        3.3998559342577284E-002   7.8607559533520506E-003
 -0.11068881403581525        3.3684519405968352E-002   7.6910779601980384E-003
 -0.10793498261200839        3.2978558508559186E-002   7.6999525697056138E-003
 -0.10518115118820148        3.1880676650349729E-002   7.8873797818749432E-003
 -0.12332254764079553        3.5897180857844907E-002   1.3841194369583476E-003
 -0.12037397939666850        3.6395958064144168E-002   6.6189963116200512E-004
 -0.11742541115254143        3.6278655204960895E-002   1.5060086334423711E-004
 -0.11447684290841437        3.5545272280295186E-002  -1.4977686649485060E-004
 -0.11152827466428733        3.4195809290146983E-002  -2.3923355835536730E-004
  -8.4679975799323168E-002   2.4935278730958452E-002   3.0085255696885041E-002
  -8.2305467938428939E-002   2.4645726291122161E-002   2.9270933787209436E-002
  -7.9930960077534724E-002   2.4182789543151440E-002   2.8673147041073092E-002
  -7.7556452216640495E-002   2.3546468487046692E-002   2.8291895458475939E-002
  -7.5181944355746266E-002   2.2736763122807452E-002   2.8127179039418082E-002
  -9.1757001755719436E-002   2.7250411370755595E-002   2.3049624409495165E-002
  -8.9158189896825196E-002   2.6648155104012750E-002   2.2363944710289602E-002
  -8.6559378037931026E-002   2.5974428243882679E-002   2.1910337843544812E-002
  -8.3960566179036827E-002   2.5229230790365507E-002   2.1688803809260478E-002
  -8.1361754320142587E-002   2.4412562743461014E-002   2.1699342607437042E-002
  -9.8590726885345550E-002   2.9565544010552690E-002   1.5650332437825046E-002
  -9.5752073359529954E-002   2.8650583916903338E-002   1.5195208663836744E-002
  -9.2913419833714386E-002   2.7766066944613803E-002   1.4987695391230462E-002
  -9.0074766307898776E-002   2.6911993093684319E-002   1.5027792620006405E-002
  -8.7236112782083208E-002   2.6088362364114701E-002   1.5315500350164359E-002
 -0.10518115118820148        3.1880676650349729E-002   7.8873797818749432E-003
 -0.10208711832654313        3.0653012729793885E-002   7.7647256478509553E-003
  -9.8993085464884722E-002   2.9557705645345014E-002   7.9052196841304118E-003
  -9.5899052603226342E-002   2.8594755397003103E-002   8.3088618907135973E-003
  -9.2805019741568018E-002   2.7764161984768380E-002   8.9756522676001701E-003
 -0.11152827466428733        3.4195809290146983E-002  -2.3923355835536730E-004
 -0.10816332479786472        3.2655441542684488E-002   7.2495662332083821E-005
 -0.10479837493144212        3.1349344346076127E-002   6.6291072224440584E-004
 -0.10143342506501948        3.0277517700321988E-002   1.5320116213818520E-003
  -9.8068475198596905E-002   2.9439961605422005E-002   2.6797983597440234E-003
  -7.5181944355746266E-002   2.2736763122807452E-002   2.8127179039418082E-002
  -7.2938586869976479E-002   2.1880309975491882E-002   2.7771836831460228E-002
  -7.0695229384206637E-002   2.1103745570157671E-002   2.7597796406077221E-002
  -6.8451871898436809E-002   2.0407069906805082E-002   2.7605057763269457E-002
  -6.6208514412667008E-002   1.9790282985434005E-002   2.7793620903036720E-002
  -8.1361754320142587E-002   2.4412562743461014E-002   2.1699342607437042E-002
  -7.8960055252622230E-002   2.3580516239376945E-002   2.1686792911615335E-002
  -7.6558356185101734E-002   2.2789183414320860E-002   2.1809624596719611E-002
  -7.4156657117581279E-002   2.2038564268292763E-002   2.2067837662750212E-002
  -7.1754958050060810E-002   2.1328658801292449E-002   2.2461432109707025E-002
  -8.7236112782083208E-002   2.6088362364114701E-002   1.5315500350164359E-002
  -8.4721992534460999E-002   2.5280722503262097E-002   1.5606568103525065E-002
  -8.2207872286838693E-002   2.4474621258484080E-002   1.5987096836163252E-002
  -7.9693752039216442E-002   2.3670058629780336E-002   1.6457086548078564E-002
  -7.7179631791594178E-002   2.2867034617150922E-002   1.7016537239271629E-002
  -9.2805019741568018E-002   2.7764161984768380E-002   8.9756522676001701E-003
  -9.0224398715492718E-002   2.6980928767147343E-002   9.5311624071897777E-003
  -8.7643777689417501E-002   2.6160059102647286E-002   1.0130213124408007E-002
  -8.5063156663342271E-002   2.5301552991267851E-002   1.0772804419254659E-002
  -8.2482535637266999E-002   2.4405410433009297E-002   1.1458936291730098E-002
  -9.8068475198596905E-002   2.9439961605422005E-002   2.6797983597440234E-003
  -9.5467273795717567E-002   2.8681135031032479E-002   3.4605758226091132E-003
  -9.2866072392838145E-002   2.7845496946810447E-002   4.2389734614540486E-003
  -9.0264870989958793E-002   2.6933047352755608E-002   5.0149912762784618E-003
  -8.7663669587079385E-002   2.5943786248867839E-002   5.7886292670826234E-003
  -6.6208514412667008E-002   1.9790282985434005E-002   2.7793620903036720E-002
  -6.3568513517809400E-002   1.9181354708519310E-002   2.7279865394465780E-002
  -6.0928512622951778E-002   1.8508254978535393E-002   2.6993990265039569E-002
  -5.8288511728094176E-002   1.7770983795482732E-002   2.6935995514757893E-002
  -5.5648510833236547E-002   1.6969541159360890E-002   2.7105881143620780E-002
  -7.1754958050060810E-002   2.1328658801292449E-002   2.2461432109707025E-002
  -6.8887382818110840E-002   2.0624422822036012E-002   2.2022367376639942E-002
  -6.6019807586160856E-002   1.9890812139239315E-002   2.1810570938612744E-002
  -6.3152232354210899E-002   1.9127826752902255E-002   2.1826042795625951E-002
  -6.0284657122260901E-002   1.8335466663024991E-002   2.2068782947679028E-002
  -7.7179631791594178E-002   2.2867034617150922E-002   1.7016537239271629E-002
  -7.4085094306656288E-002   2.2067490935552811E-002   1.6686960031236618E-002
  -7.0990556821718370E-002   2.1273369299943126E-002   1.6584039034137354E-002
  -6.7896019336780467E-002   2.0484669710321830E-002   1.6707774247973817E-002
  -6.4801481851842563E-002   1.9701392166689091E-002   1.7058165672746081E-002
  -8.2482535637266999E-002   2.4405410433009297E-002   1.1458936291730098E-002
  -7.9161647983445660E-002   2.3510559049069672E-002   1.1273643358256298E-002
  -7.5840760329624293E-002   2.2655926460646854E-002   1.1314394551613535E-002
  -7.2519872675802982E-002   2.1841512667741488E-002   1.1581189871801937E-002
  -6.9198985021981615E-002   2.1067317670353081E-002   1.2074029318821695E-002
  -8.7663669587079385E-002   2.5943786248867839E-002   5.7886292670826234E-003
  -8.4117043848479067E-002   2.4953627162586423E-002   5.7824173576985216E-003
  -8.0570418109878639E-002   2.4038483621350915E-002   6.0016374910407538E-003
  -7.7023792371278293E-002   2.3198355625160913E-002   6.4462896671102464E-003
  -7.3477166632677893E-002   2.2433243174017181E-002   7.1163738859061354E-003
  -5.5648510833236547E-002   1.6969541159360890E-002   2.7105881143620780E-002
  -5.3974692902028470E-002   1.6171819967600892E-002   2.6729633768225125E-002
  -5.2300874970820393E-002   1.5445713117633111E-002   2.6332978670543988E-002
  -5.0627057039612330E-002   1.4791220609457482E-002   2.5915915850577648E-002
  -4.8953239108404240E-002   1.4208342443074395E-002   2.5478445308325937E-002
  -6.0284657122260901E-002   1.8335466663024991E-002   2.2068782947679028E-002
  -5.8554093187092482E-002   1.7540261611306202E-002   2.1936660418796494E-002
  -5.6823529251924181E-002   1.6768741339445184E-002   2.1938437620119891E-002
  -5.5092965316755796E-002   1.6020905847441539E-002   2.2074114551649100E-002
  -5.3362401381587446E-002   1.5296755135295326E-002   2.2343691213384365E-002
  -6.4801481851842563E-002   1.9701392166689091E-002   1.7058165672746081E-002
  -6.2859864460222653E-002   1.8908703255011663E-002   1.7122238428441947E-002
  -6.0918247068602771E-002   1.8091769561257194E-002   1.7474518366834967E-002
  -5.8976629676982917E-002   1.7250591085425426E-002   1.8115005487925207E-002
  -5.7035012285362986E-002   1.6385167827516228E-002   1.9043699791712429E-002
  -6.9198985021981615E-002   2.1067317670353081E-002   1.2074029318821695E-002
  -6.6892006721418901E-002   2.0277144898716994E-002   1.2286367797161264E-002
  -6.4585028420856283E-002   1.9414797783069180E-002   1.2941220910689168E-002
  -6.2278050120293624E-002   1.8480276323408901E-002   1.4038588659405774E-002
  -5.9971071819730944E-002   1.7473580519736923E-002   1.5578471043310293E-002
  -7.3477166632677893E-002   2.2433243174017181E-002   7.1163738859061354E-003
  -7.0650519970681169E-002   2.1645586542422490E-002   7.4290485249546290E-003
  -6.7823873308684612E-002   2.0737826004881166E-002   8.3385452516828440E-003
  -6.4997226646687972E-002   1.9709961561393319E-002   9.8448640660904682E-003
  -6.2170579984691332E-002   1.8561993211958172E-002   1.1948004968177717E-002
  -4.8953239108404240E-002   1.4208342443074395E-002   2.5478445308325937E-002
  -4.5920848341453935E-002   1.3576677107738411E-002   2.3976042877395909E-002
  -4.2888457574503672E-002   1.2775823092704849E-002   2.2240536053385968E-002
  -3.9856066807553402E-002   1.1805780397973555E-002   2.0271924836296182E-002
  -3.6823676040603104E-002   1.0666549023544691E-002   1.8070209226126233E-002
  -5.3362401381587446E-002   1.5296755135295326E-002   2.2343691213384365E-002
  -5.0272436330280029E-002   1.4549311277067906E-002   2.1748788953440318E-002
  -4.7182471278972606E-002   1.3731596346820654E-002   2.1502139655290381E-002
  -4.4092506227665196E-002   1.2843610344553617E-002   2.1603743318934554E-002
  -4.1002541176357765E-002   1.1885353270266741E-002   2.2053599944373170E-002
  -5.7035012285362986E-002   1.6385167827516228E-002   1.9043699791712429E-002
  -5.3306115594824330E-002   1.5521945446397428E-002   1.9455215310431914E-002
  -4.9577218904285694E-002   1.4687369600936744E-002   2.0796341145819901E-002
  -4.5848322213746955E-002   1.3881440291133541E-002   2.3067077297876184E-002
  -4.2119425523208326E-002   1.3104157516988679E-002   2.6267423766600406E-002
  -5.9971071819730944E-002   1.7473580519736923E-002   1.5578471043310293E-002
  -5.5021886135086906E-002   1.6494579615726992E-002   1.7095321948371340E-002
  -5.0072700450442917E-002   1.5643142855052802E-002   2.0123140524974818E-002
  -4.5123514765798858E-002   1.4919270237713757E-002   2.4661926773120721E-002
  -4.0174329081154835E-002   1.4322961763711006E-002   3.0711680692809135E-002
  -6.2170579984691332E-002   1.8561993211958172E-002   1.1948004968177717E-002
  -5.5419747951067744E-002   1.7467213785056335E-002   1.4669108867258085E-002
  -4.8668915917444211E-002   1.6598916109168610E-002   1.9482537792754911E-002
  -4.1918083883820650E-002   1.5957100184293575E-002   2.6388291744668842E-002
  -3.5167251850197090E-002   1.5541766010432667E-002   3.5386370722998439E-002
 </DataArray>
 </PointData>
 </Piece>
 <Piece  NumberOfPoints="          1600 "  NumberOfCells="         1024 ">
 <Points>
 <DataArray  type="Float64" NumberOfComponents="3"  format="ascii" >
  0.50000000000000000        0.0000000000000000        0.0000000000000000     
  0.53125000000000000        0.0000000000000000        0.0000000000000000     
  0.56250000000000000        0.0000000000000000        0.0000000000000000     
  0.59375000000000000        0.0000000000000000        0.0000000000000000     
  0.62500000000000000        0.0000000000000000        0.0000000000000000     
  0.50000000000000000        3.1250000000000000E-002   0.0000000000000000     
  0.53125000000000000        3.1250000000000000E-002   0.0000000000000000     
  0.56250000000000000        3.1250000000000000E-002   0.0000000000000000     
  0.59375000000000000        3.1250000000000000E-002   0.0000000000000000     
  0.62500000000000000        3.1250000000000000E-002   0.0000000000000000     
  0.50000000000000000        6.2500000000000000E-002   0.0000000000000000     
  0.53125000000000000        6.2500000000000000E-002   0.0000000000000000     
  0.56250000000000000        6.2500000000000000E-002   0.0000000000000000     
  0.59375000000000000        6.2500000000000000E-002   0.0000000000000000     
  0.62500000000000000        6.2500000000000000E-002   0.0000000000000000     
  0.50000000000000000        9.3750000000000000E-002   0.0000000000000000     
  0.53125000000000000        9.3750000000000000E-002   0.0000000000000000     
  0.56250000000000000        9.3750000000000000E-002   0.0000000000000000     
  0.59375000000000000        9.3750000000000000E-002   0.0000000000000000     
  0.62500000000000000        9.3750000000000000E-002   0.0000000000000000     
  0.50000000000000000       0.12500000000000000        0.0000000000000000     
  0.53125000000000000       0.12500000000000000        0.0000000000000000     
  0.56250000000000000       0.12500000000000000        0.0000000000000000     
  0.59375000000000000       0.12500000000000000        0.0000000000000000     
  0.62500000000000000       0.12500000000000000        0.0000000000000000     
  0.62500000000000000        0.0000000000000000        0.0000000000000000     
  0.65625000000000000        0.0000000000000000        0.0000000000000000     
  0.68750000000000000        0.0000000000000000        0.0000000000000000     
  0.71875000000000000        0.0000000000000000        0.0000000000000000     
  0.75000000000000000        0.0000000000000000        0.0000000000000000     
  0.62500000000000000        3.1250000000000000E-002   0.0000000000000000     
  0.65625000000000000        3.1250000000000000E-002   0.0000000000000000     
  0.68750000000000000        3.1250000000000000E-002   0.0000000000000000     
  0.71875000000000000        3.1250000000000000E-002   0.0000000000000000     
  0.75000000000000000        3.1250000000000000E-002   0.0000000000000000     
  0.62500000000000000        6.2500000000000000E-002   0.0000000000000000     
  0.65625000000000000        6.2500000000000000E-002   0.0000000000000000     
  0.68750000000000000        6.2500000000000000E-002   0.0000000000000000     
  0.71875000000000000        6.2500000000000000E-002   0.0000000000000000     
  0.75000000000000000        6.2500000000000000E-002   0.0000000000000000     
  0.62500000000000000        9.3750000000000000E-002   0.0000000000000000     
  0.65625000000000000        9.3750000000000000E-002   0.0000000000000000     
  0.68750000000000000        9.3750000000000000E-002   0.0000000000000000     
  0.71875000000000000        9.3750000000000000E-002   0.0000000000000000     
  0.75000000000000000        9.3750000000000000E-002   0.0000000000000000     
  0.62500000000000000       0.12500000000000000        0.0000000000000000     
  0.65625000000000000       0.12500000000000000        0.0000000000000000     
  0.68750000000000000       0.12500000000000000        0.0000000000000000     
  0.71875000000000000       0.12500000000000000        0.0000000000000000     
  0.75000000000000000       0.12500000000000000        0.0000000000000000     
  0.75000000000000000        0.0000000000000000        0.0000000000000000     
  0.78125000000000000        0.0000000000000000        0.0000000000000000     
  0.81250000000000000        0.0000000000000000        0.0000000000000000     
  0.84375000000000000        0.0000000000000000        0.0000000000000000     
  0.87500000000000000        0.0000000000000000        0.0000000000000000     
  0.75000000000000000        3.1250000000000000E-002   0.0000000000000000     
  0.78125000000000000        3.1250000000000000E-002   0.0000000000000000     
  0.81250000000000000        3.1250000000000000E-002   0.0000000000000000     
  0.84375000000000000        3.1250000000000000E-002   0.0000000000000000     
  0.87500000000000000        3.1250000000000000E-002   0.0000000000000000     
  0.75000000000000000        6.2500000000000000E-002   0.0000000000000000     
  0.78125000000000000        6.2500000000000000E-002   0.0000000000000000     
  0.81250000000000000        6.2500000000000000E-002   0.0000000000000000     
  0.84375000000000000        6.2500000000000000E-002   0.0000000000000000     
  0.87500000000000000        6.2500000000000000E-002   0.0000000000000000     
  0.75000000000000000        9.3750000000000000E-002   0.0000000000000000     
  0.78125000000000000        9.3750000000000000E-002   0.0000000000000000     
  0.81250000000000000        9.3750000000000000E-002   0.0000000000000000     
  0.84375000000000000        9.3750000000000000E-002   0.0000000000000000     
  0.87500000000000000        9.3750000000000000E-002   0.0000000000000000     
  0.75000000000000000       0.12500000000000000        0.0000000000000000     
  0.78125000000000000       0.12500000000000000        0.0000000000000000     
  0.81250000000000000       0.12500000000000000        0.0000000000000000     
  0.84375000000000000       0.12500000000000000        0.0000000000000000     
  0.87500000000000000       0.12500000000000000        0.0000000000000000     
  0.87500000000000000        0.0000000000000000        0.0000000000000000     
  0.90625000000000000        0.0000000000000000        0.0000000000000000     
  0.93750000000000000        0.0000000000000000        0.0000000000000000     
  0.96875000000000000        0.0000000000000000        0.0000000000000000     
   1.0000000000000000        0.0000000000000000        0.0000000000000000     
  0.87500000000000000        3.1250000000000000E-002   0.0000000000000000     
  0.90625000000000000        3.1250000000000000E-002   0.0000000000000000     
  0.93750000000000000        3.1250000000000000E-002   0.0000000000000000     
  0.96875000000000000        3.1250000000000000E-002   0.0000000000000000     
   1.0000000000000000        3.1250000000000000E-002   0.0000000000000000     
  0.87500000000000000        6.2500000000000000E-002   0.0000000000000000     
  0.90625000000000000        6.2500000000000000E-002   0.0000000000000000     
  0.93750000000000000        6.2500000000000000E-002   0.0000000000000000     
  0.96875000000000000        6.2500000000000000E-002   0.0000000000000000     
   1.0000000000000000        6.2500000000000000E-002   0.0000000000000000     
  0.87500000000000000        9.3750000000000000E-002   0.0000000000000000     
  0.90625000000000000        9.3750000000000000E-002   0.0000000000000000     
  0.93750000000000000        9.3750000000000000E-002   0.0000000000000000     
  0.96875000000000000        9.3750000000000000E-002   0.0000000000000000     
   1.0000000000000000        9.3750000000000000E-002   0.0000000000000000     
  0.87500000000000000       0.12500000000000000        0.0000000000000000     
  0.90625000000000000       0.12500000000000000        0.0000000000000000     
  0.93750000000000000       0.12500000000000000        0.0000000000000000     
  0.96875000000000000       0.12500000000000000        0.0000000000000000     
   1.0000000000000000       0.12500000000000000        0.0000000000000000     
   1.0000000000000000        0.0000000000000000        0.0000000000000000     
   1.0312500000000000        0.0000000000000000        0.0000000000000000     
   1.0625000000000000        0.0000000000000000        0.0000000000000000     
   1.0937500000000000        0.0000000000000000        0.0000000000000000     
   1.1250000000000000        0.0000000000000000        0.0000000000000000     
   1.0000000000000000        3.1250000000000000E-002   0.0000000000000000     
   1.0312500000000000        3.1250000000000000E-002   0.0000000000000000     
   1.0625000000000000        3.1250000000000000E-002   0.0000000000000000     
   1.0937500000000000        3.1250000000000000E-002   0.0000000000000000     
   1.1250000000000000        3.1250000000000000E-002   0.0000000000000000     
   1.0000000000000000        6.2500000000000000E-002   0.0000000000000000     
   1.0312500000000000        6.2500000000000000E-002   0.0000000000000000     
   1.0625000000000000        6.2500000000000000E-002   0.0000000000000000     
   1.0937500000000000        6.2500000000000000E-002   0.0000000000000000     
   1.1250000000000000        6.2500000000000000E-002   0.0000000000000000     
   1.0000000000000000        9.3750000000000000E-002   0.0000000000000000     
   1.0312500000000000        9.3750000000000000E-002   0.0000000000000000     
   1.0625000000000000        9.3750000000000000E-002   0.0000000000000000     
   1.0937500000000000        9.3750000000000000E-002   0.0000000000000000     
   1.1250000000000000        9.3750000000000000E-002   0.0000000000000000     
   1.0000000000000000       0.12500000000000000        0.0000000000000000     
   1.0312500000000000       0.12500000000000000        0.0000000000000000     
   1.0625000000000000       0.12500000000000000        0.0000000000000000     
   1.0937500000000000       0.12500000000000000        0.0000000000000000     
   1.1250000000000000       0.12500000000000000        0.0000000000000000     
   1.1250000000000000        0.0000000000000000        0.0000000000000000     
   1.1562500000000000        0.0000000000000000        0.0000000000000000     
   1.1875000000000000        0.0000000000000000        0.0000000000000000     
   1.2187500000000000        0.0000000000000000        0.0000000000000000     
   1.2500000000000000        0.0000000000000000        0.0000000000000000     
   1.1250000000000000        3.1250000000000000E-002   0.0000000000000000     
   1.1562500000000000        3.1250000000000000E-002   0.0000000000000000     
   1.1875000000000000        3.1250000000000000E-002   0.0000000000000000     
   1.2187500000000000        3.1250000000000000E-002   0.0000000000000000     
   1.2500000000000000        3.1250000000000000E-002   0.0000000000000000     
   1.1250000000000000        6.2500000000000000E-002   0.0000000000000000     
   1.1562500000000000        6.2500000000000000E-002   0.0000000000000000     
   1.1875000000000000        6.2500000000000000E-002   0.0000000000000000     
   1.2187500000000000        6.2500000000000000E-002   0.0000000000000000     
   1.2500000000000000        6.2500000000000000E-002   0.0000000000000000     
   1.1250000000000000        9.3750000000000000E-002   0.0000000000000000     
   1.1562500000000000        9.3750000000000000E-002   0.0000000000000000     
   1.1875000000000000        9.3750000000000000E-002   0.0000000000000000     
   1.2187500000000000        9.3750000000000000E-002   0.0000000000000000     
   1.2500000000000000        9.3750000000000000E-002   0.0000000000000000     
   1.1250000000000000       0.12500000000000000        0.0000000000000000     
   1.1562500000000000       0.12500000000000000        0.0000000000000000     
   1.1875000000000000       0.12500000000000000        0.0000000000000000     
   1.2187500000000000       0.12500000000000000        0.0000000000000000     
   1.2500000000000000       0.12500000000000000        0.0000000000000000     
   1.2500000000000000        0.0000000000000000        0.0000000000000000     
   1.2812500000000000        0.0000000000000000        0.0000000000000000     
   1.3125000000000000        0.0000000000000000        0.0000000000000000     
   1.3437500000000000        0.0000000000000000        0.0000000000000000     
   1.3750000000000000        0.0000000000000000        0.0000000000000000     
   1.2500000000000000        3.1250000000000000E-002   0.0000000000000000     
   1.2812500000000000        3.1250000000000000E-002   0.0000000000000000     
   1.3125000000000000        3.1250000000000000E-002   0.0000000000000000     
   1.3437500000000000        3.1250000000000000E-002   0.0000000000000000     
   1.3750000000000000        3.1250000000000000E-002   0.0000000000000000     
   1.2500000000000000        6.2500000000000000E-002   0.0000000000000000     
   1.2812500000000000        6.2500000000000000E-002   0.0000000000000000     
   1.3125000000000000        6.2500000000000000E-002   0.0000000000000000     
   1.3437500000000000        6.2500000000000000E-002   0.0000000000000000     
   1.3750000000000000        6.2500000000000000E-002   0.0000000000000000     
   1.2500000000000000        9.3750000000000000E-002   0.0000000000000000     
   1.2812500000000000        9.3750000000000000E-002   0.0000000000000000     
   1.3125000000000000        9.3750000000000000E-002   0.0000000000000000     
   1.3437500000000000        9.3750000000000000E-002   0.0000000000000000     
   1.3750000000000000        9.3750000000000000E-002   0.0000000000000000     
   1.2500000000000000       0.12500000000000000        0.0000000000000000     
   1.2812500000000000       0.12500000000000000        0.0000000000000000     
   1.3125000000000000       0.12500000000000000        0.0000000000000000     
   1.3437500000000000       0.12500000000000000        0.0000000000000000     
   1.3750000000000000       0.12500000000000000        0.0000000000000000     
   1.3750000000000000        0.0000000000000000        0.0000000000000000     
   1.4062500000000000        0.0000000000000000        0.0000000000000000     
   1.4375000000000000        0.0000000000000000        0.0000000000000000     
   1.4687500000000000        0.0000000000000000        0.0000000000000000     
   1.5000000000000000        0.0000000000000000        0.0000000000000000     
   1.3750000000000000        3.1250000000000000E-002   0.0000000000000000     
   1.4062500000000000        3.1250000000000000E-002   0.0000000000000000     
   1.4375000000000000        3.1250000000000000E-002   0.0000000000000000     
   1.4687500000000000        3.1250000000000000E-002   0.0000000000000000     
   1.5000000000000000        3.1250000000000000E-002   0.0000000000000000     
   1.3750000000000000        6.2500000000000000E-002   0.0000000000000000     
   1.4062500000000000        6.2500000000000000E-002   0.0000000000000000     
   1.4375000000000000        6.2500000000000000E-002   0.0000000000000000     
   1.4687500000000000        6.2500000000000000E-002   0.0000000000000000     
   1.5000000000000000        6.2500000000000000E-002   0.0000000000000000     
   1.3750000000000000        9.3750000000000000E-002   0.0000000000000000     
   1.4062500000000000        9.3750000000000000E-002   0.0000000000000000     
   1.4375000000000000        9.3750000000000000E-002   0.0000000000000000     
   1.4687500000000000        9.3750000000000000E-002   0.0000000000000000     
   1.5000000000000000        9.3750000000000000E-002   0.0000000000000000     
   1.3750000000000000       0.12500000000000000        0.0000000000000000     
   1.4062500000000000       0.12500000000000000        0.0000000000000000     
   1.4375000000000000       0.12500000000000000        0.0000000000000000     
   1.4687500000000000       0.12500000000000000        0.0000000000000000     
   1.5000000000000000       0.12500000000000000        0.0000000000000000     
  0.50000000000000000       0.12500000000000000        0.0000000000000000     
  0.53125000000000000       0.12500000000000000        0.0000000000000000     
  0.56250000000000000       0.12500000000000000        0.0000000000000000     
  0.59375000000000000       0.12500000000000000        0.0000000000000000     
  0.62500000000000000       0.12500000000000000        0.0000000000000000     
  0.50000000000000000       0.15625000000000000        0.0000000000000000     
  0.53125000000000000       0.15625000000000000        0.0000000000000000     
  0.56250000000000000       0.15625000000000000        0.0000000000000000     
  0.59375000000000000       0.15625000000000000        0.0000000000000000     
  0.62500000000000000       0.15625000000000000        0.0000000000000000     
  0.50000000000000000       0.18750000000000000        0.0000000000000000     
  0.53125000000000000       0.18750000000000000        0.0000000000000000     
  0.56250000000000000       0.18750000000000000        0.0000000000000000     
  0.59375000000000000       0.18750000000000000        0.0000000000000000     
  0.62500000000000000       0.18750000000000000        0.0000000000000000     
  0.50000000000000000       0.21875000000000000        0.0000000000000000     
  0.53125000000000000       0.21875000000000000        0.0000000000000000     
  0.56250000000000000       0.21875000000000000        0.0000000000000000     
  0.59375000000000000       0.21875000000000000        0.0000000000000000     
  0.62500000000000000       0.21875000000000000        0.0000000000000000     
  0.50000000000000000       0.25000000000000000        0.0000000000000000     
  0.53125000000000000       0.25000000000000000        0.0000000000000000     
  0.56250000000000000       0.25000000000000000        0.0000000000000000     
  0.59375000000000000       0.25000000000000000        0.0000000000000000     
  0.62500000000000000       0.25000000000000000        0.0000000000000000     
  0.62500000000000000       0.12500000000000000        0.0000000000000000     
  0.65625000000000000       0.12500000000000000        0.0000000000000000     
  0.68750000000000000       0.12500000000000000        0.0000000000000000     
  0.71875000000000000       0.12500000000000000        0.0000000000000000     
  0.75000000000000000       0.12500000000000000        0.0000000000000000     
  0.62500000000000000       0.15625000000000000        0.0000000000000000     
  0.65625000000000000       0.15625000000000000        0.0000000000000000     
  0.68750000000000000       0.15625000000000000        0.0000000000000000     
  0.71875000000000000       0.15625000000000000        0.0000000000000000     
  0.75000000000000000       0.15625000000000000        0.0000000000000000     
  0.62500000000000000       0.18750000000000000        0.0000000000000000     
  0.65625000000000000       0.18750000000000000        0.0000000000000000     
  0.68750000000000000       0.18750000000000000        0.0000000000000000     
  0.71875000000000000       0.18750000000000000        0.0000000000000000     
  0.75000000000000000       0.18750000000000000        0.0000000000000000     
  0.62500000000000000       0.21875000000000000        0.0000000000000000     
  0.65625000000000000       0.21875000000000000        0.0000000000000000     
  0.68750000000000000       0.21875000000000000        0.0000000000000000     
  0.71875000000000000       0.21875000000000000        0.0000000000000000     
  0.75000000000000000       0.21875000000000000        0.0000000000000000     
  0.62500000000000000       0.25000000000000000        0.0000000000000000     
  0.65625000000000000       0.25000000000000000        0.0000000000000000     
  0.68750000000000000       0.25000000000000000        0.0000000000000000     
  0.71875000000000000       0.25000000000000000        0.0000000000000000     
  0.75000000000000000       0.25000000000000000        0.0000000000000000     
  0.75000000000000000       0.12500000000000000        0.0000000000000000     
  0.78125000000000000       0.12500000000000000        0.0000000000000000     
  0.81250000000000000       0.12500000000000000        0.0000000000000000     
  0.84375000000000000       0.12500000000000000        0.0000000000000000     
  0.87500000000000000       0.12500000000000000        0.0000000000000000     
  0.75000000000000000       0.15625000000000000        0.0000000000000000     
  0.78125000000000000       0.15625000000000000        0.0000000000000000     
  0.81250000000000000       0.15625000000000000        0.0000000000000000     
  0.84375000000000000       0.15625000000000000        0.0000000000000000     
  0.87500000000000000       0.15625000000000000        0.0000000000000000     
  0.75000000000000000       0.18750000000000000        0.0000000000000000     
  0.78125000000000000       0.18750000000000000        0.0000000000000000     
  0.81250000000000000       0.18750000000000000        0.0000000000000000     
  0.84375000000000000       0.18750000000000000        0.0000000000000000     
  0.87500000000000000       0.18750000000000000        0.0000000000000000     
  0.75000000000000000       0.21875000000000000        0.0000000000000000     
  0.78125000000000000       0.21875000000000000        0.0000000000000000     
  0.81250000000000000       0.21875000000000000        0.0000000000000000     
  0.84375000000000000       0.21875000000000000        0.0000000000000000     
  0.87500000000000000       0.21875000000000000        0.0000000000000000     
  0.75000000000000000       0.25000000000000000        0.0000000000000000     
  0.78125000000000000       0.25000000000000000        0.0000000000000000     
  0.81250000000000000       0.25000000000000000        0.0000000000000000     
  0.84375000000000000       0.25000000000000000        0.0000000000000000     
  0.87500000000000000       0.25000000000000000        0.0000000000000000     
  0.87500000000000000       0.12500000000000000        0.0000000000000000     
  0.90625000000000000       0.12500000000000000        0.0000000000000000     
  0.93750000000000000       0.12500000000000000        0.0000000000000000     
  0.96875000000000000       0.12500000000000000        0.0000000000000000     
   1.0000000000000000       0.12500000000000000        0.0000000000000000     
  0.87500000000000000       0.15625000000000000        0.0000000000000000     
  0.90625000000000000       0.15625000000000000        0.0000000000000000     
  0.93750000000000000       0.15625000000000000        0.0000000000000000     
  0.96875000000000000       0.15625000000000000        0.0000000000000000     
   1.0000000000000000       0.15625000000000000        0.0000000000000000     
  0.87500000000000000       0.18750000000000000        0.0000000000000000     
  0.90625000000000000       0.18750000000000000        0.0000000000000000     
  0.93750000000000000       0.18750000000000000        0.0000000000000000     
  0.96875000000000000       0.18750000000000000        0.0000000000000000     
   1.0000000000000000       0.18750000000000000        0.0000000000000000     
  0.87500000000000000       0.21875000000000000        0.0000000000000000     
  0.90625000000000000       0.21875000000000000        0.0000000000000000     
  0.93750000000000000       0.21875000000000000        0.0000000000000000     
  0.96875000000000000       0.21875000000000000        0.0000000000000000     
   1.0000000000000000       0.21875000000000000        0.0000000000000000     
  0.87500000000000000       0.25000000000000000        0.0000000000000000     
  0.90625000000000000       0.25000000000000000        0.0000000000000000     
  0.93750000000000000       0.25000000000000000        0.0000000000000000     
  0.96875000000000000       0.25000000000000000        0.0000000000000000     
   1.0000000000000000       0.25000000000000000        0.0000000000000000     
   1.0000000000000000       0.12500000000000000        0.0000000000000000     
   1.0312500000000000       0.12500000000000000        0.0000000000000000     
   1.0625000000000000       0.12500000000000000        0.0000000000000000     
   1.0937500000000000       0.12500000000000000        0.0000000000000000     
   1.1250000000000000       0.12500000000000000        0.0000000000000000     
   1.0000000000000000       0.15625000000000000        0.0000000000000000     
   1.0312500000000000       0.15625000000000000        0.0000000000000000     
   1.0625000000000000       0.15625000000000000        0.0000000000000000     
   1.0937500000000000       0.15625000000000000        0.0000000000000000     
   1.1250000000000000       0.15625000000000000        0.0000000000000000     
   1.0000000000000000       0.18750000000000000        0.0000000000000000     
   1.0312500000000000       0.18750000000000000        0.0000000000000000     
   1.0625000000000000       0.18750000000000000        0.0000000000000000     
   1.0937500000000000       0.18750000000000000        0.0000000000000000     
   1.1250000000000000       0.18750000000000000        0.0000000000000000     
   1.0000000000000000       0.21875000000000000        0.0000000000000000     
   1.0312500000000000       0.21875000000000000        0.0000000000000000     
   1.0625000000000000       0.21875000000000000        0.0000000000000000     
   1.0937500000000000       0.21875000000000000        0.0000000000000000     
   1.1250000000000000       0.21875000000000000        0.0000000000000000     
   1.0000000000000000       0.25000000000000000        0.0000000000000000     
   1.0312500000000000       0.25000000000000000        0.0000000000000000     
   1.0625000000000000       0.25000000000000000        0.0000000000000000     
   1.0937500000000000       0.25000000000000000        0.0000000000000000     
   1.1250000000000000       0.25000000000000000        0.0000000000000000     
   1.1250000000000000       0.12500000000000000        0.0000000000000000     
   1.1562500000000000       0.12500000000000000        0.0000000000000000     
   1.1875000000000000       0.12500000000000000        0.0000000000000000     
   1.2187500000000000       0.12500000000000000        0.0000000000000000     
   1.2500000000000000       0.12500000000000000        0.0000000000000000     
   1.1250000000000000       0.15625000000000000        0.0000000000000000     
   1.1562500000000000       0.15625000000000000        0.0000000000000000     
   1.1875000000000000       0.15625000000000000        0.0000000000000000     
   1.2187500000000000       0.15625000000000000        0.0000000000000000     
   1.2500000000000000       0.15625000000000000        0.0000000000000000     
   1.1250000000000000       0.18750000000000000        0.0000000000000000     
   1.1562500000000000       0.18750000000000000        0.0000000000000000     
   1.1875000000000000       0.18750000000000000        0.0000000000000000     
   1.2187500000000000       0.18750000000000000        0.0000000000000000     
   1.2500000000000000       0.18750000000000000        0.0000000000000000     
   1.1250000000000000       0.21875000000000000        0.0000000000000000     
   1.1562500000000000       0.21875000000000000        0.0000000000000000     
   1.1875000000000000       0.21875000000000000        0.0000000000000000     
   1.2187500000000000       0.21875000000000000        0.0000000000000000     
   1.2500000000000000       0.21875000000000000        0.0000000000000000     
   1.1250000000000000       0.25000000000000000        0.0000000000000000     
   1.1562500000000000       0.25000000000000000        0.0000000000000000     
   1.1875000000000000       0.25000000000000000        0.0000000000000000     
   1.2187500000000000       0.25000000000000000        0.0000000000000000     
   1.2500000000000000       0.25000000000000000        0.0000000000000000     
   1.2500000000000000       0.12500000000000000        0.0000000000000000     
   1.2812500000000000       0.12500000000000000        0.0000000000000000     
   1.3125000000000000       0.12500000000000000        0.0000000000000000     
   1.3437500000000000       0.12500000000000000        0.0000000000000000     
   1.3750000000000000       0.12500000000000000        0.0000000000000000     
   1.2500000000000000       0.15625000000000000        0.0000000000000000     
   1.2812500000000000       0.15625000000000000        0.0000000000000000     
   1.3125000000000000       0.15625000000000000        0.0000000000000000     
   1.3437500000000000       0.15625000000000000        0.0000000000000000     
   1.3750000000000000       0.15625000000000000        0.0000000000000000     
   1.2500000000000000       0.18750000000000000        0.0000000000000000     
   1.2812500000000000       0.18750000000000000        0.0000000000000000     
   1.3125000000000000       0.18750000000000000        0.0000000000000000     
   1.3437500000000000       0.18750000000000000        0.0000000000000000     
   1.3750000000000000       0.18750000000000000        0.0000000000000000     
   1.2500000000000000       0.21875000000000000        0.0000000000000000     
   1.2812500000000000       0.21875000000000000        0.0000000000000000     
   1.3125000000000000       0.21875000000000000        0.0000000000000000     
   1.3437500000000000       0.21875000000000000        0.0000000000000000     
   1.3750000000000000       0.21875000000000000        0.0000000000000000     
   1.2500000000000000       0.25000000000000000        0.0000000000000000     
   1.2812500000000000       0.25000000000000000        0.0000000000000000     
   1.3125000000000000       0.25000000000000000        0.0000000000000000     
   1.3437500000000000       0.25000000000000000        0.0000000000000000     
   1.3750000000000000       0.25000000000000000        0.0000000000000000     
   1.3750000000000000       0.12500000000000000        0.0000000000000000     
   1.4062500000000000       0.12500000000000000        0.0000000000000000     
   1.4375000000000000       0.12500000000000000        0.0000000000000000     
   1.4687500000000000       0.12500000000000000        0.0000000000000000     
   1.5000000000000000       0.12500000000000000        0.0000000000000000     
   1.3750000000000000       0.15625000000000000        0.0000000000000000     
   1.4062500000000000       0.15625000000000000        0.0000000000000000     
   1.4375000000000000       0.15625000000000000        0.0000000000000000     
   1.4687500000000000       0.15625000000000000        0.0000000000000000     
   1.5000000000000000       0.15625000000000000        0.0000000000000000     
   1.3750000000000000       0.18750000000000000        0.0000000000000000     
   1.4062500000000000       0.18750000000000000        0.0000000000000000     
   1.4375000000000000       0.18750000000000000        0.0000000000000000     
   1.4687500000000000       0.18750000000000000        0.0000000000000000     
   1.5000000000000000       0.18750000000000000        0.0000000000000000     
   1.3750000000000000       0.21875000000000000        0.0000000000000000     
   1.4062500000000000       0.21875000000000000        0.0000000000000000     
   1.4375000000000000       0.21875000000000000        0.0000000000000000     
   1.4687500000000000       0.21875000000000000        0.0000000000000000     
   1.5000000000000000       0.21875000000000000        0.0000000000000000     
   1.3750000000000000       0.25000000000000000        0.0000000000000000     
   1.4062500000000000       0.25000000000000000        0.0000000000000000     
   1.4375000000000000       0.25000000000000000        0.0000000000000000     
   1.4687500000000000       0.25000000000000000        0.0000000000000000     
   1.5000000000000000       0.25000000000000000        0.0000000000000000     
  0.50000000000000000       0.25000000000000000        0.0000000000000000     
  0.53125000000000000       0.25000000000000000        0.0000000000000000     
  0.56250000000000000       0.25000000000000000        0.0000000000000000     
  0.59375000000000000       0.25000000000000000        0.0000000000000000     
  0.62500000000000000       0.25000000000000000        0.0000000000000000     
  0.50000000000000000       0.28125000000000000        0.0000000000000000     
  0.53125000000000000       0.28125000000000000        0.0000000000000000     
  0.56250000000000000       0.28125000000000000        0.0000000000000000     
  0.59375000000000000       0.28125000000000000        0.0000000000000000     
  0.62500000000000000       0.28125000000000000        0.0000000000000000     
  0.50000000000000000       0.31250000000000000        0.0000000000000000     
  0.53125000000000000       0.31250000000000000        0.0000000000000000     
  0.56250000000000000       0.31250000000000000        0.0000000000000000     
  0.59375000000000000       0.31250000000000000        0.0000000000000000     
  0.62500000000000000       0.31250000000000000        0.0000000000000000     
  0.50000000000000000       0.34375000000000000        0.0000000000000000     
  0.53125000000000000       0.34375000000000000        0.0000000000000000     
  0.56250000000000000       0.34375000000000000        0.0000000000000000     
  0.59375000000000000       0.34375000000000000        0.0000000000000000     
  0.62500000000000000       0.34375000000000000        0.0000000000000000     
  0.50000000000000000       0.37500000000000000        0.0000000000000000     
  0.53125000000000000       0.37500000000000000        0.0000000000000000     
  0.56250000000000000       0.37500000000000000        0.0000000000000000     
  0.59375000000000000       0.37500000000000000        0.0000000000000000     
  0.62500000000000000       0.37500000000000000        0.0000000000000000     
  0.62500000000000000       0.25000000000000000        0.0000000000000000     
  0.65625000000000000       0.25000000000000000        0.0000000000000000     
  0.68750000000000000       0.25000000000000000        0.0000000000000000     
  0.71875000000000000       0.25000000000000000        0.0000000000000000     
  0.75000000000000000       0.25000000000000000        0.0000000000000000     
  0.62500000000000000       0.28125000000000000        0.0000000000000000     
  0.65625000000000000       0.28125000000000000        0.0000000000000000     
  0.68750000000000000       0.28125000000000000        0.0000000000000000     
  0.71875000000000000       0.28125000000000000        0.0000000000000000     
  0.75000000000000000       0.28125000000000000        0.0000000000000000     
  0.62500000000000000       0.31250000000000000        0.0000000000000000     
  0.65625000000000000       0.31250000000000000        0.0000000000000000     
  0.68750000000000000       0.31250000000000000        0.0000000000000000     
  0.71875000000000000       0.31250000000000000        0.0000000000000000     
  0.75000000000000000       0.31250000000000000        0.0000000000000000     
  0.62500000000000000       0.34375000000000000        0.0000000000000000     
  0.65625000000000000       0.34375000000000000        0.0000000000000000     
  0.68750000000000000       0.34375000000000000        0.0000000000000000     
  0.71875000000000000       0.34375000000000000        0.0000000000000000     
  0.75000000000000000       0.34375000000000000        0.0000000000000000     
  0.62500000000000000       0.37500000000000000        0.0000000000000000     
  0.65625000000000000       0.37500000000000000        0.0000000000000000     
  0.68750000000000000       0.37500000000000000        0.0000000000000000     
  0.71875000000000000       0.37500000000000000        0.0000000000000000     
  0.75000000000000000       0.37500000000000000        0.0000000000000000     
  0.75000000000000000       0.25000000000000000        0.0000000000000000     
  0.78125000000000000       0.25000000000000000        0.0000000000000000     
  0.81250000000000000       0.25000000000000000        0.0000000000000000     
  0.84375000000000000       0.25000000000000000        0.0000000000000000     
  0.87500000000000000       0.25000000000000000        0.0000000000000000     
  0.75000000000000000       0.28125000000000000        0.0000000000000000     
  0.78125000000000000       0.28125000000000000        0.0000000000000000     
  0.81250000000000000       0.28125000000000000        0.0000000000000000     
  0.84375000000000000       0.28125000000000000        0.0000000000000000     
  0.87500000000000000       0.28125000000000000        0.0000000000000000     
  0.75000000000000000       0.31250000000000000        0.0000000000000000     
  0.78125000000000000       0.31250000000000000        0.0000000000000000     
  0.81250000000000000       0.31250000000000000        0.0000000000000000     
  0.84375000000000000       0.31250000000000000        0.0000000000000000     
  0.87500000000000000       0.31250000000000000        0.0000000000000000     
  0.75000000000000000       0.34375000000000000        0.0000000000000000     
  0.78125000000000000       0.34375000000000000        0.0000000000000000     
  0.81250000000000000       0.34375000000000000        0.0000000000000000     
  0.84375000000000000       0.34375000000000000        0.0000000000000000     
  0.87500000000000000       0.34375000000000000        0.0000000000000000     
  0.75000000000000000       0.37500000000000000        0.0000000000000000     
  0.78125000000000000       0.37500000000000000        0.0000000000000000     
  0.81250000000000000       0.37500000000000000        0.0000000000000000     
  0.84375000000000000       0.37500000000000000        0.0000000000000000     
  0.87500000000000000       0.37500000000000000        0.0000000000000000     
  0.87500000000000000       0.25000000000000000        0.0000000000000000     
  0.90625000000000000       0.25000000000000000        0.0000000000000000     
  0.93750000000000000       0.25000000000000000        0.0000000000000000     
  0.96875000000000000       0.25000000000000000        0.0000000000000000     
   1.0000000000000000       0.25000000000000000        0.0000000000000000     
  0.87500000000000000       0.28125000000000000        0.0000000000000000     
  0.90625000000000000       0.28125000000000000        0.0000000000000000     
  0.93750000000000000       0.28125000000000000        0.0000000000000000     
  0.96875000000000000       0.28125000000000000        0.0000000000000000     
   1.0000000000000000       0.28125000000000000        0.0000000000000000     
  0.87500000000000000       0.31250000000000000        0.0000000000000000     
  0.90625000000000000       0.31250000000000000        0.0000000000000000     
  0.93750000000000000       0.31250000000000000        0.0000000000000000     
  0.96875000000000000       0.31250000000000000        0.0000000000000000     
   1.0000000000000000       0.31250000000000000        0.0000000000000000     
  0.87500000000000000       0.34375000000000000        0.0000000000000000     
  0.90625000000000000       0.34375000000000000        0.0000000000000000     
  0.93750000000000000       0.34375000000000000        0.0000000000000000     
  0.96875000000000000       0.34375000000000000        0.0000000000000000     
   1.0000000000000000       0.34375000000000000        0.0000000000000000     
  0.87500000000000000       0.37500000000000000        0.0000000000000000     
  0.90625000000000000       0.37500000000000000        0.0000000000000000     
  0.93750000000000000       0.37500000000000000        0.0000000000000000     
  0.96875000000000000       0.37500000000000000        0.0000000000000000     
   1.0000000000000000       0.37500000000000000        0.0000000000000000     
   1.0000000000000000       0.25000000000000000        0.0000000000000000     
   1.0312500000000000       0.25000000000000000        0.0000000000000000     
   1.0625000000000000       0.25000000000000000        0.0000000000000000     
   1.0937500000000000       0.25000000000000000        0.0000000000000000     
   1.1250000000000000       0.25000000000000000        0.0000000000000000     
   1.0000000000000000       0.28125000000000000        0.0000000000000000     
   1.0312500000000000       0.28125000000000000        0.0000000000000000     
   1.0625000000000000       0.28125000000000000        0.0000000000000000     
   1.0937500000000000       0.28125000000000000        0.0000000000000000     
   1.1250000000000000       0.28125000000000000        0.0000000000000000     
   1.0000000000000000       0.31250000000000000        0.0000000000000000     
   1.0312500000000000       0.31250000000000000        0.0000000000000000     
   1.0625000000000000       0.31250000000000000        0.0000000000000000     
   1.0937500000000000       0.31250000000000000        0.0000000000000000     
   1.1250000000000000       0.31250000000000000        0.0000000000000000     
   1.0000000000000000       0.34375000000000000        0.0000000000000000     
   1.0312500000000000       0.34375000000000000        0.0000000000000000     
   1.0625000000000000       0.34375000000000000        0.0000000000000000     
   1.0937500000000000       0.34375000000000000        0.0000000000000000     
   1.1250000000000000       0.34375000000000000        0.0000000000000000     
   1.0000000000000000       0.37500000000000000        0.0000000000000000     
   1.0312500000000000       0.37500000000000000        0.0000000000000000     
   1.0625000000000000       0.37500000000000000        0.0000000000000000     
   1.0937500000000000       0.37500000000000000        0.0000000000000000     
   1.1250000000000000       0.37500000000000000        0.0000000000000000     
   1.1250000000000000       0.25000000000000000        0.0000000000000000     
   1.1562500000000000       0.25000000000000000        0.0000000000000000     
   1.1875000000000000       0.25000000000000000        0.0000000000000000     
   1.2187500000000000       0.25000000000000000        0.0000000000000000     
   1.2500000000000000       0.25000000000000000        0.0000000000000000     
   1.1250000000000000       0.28125000000000000        0.0000000000000000     
   1.1562500000000000       0.28125000000000000        0.0000000000000000     
   1.1875000000000000       0.28125000000000000        0.0000000000000000     
   1.2187500000000000       0.28125000000000000        0.0000000000000000     
   1.2500000000000000       0.28125000000000000        0.0000000000000000     
   1.1250000000000000       0.31250000000000000        0.0000000000000000     
   1.1562500000000000       0.31250000000000000        0.0000000000000000     
   1.1875000000000000       0.31250000000000000        0.0000000000000000     
   1.2187500000000000       0.31250000000000000        0.0000000000000000     
   1.2500000000000000       0.31250000000000000        0.0000000000000000     
   1.1250000000000000       0.34375000000000000        0.0000000000000000     
   1.1562500000000000       0.34375000000000000        0.0000000000000000     
   1.1875000000000000       0.34375000000000000        0.0000000000000000     
   1.2187500000000000       0.34375000000000000        0.0000000000000000     
   1.2500000000000000       0.34375000000000000        0.0000000000000000     
   1.1250000000000000       0.37500000000000000        0.0000000000000000     
   1.1562500000000000       0.37500000000000000        0.0000000000000000     
   1.1875000000000000       0.37500000000000000        0.0000000000000000     
   1.2187500000000000       0.37500000000000000        0.0000000000000000     
   1.2500000000000000       0.37500000000000000        0.0000000000000000     
   1.2500000000000000       0.25000000000000000        0.0000000000000000     
   1.2812500000000000       0.25000000000000000        0.0000000000000000     
   1.3125000000000000       0.25000000000000000        0.0000000000000000     
   1.3437500000000000       0.25000000000000000        0.0000000000000000     
   1.3750000000000000       0.25000000000000000        0.0000000000000000     
   1.2500000000000000       0.28125000000000000        0.0000000000000000     
   1.2812500000000000       0.28125000000000000        0.0000000000000000     
   1.3125000000000000       0.28125000000000000        0.0000000000000000     
   1.3437500000000000       0.28125000000000000        0.0000000000000000     
   1.3750000000000000       0.28125000000000000        0.0000000000000000     
   1.2500000000000000       0.31250000000000000        0.0000000000000000     
   1.2812500000000000       0.31250000000000000        0.0000000000000000     
   1.3125000000000000       0.31250000000000000        0.0000000000000000     
   1.3437500000000000       0.31250000000000000        0.0000000000000000     
   1.3750000000000000       0.31250000000000000        0.0000000000000000     
   1.2500000000000000       0.34375000000000000        0.0000000000000000     
   1.2812500000000000       0.34375000000000000        0.0000000000000000     
   1.3125000000000000       0.34375000000000000        0.0000000000000000     
   1.3437500000000000       0.34375000000000000        0.0000000000000000     
   1.3750000000000000       0.34375000000000000        0.0000000000000000     
   1.2500000000000000       0.37500000000000000        0.0000000000000000     
   1.2812500000000000       0.37500000000000000        0.0000000000000000     
   1.3125000000000000       0.37500000000000000        0.0000000000000000     
   1.3437500000000000       0.37500000000000000        0.0000000000000000     
   1.3750000000000000       0.37500000000000000        0.0000000000000000     
   1.3750000000000000       0.25000000000000000        0.0000000000000000     
   1.4062500000000000       0.25000000000000000        0.0000000000000000     
   1.4375000000000000       0.25000000000000000        0.0000000000000000     
   1.4687500000000000       0.25000000000000000        0.0000000000000000     
   1.5000000000000000       0.25000000000000000        0.0000000000000000     
   1.3750000000000000       0.28125000000000000        0.0000000000000000     
   1.4062500000000000       0.28125000000000000        0.0000000000000000     
   1.4375000000000000       0.28125000000000000        0.0000000000000000     
   1.4687500000000000       0.28125000000000000        0.0000000000000000     
   1.5000000000000000       0.28125000000000000        0.0000000000000000     
   1.3750000000000000       0.31250000000000000        0.0000000000000000     
   1.4062500000000000       0.31250000000000000        0.0000000000000000     
   1.4375000000000000       0.31250000000000000        0.0000000000000000     
   1.4687500000000000       0.31250000000000000        0.0000000000000000     
   1.5000000000000000       0.31250000000000000        0.0000000000000000     
   1.3750000000000000       0.34375000000000000        0.0000000000000000     
   1.4062500000000000       0.34375000000000000        0.0000000000000000     
   1.4375000000000000       0.34375000000000000        0.0000000000000000     
   1.4687500000000000       0.34375000000000000        0.0000000000000000     
   1.5000000000000000       0.34375000000000000        0.0000000000000000     
   1.3750000000000000       0.37500000000000000        0.0000000000000000     
   1.4062500000000000       0.37500000000000000        0.0000000000000000     
   1.4375000000000000       0.37500000000000000        0.0000000000000000     
   1.4687500000000000       0.37500000000000000        0.0000000000000000     
   1.5000000000000000       0.37500000000000000        0.0000000000000000     
  0.50000000000000000       0.37500000000000000        0.0000000000000000     
  0.53125000000000000       0.37500000000000000        0.0000000000000000     
  0.56250000000000000       0.37500000000000000        0.0000000000000000     
  0.59375000000000000       0.37500000000000000        0.0000000000000000     
  0.62500000000000000       0.37500000000000000        0.0000000000000000     
  0.50000000000000000       0.40625000000000000        0.0000000000000000     
  0.53125000000000000       0.40625000000000000        0.0000000000000000     
  0.56250000000000000       0.40625000000000000        0.0000000000000000     
  0.59375000000000000       0.40625000000000000        0.0000000000000000     
  0.62500000000000000       0.40625000000000000        0.0000000000000000     
  0.50000000000000000       0.43750000000000000        0.0000000000000000     
  0.53125000000000000       0.43750000000000000        0.0000000000000000     
  0.56250000000000000       0.43750000000000000        0.0000000000000000     
  0.59375000000000000       0.43750000000000000        0.0000000000000000     
  0.62500000000000000       0.43750000000000000        0.0000000000000000     
  0.50000000000000000       0.46875000000000000        0.0000000000000000     
  0.53125000000000000       0.46875000000000000        0.0000000000000000     
  0.56250000000000000       0.46875000000000000        0.0000000000000000     
  0.59375000000000000       0.46875000000000000        0.0000000000000000     
  0.62500000000000000       0.46875000000000000        0.0000000000000000     
  0.50000000000000000       0.50000000000000000        0.0000000000000000     
  0.53125000000000000       0.50000000000000000        0.0000000000000000     
  0.56250000000000000       0.50000000000000000        0.0000000000000000     
  0.59375000000000000       0.50000000000000000        0.0000000000000000     
  0.62500000000000000       0.50000000000000000        0.0000000000000000     
  0.62500000000000000       0.37500000000000000        0.0000000000000000     
  0.65625000000000000       0.37500000000000000        0.0000000000000000     
  0.68750000000000000       0.37500000000000000        0.0000000000000000     
  0.71875000000000000       0.37500000000000000        0.0000000000000000     
  0.75000000000000000       0.37500000000000000        0.0000000000000000     
  0.62500000000000000       0.40625000000000000        0.0000000000000000     
  0.65625000000000000       0.40625000000000000        0.0000000000000000     
  0.68750000000000000       0.40625000000000000        0.0000000000000000     
  0.71875000000000000       0.40625000000000000        0.0000000000000000     
  0.75000000000000000       0.40625000000000000        0.0000000000000000     
  0.62500000000000000       0.43750000000000000        0.0000000000000000     
  0.65625000000000000       0.43750000000000000        0.0000000000000000     
  0.68750000000000000       0.43750000000000000        0.0000000000000000     
  0.71875000000000000       0.43750000000000000        0.0000000000000000     
  0.75000000000000000       0.43750000000000000        0.0000000000000000     
  0.62500000000000000       0.46875000000000000        0.0000000000000000     
  0.65625000000000000       0.46875000000000000        0.0000000000000000     
  0.68750000000000000       0.46875000000000000        0.0000000000000000     
  0.71875000000000000       0.46875000000000000        0.0000000000000000     
  0.75000000000000000       0.46875000000000000        0.0000000000000000     
  0.62500000000000000       0.50000000000000000        0.0000000000000000     
  0.65625000000000000       0.50000000000000000        0.0000000000000000     
  0.68750000000000000       0.50000000000000000        0.0000000000000000     
  0.71875000000000000       0.50000000000000000        0.0000000000000000     
  0.75000000000000000       0.50000000000000000        0.0000000000000000     
  0.75000000000000000       0.37500000000000000        0.0000000000000000     
  0.78125000000000000       0.37500000000000000        0.0000000000000000     
  0.81250000000000000       0.37500000000000000        0.0000000000000000     
  0.84375000000000000       0.37500000000000000        0.0000000000000000     
  0.87500000000000000       0.37500000000000000        0.0000000000000000     
  0.75000000000000000       0.40625000000000000        0.0000000000000000     
  0.78125000000000000       0.40625000000000000        0.0000000000000000     
  0.81250000000000000       0.40625000000000000        0.0000000000000000     
  0.84375000000000000       0.40625000000000000        0.0000000000000000     
  0.87500000000000000       0.40625000000000000        0.0000000000000000     
  0.75000000000000000       0.43750000000000000        0.0000000000000000     
  0.78125000000000000       0.43750000000000000        0.0000000000000000     
  0.81250000000000000       0.43750000000000000        0.0000000000000000     
  0.84375000000000000       0.43750000000000000        0.0000000000000000     
  0.87500000000000000       0.43750000000000000        0.0000000000000000     
  0.75000000000000000       0.46875000000000000        0.0000000000000000     
  0.78125000000000000       0.46875000000000000        0.0000000000000000     
  0.81250000000000000       0.46875000000000000        0.0000000000000000     
  0.84375000000000000       0.46875000000000000        0.0000000000000000     
  0.87500000000000000       0.46875000000000000        0.0000000000000000     
  0.75000000000000000       0.50000000000000000        0.0000000000000000     
  0.78125000000000000       0.50000000000000000        0.0000000000000000     
  0.81250000000000000       0.50000000000000000        0.0000000000000000     
  0.84375000000000000       0.50000000000000000        0.0000000000000000     
  0.87500000000000000       0.50000000000000000        0.0000000000000000     
  0.87500000000000000       0.37500000000000000        0.0000000000000000     
  0.90625000000000000       0.37500000000000000        0.0000000000000000     
  0.93750000000000000       0.37500000000000000        0.0000000000000000     
  0.96875000000000000       0.37500000000000000        0.0000000000000000     
   1.0000000000000000       0.37500000000000000        0.0000000000000000     
  0.87500000000000000       0.40625000000000000        0.0000000000000000     
  0.90625000000000000       0.40625000000000000        0.0000000000000000     
  0.93750000000000000       0.40625000000000000        0.0000000000000000     
  0.96875000000000000       0.40625000000000000        0.0000000000000000     
   1.0000000000000000       0.40625000000000000        0.0000000000000000     
  0.87500000000000000       0.43750000000000000        0.0000000000000000     
  0.90625000000000000       0.43750000000000000        0.0000000000000000     
  0.93750000000000000       0.43750000000000000        0.0000000000000000     
  0.96875000000000000       0.43750000000000000        0.0000000000000000     
   1.0000000000000000       0.43750000000000000        0.0000000000000000     
  0.87500000000000000       0.46875000000000000        0.0000000000000000     
  0.90625000000000000       0.46875000000000000        0.0000000000000000     
  0.93750000000000000       0.46875000000000000        0.0000000000000000     
  0.96875000000000000       0.46875000000000000        0.0000000000000000     
   1.0000000000000000       0.46875000000000000        0.0000000000000000     
  0.87500000000000000       0.50000000000000000        0.0000000000000000     
  0.90625000000000000       0.50000000000000000        0.0000000000000000     
  0.93750000000000000       0.50000000000000000        0.0000000000000000     
  0.96875000000000000       0.50000000000000000        0.0000000000000000     
   1.0000000000000000       0.50000000000000000        0.0000000000000000     
   1.0000000000000000       0.37500000000000000        0.0000000000000000     
   1.0312500000000000       0.37500000000000000        0.0000000000000000     
   1.0625000000000000       0.37500000000000000        0.0000000000000000     
   1.0937500000000000       0.37500000000000000        0.0000000000000000     
   1.1250000000000000       0.37500000000000000        0.0000000000000000     
   1.0000000000000000       0.40625000000000000        0.0000000000000000     
   1.0312500000000000       0.40625000000000000        0.0000000000000000     
   1.0625000000000000       0.40625000000000000        0.0000000000000000     
   1.0937500000000000       0.40625000000000000        0.0000000000000000     
   1.1250000000000000       0.40625000000000000        0.0000000000000000     
   1.0000000000000000       0.43750000000000000        0.0000000000000000     
   1.0312500000000000       0.43750000000000000        0.0000000000000000     
   1.0625000000000000       0.43750000000000000        0.0000000000000000     
   1.0937500000000000       0.43750000000000000        0.0000000000000000     
   1.1250000000000000       0.43750000000000000        0.0000000000000000     
   1.0000000000000000       0.46875000000000000        0.0000000000000000     
   1.0312500000000000       0.46875000000000000        0.0000000000000000     
   1.0625000000000000       0.46875000000000000        0.0000000000000000     
   1.0937500000000000       0.46875000000000000        0.0000000000000000     
   1.1250000000000000       0.46875000000000000        0.0000000000000000     
   1.0000000000000000       0.50000000000000000        0.0000000000000000     
   1.0312500000000000       0.50000000000000000        0.0000000000000000     
   1.0625000000000000       0.50000000000000000        0.0000000000000000     
   1.0937500000000000       0.50000000000000000        0.0000000000000000     
   1.1250000000000000       0.50000000000000000        0.0000000000000000     
   1.1250000000000000       0.37500000000000000        0.0000000000000000     
   1.1562500000000000       0.37500000000000000        0.0000000000000000     
   1.1875000000000000       0.37500000000000000        0.0000000000000000     
   1.2187500000000000       0.37500000000000000        0.0000000000000000     
   1.2500000000000000       0.37500000000000000        0.0000000000000000     
   1.1250000000000000       0.40625000000000000        0.0000000000000000     
   1.1562500000000000       0.40625000000000000        0.0000000000000000     
   1.1875000000000000       0.40625000000000000        0.0000000000000000     
   1.2187500000000000       0.40625000000000000        0.0000000000000000     
   1.2500000000000000       0.40625000000000000        0.0000000000000000     
   1.1250000000000000       0.43750000000000000        0.0000000000000000     
   1.1562500000000000       0.43750000000000000        0.0000000000000000     
   1.1875000000000000       0.43750000000000000        0.0000000000000000     
   1.2187500000000000       0.43750000000000000        0.0000000000000000     
   1.2500000000000000       0.43750000000000000        0.0000000000000000     
   1.1250000000000000       0.46875000000000000        0.0000000000000000     
   1.1562500000000000       0.46875000000000000        0.0000000000000000     
   1.1875000000000000       0.46875000000000000        0.0000000000000000     
   1.2187500000000000       0.46875000000000000        0.0000000000000000     
   1.2500000000000000       0.46875000000000000        0.0000000000000000     
   1.1250000000000000       0.50000000000000000        0.0000000000000000     
   1.1562500000000000       0.50000000000000000        0.0000000000000000     
   1.1875000000000000       0.50000000000000000        0.0000000000000000     
   1.2187500000000000       0.50000000000000000        0.0000000000000000     
   1.2500000000000000       0.50000000000000000        0.0000000000000000     
   1.2500000000000000       0.37500000000000000        0.0000000000000000     
   1.2812500000000000       0.37500000000000000        0.0000000000000000     
   1.3125000000000000       0.37500000000000000        0.0000000000000000     
   1.3437500000000000       0.37500000000000000        0.0000000000000000     
   1.3750000000000000       0.37500000000000000        0.0000000000000000     
   1.2500000000000000       0.40625000000000000        0.0000000000000000     
   1.2812500000000000       0.40625000000000000        0.0000000000000000     
   1.3125000000000000       0.40625000000000000        0.0000000000000000     
   1.3437500000000000       0.40625000000000000        0.0000000000000000     
   1.3750000000000000       0.40625000000000000        0.0000000000000000     
   1.2500000000000000       0.43750000000000000        0.0000000000000000     
   1.2812500000000000       0.43750000000000000        0.0000000000000000     
   1.3125000000000000       0.43750000000000000        0.0000000000000000     
   1.3437500000000000       0.43750000000000000        0.0000000000000000     
   1.3750000000000000       0.43750000000000000        0.0000000000000000     
   1.2500000000000000       0.46875000000000000        0.0000000000000000     
   1.2812500000000000       0.46875000000000000        0.0000000000000000     
   1.3125000000000000       0.46875000000000000        0.0000000000000000     
   1.3437500000000000       0.46875000000000000        0.0000000000000000     
   1.3750000000000000       0.46875000000000000        0.0000000000000000     
   1.2500000000000000       0.50000000000000000        0.0000000000000000     
   1.2812500000000000       0.50000000000000000        0.0000000000000000     
   1.3125000000000000       0.50000000000000000        0.0000000000000000     
   1.3437500000000000       0.50000000000000000        0.0000000000000000     
   1.3750000000000000       0.50000000000000000        0.0000000000000000     
   1.3750000000000000       0.37500000000000000        0.0000000000000000     
   1.4062500000000000       0.37500000000000000        0.0000000000000000     
   1.4375000000000000       0.37500000000000000        0.0000000000000000     
   1.4687500000000000       0.37500000000000000        0.0000000000000000     
   1.5000000000000000       0.37500000000000000        0.0000000000000000     
   1.3750000000000000       0.40625000000000000        0.0000000000000000     
   1.4062500000000000       0.40625000000000000        0.0000000000000000     
   1.4375000000000000       0.40625000000000000        0.0000000000000000     
   1.4687500000000000       0.40625000000000000        0.0000000000000000     
   1.5000000000000000       0.40625000000000000        0.0000000000000000     
   1.3750000000000000       0.43750000000000000        0.0000000000000000     
   1.4062500000000000       0.43750000000000000        0.0000000000000000     
   1.4375000000000000       0.43750000000000000        0.0000000000000000     
   1.4687500000000000       0.43750000000000000        0.0000000000000000     
   1.5000000000000000       0.43750000000000000        0.0000000000000000     
   1.3750000000000000       0.46875000000000000        0.0000000000000000     
   1.4062500000000000       0.46875000000000000        0.0000000000000000     
   1.4375000000000000       0.46875000000000000        0.0000000000000000     
   1.4687500000000000       0.46875000000000000        0.0000000000000000     
   1.5000000000000000       0.46875000000000000        0.0000000000000000     
   1.3750000000000000       0.50000000000000000        0.0000000000000000     
   1.4062500000000000       0.50000000000000000        0.0000000000000000     
   1.4375000000000000       0.50000000000000000        0.0000000000000000     
   1.4687500000000000       0.50000000000000000        0.0000000000000000     
   1.5000000000000000       0.50000000000000000        0.0000000000000000     
  0.50000000000000000       0.50000000000000000        0.0000000000000000     
  0.53125000000000000       0.50000000000000000        0.0000000000000000     
  0.56250000000000000       0.50000000000000000        0.0000000000000000     
  0.59375000000000000       0.50000000000000000        0.0000000000000000     
  0.62500000000000000       0.50000000000000000        0.0000000000000000     
  0.50000000000000000       0.53125000000000000        0.0000000000000000     
  0.53125000000000000       0.53125000000000000        0.0000000000000000     
  0.56250000000000000       0.53125000000000000        0.0000000000000000     
  0.59375000000000000       0.53125000000000000        0.0000000000000000     
  0.62500000000000000       0.53125000000000000        0.0000000000000000     
  0.50000000000000000       0.56250000000000000        0.0000000000000000     
  0.53125000000000000       0.56250000000000000        0.0000000000000000     
  0.56250000000000000       0.56250000000000000        0.0000000000000000     
  0.59375000000000000       0.56250000000000000        0.0000000000000000     
  0.62500000000000000       0.56250000000000000        0.0000000000000000     
  0.50000000000000000       0.59375000000000000        0.0000000000000000     
  0.53125000000000000       0.59375000000000000        0.0000000000000000     
  0.56250000000000000       0.59375000000000000        0.0000000000000000     
  0.59375000000000000       0.59375000000000000        0.0000000000000000     
  0.62500000000000000       0.59375000000000000        0.0000000000000000     
  0.50000000000000000       0.62500000000000000        0.0000000000000000     
  0.53125000000000000       0.62500000000000000        0.0000000000000000     
  0.56250000000000000       0.62500000000000000        0.0000000000000000     
  0.59375000000000000       0.62500000000000000        0.0000000000000000     
  0.62500000000000000       0.62500000000000000        0.0000000000000000     
  0.62500000000000000       0.50000000000000000        0.0000000000000000     
  0.65625000000000000       0.50000000000000000        0.0000000000000000     
  0.68750000000000000       0.50000000000000000        0.0000000000000000     
  0.71875000000000000       0.50000000000000000        0.0000000000000000     
  0.75000000000000000       0.50000000000000000        0.0000000000000000     
  0.62500000000000000       0.53125000000000000        0.0000000000000000     
  0.65625000000000000       0.53125000000000000        0.0000000000000000     
  0.68750000000000000       0.53125000000000000        0.0000000000000000     
  0.71875000000000000       0.53125000000000000        0.0000000000000000     
  0.75000000000000000       0.53125000000000000        0.0000000000000000     
  0.62500000000000000       0.56250000000000000        0.0000000000000000     
  0.65625000000000000       0.56250000000000000        0.0000000000000000     
  0.68750000000000000       0.56250000000000000        0.0000000000000000     
  0.71875000000000000       0.56250000000000000        0.0000000000000000     
  0.75000000000000000       0.56250000000000000        0.0000000000000000     
  0.62500000000000000       0.59375000000000000        0.0000000000000000     
  0.65625000000000000       0.59375000000000000        0.0000000000000000     
  0.68750000000000000       0.59375000000000000        0.0000000000000000     
  0.71875000000000000       0.59375000000000000        0.0000000000000000     
  0.75000000000000000       0.59375000000000000        0.0000000000000000     
  0.62500000000000000       0.62500000000000000        0.0000000000000000     
  0.65625000000000000       0.62500000000000000        0.0000000000000000     
  0.68750000000000000       0.62500000000000000        0.0000000000000000     
  0.71875000000000000       0.62500000000000000        0.0000000000000000     
  0.75000000000000000       0.62500000000000000        0.0000000000000000     
  0.75000000000000000       0.50000000000000000        0.0000000000000000     
  0.78125000000000000       0.50000000000000000        0.0000000000000000     
  0.81250000000000000       0.50000000000000000        0.0000000000000000     
  0.84375000000000000       0.50000000000000000        0.0000000000000000     
  0.87500000000000000       0.50000000000000000        0.0000000000000000     
  0.75000000000000000       0.53125000000000000        0.0000000000000000     
  0.78125000000000000       0.53125000000000000        0.0000000000000000     
  0.81250000000000000       0.53125000000000000        0.0000000000000000     
  0.84375000000000000       0.53125000000000000        0.0000000000000000     
  0.87500000000000000       0.53125000000000000        0.0000000000000000     
  0.75000000000000000       0.56250000000000000        0.0000000000000000     
  0.78125000000000000       0.56250000000000000        0.0000000000000000     
  0.81250000000000000       0.56250000000000000        0.0000000000000000     
  0.84375000000000000       0.56250000000000000        0.0000000000000000     
  0.87500000000000000       0.56250000000000000        0.0000000000000000     
  0.75000000000000000       0.59375000000000000        0.0000000000000000     
  0.78125000000000000       0.59375000000000000        0.0000000000000000     
  0.81250000000000000       0.59375000000000000        0.0000000000000000     
  0.84375000000000000       0.59375000000000000        0.0000000000000000     
  0.87500000000000000       0.59375000000000000        0.0000000000000000     
  0.75000000000000000       0.62500000000000000        0.0000000000000000     
  0.78125000000000000       0.62500000000000000        0.0000000000000000     
  0.81250000000000000       0.62500000000000000        0.0000000000000000     
  0.84375000000000000       0.62500000000000000        0.0000000000000000     
  0.87500000000000000       0.62500000000000000        0.0000000000000000     
  0.87500000000000000       0.50000000000000000        0.0000000000000000     
  0.90625000000000000       0.50000000000000000        0.0000000000000000     
  0.93750000000000000       0.50000000000000000        0.0000000000000000     
  0.96875000000000000       0.50000000000000000        0.0000000000000000     
   1.0000000000000000       0.50000000000000000        0.0000000000000000     
  0.87500000000000000       0.53125000000000000        0.0000000000000000     
  0.90625000000000000       0.53125000000000000        0.0000000000000000     
  0.93750000000000000       0.53125000000000000        0.0000000000000000     
  0.96875000000000000       0.53125000000000000        0.0000000000000000     
   1.0000000000000000       0.53125000000000000        0.0000000000000000     
  0.87500000000000000       0.56250000000000000        0.0000000000000000     
  0.90625000000000000       0.56250000000000000        0.0000000000000000     
  0.93750000000000000       0.56250000000000000        0.0000000000000000     
  0.96875000000000000       0.56250000000000000        0.0000000000000000     
   1.0000000000000000       0.56250000000000000        0.0000000000000000     
  0.87500000000000000       0.59375000000000000        0.0000000000000000     
  0.90625000000000000       0.59375000000000000        0.0000000000000000     
  0.93750000000000000       0.59375000000000000        0.0000000000000000     
  0.96875000000000000       0.59375000000000000        0.0000000000000000     
   1.0000000000000000       0.59375000000000000        0.0000000000000000     
  0.87500000000000000       0.62500000000000000        0.0000000000000000     
  0.90625000000000000       0.62500000000000000        0.0000000000000000     
  0.93750000000000000       0.62500000000000000        0.0000000000000000     
  0.96875000000000000       0.62500000000000000        0.0000000000000000     
   1.0000000000000000       0.62500000000000000        0.0000000000000000     
   1.0000000000000000       0.50000000000000000        0.0000000000000000     
   1.0312500000000000       0.50000000000000000        0.0000000000000000     
   1.0625000000000000       0.50000000000000000        0.0000000000000000     
   1.0937500000000000       0.50000000000000000        0.0000000000000000     
   1.1250000000000000       0.50000000000000000        0.0000000000000000     
   1.0000000000000000       0.53125000000000000        0.0000000000000000     
   1.0312500000000000       0.53125000000000000        0.0000000000000000     
   1.0625000000000000       0.53125000000000000        0.0000000000000000     
   1.0937500000000000       0.53125000000000000        0.0000000000000000     
   1.1250000000000000       0.53125000000000000        0.0000000000000000     
   1.0000000000000000       0.56250000000000000        0.0000000000000000     
   1.0312500000000000       0.56250000000000000        0.0000000000000000     
   1.0625000000000000       0.56250000000000000        0.0000000000000000     
   1.0937500000000000       0.56250000000000000        0.0000000000000000     
   1.1250000000000000       0.56250000000000000        0.0000000000000000     
   1.0000000000000000       0.59375000000000000        0.0000000000000000     
   1.0312500000000000       0.59375000000000000        0.0000000000000000     
   1.0625000000000000       0.59375000000000000        0.0000000000000000     
   1.0937500000000000       0.59375000000000000        0.0000000000000000     
   1.1250000000000000       0.59375000000000000        0.0000000000000000     
   1.0000000000000000       0.62500000000000000        0.0000000000000000     
   1.0312500000000000       0.62500000000000000        0.0000000000000000     
   1.0625000000000000       0.62500000000000000        0.0000000000000000     
   1.0937500000000000       0.62500000000000000        0.0000000000000000     
   1.1250000000000000       0.62500000000000000        0.0000000000000000     
   1.1250000000000000       0.50000000000000000        0.0000000000000000     
   1.1562500000000000       0.50000000000000000        0.0000000000000000     
   1.1875000000000000       0.50000000000000000        0.0000000000000000     
   1.2187500000000000       0.50000000000000000        0.0000000000000000     
   1.2500000000000000       0.50000000000000000        0.0000000000000000     
   1.1250000000000000       0.53125000000000000        0.0000000000000000     
   1.1562500000000000       0.53125000000000000        0.0000000000000000     
   1.1875000000000000       0.53125000000000000        0.0000000000000000     
   1.2187500000000000       0.53125000000000000        0.0000000000000000     
   1.2500000000000000       0.53125000000000000        0.0000000000000000     
   1.1250000000000000       0.56250000000000000        0.0000000000000000     
   1.1562500000000000       0.56250000000000000        0.0000000000000000     
   1.1875000000000000       0.56250000000000000        0.0000000000000000     
   1.2187500000000000       0.56250000000000000        0.0000000000000000     
   1.2500000000000000       0.56250000000000000        0.0000000000000000     
   1.1250000000000000       0.59375000000000000        0.0000000000000000     
   1.1562500000000000       0.59375000000000000        0.0000000000000000     
   1.1875000000000000       0.59375000000000000        0.0000000000000000     
   1.2187500000000000       0.59375000000000000        0.0000000000000000     
   1.2500000000000000       0.59375000000000000        0.0000000000000000     
   1.1250000000000000       0.62500000000000000        0.0000000000000000     
   1.1562500000000000       0.62500000000000000        0.0000000000000000     
   1.1875000000000000       0.62500000000000000        0.0000000000000000     
   1.2187500000000000       0.62500000000000000        0.0000000000000000     
   1.2500000000000000       0.62500000000000000        0.0000000000000000     
   1.2500000000000000       0.50000000000000000        0.0000000000000000     
   1.2812500000000000       0.50000000000000000        0.0000000000000000     
   1.3125000000000000       0.50000000000000000        0.0000000000000000     
   1.3437500000000000       0.50000000000000000        0.0000000000000000     
   1.3750000000000000       0.50000000000000000        0.0000000000000000     
   1.2500000000000000       0.53125000000000000        0.0000000000000000     
   1.2812500000000000       0.53125000000000000        0.0000000000000000     
   1.3125000000000000       0.53125000000000000        0.0000000000000000     
   1.3437500000000000       0.53125000000000000        0.0000000000000000     
   1.3750000000000000       0.53125000000000000        0.0000000000000000     
   1.2500000000000000       0.56250000000000000        0.0000000000000000     
   1.2812500000000000       0.56250000000000000        0.0000000000000000     
   1.3125000000000000       0.56250000000000000        0.0000000000000000     
   1.3437500000000000       0.56250000000000000        0.0000000000000000     
   1.3750000000000000       0.56250000000000000        0.0000000000000000     
   1.2500000000000000       0.59375000000000000        0.0000000000000000     
   1.2812500000000000       0.59375000000000000        0.0000000000000000     
   1.3125000000000000       0.59375000000000000        0.0000000000000000     
   1.3437500000000000       0.59375000000000000        0.0000000000000000     
   1.3750000000000000       0.59375000000000000        0.0000000000000000     
   1.2500000000000000       0.62500000000000000        0.0000000000000000     
   1.2812500000000000       0.62500000000000000        0.0000000000000000     
   1.3125000000000000       0.62500000000000000        0.0000000000000000     
   1.3437500000000000       0.62500000000000000        0.0000000000000000     
   1.3750000000000000       0.62500000000000000        0.0000000000000000     
   1.3750000000000000       0.50000000000000000        0.0000000000000000     
   1.4062500000000000       0.50000000000000000        0.0000000000000000     
   1.4375000000000000       0.50000000000000000        0.0000000000000000     
   1.4687500000000000       0.50000000000000000        0.0000000000000000     
   1.5000000000000000       0.50000000000000000        0.0000000000000000     
   1.3750000000000000       0.53125000000000000        0.0000000000000000     
   1.4062500000000000       0.53125000000000000        0.0000000000000000     
   1.4375000000000000       0.53125000000000000        0.0000000000000000     
   1.4687500000000000       0.53125000000000000        0.0000000000000000     
   1.5000000000000000       0.53125000000000000        0.0000000000000000     
   1.3750000000000000       0.56250000000000000        0.0000000000000000     
   1.4062500000000000       0.56250000000000000        0.0000000000000000     
   1.4375000000000000       0.56250000000000000        0.0000000000000000     
   1.4687500000000000       0.56250000000000000        0.0000000000000000     
   1.5000000000000000       0.56250000000000000        0.0000000000000000     
   1.3750000000000000       0.59375000000000000        0.0000000000000000     
   1.4062500000000000       0.59375000000000000        0.0000000000000000     
   1.4375000000000000       0.59375000000000000        0.0000000000000000     
   1.4687500000000000       0.59375000000000000        0.0000000000000000     
   1.5000000000000000       0.59375000000000000        0.0000000000000000     
   1.3750000000000000       0.62500000000000000        0.0000000000000000     
   1.4062500000000000       0.62500000000000000        0.0000000000000000     
   1.4375000000000000       0.62500000000000000        0.0000000000000000     
   1.4687500000000000       0.62500000000000000        0.0000000000000000     
   1.5000000000000000       0.62500000000000000        0.0000000000000000     
  0.50000000000000000       0.62500000000000000        0.0000000000000000     
  0.53125000000000000       0.62500000000000000        0.0000000000000000     
  0.56250000000000000       0.62500000000000000        0.0000000000000000     
  0.59375000000000000       0.62500000000000000        0.0000000000000000     
  0.62500000000000000       0.62500000000000000        0.0000000000000000     
  0.50000000000000000       0.65625000000000000        0.0000000000000000     
  0.53125000000000000       0.65625000000000000        0.0000000000000000     
  0.56250000000000000       0.65625000000000000        0.0000000000000000     
  0.59375000000000000       0.65625000000000000        0.0000000000000000     
  0.62500000000000000       0.65625000000000000        0.0000000000000000     
  0.50000000000000000       0.68750000000000000        0.0000000000000000     
  0.53125000000000000       0.68750000000000000        0.0000000000000000     
  0.56250000000000000       0.68750000000000000        0.0000000000000000     
  0.59375000000000000       0.68750000000000000        0.0000000000000000     
  0.62500000000000000       0.68750000000000000        0.0000000000000000     
  0.50000000000000000       0.71875000000000000        0.0000000000000000     
  0.53125000000000000       0.71875000000000000        0.0000000000000000     
  0.56250000000000000       0.71875000000000000        0.0000000000000000     
  0.59375000000000000       0.71875000000000000        0.0000000000000000     
  0.62500000000000000       0.71875000000000000        0.0000000000000000     
  0.50000000000000000       0.75000000000000000        0.0000000000000000     
  0.53125000000000000       0.75000000000000000        0.0000000000000000     
  0.56250000000000000       0.75000000000000000        0.0000000000000000     
  0.59375000000000000       0.75000000000000000        0.0000000000000000     
  0.62500000000000000       0.75000000000000000        0.0000000000000000     
  0.62500000000000000       0.62500000000000000        0.0000000000000000     
  0.65625000000000000       0.62500000000000000        0.0000000000000000     
  0.68750000000000000       0.62500000000000000        0.0000000000000000     
  0.71875000000000000       0.62500000000000000        0.0000000000000000     
  0.75000000000000000       0.62500000000000000        0.0000000000000000     
  0.62500000000000000       0.65625000000000000        0.0000000000000000     
  0.65625000000000000       0.65625000000000000        0.0000000000000000     
  0.68750000000000000       0.65625000000000000        0.0000000000000000     
  0.71875000000000000       0.65625000000000000        0.0000000000000000     
  0.75000000000000000       0.65625000000000000        0.0000000000000000     
  0.62500000000000000       0.68750000000000000        0.0000000000000000     
  0.65625000000000000       0.68750000000000000        0.0000000000000000     
  0.68750000000000000       0.68750000000000000        0.0000000000000000     
  0.71875000000000000       0.68750000000000000        0.0000000000000000     
  0.75000000000000000       0.68750000000000000        0.0000000000000000     
  0.62500000000000000       0.71875000000000000        0.0000000000000000     
  0.65625000000000000       0.71875000000000000        0.0000000000000000     
  0.68750000000000000       0.71875000000000000        0.0000000000000000     
  0.71875000000000000       0.71875000000000000        0.0000000000000000     
  0.75000000000000000       0.71875000000000000        0.0000000000000000     
  0.62500000000000000       0.75000000000000000        0.0000000000000000     
  0.65625000000000000       0.75000000000000000        0.0000000000000000     
  0.68750000000000000       0.75000000000000000        0.0000000000000000     
  0.71875000000000000       0.75000000000000000        0.0000000000000000     
  0.75000000000000000       0.75000000000000000        0.0000000000000000     
  0.75000000000000000       0.62500000000000000        0.0000000000000000     
  0.78125000000000000       0.62500000000000000        0.0000000000000000     
  0.81250000000000000       0.62500000000000000        0.0000000000000000     
  0.84375000000000000       0.62500000000000000        0.0000000000000000     
  0.87500000000000000       0.62500000000000000        0.0000000000000000     
  0.75000000000000000       0.65625000000000000        0.0000000000000000     
  0.78125000000000000       0.65625000000000000        0.0000000000000000     
  0.81250000000000000       0.65625000000000000        0.0000000000000000     
  0.84375000000000000       0.65625000000000000        0.0000000000000000     
  0.87500000000000000       0.65625000000000000        0.0000000000000000     
  0.75000000000000000       0.68750000000000000        0.0000000000000000     
  0.78125000000000000       0.68750000000000000        0.0000000000000000     
  0.81250000000000000       0.68750000000000000        0.0000000000000000     
  0.84375000000000000       0.68750000000000000        0.0000000000000000     
  0.87500000000000000       0.68750000000000000        0.0000000000000000     
  0.75000000000000000       0.71875000000000000        0.0000000000000000     
  0.78125000000000000       0.71875000000000000        0.0000000000000000     
  0.81250000000000000       0.71875000000000000        0.0000000000000000     
  0.84375000000000000       0.71875000000000000        0.0000000000000000     
  0.87500000000000000       0.71875000000000000        0.0000000000000000     
  0.75000000000000000       0.75000000000000000        0.0000000000000000     
  0.78125000000000000       0.75000000000000000        0.0000000000000000     
  0.81250000000000000       0.75000000000000000        0.0000000000000000     
  0.84375000000000000       0.75000000000000000        0.0000000000000000     
  0.87500000000000000       0.75000000000000000        0.0000000000000000     
  0.87500000000000000       0.62500000000000000        0.0000000000000000     
  0.90625000000000000       0.62500000000000000        0.0000000000000000     
  0.93750000000000000       0.62500000000000000        0.0000000000000000     
  0.96875000000000000       0.62500000000000000        0.0000000000000000     
   1.0000000000000000       0.62500000000000000        0.0000000000000000     
  0.87500000000000000       0.65625000000000000        0.0000000000000000     
  0.90625000000000000       0.65625000000000000        0.0000000000000000     
  0.93750000000000000       0.65625000000000000        0.0000000000000000     
  0.96875000000000000       0.65625000000000000        0.0000000000000000     
   1.0000000000000000       0.65625000000000000        0.0000000000000000     
  0.87500000000000000       0.68750000000000000        0.0000000000000000     
  0.90625000000000000       0.68750000000000000        0.0000000000000000     
  0.93750000000000000       0.68750000000000000        0.0000000000000000     
  0.96875000000000000       0.68750000000000000        0.0000000000000000     
   1.0000000000000000       0.68750000000000000        0.0000000000000000     
  0.87500000000000000       0.71875000000000000        0.0000000000000000     
  0.90625000000000000       0.71875000000000000        0.0000000000000000     
  0.93750000000000000       0.71875000000000000        0.0000000000000000     
  0.96875000000000000       0.71875000000000000        0.0000000000000000     
   1.0000000000000000       0.71875000000000000        0.0000000000000000     
  0.87500000000000000       0.75000000000000000        0.0000000000000000     
  0.90625000000000000       0.75000000000000000        0.0000000000000000     
  0.93750000000000000       0.75000000000000000        0.0000000000000000     
  0.96875000000000000       0.75000000000000000        0.0000000000000000     
   1.0000000000000000       0.75000000000000000        0.0000000000000000     
   1.0000000000000000       0.62500000000000000        0.0000000000000000     
   1.0312500000000000       0.62500000000000000        0.0000000000000000     
   1.0625000000000000       0.62500000000000000        0.0000000000000000     
   1.0937500000000000       0.62500000000000000        0.0000000000000000     
   1.1250000000000000       0.62500000000000000        0.0000000000000000     
   1.0000000000000000       0.65625000000000000        0.0000000000000000     
   1.0312500000000000       0.65625000000000000        0.0000000000000000     
   1.0625000000000000       0.65625000000000000        0.0000000000000000     
   1.0937500000000000       0.65625000000000000        0.0000000000000000     
   1.1250000000000000       0.65625000000000000        0.0000000000000000     
   1.0000000000000000       0.68750000000000000        0.0000000000000000     
   1.0312500000000000       0.68750000000000000        0.0000000000000000     
   1.0625000000000000       0.68750000000000000        0.0000000000000000     
   1.0937500000000000       0.68750000000000000        0.0000000000000000     
   1.1250000000000000       0.68750000000000000        0.0000000000000000     
   1.0000000000000000       0.71875000000000000        0.0000000000000000     
   1.0312500000000000       0.71875000000000000        0.0000000000000000     
   1.0625000000000000       0.71875000000000000        0.0000000000000000     
   1.0937500000000000       0.71875000000000000        0.0000000000000000     
   1.1250000000000000       0.71875000000000000        0.0000000000000000     
   1.0000000000000000       0.75000000000000000        0.0000000000000000     
   1.0312500000000000       0.75000000000000000        0.0000000000000000     
   1.0625000000000000       0.75000000000000000        0.0000000000000000     
   1.0937500000000000       0.75000000000000000        0.0000000000000000     
   1.1250000000000000       0.75000000000000000        0.0000000000000000     
   1.1250000000000000       0.62500000000000000        0.0000000000000000     
   1.1562500000000000       0.62500000000000000        0.0000000000000000     
   1.1875000000000000       0.62500000000000000        0.0000000000000000     
   1.2187500000000000       0.62500000000000000        0.0000000000000000     
   1.2500000000000000       0.62500000000000000        0.0000000000000000     
   1.1250000000000000       0.65625000000000000        0.0000000000000000     
   1.1562500000000000       0.65625000000000000        0.0000000000000000     
   1.1875000000000000       0.65625000000000000        0.0000000000000000     
   1.2187500000000000       0.65625000000000000        0.0000000000000000     
   1.2500000000000000       0.65625000000000000        0.0000000000000000     
   1.1250000000000000       0.68750000000000000        0.0000000000000000     
   1.1562500000000000       0.68750000000000000        0.0000000000000000     
   1.1875000000000000       0.68750000000000000        0.0000000000000000     
   1.2187500000000000       0.68750000000000000        0.0000000000000000     
   1.2500000000000000       0.68750000000000000        0.0000000000000000     
   1.1250000000000000       0.71875000000000000        0.0000000000000000     
   1.1562500000000000       0.71875000000000000        0.0000000000000000     
   1.1875000000000000       0.71875000000000000        0.0000000000000000     
   1.2187500000000000       0.71875000000000000        0.0000000000000000     
   1.2500000000000000       0.71875000000000000        0.0000000000000000     
   1.1250000000000000       0.75000000000000000        0.0000000000000000     
   1.1562500000000000       0.75000000000000000        0.0000000000000000     
   1.1875000000000000       0.75000000000000000        0.0000000000000000     
   1.2187500000000000       0.75000000000000000        0.0000000000000000     
   1.2500000000000000       0.75000000000000000        0.0000000000000000     
   1.2500000000000000       0.62500000000000000        0.0000000000000000     
   1.2812500000000000       0.62500000000000000        0.0000000000000000     
   1.3125000000000000       0.62500000000000000        0.0000000000000000     
   1.3437500000000000       0.62500000000000000        0.0000000000000000     
   1.3750000000000000       0.62500000000000000        0.0000000000000000     
   1.2500000000000000       0.65625000000000000        0.0000000000000000     
   1.2812500000000000       0.65625000000000000        0.0000000000000000     
   1.3125000000000000       0.65625000000000000        0.0000000000000000     
   1.3437500000000000       0.65625000000000000        0.0000000000000000     
   1.3750000000000000       0.65625000000000000        0.0000000000000000     
   1.2500000000000000       0.68750000000000000        0.0000000000000000     
   1.2812500000000000       0.68750000000000000        0.0000000000000000     
   1.3125000000000000       0.68750000000000000        0.0000000000000000     
   1.3437500000000000       0.68750000000000000        0.0000000000000000     
   1.3750000000000000       0.68750000000000000        0.0000000000000000     
   1.2500000000000000       0.71875000000000000        0.0000000000000000     
   1.2812500000000000       0.71875000000000000        0.0000000000000000     
   1.3125000000000000       0.71875000000000000        0.0000000000000000     
   1.3437500000000000       0.71875000000000000        0.0000000000000000     
   1.3750000000000000       0.71875000000000000        0.0000000000000000     
   1.2500000000000000       0.75000000000000000        0.0000000000000000     
   1.2812500000000000       0.75000000000000000        0.0000000000000000     
   1.3125000000000000       0.75000000000000000        0.0000000000000000     
   1.3437500000000000       0.75000000000000000        0.0000000000000000     
   1.3750000000000000       0.75000000000000000        0.0000000000000000     
   1.3750000000000000       0.62500000000000000        0.0000000000000000     
   1.4062500000000000       0.62500000000000000        0.0000000000000000     
   1.4375000000000000       0.62500000000000000        0.0000000000000000     
   1.4687500000000000       0.62500000000000000        0.0000000000000000     
   1.5000000000000000       0.62500000000000000        0.0000000000000000     
   1.3750000000000000       0.65625000000000000        0.0000000000000000     
   1.4062500000000000       0.65625000000000000        0.0000000000000000     
   1.4375000000000000       0.65625000000000000        0.0000000000000000     
   1.4687500000000000       0.65625000000000000        0.0000000000000000     
   1.5000000000000000       0.65625000000000000        0.0000000000000000     
   1.3750000000000000       0.68750000000000000        0.0000000000000000     
   1.4062500000000000       0.68750000000000000        0.0000000000000000     
   1.4375000000000000       0.68750000000000000        0.0000000000000000     
   1.4687500000000000       0.68750000000000000        0.0000000000000000     
   1.5000000000000000       0.68750000000000000        0.0000000000000000     
   1.3750000000000000       0.71875000000000000        0.0000000000000000     
   1.4062500000000000       0.71875000000000000        0.0000000000000000     
   1.4375000000000000       0.71875000000000000        0.0000000000000000     
   1.4687500000000000       0.71875000000000000        0.0000000000000000     
   1.5000000000000000       0.71875000000000000        0.0000000000000000     
   1.3750000000000000       0.75000000000000000        0.0000000000000000     
   1.4062500000000000       0.75000000000000000        0.0000000000000000     
   1.4375000000000000       0.75000000000000000        0.0000000000000000     
   1.4687500000000000       0.75000000000000000        0.0000000000000000     
   1.5000000000000000       0.75000000000000000        0.0000000000000000     
  0.50000000000000000       0.75000000000000000        0.0000000000000000     
  0.53125000000000000       0.75000000000000000        0.0000000000000000     
  0.56250000000000000       0.75000000000000000        0.0000000000000000     
  0.59375000000000000       0.75000000000000000        0.0000000000000000     
  0.62500000000000000       0.75000000000000000        0.0000000000000000     
  0.50000000000000000       0.78125000000000000        0.0000000000000000     
  0.53125000000000000       0.78125000000000000        0.0000000000000000     
  0.56250000000000000       0.78125000000000000        0.0000000000000000     
  0.59375000000000000       0.78125000000000000        0.0000000000000000     
  0.62500000000000000       0.78125000000000000        0.0000000000000000     
  0.50000000000000000       0.81250000000000000        0.0000000000000000     
  0.53125000000000000       0.81250000000000000        0.0000000000000000     
  0.56250000000000000       0.81250000000000000        0.0000000000000000     
  0.59375000000000000       0.81250000000000000        0.0000000000000000     
  0.62500000000000000       0.81250000000000000        0.0000000000000000     
  0.50000000000000000       0.84375000000000000        0.0000000000000000     
  0.53125000000000000       0.84375000000000000        0.0000000000000000     
  0.56250000000000000       0.84375000000000000        0.0000000000000000     
  0.59375000000000000       0.84375000000000000        0.0000000000000000     
  0.62500000000000000       0.84375000000000000        0.0000000000000000     
  0.50000000000000000       0.87500000000000000        0.0000000000000000     
  0.53125000000000000       0.87500000000000000        0.0000000000000000     
  0.56250000000000000       0.87500000000000000        0.0000000000000000     
  0.59375000000000000       0.87500000000000000        0.0000000000000000     
  0.62500000000000000       0.87500000000000000        0.0000000000000000     
  0.62500000000000000       0.75000000000000000        0.0000000000000000     
  0.65625000000000000       0.75000000000000000        0.0000000000000000     
  0.68750000000000000       0.75000000000000000        0.0000000000000000     
  0.71875000000000000       0.75000000000000000        0.0000000000000000     
  0.75000000000000000       0.75000000000000000        0.0000000000000000     
  0.62500000000000000       0.78125000000000000        0.0000000000000000     
  0.65625000000000000       0.78125000000000000        0.0000000000000000     
  0.68750000000000000       0.78125000000000000        0.0000000000000000     
  0.71875000000000000       0.78125000000000000        0.0000000000000000     
  0.75000000000000000       0.78125000000000000        0.0000000000000000     
  0.62500000000000000       0.81250000000000000        0.0000000000000000     
  0.65625000000000000       0.81250000000000000        0.0000000000000000     
  0.68750000000000000       0.81250000000000000        0.0000000000000000     
  0.71875000000000000       0.81250000000000000        0.0000000000000000     
  0.75000000000000000       0.81250000000000000        0.0000000000000000     
  0.62500000000000000       0.84375000000000000        0.0000000000000000     
  0.65625000000000000       0.84375000000000000        0.0000000000000000     
  0.68750000000000000       0.84375000000000000        0.0000000000000000     
  0.71875000000000000       0.84375000000000000        0.0000000000000000     
  0.75000000000000000       0.84375000000000000        0.0000000000000000     
  0.62500000000000000       0.87500000000000000        0.0000000000000000     
  0.65625000000000000       0.87500000000000000        0.0000000000000000     
  0.68750000000000000       0.87500000000000000        0.0000000000000000     
  0.71875000000000000       0.87500000000000000        0.0000000000000000     
  0.75000000000000000       0.87500000000000000        0.0000000000000000     
  0.75000000000000000       0.75000000000000000        0.0000000000000000     
  0.78125000000000000       0.75000000000000000        0.0000000000000000     
  0.81250000000000000       0.75000000000000000        0.0000000000000000     
  0.84375000000000000       0.75000000000000000        0.0000000000000000     
  0.87500000000000000       0.75000000000000000        0.0000000000000000     
  0.75000000000000000       0.78125000000000000        0.0000000000000000     
  0.78125000000000000       0.78125000000000000        0.0000000000000000     
  0.81250000000000000       0.78125000000000000        0.0000000000000000     
  0.84375000000000000       0.78125000000000000        0.0000000000000000     
  0.87500000000000000       0.78125000000000000        0.0000000000000000     
  0.75000000000000000       0.81250000000000000        0.0000000000000000     
  0.78125000000000000       0.81250000000000000        0.0000000000000000     
  0.81250000000000000       0.81250000000000000        0.0000000000000000     
  0.84375000000000000       0.81250000000000000        0.0000000000000000     
  0.87500000000000000       0.81250000000000000        0.0000000000000000     
  0.75000000000000000       0.84375000000000000        0.0000000000000000     
  0.78125000000000000       0.84375000000000000        0.0000000000000000     
  0.81250000000000000       0.84375000000000000        0.0000000000000000     
  0.84375000000000000       0.84375000000000000        0.0000000000000000     
  0.87500000000000000       0.84375000000000000        0.0000000000000000     
  0.75000000000000000       0.87500000000000000        0.0000000000000000     
  0.78125000000000000       0.87500000000000000        0.0000000000000000     
  0.81250000000000000       0.87500000000000000        0.0000000000000000     
  0.84375000000000000       0.87500000000000000        0.0000000000000000     
  0.87500000000000000       0.87500000000000000        0.0000000000000000     
  0.87500000000000000       0.75000000000000000        0.0000000000000000     
  0.90625000000000000       0.75000000000000000        0.0000000000000000     
  0.93750000000000000       0.75000000000000000        0.0000000000000000     
  0.96875000000000000       0.75000000000000000        0.0000000000000000     
   1.0000000000000000       0.75000000000000000        0.0000000000000000     
  0.87500000000000000       0.78125000000000000        0.0000000000000000     
  0.90625000000000000       0.78125000000000000        0.0000000000000000     
  0.93750000000000000       0.78125000000000000        0.0000000000000000     
  0.96875000000000000       0.78125000000000000        0.0000000000000000     
   1.0000000000000000       0.78125000000000000        0.0000000000000000     
  0.87500000000000000       0.81250000000000000        0.0000000000000000     
  0.90625000000000000       0.81250000000000000        0.0000000000000000     
  0.93750000000000000       0.81250000000000000        0.0000000000000000     
  0.96875000000000000       0.81250000000000000        0.0000000000000000     
   1.0000000000000000       0.81250000000000000        0.0000000000000000     
  0.87500000000000000       0.84375000000000000        0.0000000000000000     
  0.90625000000000000       0.84375000000000000        0.0000000000000000     
  0.93750000000000000       0.84375000000000000        0.0000000000000000     
  0.96875000000000000       0.84375000000000000        0.0000000000000000     
   1.0000000000000000       0.84375000000000000        0.0000000000000000     
  0.87500000000000000       0.87500000000000000        0.0000000000000000     
  0.90625000000000000       0.87500000000000000        0.0000000000000000     
  0.93750000000000000       0.87500000000000000        0.0000000000000000     
  0.96875000000000000       0.87500000000000000        0.0000000000000000     
   1.0000000000000000       0.87500000000000000        0.0000000000000000     
   1.0000000000000000       0.75000000000000000        0.0000000000000000     
   1.0312500000000000       0.75000000000000000        0.0000000000000000     
   1.0625000000000000       0.75000000000000000        0.0000000000000000     
   1.0937500000000000       0.75000000000000000        0.0000000000000000     
   1.1250000000000000       0.75000000000000000        0.0000000000000000     
   1.0000000000000000       0.78125000000000000        0.0000000000000000     
   1.0312500000000000       0.78125000000000000        0.0000000000000000     
   1.0625000000000000       0.78125000000000000        0.0000000000000000     
   1.0937500000000000       0.78125000000000000        0.0000000000000000     
   1.1250000000000000       0.78125000000000000        0.0000000000000000     
   1.0000000000000000       0.81250000000000000        0.0000000000000000     
   1.0312500000000000       0.81250000000000000        0.0000000000000000     
   1.0625000000000000       0.81250000000000000        0.0000000000000000     
   1.0937500000000000       0.81250000000000000        0.0000000000000000     
   1.1250000000000000       0.81250000000000000        0.0000000000000000     
   1.0000000000000000       0.84375000000000000        0.0000000000000000     
   1.0312500000000000       0.84375000000000000        0.0000000000000000     
   1.0625000000000000       0.84375000000000000        0.0000000000000000     
   1.0937500000000000       0.84375000000000000        0.0000000000000000     
   1.1250000000000000       0.84375000000000000        0.0000000000000000     
   1.0000000000000000       0.87500000000000000        0.0000000000000000     
   1.0312500000000000       0.87500000000000000        0.0000000000000000     
   1.0625000000000000       0.87500000000000000        0.0000000000000000     
   1.0937500000000000       0.87500000000000000        0.0000000000000000     
   1.1250000000000000       0.87500000000000000        0.0000000000000000     
   1.1250000000000000       0.75000000000000000        0.0000000000000000     
   1.1562500000000000       0.75000000000000000        0.0000000000000000     
   1.1875000000000000       0.75000000000000000        0.0000000000000000     
   1.2187500000000000       0.75000000000000000        0.0000000000000000     
   1.2500000000000000       0.75000000000000000        0.0000000000000000     
   1.1250000000000000       0.78125000000000000        0.0000000000000000     
   1.1562500000000000       0.78125000000000000        0.0000000000000000     
   1.1875000000000000       0.78125000000000000        0.0000000000000000     
   1.2187500000000000       0.78125000000000000        0.0000000000000000     
   1.2500000000000000       0.78125000000000000        0.0000000000000000     
   1.1250000000000000       0.81250000000000000        0.0000000000000000     
   1.1562500000000000       0.81250000000000000        0.0000000000000000     
   1.1875000000000000       0.81250000000000000        0.0000000000000000     
   1.2187500000000000       0.81250000000000000        0.0000000000000000     
   1.2500000000000000       0.81250000000000000        0.0000000000000000     
   1.1250000000000000       0.84375000000000000        0.0000000000000000     
   1.1562500000000000       0.84375000000000000        0.0000000000000000     
   1.1875000000000000       0.84375000000000000        0.0000000000000000     
   1.2187500000000000       0.84375000000000000        0.0000000000000000     
   1.2500000000000000       0.84375000000000000        0.0000000000000000     
   1.1250000000000000       0.87500000000000000        0.0000000000000000     
   1.1562500000000000       0.87500000000000000        0.0000000000000000     
   1.1875000000000000       0.87500000000000000        0.0000000000000000     
   1.2187500000000000       0.87500000000000000        0.0000000000000000     
   1.2500000000000000       0.87500000000000000        0.0000000000000000     
   1.2500000000000000       0.75000000000000000        0.0000000000000000     
   1.2812500000000000       0.75000000000000000        0.0000000000000000     
   1.3125000000000000       0.75000000000000000        0.0000000000000000     
   1.3437500000000000       0.75000000000000000        0.0000000000000000     
   1.3750000000000000       0.75000000000000000        0.0000000000000000     
   1.2500000000000000       0.78125000000000000        0.0000000000000000     
   1.2812500000000000       0.78125000000000000        0.0000000000000000     
   1.3125000000000000       0.78125000000000000        0.0000000000000000     
   1.3437500000000000       0.78125000000000000        0.0000000000000000     
   1.3750000000000000       0.78125000000000000        0.0000000000000000     
   1.2500000000000000       0.81250000000000000        0.0000000000000000     
   1.2812500000000000       0.81250000000000000        0.0000000000000000     
   1.3125000000000000       0.81250000000000000        0.0000000000000000     
   1.3437500000000000       0.81250000000000000        0.0000000000000000     
   1.3750000000000000       0.81250000000000000        0.0000000000000000     
   1.2500000000000000       0.84375000000000000        0.0000000000000000     
   1.2812500000000000       0.84375000000000000        0.0000000000000000     
   1.3125000000000000       0.84375000000000000        0.0000000000000000     
   1.3437500000000000       0.84375000000000000        0.0000000000000000     
   1.3750000000000000       0.84375000000000000        0.0000000000000000     
   1.2500000000000000       0.87500000000000000        0.0000000000000000     
   1.2812500000000000       0.87500000000000000        0.0000000000000000     
   1.3125000000000000       0.87500000000000000        0.0000000000000000     
   1.3437500000000000       0.87500000000000000        0.0000000000000000     
   1.3750000000000000       0.87500000000000000        0.0000000000000000     
   1.3750000000000000       0.75000000000000000        0.0000000000000000     
   1.4062500000000000       0.75000000000000000        0.0000000000000000     
   1.4375000000000000       0.75000000000000000        0.0000000000000000     
   1.4687500000000000       0.75000000000000000        0.0000000000000000     
   1.5000000000000000       0.75000000000000000        0.0000000000000000     
   1.3750000000000000       0.78125000000000000        0.0000000000000000     
   1.4062500000000000       0.78125000000000000        0.0000000000000000     
   1.4375000000000000       0.78125000000000000        0.0000000000000000     
   1.4687500000000000       0.78125000000000000        0.0000000000000000     
   1.5000000000000000       0.78125000000000000        0.0000000000000000     
   1.3750000000000000       0.81250000000000000        0.0000000000000000     
   1.4062500000000000       0.81250000000000000        0.0000000000000000     
   1.4375000000000000       0.81250000000000000        0.0000000000000000     
   1.4687500000000000       0.81250000000000000        0.0000000000000000     
   1.5000000000000000       0.81250000000000000        0.0000000000000000     
   1.3750000000000000       0.84375000000000000        0.0000000000000000     
   1.4062500000000000       0.84375000000000000        0.0000000000000000     
   1.4375000000000000       0.84375000000000000        0.0000000000000000     
   1.4687500000000000       0.84375000000000000        0.0000000000000000     
   1.5000000000000000       0.84375000000000000        0.0000000000000000     
   1.3750000000000000       0.87500000000000000        0.0000000000000000     
   1.4062500000000000       0.87500000000000000        0.0000000000000000     
   1.4375000000000000       0.87500000000000000        0.0000000000000000     
   1.4687500000000000       0.87500000000000000        0.0000000000000000     
   1.5000000000000000       0.87500000000000000        0.0000000000000000     
  0.50000000000000000       0.87500000000000000        0.0000000000000000     
  0.53125000000000000       0.87500000000000000        0.0000000000000000     
  0.56250000000000000       0.87500000000000000        0.0000000000000000     
  0.59375000000000000       0.87500000000000000        0.0000000000000000     
  0.62500000000000000       0.87500000000000000        0.0000000000000000     
  0.50000000000000000       0.90625000000000000        0.0000000000000000     
  0.53125000000000000       0.90625000000000000        0.0000000000000000     
  0.56250000000000000       0.90625000000000000        0.0000000000000000     
  0.59375000000000000       0.90625000000000000        0.0000000000000000     
  0.62500000000000000       0.90625000000000000        0.0000000000000000     
  0.50000000000000000       0.93750000000000000        0.0000000000000000     
  0.53125000000000000       0.93750000000000000        0.0000000000000000     
  0.56250000000000000       0.93750000000000000        0.0000000000000000     
  0.59375000000000000       0.93750000000000000        0.0000000000000000     
  0.62500000000000000       0.93750000000000000        0.0000000000000000     
  0.50000000000000000       0.96875000000000000        0.0000000000000000     
  0.53125000000000000       0.96875000000000000        0.0000000000000000     
  0.56250000000000000       0.96875000000000000        0.0000000000000000     
  0.59375000000000000       0.96875000000000000        0.0000000000000000     
  0.62500000000000000       0.96875000000000000        0.0000000000000000     
  0.50000000000000000        1.0000000000000000        0.0000000000000000     
  0.53125000000000000        1.0000000000000000        0.0000000000000000     
  0.56250000000000000        1.0000000000000000        0.0000000000000000     
  0.59375000000000000        1.0000000000000000        0.0000000000000000     
  0.62500000000000000        1.0000000000000000        0.0000000000000000     
  0.62500000000000000       0.87500000000000000        0.0000000000000000     
  0.65625000000000000       0.87500000000000000        0.0000000000000000     
  0.68750000000000000       0.87500000000000000        0.0000000000000000     
  0.71875000000000000       0.87500000000000000        0.0000000000000000     
  0.75000000000000000       0.87500000000000000        0.0000000000000000     
  0.62500000000000000       0.90625000000000000        0.0000000000000000     
  0.65625000000000000       0.90625000000000000        0.0000000000000000     
  0.68750000000000000       0.90625000000000000        0.0000000000000000     
  0.71875000000000000       0.90625000000000000        0.0000000000000000     
  0.75000000000000000       0.90625000000000000        0.0000000000000000     
  0.62500000000000000       0.93750000000000000        0.0000000000000000     
  0.65625000000000000       0.93750000000000000        0.0000000000000000     
  0.68750000000000000       0.93750000000000000        0.0000000000000000     
  0.71875000000000000       0.93750000000000000        0.0000000000000000     
  0.75000000000000000       0.93750000000000000        0.0000000000000000     
  0.62500000000000000       0.96875000000000000        0.0000000000000000     
  0.65625000000000000       0.96875000000000000        0.0000000000000000     
  0.68750000000000000       0.96875000000000000        0.0000000000000000     
  0.71875000000000000       0.96875000000000000        0.0000000000000000     
  0.75000000000000000       0.96875000000000000        0.0000000000000000     
  0.62500000000000000        1.0000000000000000        0.0000000000000000     
  0.65625000000000000        1.0000000000000000        0.0000000000000000     
  0.68750000000000000        1.0000000000000000        0.0000000000000000     
  0.71875000000000000        1.0000000000000000        0.0000000000000000     
  0.75000000000000000        1.0000000000000000        0.0000000000000000     
  0.75000000000000000       0.87500000000000000        0.0000000000000000     
  0.78125000000000000       0.87500000000000000        0.0000000000000000     
  0.81250000000000000       0.87500000000000000        0.0000000000000000     
  0.84375000000000000       0.87500000000000000        0.0000000000000000     
  0.87500000000000000       0.87500000000000000        0.0000000000000000     
  0.75000000000000000       0.90625000000000000        0.0000000000000000     
  0.78125000000000000       0.90625000000000000        0.0000000000000000     
  0.81250000000000000       0.90625000000000000        0.0000000000000000     
  0.84375000000000000       0.90625000000000000        0.0000000000000000     
  0.87500000000000000       0.90625000000000000        0.0000000000000000     
  0.75000000000000000       0.93750000000000000        0.0000000000000000     
  0.78125000000000000       0.93750000000000000        0.0000000000000000     
  0.81250000000000000       0.93750000000000000        0.0000000000000000     
  0.84375000000000000       0.93750000000000000        0.0000000000000000     
  0.87500000000000000       0.93750000000000000        0.0000000000000000     
  0.75000000000000000       0.96875000000000000        0.0000000000000000     
  0.78125000000000000       0.96875000000000000        0.0000000000000000     
  0.81250000000000000       0.96875000000000000        0.0000000000000000     
  0.84375000000000000       0.96875000000000000        0.0000000000000000     
  0.87500000000000000       0.96875000000000000        0.0000000000000000     
  0.75000000000000000        1.0000000000000000        0.0000000000000000     
  0.78125000000000000        1.0000000000000000        0.0000000000000000     
  0.81250000000000000        1.0000000000000000        0.0000000000000000     
  0.84375000000000000        1.0000000000000000        0.0000000000000000     
  0.87500000000000000        1.0000000000000000        0.0000000000000000     
  0.87500000000000000       0.87500000000000000        0.0000000000000000     
  0.90625000000000000       0.87500000000000000        0.0000000000000000     
  0.93750000000000000       0.87500000000000000        0.0000000000000000     
  0.96875000000000000       0.87500000000000000        0.0000000000000000     
   1.0000000000000000       0.87500000000000000        0.0000000000000000     
  0.87500000000000000       0.90625000000000000        0.0000000000000000     
  0.90625000000000000       0.90625000000000000        0.0000000000000000     
  0.93750000000000000       0.90625000000000000        0.0000000000000000     
  0.96875000000000000       0.90625000000000000        0.0000000000000000     
   1.0000000000000000       0.90625000000000000        0.0000000000000000     
  0.87500000000000000       0.93750000000000000        0.0000000000000000     
  0.90625000000000000       0.93750000000000000        0.0000000000000000     
  0.93750000000000000       0.93750000000000000        0.0000000000000000     
  0.96875000000000000       0.93750000000000000        0.0000000000000000     
   1.0000000000000000       0.93750000000000000        0.0000000000000000     
  0.87500000000000000       0.96875000000000000        0.0000000000000000     
  0.90625000000000000       0.96875000000000000        0.0000000000000000     
  0.93750000000000000       0.96875000000000000        0.0000000000000000     
  0.96875000000000000       0.96875000000000000        0.0000000000000000     
   1.0000000000000000       0.96875000000000000        0.0000000000000000     
  0.87500000000000000        1.0000000000000000        0.0000000000000000     
  0.90625000000000000        1.0000000000000000        0.0000000000000000     
  0.93750000000000000        1.0000000000000000        0.0000000000000000     
  0.96875000000000000        1.0000000000000000        0.0000000000000000     
   1.0000000000000000        1.0000000000000000        0.0000000000000000     
   1.0000000000000000       0.87500000000000000        0.0000000000000000     
   1.0312500000000000       0.87500000000000000        0.0000000000000000     
   1.0625000000000000       0.87500000000000000        0.0000000000000000     
   1.0937500000000000       0.87500000000000000        0.0000000000000000     
   1.1250000000000000       0.87500000000000000        0.0000000000000000     
   1.0000000000000000       0.90625000000000000        0.0000000000000000     
   1.0312500000000000       0.90625000000000000        0.0000000000000000     
   1.0625000000000000       0.90625000000000000        0.0000000000000000     
   1.0937500000000000       0.90625000000000000        0.0000000000000000     
   1.1250000000000000       0.90625000000000000        0.0000000000000000     
   1.0000000000000000       0.93750000000000000        0.0000000000000000     
   1.0312500000000000       0.93750000000000000        0.0000000000000000     
   1.0625000000000000       0.93750000000000000        0.0000000000000000     
   1.0937500000000000       0.93750000000000000        0.0000000000000000     
   1.1250000000000000       0.93750000000000000        0.0000000000000000     
   1.0000000000000000       0.96875000000000000        0.0000000000000000     
   1.0312500000000000       0.96875000000000000        0.0000000000000000     
   1.0625000000000000       0.96875000000000000        0.0000000000000000     
   1.0937500000000000       0.96875000000000000        0.0000000000000000     
   1.1250000000000000       0.96875000000000000        0.0000000000000000     
   1.0000000000000000        1.0000000000000000        0.0000000000000000     
   1.0312500000000000        1.0000000000000000        0.0000000000000000     
   1.0625000000000000        1.0000000000000000        0.0000000000000000     
   1.0937500000000000        1.0000000000000000        0.0000000000000000     
   1.1250000000000000        1.0000000000000000        0.0000000000000000     
   1.1250000000000000       0.87500000000000000        0.0000000000000000     
   1.1562500000000000       0.87500000000000000        0.0000000000000000     
   1.1875000000000000       0.87500000000000000        0.0000000000000000     
   1.2187500000000000       0.87500000000000000        0.0000000000000000     
   1.2500000000000000       0.87500000000000000        0.0000000000000000     
   1.1250000000000000       0.90625000000000000        0.0000000000000000     
   1.1562500000000000       0.90625000000000000        0.0000000000000000     
   1.1875000000000000       0.90625000000000000        0.0000000000000000     
   1.2187500000000000       0.90625000000000000        0.0000000000000000     
   1.2500000000000000       0.90625000000000000        0.0000000000000000     
   1.1250000000000000       0.93750000000000000        0.0000000000000000     
   1.1562500000000000       0.93750000000000000        0.0000000000000000     
   1.1875000000000000       0.93750000000000000        0.0000000000000000     
   1.2187500000000000       0.93750000000000000        0.0000000000000000     
   1.2500000000000000       0.93750000000000000        0.0000000000000000     
   1.1250000000000000       0.96875000000000000        0.0000000000000000     
   1.1562500000000000       0.96875000000000000        0.0000000000000000     
   1.1875000000000000       0.96875000000000000        0.0000000000000000     
   1.2187500000000000       0.96875000000000000        0.0000000000000000     
   1.2500000000000000       0.96875000000000000        0.0000000000000000     
   1.1250000000000000        1.0000000000000000        0.0000000000000000     
   1.1562500000000000        1.0000000000000000        0.0000000000000000     
   1.1875000000000000        1.0000000000000000        0.0000000000000000     
   1.2187500000000000        1.0000000000000000        0.0000000000000000     
   1.2500000000000000        1.0000000000000000        0.0000000000000000     
   1.2500000000000000       0.87500000000000000        0.0000000000000000     
   1.2812500000000000       0.87500000000000000        0.0000000000000000     
   1.3125000000000000       0.87500000000000000        0.0000000000000000     
   1.3437500000000000       0.87500000000000000        0.0000000000000000     
   1.3750000000000000       0.87500000000000000        0.0000000000000000     
   1.2500000000000000       0.90625000000000000        0.0000000000000000     
   1.2812500000000000       0.90625000000000000        0.0000000000000000     
   1.3125000000000000       0.90625000000000000        0.0000000000000000     
   1.3437500000000000       0.90625000000000000        0.0000000000000000     
   1.3750000000000000       0.90625000000000000        0.0000000000000000     
   1.2500000000000000       0.93750000000000000        0.0000000000000000     
   1.2812500000000000       0.93750000000000000        0.0000000000000000     
   1.3125000000000000       0.93750000000000000        0.0000000000000000     
   1.3437500000000000       0.93750000000000000        0.0000000000000000     
   1.3750000000000000       0.93750000000000000        0.0000000000000000     
   1.2500000000000000       0.96875000000000000        0.0000000000000000     
   1.2812500000000000       0.96875000000000000        0.0000000000000000     
   1.3125000000000000       0.96875000000000000        0.0000000000000000     
   1.3437500000000000       0.96875000000000000        0.0000000000000000     
   1.3750000000000000       0.96875000000000000        0.0000000000000000     
   1.2500000000000000        1.0000000000000000        0.0000000000000000     
   1.2812500000000000        1.0000000000000000        0.0000000000000000     
   1.3125000000000000        1.0000000000000000        0.0000000000000000     
   1.3437500000000000        1.0000000000000000        0.0000000000000000     
   1.3750000000000000        1.0000000000000000        0.0000000000000000     
   1.3750000000000000       0.87500000000000000        0.0000000000000000     
   1.4062500000000000       0.87500000000000000        0.0000000000000000     
   1.4375000000000000       0.87500000000000000        0.0000000000000000     
   1.4687500000000000       0.87500000000000000        0.0000000000000000     
   1.5000000000000000       0.87500000000000000        0.0000000000000000     
   1.3750000000000000       0.90625000000000000        0.0000000000000000     
   1.4062500000000000       0.90625000000000000        0.0000000000000000     
   1.4375000000000000       0.90625000000000000        0.0000000000000000     
   1.4687500000000000       0.90625000000000000        0.0000000000000000     
   1.5000000000000000       0.90625000000000000        0.0000000000000000     
   1.3750000000000000       0.93750000000000000        0.0000000000000000     
   1.4062500000000000       0.93750000000000000        0.0000000000000000     
   1.4375000000000000       0.93750000000000000        0.0000000000000000     
   1.4687500000000000       0.93750000000000000        0.0000000000000000     
   1.5000000000000000       0.93750000000000000        0.0000000000000000     
   1.3750000000000000       0.96875000000000000        0.0000000000000000     
   1.4062500000000000       0.96875000000000000        0.0000000000000000     
   1.4375000000000000       0.96875000000000000        0.0000000000000000     
   1.4687500000000000       0.96875000000000000        0.0000000000000000     
   1.5000000000000000       0.96875000000000000        0.0000000000000000     
   1.3750000000000000        1.0000000000000000        0.0000000000000000     
   1.4062500000000000        1.0000000000000000        0.0000000000000000     
   1.4375000000000000        1.0000000000000000        0.0000000000000000     
   1.4687500000000000        1.0000000000000000        0.0000000000000000     
   1.5000000000000000        1.0000000000000000        0.0000000000000000     
 </DataArray>
 </Points>
 <Cells>
 <DataArray  type="Int32"  Name="connectivity"  format="ascii">
           0           1           6           5
           1           2           7           6
           2           3           8           7
           3           4           9           8
           5           6          11          10
           6           7          12          11
           7           8          13          12
           8           9          14          13
          10          11          16          15
          11          12          17          16
          12          13          18          17
          13          14          19          18
          15          16          21          20
          16          17          22          21
          17          18          23          22
          18          19          24          23
          25          26          31          30
          26          27          32          31
          27          28          33          32
          28          29          34          33
          30          31          36          35
          31          32          37          36
          32          33          38          37
          33          34          39          38
          35          36          41          40
          36          37          42          41
          37          38          43          42
          38          39          44          43
          40          41          46          45
          41          42          47          46
          42          43          48          47
          43          44          49          48
          50          51          56          55
          51          52          57          56
          52          53          58          57
          53          54          59          58
          55          56          61          60
          56          57          62          61
          57          58          63          62
          58          59          64          63
          60          61          66          65
          61          62          67          66
          62          63          68          67
          63          64          69          68
          65          66          71          70
          66          67          72          71
          67          68          73          72
          68          69          74          73
          75          76          81          80
          76          77          82          81
          77          78          83          82
          78          79          84          83
          80          81          86          85
          81          82          87          86
          82          83          88          87
          83          84          89          88
          85          86          91          90
          86          87          92          91
          87          88          93          92
          88          89          94          93
          90          91          96          95
          91          92          97          96
          92          93          98          97
          93          94          99          98
         100         101         106         105
         101         102         107         106
         102         103         108         107
         103         104         109         108
         105         106         111         110
         106         107         112         111
         107         108         113         112
         108         109         114         113
         110         111         116         115
         111         112         117         116
         112         113         118         117
         113         114         119         118
         115         116         121         120
         116         117         122         121
         117         118         123         122
         118         119         124         123
         125         126         131         130
         126         127         132         131
         127         128         133         132
         128         129         134         133
         130         131         136         135
         131         132         137         136
         132         133         138         137
         133         134         139         138
         135         136         141         140
         136         137         142         141
         137         138         143         142
         138         139         144         143
         140         141         146         145
         141         142         147         146
         142         143         148         147
         143         144         149         148
         150         151         156         155
         151         152         157         156
         152         153         158         157
         153         154         159         158
         155         156         161         160
         156         157         162         161
         157         158         163         162
         158         159         164         163
         160         161         166         165
         161         162         167         166
         162         163         168         167
         163         164         169         168
         165         166         171         170
         166         167         172         171
         167         168         173         172
         168         169         174         173
         175         176         181         180
         176         177         182         181
         177         178         183         182
         178         179         184         183
         180         181         186         185
         181         182         187         186
         182         183         188         187
         183         184         189         188
         185         186         191         190
         186         187         192         191
         187         188         193         192
         188         189         194         193
         190         191         196         195
         191         192         197         196
         192         193         198         197
         193         194         199         198
         200         201         206         205
         201         202         207         206
         202         203         208         207
         203         204         209         208
         205         206         211         210
         206         207         212         211
         207         208         213         212
         208         209         214         213
         210         211         216         215
         211         212         217         216
         212         213         218         217
         213         214         219         218
         215         216         221         220
         216         217         222         221
         217         218         223         222
         218         219         224         223
         225         226         231         230
         226         227         232         231
         227         228         233         232
         228         229         234         233
         230         231         236         235
         231         232         237         236
         232         233         238         237
         233         234         239         238
         235         236         241         240
         236         237         242         241
         237         238         243         242
         238         239         244         243
         240         241         246         245
         241         242         247         246
         242         243         248         247
         243         244         249         248
         250         251         256         255
         251         252         257         256
         252         253         258         257
         253         254         259         258
         255         256         261         260
         256         257         262         261
         257         258         263         262
         258         259         264         263
         260         261         266         265
         261         262         267         266
         262         263         268         267
         263         264         269         268
         265         266         271         270
         266         267         272         271
         267         268         273         272
         268         269         274         273
         275         276         281         280
         276         277         282         281
         277         278         283         282
         278         279         284         283
         280         281         286         285
         281         282         287         286
         282         283         288         287
         283         284         289         288
         285         286         291         290
         286         287         292         291
         287         288         293         292
         288         289         294         293
         290         291         296         295
         291         292         297         296
         292         293         298         297
         293         294         299         298
         300         301         306         305
         301         302         307         306
         302         303         308         307
         303         304         309         308
         305         306         311         310
         306         307         312         311
         307         308         313         312
         308         309         314         313
         310         311         316         315
         311         312         317         316
         312         313         318         317
         313         314         319         318
         315         316         321         320
         316         317         322         321
         317         318         323         322
         318         319         324         323
         325         326         331         330
         326         327         332         331
         327         328         333         332
         328         329         334         333
         330         331         336         335
         331         332         337         336
         332         333         338         337
         333         334         339         338
         335         336         341         340
         336         337         342         341
         337         338         343         342
         338         339         344         343
         340         341         346         345
         341         342         347         346
         342         343         348         347
         343         344         349         348
         350         351         356         355
         351         352         357         356
         352         353         358         357
         353         354         359         358
         355         356         361         360
         356         357         362         361
         357         358         363         362
         358         359         364         363
         360         361         366         365
         361         362         367         366
         362         363         368         367
         363         364         369         368
         365         366         371         370
         366         367         372         371
         367         368         373         372
         368         369         374         373
         375         376         381         380
         376         377         382         381
         377         378         383         382
         378         379         384         383
         380         381         386         385
         381         382         387         386
         382         383         388         387
         383         384         389         388
         385         386         391         390
         386         387         392         391
         387         388         393         392
         388         389         394         393
         390         391         396         395
         391         392         397         396
         392         393         398         397
         393         394         399         398
         400         401         406         405
         401         402         407         406
         402         403         408         407
         403         404         409         408
         405         406         411         410
         406         407         412         411
         407         408         413         412
         408         409         414         413
         410         411         416         415
         411         412         417         416
         412         413         418         417
         413         414         419         418
         415         416         421         420
         416         417         422         421
         417         418         423         422
         418         419         424         423
         425         426         431         430
         426         427         432         431
         427         428         433         432
         428         429         434         433
         430         431         436         435
         431         432         437         436
         432         433         438         437
         433         434         439         438
         435         436         441         440
         436         437         442         441
         437         438         443         442
         438         439         444         443
         440         441         446         445
         441         442         447         446
         442         443         448         447
         443         444         449         448
         450         451         456         455
         451         452         457         456
         452         453         458         457
         453         454         459         458
         455         456         461         460
         456         457         462         461
         457         458         463         462
         458         459         464         463
         460         461         466         465
         461         462         467         466
         462         463         468         467
         463         464         469         468
         465         466         471         470
         466         467         472         471
         467         468         473         472
         468         469         474         473
         475         476         481         480
         476         477         482         481
         477         478         483         482
         478         479         484         483
         480         481         486         485
         481         482         487         486
         482         483         488         487
         483         484         489         488
         485         486         491         490
         486         487         492         491
         487         488         493         492
         488         489         494         493
         490         491         496         495
         491         492         497         496
         492         493         498         497
         493         494         499         498
         500         501         506         505
         501         502         507         506
         502         503         508         507
         503         504         509         508
         505         506         511         510
         506         507         512         511
         507         508         513         512
         508         509         514         513
         510         511         516         515
         511         512         517         516
         512         513         518         517
         513         514         519         518
         515         516         521         520
         516         517         522         521
         517         518         523         522
         518         519         524         523
         525         526         531         530
         526         527         532         531
         527         528         533         532
         528         529         534         533
         530         531         536         535
         531         532         537         536
         532         533         538         537
         533         534         539         538
         535         536         541         540
         536         537         542         541
         537         538         543         542
         538         539         544         543
         540         541         546         545
         541         542         547         546
         542         543         548         547
         543         544         549         548
         550         551         556         555
         551         552         557         556
         552         553         558         557
         553         554         559         558
         555         556         561         560
         556         557         562         561
         557         558         563         562
         558         559         564         563
         560         561         566         565
         561         562         567         566
         562         563         568         567
         563         564         569         568
         565         566         571         570
         566         567         572         571
         567         568         573         572
         568         569         574         573
         575         576         581         580
         576         577         582         581
         577         578         583         582
         578         579         584         583
         580         581         586         585
         581         582         587         586
         582         583         588         587
         583         584         589         588
         585         586         591         590
         586         587         592         591
         587         588         593         592
         588         589         594         593
         590         591         596         595
         591         592         597         596
         592         593         598         597
         593         594         599         598
         600         601         606         605
         601         602         607         606
         602         603         608         607
         603         604         609         608
         605         606         611         610
         606         607         612         611
         607         608         613         612
         608         609         614         613
         610         611         616         615
         611         612         617         616
         612         613         618         617
         613         614         619         618
         615         616         621         620
         616         617         622         621
         617         618         623         622
         618         619         624         623
         625         626         631         630
         626         627         632         631
         627         628         633         632
         628         629         634         633
         630         631         636         635
         631         632         637         636
         632         633         638         637
         633         634         639         638
         635         636         641         640
         636         637         642         641
         637         638         643         642
         638         639         644         643
         640         641         646         645
         641         642         647         646
         642         643         648         647
         643         644         649         648
         650         651         656         655
         651         652         657         656
         652         653         658         657
         653         654         659         658
         655         656         661         660
         656         657         662         661
         657         658         663         662
         658         659         664         663
         660         661         666         665
         661         662         667         666
         662         663         668         667
         663         664         669         668
         665         666         671         670
         666         667         672         671
         667         668         673         672
         668         669         674         673
         675         676         681         680
         676         677         682         681
         677         678         683         682
         678         679         684         683
         680         681         686         685
         681         682         687         686
         682         683         688         687
         683         684         689         688
         685         686         691         690
         686         687         692         691
         687         688         693         692
         688         689         694         693
         690         691         696         695
         691         692         697         696
         692         693         698         697
         693         694         699         698
         700         701         706         705
         701         702         707         706
         702         703         708         707
         703         704         709         708
         705         706         711         710
         706         707         712         711
         707         708         713         712
         708         709         714         713
         710         711         716         715
         711         712         717         716
         712         713         718         717
         713         714         719         718
         715         716         721         720
         716         717         722         721
         717         718         723         722
         718         719         724         723
         725         726         731         730
         726         727         732         731
         727         728         733         732
         728         729         734         733
         730         731         736         735
         731         732         737         736
         732         733         738         737
         733         734         739         738
         735         736         741         740
         736         737         742         741
         737         738         743         742
         738         739         744         743
         740         741         746         745
         741         742         747         746
         742         743         748         747
         743         744         749         748
         750         751         756         755
         751         752         757         756
         752         753         758         757
         753         754         759         758
         755         756         761         760
         756         757         762         761
         757         758         763         762
         758         759         764         763
         760         761         766         765
         761         762         767         766
         762         763         768         767
         763         764         769         768
         765         766         771         770
         766         767         772         771
         767         768         773         772
         768         769         774         773
         775         776         781         780
         776         777         782         781
         777         778         783         782
         778         779         784         783
         780         781         786         785
         781         782         787         786
         782         783         788         787
         783         784         789         788
         785         786         791         790
         786         787         792         791
         787         788         793         792
         788         789         794         793
         790         791         796         795
         791         792         797         796
         792         793         798         797
         793         794         799         798
         800         801         806         805
         801         802         807         806
         802         803         808         807
         803         804         809         808
         805         806         811         810
         806         807         812         811
         807         808         813         812
         808         809         814         813
         810         811         816         815
         811         812         817         816
         812         813         818         817
         813         814         819         818
         815         816         821         820
         816         817         822         821
         817         818         823         822
         818         819         824         823
         825         826         831         830
         826         827         832         831
         827         828         833         832
         828         829         834         833
         830         831         836         835
         831         832         837         836
         832         833         838         837
         833         834         839         838
         835         836         841         840
         836         837         842         841
         837         838         843         842
         838         839         844         843
         840         841         846         845
         841         842         847         846
         842         843         848         847
         843         844         849         848
         850         851         856         855
         851         852         857         856
         852         853         858         857
         853         854         859         858
         855         856         861         860
         856         857         862         861
         857         858         863         862
         858         859         864         863
         860         861         866         865
         861         862         867         866
         862         863         868         867
         863         864         869         868
         865         866         871         870
         866         867         872         871
         867         868         873         872
         868         869         874         873
         875         876         881         880
         876         877         882         881
         877         878         883         882
         878         879         884         883
         880         881         886         885
         881         882         887         886
         882         883         888         887
         883         884         889         888
         885         886         891         890
         886         887         892         891
         887         888         893         892
         888         889         894         893
         890         891         896         895
         891         892         897         896
         892         893         898         897
         893         894         899         898
         900         901         906         905
         901         902         907         906
         902         903         908         907
         903         904         909         908
         905         906         911         910
         906         907         912         911
         907         908         913         912
         908         909         914         913
         910         911         916         915
         911         912         917         916
         912         913         918         917
         913         914         919         918
         915         916         921         920
         916         917         922         921
         917         918         923         922
         918         919         924         923
         925         926         931         930
         926         927         932         931
         927         928         933         932
         928         929         934         933
         930         931         936         935
         931         932         937         936
         932         933         938         937
         933         934         939         938
         935         936         941         940
         936         937         942         941
         937         938         943         942
         938         939         944         943
         940         941         946         945
         941         942         947         946
         942         943         948         947
         943         944         949         948
         950         951         956         955
         951         952         957         956
         952         953         958         957
         953         954         959         958
         955         956         961         960
         956         957         962         961
         957         958         963         962
         958         959         964         963
         960         961         966         965
         961         962         967         966
         962         963         968         967
         963         964         969         968
         965         966         971         970
         966         967         972         971
         967         968         973         972
         968         969         974         973
         975         976         981         980
         976         977         982         981
         977         978         983         982
         978         979         984         983
         980         981         986         985
         981         982         987         986
         982         983         988         987
         983         984         989         988
         985         986         991         990
         986         987         992         991
         987         988         993         992
         988         989         994         993
         990         991         996         995
         991         992         997         996
         992         993         998         997
         993         994         999         998
        1000        1001        1006        1005
        1001        1002        1007        1006
        1002        1003        1008        1007
        1003        1004        1009        1008
        1005        1006        1011        1010
        1006        1007        1012        1011
        1007        1008        1013        1012
        1008        1009        1014        1013
        1010        1011        1016        1015
        1011        1012        1017        1016
        1012        1013        1018        1017
        1013        1014        1019        1018
        1015        1016        1021        1020
        1016        1017        1022        1021
        1017        1018        1023        1022
        1018        1019        1024        1023
        1025        1026        1031        1030
        1026        1027        1032        1031
        1027        1028        1033        1032
        1028        1029        1034        1033
        1030        1031        1036        1035
        1031        1032        1037        1036
        1032        1033        1038        1037
        1033        1034        1039        1038
        1035        1036        1041        1040
        1036        1037        1042        1041
        1037        1038        1043        1042
        1038        1039        1044        1043
        1040        1041        1046        1045
        1041        1042        1047        1046
        1042        1043        1048        1047
        1043        1044        1049        1048
        1050        1051        1056        1055
        1051        1052        1057        1056
        1052        1053        1058        1057
        1053        1054        1059        1058
        1055        1056        1061        1060
        1056        1057        1062        1061
        1057        1058        1063        1062
        1058        1059        1064        1063
        1060        1061        1066        1065
        1061        1062        1067        1066
        1062        1063        1068        1067
        1063        1064        1069        1068
        1065        1066        1071        1070
        1066        1067        1072        1071
        1067        1068        1073        1072
        1068        1069        1074        1073
        1075        1076        1081        1080
        1076        1077        1082        1081
        1077        1078        1083        1082
        1078        1079        1084        1083
        1080        1081        1086        1085
        1081        1082        1087        1086
        1082        1083        1088        1087
        1083        1084        1089        1088
        1085        1086        1091        1090
        1086        1087        1092        1091
        1087        1088        1093        1092
        1088        1089        1094        1093
        1090        1091        1096        1095
        1091        1092        1097        1096
        1092        1093        1098        1097
        1093        1094        1099        1098
        1100        1101        1106        1105
        1101        1102        1107        1106
        1102        1103        1108        1107
        1103        1104        1109        1108
        1105        1106        1111        1110
        1106        1107        1112        1111
        1107        1108        1113        1112
        1108        1109        1114        1113
        1110        1111        1116        1115
        1111        1112        1117        1116
        1112        1113        1118        1117
        1113        1114        1119        1118
        1115        1116        1121        1120
        1116        1117        1122        1121
        1117        1118        1123        1122
        1118        1119        1124        1123
        1125        1126        1131        1130
        1126        1127        1132        1131
        1127        1128        1133        1132
        1128        1129        1134        1133
        1130        1131        1136        1135
        1131        1132        1137        1136
        1132        1133        1138        1137
        1133        1134        1139        1138
        1135        1136        1141        1140
        1136        1137        1142        1141
        1137        1138        1143        1142
        1138        1139        1144        1143
        1140        1141        1146        1145
        1141        1142        1147        1146
        1142        1143        1148        1147
        1143        1144        1149        1148
        1150        1151        1156        1155
        1151        1152        1157        1156
        1152        1153        1158        1157
        1153        1154        1159        1158
        1155        1156        1161        1160
        1156        1157        1162        1161
        1157        1158        1163        1162
        1158        1159        1164        1163
        1160        1161        1166        1165
        1161        1162        1167        1166
        1162        1163        1168        1167
        1163        1164        1169        1168
        1165        1166        1171        1170
        1166        1167        1172        1171
        1167        1168        1173        1172
        1168        1169        1174        1173
        1175        1176        1181        1180
        1176        1177        1182        1181
        1177        1178        1183        1182
        1178        1179        1184        1183
        1180        1181        1186        1185
        1181        1182        1187        1186
        1182        1183        1188        1187
        1183        1184        1189        1188
        1185        1186        1191        1190
        1186        1187        1192        1191
        1187        1188        1193        1192
        1188        1189        1194        1193
        1190        1191        1196        1195
        1191        1192        1197        1196
        1192        1193        1198        1197
        1193        1194        1199        1198
        1200        1201        1206        1205
        1201        1202        1207        1206
        1202        1203        1208        1207
        1203        1204        1209        1208
        1205        1206        1211        1210
        1206        1207        1212        1211
        1207        1208        1213        1212
        1208        1209        1214        1213
        1210        1211        1216        1215
        1211        1212        1217        1216
        1212        1213        1218        1217
        1213        1214        1219        1218
        1215        1216        1221        1220
        1216        1217        1222        1221
        1217        1218        1223        1222
        1218        1219        1224        1223
        1225        1226        1231        1230
        1226        1227        1232        1231
        1227        1228        1233        1232
        1228        1229        1234        1233
        1230        1231        1236        1235
        1231        1232        1237        1236
        1232        1233        1238        1237
        1233        1234        1239        1238
        1235        1236        1241        1240
        1236        1237        1242        1241
        1237        1238        1243        1242
        1238        1239        1244        1243
        1240        1241        1246        1245
        1241        1242        1247        1246
        1242        1243        1248        1247
        1243        1244        1249        1248
        1250        1251        1256        1255
        1251        1252        1257        1256
        1252        1253        1258        1257
        1253        1254        1259        1258
        1255        1256        1261        1260
        1256        1257        1262        1261
        1257        1258        1263        1262
        1258        1259        1264        1263
        1260        1261        1266        1265
        1261        1262        1267        1266
        1262        1263        1268        1267
        1263        1264        1269        1268
        1265        1266        1271        1270
        1266        1267        1272        1271
        1267        1268        1273        1272
        1268        1269        1274        1273
        1275        1276        1281        1280
        1276        1277        1282        1281
        1277        1278        1283        1282
        1278        1279        1284        1283
        1280        1281        1286        1285
        1281        1282        1287        1286
        1282        1283        1288        1287
        1283        1284        1289        1288
        1285        1286        1291        1290
        1286        1287        1292        1291
        1287        1288        1293        1292
        1288        1289        1294        1293
        1290        1291        1296        1295
        1291        1292        1297        1296
        1292        1293        1298        1297
        1293        1294        1299        1298
        1300        1301        1306        1305
        1301        1302        1307        1306
        1302        1303        1308        1307
        1303        1304        1309        1308
        1305        1306        1311        1310
        1306        1307        1312        1311
        1307        1308        1313        1312
        1308        1309        1314        1313
        1310        1311        1316        1315
        1311        1312        1317        1316
        1312        1313        1318        1317
        1313        1314        1319        1318
        1315        1316        1321        1320
        1316        1317        1322        1321
        1317        1318        1323        1322
        1318        1319        1324        1323
        1325        1326        1331        1330
        1326        1327        1332        1331
        1327        1328        1333        1332
        1328        1329        1334        1333
        1330        1331        1336        1335
        1331        1332        1337        1336
        1332        1333        1338        1337
        1333        1334        1339        1338
        1335        1336        1341        1340
        1336        1337        1342        1341
        1337        1338        1343        1342
        1338        1339        1344        1343
        1340        1341        1346        1345
        1341        1342        1347        1346
        1342        1343        1348        1347
        1343        1344        1349        1348
        1350        1351        1356        1355
        1351        1352        1357        1356
        1352        1353        1358        1357
        1353        1354        1359        1358
        1355        1356        1361        1360
        1356        1357        1362        1361
        1357        1358        1363        1362
        1358        1359        1364        1363
        1360        1361        1366        1365
        1361        1362        1367        1366
        1362        1363        1368        1367
        1363        1364        1369        1368
        1365        1366        1371        1370
        1366        1367        1372        1371
        1367        1368        1373        1372
        1368        1369        1374        1373
        1375        1376        1381        1380
        1376        1377        1382        1381
        1377        1378        1383        1382
        1378        1379        1384        1383
        1380        1381        1386        1385
        1381        1382        1387        1386
        1382        1383        1388        1387
        1383        1384        1389        1388
        1385        1386        1391        1390
        1386        1387        1392        1391
        1387        1388        1393        1392
        1388        1389        1394        1393
        1390        1391        1396        1395
        1391        1392        1397        1396
        1392        1393        1398        1397
        1393        1394        1399        1398
        1400        1401        1406        1405
        1401        1402        1407        1406
        1402        1403        1408        1407
        1403        1404        1409        1408
        1405        1406        1411        1410
        1406        1407        1412        1411
        1407        1408        1413        1412
        1408        1409        1414        1413
        1410        1411        1416        1415
        1411        1412        1417        1416
        1412        1413        1418        1417
        1413        1414        1419        1418
        1415        1416        1421        1420
        1416        1417        1422        1421
        1417        1418        1423        1422
        1418        1419        1424        1423
        1425        1426        1431        1430
        1426        1427        1432        1431
        1427        1428        1433        1432
        1428        1429        1434        1433
        1430        1431        1436        1435
        1431        1432        1437        1436
        1432        1433        1438        1437
        1433        1434        1439        1438
        1435        1436        1441        1440
        1436        1437        1442        1441
        1437        1438        1443        1442
        1438        1439        1444        1443
        1440        1441        1446        1445
        1441        1442        1447        1446
        1442        1443        1448        1447
        1443        1444        1449        1448
        1450        1451        1456        1455
        1451        1452        1457        1456
        1452        1453        1458        1457
        1453        1454        1459        1458
        1455        1456        1461        1460
        1456        1457        1462        1461
        1457        1458        1463        1462
        1458        1459        1464        1463
        1460        1461        1466        1465
        1461        1462        1467        1466
        1462        1463        1468        1467
        1463        1464        1469        1468
        1465        1466        1471        1470
        1466        1467        1472        1471
        1467        1468        1473        1472
        1468        1469        1474        1473
        1475        1476        1481        1480
        1476        1477        1482        1481
        1477        1478        1483        1482
        1478        1479        1484        1483
        1480        1481        1486        1485
        1481        1482        1487        1486
        1482        1483        1488        1487
        1483        1484        1489        1488
        1485        1486        1491        1490
        1486        1487        1492        1491
        1487        1488        1493        1492
        1488        1489        1494        1493
        1490        1491        1496        1495
        1491        1492        1497        1496
        1492        1493        1498        1497
        1493        1494        1499        1498
        1500        1501        1506        1505
        1501        1502        1507        1506
        1502        1503        1508        1507
        1503        1504        1509        1508
        1505        1506        1511        1510
        1506        1507        1512        1511
        1507        1508        1513        1512
        1508        1509        1514        1513
        1510        1511        1516        1515
        1511        1512        1517        1516
        1512        1513        1518        1517
        1513        1514        1519        1518
        1515        1516        1521        1520
        1516        1517        1522        1521
        1517        1518        1523        1522
        1518        1519        1524        1523
        1525        1526        1531        1530
        1526        1527        1532        1531
        1527        1528        1533        1532
        1528        1529        1534        1533
        1530        1531        1536        1535
        1531        1532        1537        1536
        1532        1533        1538        1537
        1533        1534        1539        1538
        1535        1536        1541        1540
        1536        1537        1542        1541
        1537        1538        1543        1542
        1538        1539        1544        1543
        1540        1541        1546        1545
        1541        1542        1547        1546
        1542        1543        1548        1547
        1543        1544        1549        1548
        1550        1551        1556        1555
        1551        1552        1557        1556
        1552        1553        1558        1557
        1553        1554        1559        1558
        1555        1556        1561        1560
        1556        1557        1562        1561
        1557        1558        1563        1562
        1558        1559        1564        1563
        1560        1561        1566        1565
        1561        1562        1567        1566
        1562        1563        1568        1567
        1563        1564        1569        1568
        1565        1566        1571        1570
        1566        1567        1572        1571
        1567        1568        1573        1572
        1568        1569        1574        1573
        1575        1576        1581        1580
        1576        1577        1582        1581
        1577        1578        1583        1582
        1578        1579        1584        1583
        1580        1581        1586        1585
        1581        1582        1587        1586
        1582        1583        1588        1587
        1583        1584        1589        1588
        1585        1586        1591        1590
        1586        1587        1592        1591
        1587        1588        1593        1592
        1588        1589        1594        1593
        1590        1591        1596        1595
        1591        1592        1597        1596
        1592        1593        1598        1597
        1593        1594        1599        1598
 </DataArray>
 <DataArray  type="Int32"  Name="offsets"  format="ascii"> 
           4
           8
          12
          16
          20
          24
          28
          32
          36
          40
          44
          48
          52
          56
          60
          64
          68
          72
          76
          80
          84
          88
          92
          96
         100
         104
         108
         112
         116
         120
         124
         128
         132
         136
         140
         144
         148
         152
         156
         160
         164
         168
         172
         176
         180
         184
         188
         192
         196
         200
         204
         208
         212
         216
         220
         224
         228
         232
         236
         240
         244
         248
         252
         256
         260
         264
         268
         272
         276
         280
         284
         288
         292
         296
         300
         304
         308
         312
         316
         320
         324
         328
         332
         336
         340
         344
         348
         352
         356
         360
         364
         368
         372
         376
         380
         384
         388
         392
         396
         400
         404
         408
         412
         416
         420
         424
         428
         432
         436
         440
         444
         448
         452
         456
         460
         464
         468
         472
         476
         480
         484
         488
         492
         496
         500
         504
         508
         512
         516
         520
         524
         528
         532
         536
         540
         544
         548
         552
         556
         560
         564
         568
         572
         576
         580
         584
         588
         592
         596
         600
         604
         608
         612
         616
         620
         624
         628
         632
         636
         640
         644
         648
         652
         656
         660
         664
         668
         672
         676
         680
         684
         688
         692
         696
         700
         704
         708
         712
         716
         720
         724
         728
         732
         736
         740
         744
         748
         752
         756
         760
         764
         768
         772
         776
         780
         784
         788
         792
         796
         800
         804
         808
         812
         816
         820
         824
         828
         832
         836
         840
         844
         848
         852
         856
         860
         864
         868
         872
         876
         880
         884
         888
         892
         896
         900
         904
         908
         912
         916
         920
         924
         928
         932
         936
         940
         944
         948
         952
         956
         960
         964
         968
         972
         976
         980
         984
         988
         992
         996
        1000
        1004
        1008
        1012
        1016
        1020
        1024
        1028
        1032
        1036
        1040
        1044
        1048
        1052
        1056
        1060
        1064
        1068
        1072
        1076
        1080
        1084
        1088
        1092
        1096
        1100
        1104
        1108
        1112
        1116
        1120
        1124
        1128
        1132
        1136
        1140
        1144
        1148
        1152
        1156
        1160
        1164
        1168
        1172
        1176
        1180
        1184
        1188
        1192
        1196
        1200
        1204
        1208
        1212
        1216
        1220
        1224
        1228
        1232
        1236
        1240
        1244
        1248
        1252
        1256
        1260
        1264
        1268
        1272
        1276
        1280
        1284
        1288
        1292
        1296
        1300
        1304
        1308
        1312
        1316
        1320
        1324
        1328
        1332
        1336
        1340
        1344
        1348
        1352
        1356
        1360
        1364
        1368
        1372
        1376
        1380
        1384
        1388
        1392
        1396
        1400
        1404
        1408
        1412
        1416
        1420
        1424
        1428
        1432
        1436
        1440
        1444
        1448
        1452
        1456
        1460
        1464
        1468
        1472
        1476
        1480
        1484
        1488
        1492
        1496
        1500
        1504
        1508
        1512
        1516
        1520
        1524
        1528
        1532
        1536
        1540
        1544
        1548
        1552
        1556
        1560
        1564
        1568
        1572
        1576
        1580
        1584
        1588
        1592
        1596
        1600
        1604
        1608
        1612
        1616
        1620
        1624
        1628
        1632
        1636
        1640
        1644
        1648
        1652
        1656
        1660
        1664
        1668
        1672
        1676
        1680
        1684
        1688
        1692
        1696
        1700
        1704
        1708
        1712
        1716
        1720
        1724
        1728
        1732
        1736
        1740
        1744
        1748
        1752
        1756
        1760
        1764
        1768
        1772
        1776
        1780
        1784
        1788
        1792
        1796
        1800
        1804
        1808
        1812
        1816
        1820
        1824
        1828
        1832
        1836
        1840
        1844
        1848
        1852
        1856
        1860
        1864
        1868
        1872
        1876
        1880
        1884
        1888
        1892
        1896
        1900
        1904
        1908
        1912
        1916
        1920
        1924
        1928
        1932
        1936
        1940
        1944
        1948
        1952
        1956
        1960
        1964
        1968
        1972
        1976
        1980
        1984
        1988
        1992
        1996
        2000
        2004
        2008
        2012
        2016
        2020
        2024
        2028
        2032
        2036
        2040
        2044
        2048
        2052
        2056
        2060
        2064
        2068
        2072
        2076
        2080
        2084
        2088
        2092
        2096
        2100
        2104
        2108
        2112
        2116
        2120
        2124
        2128
        2132
        2136
        2140
        2144
        2148
        2152
        2156
        2160
        2164
        2168
        2172
        2176
        2180
        2184
        2188
        2192
        2196
        2200
        2204
        2208
        2212
        2216
        2220
        2224
        2228
        2232
        2236
        2240
        2244
        2248
        2252
        2256
        2260
        2264
        2268
        2272
        2276
        2280
        2284
        2288
        2292
        2296
        2300
        2304
        2308
        2312
        2316
        2320
        2324
        2328
        2332
        2336
        2340
        2344
        2348
        2352
        2356
        2360
        2364
        2368
        2372
        2376
        2380
        2384
        2388
        2392
        2396
        2400
        2404
        2408
        2412
        2416
        2420
        2424
        2428
        2432
        2436
        2440
        2444
        2448
        2452
        2456
        2460
        2464
        2468
        2472
        2476
        2480
        2484
        2488
        2492
        2496
        2500
        2504
        2508
        2512
        2516
        2520
        2524
        2528
        2532
        2536
        2540
        2544
        2548
        2552
        2556
        2560
        2564
        2568
        2572
        2576
        2580
        2584
        2588
        2592
        2596
        2600
        2604
        2608
        2612
        2616
        2620
        2624
        2628
        2632
        2636
        2640
        2644
        2648
        2652
        2656
        2660
        2664
        2668
        2672
        2676
        2680
        2684
        2688
        2692
        2696
        2700
        2704
        2708
        2712
        2716
        2720
        2724
        2728
        2732
        2736
        2740
        2744
        2748
        2752
        2756
        2760
        2764
        2768
        2772
        2776
        2780
        2784
        2788
        2792
        2796
        2800
        2804
        2808
        2812
        2816
        2820
        2824
        2828
        2832
        2836
        2840
        2844
        2848
        2852
        2856
        2860
        2864
        2868
        2872
        2876
        2880
        2884
        2888
        2892
        2896
        2900
        2904
        2908
        2912
        2916
        2920
        2924
        2928
        2932
        2936
        2940
        2944
        2948
        2952
        2956
        2960
        2964
        2968
        2972
        2976
        2980
        2984
        2988
        2992
        2996
        3000
        3004
        3008
        3012
        3016
        3020
        3024
        3028
        3032
        3036
        3040
        3044
        3048
        3052
        3056
        3060
        3064
        3068
        3072
        3076
        3080
        3084
        3088
        3092
        3096
        3100
        3104
        3108
        3112
        3116
        3120
        3124
        3128
        3132
        3136
        3140
        3144
        3148
        3152
        3156
        3160
        3164
        3168
        3172
        3176
        3180
        3184
        3188
        3192
        3196
        3200
        3204
        3208
        3212
        3216
        3220
        3224
        3228
        3232
        3236
        3240
        3244
        3248
        3252
        3256
        3260
        3264
        3268
        3272
        3276
        3280
        3284
        3288
        3292
        3296
        3300
        3304
        3308
        3312
        3316
        3320
        3324
        3328
        3332
        3336
        3340
        3344
        3348
        3352
        3356
        3360
        3364
        3368
        3372
        3376
        3380
        3384
        3388
        3392
        3396
        3400
        3404
        3408
        3412
        3416
        3420
        3424
        3428
        3432
        3436
        3440
        3444
        3448
        3452
        3456
        3460
        3464
        3468
        3472
        3476
        3480
        3484
        3488
        3492
        3496
        3500
        3504
        3508
        3512
        3516
        3520
        3524
        3528
        3532
        3536
        3540
        3544
        3548
        3552
        3556
        3560
        3564
        3568
        3572
        3576
        3580
        3584
        3588
        3592
        3596
        3600
        3604
        3608
        3612
        3616
        3620
        3624
        3628
        3632
        3636
        3640
        3644
        3648
        3652
        3656
        3660
        3664
        3668
        3672
        3676
        3680
        3684
        3688
        3692
        3696
        3700
        3704
        3708
        3712
        3716
        3720
        3724
        3728
        3732
        3736
        3740
        3744
        3748
        3752
        3756
        3760
        3764
        3768
        3772
        3776
        3780
        3784
        3788
        3792
        3796
        3800
        3804
        3808
        3812
        3816
        3820
        3824
        3828
        3832
        3836
        3840
        3844
        3848
        3852
        3856
        3860
        3864
        3868
        3872
        3876
        3880
        3884
        3888
        3892
        3896
        3900
        3904
        3908
        3912
        3916
        3920
        3924
        3928
        3932
        3936
        3940
        3944
        3948
        3952
        3956
        3960
        3964
        3968
        3972
        3976
        3980
        3984
        3988
        3992
        3996
        4000
        4004
        4008
        4012
        4016
        4020
        4024
        4028
        4032
        4036
        4040
        4044
        4048
        4052
        4056
        4060
        4064
        4068
        4072
        4076
        4080
        4084
        4088
        4092
        4096
 </DataArray>
 <DataArray  type="UInt8"  Name="types"  format="ascii">
 9
 9
 9
 9
 9
 9
 9
 9
 9
 9
 9
 9
 9
 9
 9
 9
 9
 9
 9
 9
 9
 9
 9
 9
 9
 9
 9
 9
 9
 9
 9
 9
 9
 9
 9
 9
 9
 9
 9
 9
 9
 9
 9
 9
 9
 9
 9
 9
 9
 9
 9
 9
 9
 9
 9
 9
 9
 9
 9
 9
 9
 9
 9
 9
 9
 9
 9
 9
 9
 9
 9
 9
 9
 9
 9
 9
 9
 9
 9
 9
 9
 9
 9
 9
 9
 9
 9
 9
 9
 9
 9
 9
 9
 9
 9
 9
 9
 9
 9
 9
 9
 9
 9
 9
 9
 9
 9
 9
 9
 9
 9
 9
 9
 9
 9
 9
 9
 9
 9
 9
 9
 9
 9
 9
 9
 9
 9
 9
 9
 9
 9
 9
 9
 9
 9
 9
 9
 9
 9
 9
 9
 9
 9
 9
 9
 9
 9
 9
 9
 9
 9
 9
 9
 9
 9
 9
 9
 9
 9
 9
 9
 9
 9
 9
 9
 9
 9
 9
 9
 9
 9
 9
 9
 9
 9
 9
 9
 9
 9
 9
 9
 9
 9
 9
 9
 9
 9
 9
 9
 9
 9
 9
 9
 9
 9
 9
 9
 9
 9
 9
 9
 9
 9
 9
 9
 9
 9
 9
 9
 9
 9
 9
 9
 9
 9
 9
 9
 9
 9
 9
 9
 9
 9
 9
 9
 9
 9
 9
 9
 9
 9
 9
 9
 9
 9
 9
 9
 9
 9
 9
 9
 9
 9
 9
 9
 9
 9
 9
 9
 9
 9
 9
 9
 9
 9
 9
 9
 9
 9
 9
 9
 9
 9
 9
 9
 9
 9
 9
 9
 9
 9
 9
 9
 9
 9
 9
 9
 9
 9
 9
 9
 9
 9
 9
 9
 9
 9
 9
 9
 9
 9
 9
 9
 9
 9
 9
 9
 9
 9
 9
 9
 9
 9
 9
 9
 9
 9
 9
 9
 9
 9
 9
 9
 9
 9
 9
 9
 9
 9
 9
 9
 9
 9
 9
 9
 9
 9
 9
 9
 9
 9
 9
 9
 9
 9
 9
 9
 9
 9
 9
 9
 9
 9
 9
 9
 9
 9
 9
 9
 9
 9
 9
 9
 9
 9
 9
 9
 9
 9
 9
 9
 9
 9
 9
 9
 9
 9
 9
 9
 9
 9
 9
 9
 9
 9
 9
 9
 9
 9
 9
 9
 9
 9
 9
 9
 9
 9
 9
 9
 9
 9
 9
 9
 9
 9
 9
 9
 9
 9
 9
 9
 9
 9
 9
 9
 9
 9
 9
 9
 9
 9
 9
 9
 9
 9
 9
 9
 9
 9
 9
 9
 9
 9
 9
 9
 9
 9
 9
 9
 9
 9
 9
 9
 9
 9
 9
 9
 9
 9
 9
 9
 9
 9
 9
 9
 9
 9
 9
 9
 9
 9
 9
 9
 9
 9
 9
 9
 9
 9
 9
 9
 9
 9
 9
 9
 9
 9
 9
 9
 9
 9
 9
 9
 9
 9
 9
 9
 9
 9
 9
 9
 9
 9
 9
 9
 9
 9
 9
 9
 9
 9
 9
 9
 9
 9
 9
 9
 9
 9
 9
 9
 9
 9
 9
 9
 9
 9
 9
 9
 9
 9
 9
 9
 9
 9
 9
 9
 9
 9
 9
 9
 9
 9
 9
 9
 9
 9
 9
 9
 9
 9
 9
 9
 9
 9
 9
 9
 9
 9
 9
 9
 9
 9
 9
 9
 9
 9
 9
 9
 9
 9
 9
 9
 9
 9
 9
 9
 9
 9
 9
 9
 9
 9
 9
 9
 9
 9
 9
 9
 9
 9
 9
 9
 9
 9
 9
 9
 9
 9
 9
 9
 9
 9
 9
 9
 9
 9
 9
 9
 9
 9
 9
 9
 9
 9
 9
 9
 9
 9
 9
 9
 9
 9
 9
 9
 9
 9
 9
 9
 9
 9
 9
 9
 9
 9
 9
 9
 9
 9
 9
 9
 9
 9
 9
 9
 9
 9
 9
 9
 9
 9
 9
 9
 9
 9
 9
 9
 9
 9
 9
 9
 9
 9
 9
 9
 9
 9
 9
 9
 9
 9
 9
 9
 9
 9
 9
 9
 9
 9
 9
 9
 9
 9
 9
 9
 9
 9
 9
 9
 9
 9
 9
 9
 9
 9
 9
 9
 9
 9
 9
 9
 9
 9
 9
 9
 9
 9
 9
 9
 9
 9
 9
 9
 9
 9
 9
 9
 9
 9
 9
 9
 9
 9
 9
 9
 9
 9
 9
 9
 9
 9
 9
 9
 9
 9
 9
 9
 9
 9
 9
 9
 9
 9
 9
 9
 9
 9
 9
 9
 9
 9
 9
 9
 9
 9
 9
 9
 9
 9
 9
 9
 9
 9
 9
 9
 9
 9
 9
 9
 9
 9
 9
 9
 9
 9
 9
 9
 9
 9
 9
 9
 9
 9
 9
 9
 9
 9
 9
 9
 9
 9
 9
 9
 9
 9
 9
 9
 9
 9
 9
 9
 9
 9
 9
 9
 9
 9
 9
 9
 9
 9
 9
 9
 9
 9
 9
 9
 9
 9
 9
 9
 9
 9
 9
 9
 9
 9
 9
 9
 9
 9
 9
 9
 9
 9
 9
 9
 9
 9
 9
 9
 9
 9
 9
 9
 9
 9
 9
 9
 9
 9
 9
 9
 9
 9
 9
 9
 9
 9
 9
 9
 9
 9
 9
 9
 9
 9
 9
 9
 9
 9
 9
 9
 9
 9
 9
 9
 9
 9
 9
 9
 9
 9
 9
 9
 9
 9
 9
 9
 9
 9
 9
 9
 9
 9
 9
 9
 9
 9
 9
 9
 9
 9
 9
 9
 9
 9
 9
 9
 9
 9
 9
 9
 9
 9
 9
 9
 9
 9
 9
 9
 9
 9
 9
 9
 9
 9
 9
 9
 9
 9
 9
 9
 9
 9
 9
 9
 9
 9
 9
 9
 9
 9
 9
 9
 9
 9
 9
 9
 9
 9
 9
 9
 9
 9
 9
 9
 9
 9
 9
 9
 9
 9
 9
 9
 9
 9
 9
 9
 9
 9
 9
 9
 9
 9
 9
 9
 9
 9
 9
 9
 9
 9
 9
 9
 9
 9
 9
 9
 9
 9
 9
 9
 9
 9
 9
 9
 9
 9
 9
 9
 9
 9
 9
 9
 9
 9
 9
 9
 9
 9
 9
 9
 9
 9
 9
 9
 9
 9
 9
 9
 9
 9
 9
 9
 9
 9
 9
 9
 9
 9
 9
 9
 9
 9
 9
 9
 9
 9
 9
 9
 9
 9
 9
 </DataArray>
 </Cells> 
 <PointData>
 <DataArray  type="Float64" Name="disp" NumberOfComponents="3" format="ascii">
   6.7598011681077735E-002   6.2757207225287590E-002   0.0000000000000000     
   7.0061722419386269E-002   6.8152114158341257E-002   0.0000000000000000     
   7.2552466032410085E-002   7.3724237801555320E-002   0.0000000000000000     
   7.5070242520149183E-002   7.9473578154929767E-002   0.0000000000000000     
   7.7615051882603536E-002   8.5400135218464623E-002   0.0000000000000000     
   6.0742817876739560E-002   6.1857186730351447E-002   0.0000000000000000     
   6.3513292981459302E-002   6.7283587264548084E-002   0.0000000000000000     
   6.6198300184040090E-002   7.2885406742320039E-002   0.0000000000000000     
   6.8797839484481940E-002   7.8662645163667305E-002   0.0000000000000000     
   7.1311910882784851E-002   8.4615302528589884E-002   0.0000000000000000     
   5.4721997707157743E-002   6.1014284094456736E-002   0.0000000000000000     
   5.7608653193997786E-002   6.6467278941849062E-002   0.0000000000000000     
   6.0343270363567271E-002   7.2095414939708280E-002   0.0000000000000000     
   6.2925849215866206E-002   7.7898692088034432E-002   0.0000000000000000     
   6.5356389750894583E-002   8.3877110386827491E-002   0.0000000000000000     
   4.9535551172332271E-002   6.0228499317603469E-002   0.0000000000000000     
   5.2347803057001742E-002   6.5703189190244177E-002   0.0000000000000000     
   5.4987376570991647E-002   7.1354262393720086E-002   0.0000000000000000     
   5.7454271714301938E-002   7.7181718928031162E-002   0.0000000000000000     
   5.9748488486932677E-002   8.3185558793177447E-002   0.0000000000000000     
   4.5183478272263156E-002   5.9499832399791633E-002   0.0000000000000000     
   4.7730742570471177E-002   6.4991318009733443E-002   0.0000000000000000     
   5.0130618806313185E-002   7.0661949104355401E-002   0.0000000000000000     
   5.2383106979789179E-002   7.6511725683657508E-002   0.0000000000000000     
   5.4488207090899174E-002   8.2540647747639750E-002   0.0000000000000000     
   7.7615051882603536E-002   8.5400135218464623E-002   0.0000000000000000     
   8.0144428416851071E-002   9.1495709172161044E-002   0.0000000000000000     
   8.2615906419969659E-002   9.7752100196020292E-002   0.0000000000000000     
   8.5029485891959342E-002  0.10416930829004234        0.0000000000000000     
   8.7385166832820077E-002  0.11074733345422719        0.0000000000000000     
   7.1311910882784851E-002   8.4615302528589884E-002   0.0000000000000000     
   7.3751168626355598E-002   9.0736348572800357E-002   0.0000000000000000     
   7.6126266962600955E-002   9.7018753032011282E-002   0.0000000000000000     
   7.8437205891520909E-002  0.10346251590622266        0.0000000000000000     
   8.0683985413115472E-002  0.11006763719543451        0.0000000000000000     
   6.5356389750894583E-002   8.3877110386827491E-002   0.0000000000000000     
   6.7677696824142264E-002   9.0023696774848824E-002   0.0000000000000000     
   6.9932575291099100E-002   9.6331478190859784E-002   0.0000000000000000     
   7.2121025151765106E-002  0.10280045463486040        0.0000000000000000     
   7.4243046406140267E-002  0.10943062610685063        0.0000000000000000     
   5.9748488486932677E-002   8.3185558793177447E-002   0.0000000000000000     
   6.1924013010210992E-002   8.9357753778306473E-002   0.0000000000000000     
   6.4034831405464079E-002   9.5690275672565855E-002   0.0000000000000000     
   6.6080943672691905E-002  0.10218312447595553        0.0000000000000000     
   6.8062349811894490E-002  0.10883630018847552        0.0000000000000000     
   5.4488207090899174E-002   8.2540647747639750E-002   0.0000000000000000     
   5.6490117184561844E-002   8.8738519583173345E-002   0.0000000000000000     
   5.8433035305695886E-002   9.5095145477129439E-002   0.0000000000000000     
   6.0316961454301314E-002  0.10161052542950808        0.0000000000000000     
   6.2141895630378113E-002  0.10828465944030924        0.0000000000000000     
   8.7385166832820077E-002  0.11074733345422719        0.0000000000000000     
   8.9662396342061010E-002  0.11746964151564404        0.0000000000000000     
   9.1840621519191312E-002  0.12431969830136209        0.0000000000000000     
   9.3919842364210956E-002  0.13129750381138136        0.0000000000000000     
   9.5900058877119942E-002  0.13840305804570183        0.0000000000000000     
   8.0683985413115472E-002  0.11006763719543451        0.0000000000000000     
   8.2849060536726082E-002  0.11681764328655725        0.0000000000000000     
   8.4914886271694245E-002  0.12369606056650137        0.0000000000000000     
   8.6881462618019947E-002  0.13070288903526681        0.0000000000000000     
   8.8748789575703188E-002  0.13783812869285361        0.0000000000000000     
   7.4243046406140267E-002  0.10943062610685063        0.0000000000000000     
   7.6283352467931317E-002  0.11620607908589196        0.0000000000000000     
   7.8226656750844961E-002  0.12311090005104589        0.0000000000000000     
   8.0072959254881212E-002  0.13014508900231242        0.0000000000000000     
   8.1822259980040016E-002  0.13730864593969150        0.0000000000000000     
   6.8062349811894490E-002  0.10883630018847552        0.0000000000000000     
   6.9965272135676715E-002  0.11563494891364817        0.0000000000000000     
   7.1775932956643460E-002  0.12256421675499572        0.0000000000000000     
   7.3494332274794696E-002  0.12962410371251820        0.0000000000000000     
   7.5120470090130453E-002  0.13681460978621557        0.0000000000000000     
   6.2141895630378113E-002  0.10828465944030924        0.0000000000000000     
   6.3894819539962261E-002  0.11510425276982583        0.0000000000000000     
   6.5562714889089699E-002  0.12205601067835081        0.0000000000000000     
   6.7145581677760455E-002  0.12913993316588410        0.0000000000000000     
   6.8643419905974473E-002  0.13635602023242580        0.0000000000000000     
   9.5900058877119942E-002  0.13840305804570183        0.0000000000000000     
   9.7785996056466498E-002  0.14563073570035470        0.0000000000000000     
   9.9582378900798810E-002  0.15297491147137116        0.0000000000000000     
  0.10128920741011686       0.16043558535875121        0.0000000000000000     
  0.10290648158442070       0.16801275736249482        0.0000000000000000     
   8.8748789575703188E-002  0.13783812869285361        0.0000000000000000     
   9.0525443422477522E-002  0.14509485001758329        0.0000000000000000     
   9.2220000436076546E-002  0.15246612348777744        0.0000000000000000     
   9.3832460616500246E-002  0.15995194910343608        0.0000000000000000     
   9.5362823963748622E-002  0.16755232686455912        0.0000000000000000     
   8.1822259980040016E-002  0.13730864593969150        0.0000000000000000     
   8.3485086893434882E-002  0.14459336344257834        0.0000000000000000     
   8.5071967962179307E-002  0.15199103409036796        0.0000000000000000     
   8.6582903186273208E-002  0.15950165788306045        0.0000000000000000     
   8.8017892565716654E-002  0.16712523482065572        0.0000000000000000     
   7.5120470090130453E-002  0.13681460978621557        0.0000000000000000     
   7.6664926469338604E-002  0.14412627597533981        0.0000000000000000     
   7.8138281479107022E-002  0.15154964327914272        0.0000000000000000     
   7.9540535119435776E-002  0.15908471169762434        0.0000000000000000     
   8.0871687390324784E-002  0.16673148123078466        0.0000000000000000     
   6.8643419905974473E-002  0.13635602023242580        0.0000000000000000     
   7.0064962150188662E-002  0.14369358761586770        0.0000000000000000     
   7.1418940986859816E-002  0.15114195105410169        0.0000000000000000     
   7.2705356415987951E-002  0.15870111054712779        0.0000000000000000     
   7.3924208437573038E-002  0.16637106609494598        0.0000000000000000     
  0.10290648158442070       0.16801275736249482        0.0000000000000000     
  0.10443775227736662       0.17569095806457866        0.0000000000000000     
  0.10588657034261102       0.18345471804697913        0.0000000000000000     
  0.10725293578015387       0.19130403730969639        0.0000000000000000     
  0.10853684858999518       0.19923891585273035        0.0000000000000000     
   9.5362823963748622E-002  0.16755232686455912        0.0000000000000000     
   9.6809923167883866E-002  0.17525353768993870        0.0000000000000000     
   9.8172590918968156E-002  0.18304186249836682        0.0000000000000000     
   9.9450827217001492E-002  0.19091730128984349        0.0000000000000000     
  0.10064463206198389       0.19887985406436878        0.0000000000000000     
   8.8017892565716654E-002  0.16712523482065572        0.0000000000000000     
   8.9372809668467307E-002  0.17484938953394924        0.0000000000000000     
   9.0643528062482867E-002  0.18266174665373638        0.0000000000000000     
   9.1830047747763308E-002  0.19056230618001710        0.0000000000000000     
   9.2932368724308656E-002  0.19855106811279150        0.0000000000000000     
   8.0871687390324784E-002  0.16673148123078466        0.0000000000000000     
   8.2126411779116962E-002  0.17447851359661032        0.0000000000000000     
   8.3299381773155143E-002  0.18231437051308783        0.0000000000000000     
   8.4390597372439313E-002  0.19023905198021726        0.0000000000000000     
   8.5400058576969501E-002  0.19825255799799851        0.0000000000000000     
   7.3924208437573038E-002  0.16637106609494598        0.0000000000000000     
   7.5070729499832803E-002  0.17414090987792191        0.0000000000000000     
   7.6140152050984969E-002  0.18199973407642120        0.0000000000000000     
   7.7132476091029523E-002  0.18994753869044384        0.0000000000000000     
   7.8047701619966450E-002  0.19798432371998981        0.0000000000000000     
  0.10853684858999518       0.19923891585273035        0.0000000000000000     
  0.10974226198130514       0.20725789078738729        0.0000000000000000     
  0.11087312916325397       0.21535949922497352        0.0000000000000000     
  0.11192945013584166       0.22354374116548895        0.0000000000000000     
  0.11291122489906819       0.23181061660893368        0.0000000000000000     
  0.10064463206198389       0.19887985406436878        0.0000000000000000     
  0.10175990558856990       0.20692504128089248        0.0000000000000000     
  0.10280254793141412       0.21504838339836449        0.0000000000000000     
  0.10377255909051653       0.22324988041678487        0.0000000000000000     
  0.10466993906587713       0.23152953233615353        0.0000000000000000     
   9.2932368724308656E-002  0.19855106811279150        0.0000000000000000     
   9.3956702678205953E-002  0.20662163371495415        0.0000000000000000     
   9.4909261295542294E-002  0.21476760424939970        0.0000000000000000     
   9.5790044576317609E-002  0.22298897971612813        0.0000000000000000     
   9.6599052520531956E-002  0.23128576011513954        0.0000000000000000     
   8.5400058576969501E-002  0.19825255799799851        0.0000000000000000     
   8.6332653250213373E-002  0.20634766808957225        0.0000000000000000     
   8.7193269255638500E-002  0.21451716177807900        0.0000000000000000     
   8.7981906593244952E-002  0.22276103906351885        0.0000000000000000     
   8.8698565263032672E-002  0.23107929994589177        0.0000000000000000     
   7.8047701619966450E-002  0.19798432371998981        0.0000000000000000     
   7.8887757304592090E-002  0.20610314440474684        0.0000000000000000     
   7.9654571811702768E-002  0.21429705598440255        0.0000000000000000     
   8.0348145141298510E-002  0.22256605845895699        0.0000000000000000     
   8.0968477293379290E-002  0.23091015182841010        0.0000000000000000     
  0.11291122489906819       0.23181061660893368        0.0000000000000000     
  0.11384615956902457       0.24017615217501287        0.0000000000000000     
  0.11476196026180183       0.24865637448343181        0.0000000000000000     
  0.11565862697739991       0.25725128353419047        0.0000000000000000     
  0.11653615971581888       0.26596087932728885        0.0000000000000000     
  0.10466993906587713       0.23152953233615353        0.0000000000000000     
  0.10549941271793789       0.23991048405770732        0.0000000000000000     
  0.10626570490714078       0.24841588048268298        0.0000000000000000     
  0.10696881563348573       0.25704572161108058        0.0000000000000000     
  0.10760874489697284       0.26580000744290011        0.0000000000000000     
   9.6599052520531956E-002  0.23128576011513954        0.0000000000000000     
   9.7326961908546381E-002  0.23968425686472089        0.0000000000000000     
   9.7964449520721933E-002  0.24821078138315922        0.0000000000000000     
   9.8511515357058640E-002  0.25686533367045461        0.0000000000000000     
   9.8968159417556462E-002  0.26564791372660695        0.0000000000000000     
   8.8698565263032672E-002  0.23107929994589177        0.0000000000000000     
   8.9328807140850036E-002  0.23949747059605364        0.0000000000000000     
   8.9858194102545350E-002  0.24804107718486057        0.0000000000000000     
   9.0286726148118612E-002  0.25671011971231250        0.0000000000000000     
   9.0614403277569783E-002  0.26550459817840949        0.0000000000000000     
   8.0968477293379290E-002  0.23091015182841010        0.0000000000000000     
   8.1504948414848885E-002  0.23935012525170554        0.0000000000000000     
   8.1946938652610990E-002  0.24790676788778698        0.0000000000000000     
   8.2294448006665646E-002  0.25658007973665437        0.0000000000000000     
   8.2547476477012841E-002  0.26537006079830772        0.0000000000000000     
  0.11653615971581888       0.26596087932728885        0.0000000000000000     
  0.11733500207936953       0.27494992616249436        0.0000000000000000     
  0.11799559767036273       0.28438318833957443        0.0000000000000000     
  0.11851794648879846       0.29426066585852900        0.0000000000000000     
  0.11890204853467673       0.30458235871935807        0.0000000000000000     
  0.10760874489697284       0.26580000744290011        0.0000000000000000     
  0.10816655658725129       0.27481094752137808        0.0000000000000000     
  0.10862331459397036       0.28421075138975121        0.0000000000000000     
  0.10897901891713005       0.29399941904801946        0.0000000000000000     
  0.10923366955673039       0.30417695049618276        0.0000000000000000     
   9.8968159417556462E-002  0.26564791372660695        0.0000000000000000     
   9.9345408730910800E-002  0.27465680636949602        0.0000000000000000     
   9.9654290325816991E-002  0.28399029641700141        0.0000000000000000     
   9.9894804202275062E-002  0.29364838386912312        0.0000000000000000     
  0.10006695036028501       0.30363106872586132        0.0000000000000000     
   9.0614403277569783E-002  0.26550459817840949        0.0000000000000000     
   9.0871558510348088E-002  0.27448750270684813        0.0000000000000000     
   9.1088524865902687E-002  0.28372182342132501        0.0000000000000000     
   9.1265302344233509E-002  0.29320756032184031        0.0000000000000000     
   9.1401890945340611E-002  0.30294471340839374        0.0000000000000000     
   8.2547476477012841E-002  0.26537006079830772        0.0000000000000000     
   8.2745005925563206E-002  0.27430303653343452        0.0000000000000000     
   8.2926018214227390E-002  0.28340533240272214        0.0000000000000000     
   8.3090513343005365E-002  0.29267694840617065        0.0000000000000000     
   8.3238491311897173E-002  0.30211788454378008        0.0000000000000000     
   4.5183478272263156E-002   5.9499832399791633E-002   0.0000000000000000     
   4.7730742570471177E-002   6.4991318009733443E-002   0.0000000000000000     
   5.0130618806313185E-002   7.0661949104355401E-002   0.0000000000000000     
   5.2383106979789179E-002   7.6511725683657508E-002   0.0000000000000000     
   5.4488207090899174E-002   8.2540647747639750E-002   0.0000000000000000     
   4.1225113719931414E-002   5.8828837955138123E-002   0.0000000000000000     
   4.3440294100954492E-002   6.4334919291815507E-002   0.0000000000000000     
   4.5549501931785807E-002   7.0023106744439831E-002   0.0000000000000000     
   4.7552737212425360E-002   7.5893400313011061E-002   0.0000000000000000     
   4.9449999942873135E-002   8.1945799997529267E-002   0.0000000000000000     
   3.7219792228318060E-002   5.8216070597759857E-002   0.0000000000000000     
   3.9159280015000103E-002   6.3737246927989016E-002   0.0000000000000000     
   4.1020530809663384E-002   6.9442366986798898E-002   0.0000000000000000     
   4.2803544612307919E-002   7.5331430774189509E-002   0.0000000000000000     
   4.4508321422933685E-002   8.1404438290160835E-002   0.0000000000000000     
   3.3167513797423095E-002   5.7661530327656814E-002   0.0000000000000000     
   3.4887700312608010E-002   6.3198300918253972E-002   0.0000000000000000     
   3.6543705439945930E-002   6.8919729831432644E-002   0.0000000000000000     
   3.8135529179436869E-002   7.4825817067192810E-002   0.0000000000000000     
   3.9663171531080801E-002   8.0916562625534469E-002   0.0000000000000000     
   2.9068278427246519E-002   5.7165217144829000E-002   0.0000000000000000     
   3.0625554993778212E-002   6.2718081262610387E-002   0.0000000000000000     
   3.2119025822633436E-002   6.8455195278341027E-002   0.0000000000000000     
   3.3548690913812199E-002   7.4376559192020950E-002   0.0000000000000000     
   3.4914550267314499E-002   8.0482173003650154E-002   0.0000000000000000     
   5.4488207090899174E-002   8.2540647747639750E-002   0.0000000000000000     
   5.6490117184561844E-002   8.8738519583173345E-002   0.0000000000000000     
   5.8433035305695886E-002   9.5095145477129439E-002   0.0000000000000000     
   6.0316961454301314E-002  0.10161052542950808        0.0000000000000000     
   6.2141895630378113E-002  0.10828465944030924        0.0000000000000000     
   4.9449999942873135E-002   8.1945799997529267E-002   0.0000000000000000     
   5.1268353848732143E-002   8.8167852294520413E-002   0.0000000000000000     
   5.3034862655605343E-002   9.4547103700510574E-002   0.0000000000000000     
   5.4749526363492736E-002  0.10108355421549972        0.0000000000000000     
   5.6412344972394328E-002  0.10777720383948786        0.0000000000000000     
   4.4508321422933685E-002   8.1404438290160835E-002   0.0000000000000000     
   4.6151067504259270E-002   8.7647610017418762E-002   0.0000000000000000     
   4.7747989119003235E-002   9.4047166438669186E-002   0.0000000000000000     
   4.9299086267165580E-002  0.10060310755391211        0.0000000000000000     
   5.0804358948746312E-002  0.10731543336314750        0.0000000000000000     
   3.9663171531080801E-002   8.0916562625534469E-002   0.0000000000000000     
   4.1138258151143227E-002   8.7177792751868405E-002   0.0000000000000000     
   4.2572414695889564E-002   9.3595333691605304E-002   0.0000000000000000     
   4.3965641165319848E-002  0.10016918544474525        0.0000000000000000     
   4.5317937559434057E-002  0.10689934801128818        0.0000000000000000     
   3.4914550267314499E-002   8.0482173003650154E-002   0.0000000000000000     
   3.6229925789383992E-002   8.6758400497869287E-002   0.0000000000000000     
   3.7508139386264336E-002   9.3191605459318941E-002   0.0000000000000000     
   3.8749191057955525E-002   9.9781787887999157E-002   0.0000000000000000     
   3.9953080804457572E-002  0.10652894778390991        0.0000000000000000     
   6.2141895630378113E-002  0.10828465944030924        0.0000000000000000     
   6.3894819539962261E-002  0.11510425276982583        0.0000000000000000     
   6.5562714889089699E-002  0.12205601067835081        0.0000000000000000     
   6.7145581677760455E-002  0.12913993316588410        0.0000000000000000     
   6.8643419905974473E-002  0.13635602023242580        0.0000000000000000     
   5.6412344972394328E-002  0.10777720383948786        0.0000000000000000     
   5.8010785401745923E-002  0.11461627241204163        0.0000000000000000     
   5.9532314570983340E-002  0.12158897977272762        0.0000000000000000     
   6.0976932480106570E-002  0.12869532592154589        0.0000000000000000     
   6.2344639129115607E-002  0.13593531085849636        0.0000000000000000     
   5.0804358948746312E-002  0.10731543336314750        0.0000000000000000     
   5.2251960441985698E-002  0.11417328959791212        0.0000000000000000     
   5.3630044025123988E-002  0.12116582198974266        0.0000000000000000     
   5.4938609698161195E-002  0.12829303053863911        0.0000000000000000     
   5.6177657461097312E-002  0.13555491524460148        0.0000000000000000     
   4.5317937559434057E-002  0.10689934801128818        0.0000000000000000     
   4.6618344660681550E-002  0.11377530432743732        0.0000000000000000     
   4.7855903251511629E-002  0.12078653732939587        0.0000000000000000     
   4.9030613331924322E-002  0.12793304701716379        0.0000000000000000     
   5.0142474901919594E-002  0.13521483339074111        0.0000000000000000     
   3.9953080804457572E-002  0.10652894778390991        0.0000000000000000     
   4.1109938057833487E-002  0.11342231660061725        0.0000000000000000     
   4.2209892250146271E-002  0.12045112579168729        0.0000000000000000     
   4.3252943381395931E-002  0.12761537535711995        0.0000000000000000     
   4.4239091451582481E-002  0.13491506529691527        0.0000000000000000     
   6.8643419905974473E-002  0.13635602023242580        0.0000000000000000     
   7.0064962150188662E-002  0.14369358761586770        0.0000000000000000     
   7.1418940986859816E-002  0.15114195105410169        0.0000000000000000     
   7.2705356415987951E-002  0.15870111054712779        0.0000000000000000     
   7.3924208437573038E-002  0.16637106609494598        0.0000000000000000     
   6.2344639129115607E-002  0.13593531085849636        0.0000000000000000     
   6.3641742328365503E-002  0.14329722106487608        0.0000000000000000     
   6.4874549888211314E-002  0.15076934302198206        0.0000000000000000     
   6.6043061808653020E-002  0.15835167672981426        0.0000000000000000     
   6.7147278089690648E-002  0.16604422218837267        0.0000000000000000     
   5.6177657461097312E-002  0.13555491524460148        0.0000000000000000     
   5.7351815396249596E-002  0.14293909902307897        0.0000000000000000     
   5.8465711585935290E-002  0.15043320478952091        0.0000000000000000     
   5.9519346030154401E-002  0.15803723254392715        0.0000000000000000     
   6.0512718728906914E-002  0.16575118228629782        0.0000000000000000     
   5.0142474901919594E-002  0.13521483339074111        0.0000000000000000     
   5.1195181353840935E-002  0.14261922149047637        0.0000000000000000     
   5.2192426080031745E-002  0.15013353635671819        0.0000000000000000     
   5.3134209080492052E-002  0.15775777798946652        0.0000000000000000     
   5.4020530355221807E-002  0.16549194638872139        0.0000000000000000     
   4.4239091451582481E-002  0.13491506529691527        0.0000000000000000     
   4.5171840201139526E-002  0.14233758846706829        0.0000000000000000     
   4.6054693370500679E-002  0.14987033772357394        0.0000000000000000     
   4.6887650959665961E-002  0.15751331306643232        0.0000000000000000     
   4.7670712968635370E-002  0.16526651449564336        0.0000000000000000     
   7.3924208437573038E-002  0.16637106609494598        0.0000000000000000     
   7.5070729499832803E-002  0.17414090987792191        0.0000000000000000     
   7.6140152050984969E-002  0.18199973407642120        0.0000000000000000     
   7.7132476091029523E-002  0.18994753869044384        0.0000000000000000     
   7.8047701619966450E-002  0.19798432371998981        0.0000000000000000     
   6.7147278089690648E-002  0.16604422218837267        0.0000000000000000     
   6.8183609558101085E-002  0.17383633454147640        0.0000000000000000     
   6.9148467040661243E-002  0.18171736893294449        0.0000000000000000     
   7.0041850537371136E-002  0.18968732536277685        0.0000000000000000     
   7.0863760048230751E-002  0.19774620383097360        0.0000000000000000     
   6.0512718728906914E-002  0.16575118228629782        0.0000000000000000     
   6.1442898681408009E-002  0.17356454375086619        0.0000000000000000     
   6.2306954886872830E-002  0.18146680667186571        0.0000000000000000     
   6.3104887345301425E-002  0.18945797104929632        0.0000000000000000     
   6.3836696056693745E-002  0.19753803688315807        0.0000000000000000     
   5.4020530355221807E-002  0.16549194638872139        0.0000000000000000     
   5.4848596869753553E-002  0.17332553750609134        0.0000000000000000     
   5.5615615589619728E-002  0.18124804729318492        0.0000000000000000     
   5.6321586514820353E-002  0.18925947575000224        0.0000000000000000     
   5.6966509645355400E-002  0.19735982287654319        0.0000000000000000     
   4.7670712968635370E-002  0.16526651449564336        0.0000000000000000     
   4.8400704123137732E-002  0.17311931580715173        0.0000000000000000     
   4.9074449148901918E-002  0.18106109079690216        0.0000000000000000     
   4.9691948045927921E-002  0.18909183946489458        0.0000000000000000     
   5.0253200814215734E-002  0.19721156181112898        0.0000000000000000     
   7.8047701619966450E-002  0.19798432371998981        0.0000000000000000     
   7.8887757304592090E-002  0.20610314440474684        0.0000000000000000     
   7.9654571811702768E-002  0.21429705598440255        0.0000000000000000     
   8.0348145141298510E-002  0.22256605845895699        0.0000000000000000     
   8.0968477293379290E-002  0.23091015182841010        0.0000000000000000     
   7.0863760048230751E-002  0.19774620383097360        0.0000000000000000     
   7.1613035989109466E-002  0.20588755918282226        0.0000000000000000     
   7.2288518775876678E-002  0.21410494626361035        0.0000000000000000     
   7.2890208408532359E-002  0.22239836507333791        0.0000000000000000     
   7.3418104887076535E-002  0.23076781561200496        0.0000000000000000     
   6.3836696056693745E-002  0.19753803688315807        0.0000000000000000     
   6.4499510451532849E-002  0.20570040894614280        0.0000000000000000     
   6.5090459960301786E-002  0.21393849201094250        0.0000000000000000     
   6.5609544583000570E-002  0.22225228607755707        0.0000000000000000     
   6.6056764319629160E-002  0.23064179114598665        0.0000000000000000     
   5.6966509645355400E-002  0.19735982287654319        0.0000000000000000     
   5.7547180691862224E-002  0.20554169369470857        0.0000000000000000     
   5.8060395364978118E-002  0.21379769322639902        0.0000000000000000     
   5.8506153664703096E-002  0.22212782147161456        0.0000000000000000     
   5.8884455591037152E-002  0.23053207843035523        0.0000000000000000     
   5.0253200814215734E-002  0.19721156181112898        0.0000000000000000     
   5.0756046710097584E-002  0.20541141342851943        0.0000000000000000     
   5.1198324989905661E-002  0.21368254990997984        0.0000000000000000     
   5.1580035653639979E-002  0.22202497125551018        0.0000000000000000     
   5.1901178701300524E-002  0.23043867746511057        0.0000000000000000     
   8.0968477293379290E-002  0.23091015182841010        0.0000000000000000     
   8.1504948414848885E-002  0.23935012525170554        0.0000000000000000     
   8.1946938652610990E-002  0.24790676788778698        0.0000000000000000     
   8.2294448006665646E-002  0.25658007973665437        0.0000000000000000     
   8.2547476477012841E-002  0.26537006079830772        0.0000000000000000     
   7.3418104887076535E-002  0.23076781561200496        0.0000000000000000     
   7.3868966003605568E-002  0.23922724173197557        0.0000000000000000     
   7.4239549550215791E-002  0.24779058728561376        0.0000000000000000     
   7.4529855526907260E-002  0.25645785227291962        0.0000000000000000     
   7.4739883933679918E-002  0.26522903669389308        0.0000000000000000     
   6.6056764319629160E-002  0.23064179114598665        0.0000000000000000     
   6.6434440180182797E-002  0.23911384093716259        0.0000000000000000     
   6.6744893174656733E-002  0.24767526917201632        0.0000000000000000     
   6.6988123303050942E-002  0.25632607585054779        0.0000000000000000     
   6.7164130565365424E-002  0.26506626097275715        0.0000000000000000     
   5.8884455591037152E-002  0.23053207843035523        0.0000000000000000     
   5.9201370944580618E-002  0.23900992286726663        0.0000000000000000     
   5.9462969525933801E-002  0.24756081354699458        0.0000000000000000     
   5.9669251335096707E-002  0.25618475046953904        0.0000000000000000     
   5.9820216372069329E-002  0.26488173363489986        0.0000000000000000     
   5.1901178701300524E-002  0.23043867746511057        0.0000000000000000     
   5.2169758296798978E-002  0.23891548752228772        0.0000000000000000     
   5.2393778604046981E-002  0.24744722041054859        0.0000000000000000     
   5.2573239623044540E-002  0.25603387612989315        0.0000000000000000     
   5.2708141353791649E-002  0.26467545468032128        0.0000000000000000     
   8.2547476477012841E-002  0.26537006079830772        0.0000000000000000     
   8.2745005925563206E-002  0.27430303653343452        0.0000000000000000     
   8.2926018214227390E-002  0.28340533240272214        0.0000000000000000     
   8.3090513343005365E-002  0.29267694840617065        0.0000000000000000     
   8.3238491311897173E-002  0.30211788454378008        0.0000000000000000     
   7.4739883933679918E-002  0.26522903669389308        0.0000000000000000     
   7.4910601945413186E-002  0.27409773133663073        0.0000000000000000     
   7.5082976736986398E-002  0.28305752698922909        0.0000000000000000     
   7.5257008308399570E-002  0.29210842365168832        0.0000000000000000     
   7.5432696659652715E-002  0.30125042132400831        0.0000000000000000     
   6.7164130565365424E-002  0.26506626097275715        0.0000000000000000     
   6.7313197538755115E-002  0.27386591060381260        0.0000000000000000     
   6.7475606800374982E-002  0.28269511080888265        0.0000000000000000     
   6.7651358350225038E-002  0.29155386158796726        0.0000000000000000     
   6.7840452188305228E-002  0.30044216294106646        0.0000000000000000     
   5.9820216372069329E-002  0.26488173363489986        0.0000000000000000     
   5.9952792705589029E-002  0.27360757433498012        0.0000000000000000     
   6.0103908404393169E-002  0.28231808386168267        0.0000000000000000     
   6.0273563468481735E-002  0.29101326221500751        0.0000000000000000     
   6.0461757897854740E-002  0.29969310939495453        0.0000000000000000     
   5.2708141353791649E-002  0.26467545468032128        0.0000000000000000     
   5.2829387445914908E-002  0.27332272253013323        0.0000000000000000     
   5.2967881549040932E-002  0.28192644614762913        0.0000000000000000     
   5.3123623663169701E-002  0.29048662553280896        0.0000000000000000     
   5.3296613788301236E-002  0.29900326068567262        0.0000000000000000     
   2.9068278427246519E-002   5.7165217144829000E-002   0.0000000000000000     
   3.0625554993778212E-002   6.2718081262610387E-002   0.0000000000000000     
   3.2119025822633436E-002   6.8455195278341027E-002   0.0000000000000000     
   3.3548690913812199E-002   7.4376559192020950E-002   0.0000000000000000     
   3.4914550267314499E-002   8.0482173003650154E-002   0.0000000000000000     
   2.5031454627301730E-002   5.6727892713305660E-002   0.0000000000000000     
   2.6441288133724788E-002   6.2295472243556305E-002   0.0000000000000000     
   2.7783916534155212E-002   6.8046643244647584E-002   0.0000000000000000     
   2.9059339828593000E-002   7.3981405716579518E-002   0.0000000000000000     
   3.0267558017038152E-002   8.0099759659352066E-002   0.0000000000000000     
   2.1166410907102123E-002   5.6350318697116014E-002   0.0000000000000000     
   2.2403343807661832E-002   6.1929358143589873E-002   0.0000000000000000     
   2.3575802150940572E-002   6.7691953647475864E-002   0.0000000000000000     
   2.4683785936938346E-002   7.3638105208774035E-002   0.0000000000000000     
   2.5727295165655147E-002   7.9767812827484311E-002   0.0000000000000000     
   1.7473147266647705E-002   5.6032495096260078E-002   0.0000000000000000     
   1.8511722015589347E-002   6.1619738962711043E-002   0.0000000000000000     
   1.9494682672989521E-002   6.7391126486825867E-002   0.0000000000000000     
   2.0422029238848238E-002   7.3346657668604445E-002   0.0000000000000000     
   2.1293761713165493E-002   7.9486332508046903E-002   0.0000000000000000     
   1.3951663705938469E-002   5.5774421910737830E-002   0.0000000000000000     
   1.4766422757507317E-002   6.1366614700919857E-002   0.0000000000000000     
   1.5540558100302053E-002   6.7144161762697524E-002   0.0000000000000000     
   1.6274069734322674E-002   7.3107063096070860E-002   0.0000000000000000     
   1.6966957659569182E-002   7.9255318701039856E-002   0.0000000000000000     
   3.4914550267314499E-002   8.0482173003650154E-002   0.0000000000000000     
   3.6229925789383992E-002   8.6758400497869287E-002   0.0000000000000000     
   3.7508139386264336E-002   9.3191605459318941E-002   0.0000000000000000     
   3.8749191057955525E-002   9.9781787887999157E-002   0.0000000000000000     
   3.9953080804457572E-002  0.10652894778390991        0.0000000000000000     
   3.0267558017038152E-002   8.0099759659352066E-002   0.0000000000000000     
   3.1425341913676338E-002   8.6388838760286912E-002   0.0000000000000000     
   3.2549462332693249E-002   9.2835776706705814E-002   0.0000000000000000     
   3.3639919274088874E-002   9.9440573498608700E-002   0.0000000000000000     
   3.4696712737863220E-002  0.10620322913599559        0.0000000000000000     
   2.5727295165655147E-002   7.9767812827484311E-002   0.0000000000000000     
   2.6723778018715026E-002   8.6068513043986813E-002   0.0000000000000000     
   2.7690682677742020E-002   9.2527642398661666E-002   0.0000000000000000     
   2.8628009142736124E-002   9.9145200891508786E-002   0.0000000000000000     
   2.9535757413697340E-002  0.10592118852252824        0.0000000000000000     
   2.1293761713165493E-002   7.9486332508046903E-002   0.0000000000000000     
   2.2125234104500041E-002   8.5797423348968976E-002   0.0000000000000000     
   2.2931800421410631E-002   9.2267202535186499E-002   0.0000000000000000     
   2.3713460663897273E-002   9.8895670066699443E-002   0.0000000000000000     
   2.4470214831959963E-002  0.10568282594350784        0.0000000000000000     
   1.6966957659569182E-002   7.9255318701039856E-002   0.0000000000000000     
   1.7629710171031383E-002   8.5575569675233359E-002   0.0000000000000000     
   1.8272815563699099E-002   9.2054457116280297E-002   0.0000000000000000     
   1.8896273837572326E-002   9.8691981024180642E-002   0.0000000000000000     
   1.9500084992651066E-002  0.10548814139893438        0.0000000000000000     
   3.9953080804457572E-002  0.10652894778390991        0.0000000000000000     
   4.1109938057833487E-002  0.11342231660061725        0.0000000000000000     
   4.2209892250146271E-002  0.12045112579168729        0.0000000000000000     
   4.3252943381395931E-002  0.12761537535711995        0.0000000000000000     
   4.4239091451582481E-002  0.13491506529691527        0.0000000000000000     
   3.4696712737863220E-002  0.10620322913599559        0.0000000000000000     
   3.5711158989384137E-002  0.11311254381626538        0.0000000000000000     
   3.6674574294019532E-002  0.12015731773681691        0.0000000000000000     
   3.7586958651769364E-002  0.12733755089765020        0.0000000000000000     
   3.8448312062633661E-002  0.13465324329876521        0.0000000000000000     
   2.9535757413697340E-002  0.10592118852252824        0.0000000000000000     
   3.0406425811276151E-002  0.11284420337319520        0.0000000000000000     
   3.1232512656123007E-002  0.11990284352498483        0.0000000000000000     
   3.2014017948237918E-002  0.12709710897789711        0.0000000000000000     
   3.2750941687620876E-002  0.13442699973193206        0.0000000000000000     
   2.4470214831959963E-002  0.10568282594350784        0.0000000000000000     
   2.5195738523509505E-002  0.11261729527140669        0.0000000000000000     
   2.5883707336456712E-002  0.11968770315619096        0.0000000000000000     
   2.6534121270801594E-002  0.12689404959786069        0.0000000000000000     
   2.7146980326544137E-002  0.13423633459641587        0.0000000000000000     
   1.9500084992651066E-002  0.10548814139893438        0.0000000000000000     
   2.0079097126084206E-002  0.11243181951089985        0.0000000000000000     
   2.0628158335020651E-002  0.11951189663043539        0.0000000000000000     
   2.1147268619460386E-002  0.12672837275754098        0.0000000000000000     
   2.1636427979403426E-002  0.13408124789221662        0.0000000000000000     
   4.4239091451582481E-002  0.13491506529691527        0.0000000000000000     
   4.5171840201139526E-002  0.14233758846706829        0.0000000000000000     
   4.6054693370500679E-002  0.14987033772357394        0.0000000000000000     
   4.6887650959665961E-002  0.15751331306643232        0.0000000000000000     
   4.7670712968635370E-002  0.16526651449564336        0.0000000000000000     
   3.8448312062633661E-002  0.13465324329876521        0.0000000000000000     
   3.9262178588023035E-002  0.14209197774325802        0.0000000000000000     
   4.0032102289348101E-002  0.14964133703422466        0.0000000000000000     
   4.0758083166608880E-002  0.15730132117166520        0.0000000000000000     
   4.1440121219805344E-002  0.16507193015557953        0.0000000000000000     
   3.2750941687620876E-002  0.13442699973193206        0.0000000000000000     
   3.3446583164369159E-002  0.14188016710944890        0.0000000000000000     
   3.4104241668580032E-002  0.14944426243280681        0.0000000000000000     
   3.4723917200253494E-002  0.15711928570200576        0.0000000000000000     
   3.5305609759389532E-002  0.16490523691704578        0.0000000000000000     
   2.7146980326544137E-002  0.13423633459641587        0.0000000000000000     
   2.7725053930177906E-002  0.14170215656564095        0.0000000000000000     
   2.8271111508196455E-002  0.14927911391932031        0.0000000000000000     
   2.8785153060599811E-002  0.15696720665745403        0.0000000000000000     
   2.9267178587387938E-002  0.16476643478004205        0.0000000000000000     
   2.1636427979403426E-002  0.13408124789221662        0.0000000000000000     
   2.2097590885449256E-002  0.14155794611183412        0.0000000000000000     
   2.2532711808197395E-002  0.14914589149376523        0.0000000000000000     
   2.2941790747647826E-002  0.15684508403800998        0.0000000000000000     
   2.3324827703800552E-002  0.16465552374456832        0.0000000000000000     
   4.7670712968635370E-002  0.16526651449564336        0.0000000000000000     
   4.8400704123137732E-002  0.17311931580715173        0.0000000000000000     
   4.9074449148901918E-002  0.18106109079690216        0.0000000000000000     
   4.9691948045927921E-002  0.18909183946489458        0.0000000000000000     
   5.0253200814215734E-002  0.19721156181112898        0.0000000000000000     
   4.1440121219805344E-002  0.16507193015557953        0.0000000000000000     
   4.2074604917606978E-002  0.17294234441908607        0.0000000000000000     
   4.2657922728683212E-002  0.18090174439530299        0.0000000000000000     
   4.3190074653034059E-002  0.18895013008423031        0.0000000000000000     
   4.3671060690659520E-002  0.19708750148586812        0.0000000000000000     
   3.5305609759389532E-002  0.16490523691704578        0.0000000000000000     
   3.5845683729207663E-002  0.17279108910693294        0.0000000000000000     
   3.6340503492927362E-002  0.18076581530067320        0.0000000000000000     
   3.6790069050548650E-002  0.18882941549826660        0.0000000000000000     
   3.7194380402071507E-002  0.19698188969971311        0.0000000000000000     
   2.9267178587387938E-002  0.16476643478004205        0.0000000000000000     
   2.9713940557939821E-002  0.17266554987069227        0.0000000000000000     
   3.0122191441634402E-002  0.18065330351301273        0.0000000000000000     
   3.0491931238471697E-002  0.18872969570700326        0.0000000000000000     
   3.0823159948451695E-002  0.19689472645266407        0.0000000000000000     
   2.3324827703800552E-002  0.16465552374456832        0.0000000000000000     
   2.3679375403803431E-002  0.17256572671036421        0.0000000000000000     
   2.4002986574804312E-002  0.18056420903232162        0.0000000000000000     
   2.4295661216803197E-002  0.18865097071044051        0.0000000000000000     
   2.4557399329800087E-002  0.19682601174472092        0.0000000000000000     
   5.0253200814215734E-002  0.19721156181112898        0.0000000000000000     
   5.0756046710097584E-002  0.20541141342851943        0.0000000000000000     
   5.1198324989905661E-002  0.21368254990997984        0.0000000000000000     
   5.1580035653639979E-002  0.22202497125551018        0.0000000000000000     
   5.1901178701300524E-002  0.23043867746511057        0.0000000000000000     
   4.3671060690659520E-002  0.19708750148586812        0.0000000000000000     
   4.4100214706122062E-002  0.20530326793237760        0.0000000000000000     
   4.4476870563984118E-002  0.21358683875592022        0.0000000000000000     
   4.4801028264245729E-002  0.22193821395649585        0.0000000000000000     
   4.5072687806906861E-002  0.23035739353410459        0.0000000000000000     
   3.7194380402071507E-002  0.19698188969971311        0.0000000000000000     
   3.7553790879818749E-002  0.20521095699108519        0.0000000000000000     
   3.7868653816113207E-002  0.21350433645845521        0.0000000000000000     
   3.8138969210954866E-002  0.22186202810182323        0.0000000000000000     
   3.8364737064343728E-002  0.23028403192118915        0.0000000000000000     
   3.0823159948451695E-002  0.19689472645266407        0.0000000000000000     
   3.1116775231187676E-002  0.20513448060464221        0.0000000000000000     
   3.1373674746292900E-002  0.21343504301758492        0.0000000000000000     
   3.1593858493767391E-002  0.22179641369149225        0.0000000000000000     
   3.1777326473611124E-002  0.23021859262636418        0.0000000000000000     
   2.4557399329800087E-002  0.19682601174472092        0.0000000000000000     
   2.4789167760228815E-002  0.20507383877304861        0.0000000000000000     
   2.4991933354523221E-002  0.21337895843330928        0.0000000000000000     
   2.5165696112683301E-002  0.22174137072550301        0.0000000000000000     
   2.5310456034709057E-002  0.23016107564962976        0.0000000000000000     
   5.1901178701300524E-002  0.23043867746511057        0.0000000000000000     
   5.2169758296798978E-002  0.23891548752228772        0.0000000000000000     
   5.2393778604046981E-002  0.24744722041054859        0.0000000000000000     
   5.2573239623044540E-002  0.25603387612989315        0.0000000000000000     
   5.2708141353791649E-002  0.26467545468032128        0.0000000000000000     
   4.5072687806906861E-002  0.23035739353410459        0.0000000000000000     
   4.5300509771137476E-002  0.23882916328201770        0.0000000000000000     
   4.5493154736107530E-002  0.24733830899350651        0.0000000000000000     
   4.5650622701817009E-002  0.25588483066857098        0.0000000000000000     
   4.5772913668265934E-002  0.26446872830721108        0.0000000000000000     
   3.8364737064343728E-002  0.23028403192118915        0.0000000000000000     
   3.8554532901895699E-002  0.23874957852624845        0.0000000000000000     
   3.8716932249226704E-002  0.24723789852669653        0.0000000000000000     
   3.8851935106336714E-002  0.25574899192253342        0.0000000000000000     
   3.8959541473225751E-002  0.26428285871375912        0.0000000000000000     
   3.1777326473611124E-002  0.23021859262636418        0.0000000000000000     
   3.1931827689073641E-002  0.23867673325497990        0.0000000000000000     
   3.2065111143404483E-002  0.24714598901011867        0.0000000000000000     
   3.2177176836603628E-002  0.25562635989178040        0.0000000000000000     
   3.2268024768671091E-002  0.26411784589996523        0.0000000000000000     
   2.5310456034709057E-002  0.23016107564962976        0.0000000000000000     
   2.5432394132671315E-002  0.23861062746821218        0.0000000000000000     
   2.5537691418640884E-002  0.24706258044377294        0.0000000000000000     
   2.5626347892617772E-002  0.25551693457631203        0.0000000000000000     
   2.5698363554601974E-002  0.26397368986582948        0.0000000000000000     
   5.2708141353791649E-002  0.26467545468032128        0.0000000000000000     
   5.2829387445914908E-002  0.27332272253013323        0.0000000000000000     
   5.2967881549040932E-002  0.28192644614762913        0.0000000000000000     
   5.3123623663169701E-002  0.29048662553280896        0.0000000000000000     
   5.3296613788301236E-002  0.29900326068567262        0.0000000000000000     
   4.5772913668265934E-002  0.26446872830721108        0.0000000000000000     
   4.5884244137724121E-002  0.27304007645993811        0.0000000000000000     
   4.6008830612461395E-002  0.28154894967726291        0.0000000000000000     
   4.6146673092477788E-002  0.28999534795918575        0.0000000000000000     
   4.6297771577773275E-002  0.29837927130570641        0.0000000000000000     
   3.8959541473225751E-002  0.26428285871375912        0.0000000000000000     
   3.9058625159008015E-002  0.27278835739506058        0.0000000000000000     
   3.9168059972797709E-002  0.28121434646112492        0.0000000000000000     
   3.9287845914594867E-002  0.28956082591195187        0.0000000000000000     
   3.9417982984399441E-002  0.29782779574754181        0.0000000000000000     
   3.2268024768671091E-002  0.26411784589996523        0.0000000000000000     
   3.2352530509766608E-002  0.27256756533550075        0.0000000000000000     
   3.2445569630049874E-002  0.28092263649921484        0.0000000000000000     
   3.2547142129520923E-002  0.28918305939110744        0.0000000000000000     
   3.2657248008179734E-002  0.29734883401117873        0.0000000000000000     
   2.5698363554601974E-002  0.26397368986582948        0.0000000000000000     
   2.5765960189999881E-002  0.27237770028125857        0.0000000000000000     
   2.5841359584217877E-002  0.28067381979153294        0.0000000000000000     
   2.5924561737255963E-002  0.28886204839665247        0.0000000000000000     
   2.6015566649114145E-002  0.29694238609661716        0.0000000000000000     
   1.3951663705938469E-002   5.5774421910737830E-002   0.0000000000000000     
   1.4766422757507317E-002   6.1366614700919857E-002   0.0000000000000000     
   1.5540558100302053E-002   6.7144161762697524E-002   0.0000000000000000     
   1.6274069734322674E-002   7.3107063096070860E-002   0.0000000000000000     
   1.6966957659569182E-002   7.9255318701039856E-002   0.0000000000000000     
   1.0502989582702248E-002   5.5574748687975933E-002   0.0000000000000000     
   1.1089417841038639E-002   6.1169847508727337E-002   0.0000000000000000     
   1.1651302878344583E-002   6.6951632455828997E-002   0.0000000000000000     
   1.2188644694620079E-002   7.2920103529280883E-002   0.0000000000000000     
   1.2701443289865130E-002   7.9075260729083025E-002   0.0000000000000000     
   7.0281542546668779E-003   5.5432124975401030E-002   0.0000000000000000     
   7.4026790738061926E-003   6.1029299536644571E-002   0.0000000000000000     
   7.7647914525835297E-003   6.6814111546958307E-002   0.0000000000000000     
   8.1144913909988858E-003   7.2786561006342232E-002   0.0000000000000000     
   8.4517788890522624E-003   7.8946647914796331E-002   0.0000000000000000     
   3.5271577218323521E-003   5.5346550773013120E-002   0.0000000000000000     
   3.7062064558099788E-003   6.0944970784671565E-002   0.0000000000000000     
   3.8810238230188908E-003   6.6731599036085498E-002   0.0000000000000000     
   4.0516098234590894E-003   7.2706435527254892E-002   0.0000000000000000     
   4.2179644571305732E-003   7.8869480258179733E-002   0.0000000000000000     
  -1.5801325525810483E-011   5.5318026080812203E-002   0.0000000000000000     
  -1.2950003916434305E-011   6.0916861252808305E-002   0.0000000000000000     
  -1.0349332068421147E-011   6.6704094923210513E-002   0.0000000000000000     
  -7.9993083554677491E-012   7.2679727092018837E-002   0.0000000000000000     
  -5.8999341870369371E-012   7.8843757759233274E-002   0.0000000000000000     
   1.6966957659569182E-002   7.9255318701039856E-002   0.0000000000000000     
   1.7629710171031383E-002   8.5575569675233359E-002   0.0000000000000000     
   1.8272815563699099E-002   9.2054457116280297E-002   0.0000000000000000     
   1.8896273837572326E-002   9.8691981024180642E-002   0.0000000000000000     
   1.9500084992651066E-002  0.10548814139893438        0.0000000000000000     
   1.2701443289865130E-002   7.9075260729083025E-002   0.0000000000000000     
   1.3194842827760326E-002   8.5402988478561037E-002   0.0000000000000000     
   1.3673987471986256E-002   9.1889171201040468E-002   0.0000000000000000     
   1.4138877222542921E-002   9.8533808896521358E-002   0.0000000000000000     
   1.4589512079430319E-002  0.10533690156500369        0.0000000000000000     
   8.4517788890522624E-003   7.8946647914796331E-002   0.0000000000000000     
   8.7782686841381217E-003   8.5279716214732931E-002   0.0000000000000000     
   9.0955755136509289E-003   9.1771109848564361E-002   0.0000000000000000     
   9.4036993775906824E-003   9.8420828816290593E-002   0.0000000000000000     
   9.7026402759573874E-003  0.10522887311791164        0.0000000000000000     
   4.2179644571305732E-003   7.8869480258179733E-002   0.0000000000000000     
   4.3799877401647751E-003   8.5205752883749111E-002   0.0000000000000000     
   4.5375796886931233E-003   9.1700273058851950E-002   0.0000000000000000     
   4.6907403027156196E-003   9.8353040783488319E-002   0.0000000000000000     
   4.8394695822322632E-003  0.10516405605765818        0.0000000000000000     
  -5.8999341870369371E-012   7.8843757759233274E-002   0.0000000000000000     
  -4.1597174923330149E-012   8.5181098485609522E-002   0.0000000000000000     
  -2.8871625142729007E-012   9.1676660831903303E-002   0.0000000000000000     
  -2.0822746196573483E-012   9.8330444798114564E-002   0.0000000000000000     
  -1.7450485501058211E-012  0.10514245038424336        0.0000000000000000     
   1.9500084992651066E-002  0.10548814139893438        0.0000000000000000     
   2.0079097126084206E-002  0.11243181951089985        0.0000000000000000     
   2.0628158335020651E-002  0.11951189663043539        0.0000000000000000     
   2.1147268619460386E-002  0.12672837275754098        0.0000000000000000     
   2.1636427979403426E-002  0.13408124789221662        0.0000000000000000     
   1.4589512079430319E-002  0.10533690156500369        0.0000000000000000     
   1.5021939716408611E-002  0.11228765487017131        0.0000000000000000     
   1.5432207807237943E-002  0.11937527447570806        0.0000000000000000     
   1.5820316351918318E-002  0.12659976038161394        0.0000000000000000     
   1.6186265350449737E-002  0.13396111258788895        0.0000000000000000     
   9.7026402759573874E-003  0.10522887311791164        0.0000000000000000     
   9.9897043918910616E-003  0.11218468012771771        0.0000000000000000     
   1.0262197908531730E-002  0.11927768721999903        0.0000000000000000     
   1.0520120825879395E-002  0.12650789439475565        0.0000000000000000     
   1.0763473143934058E-002  0.13387530165198744        0.0000000000000000     
   4.8394695822322632E-003  0.10516405605765818        0.0000000000000000     
   4.9823911525315586E-003  0.11212289528353901        0.0000000000000000     
   5.1181286389020116E-003  0.11921913486330828        0.0000000000000000     
   5.2466820413436220E-003  0.12645277479696601        0.0000000000000000     
   5.3680513598563882E-003  0.13382381508451216        0.0000000000000000     
  -1.7450485501058211E-012  0.10514245038424336        0.0000000000000000     
  -1.6698929565517329E-012  0.11210230033763524        0.0000000000000000     
  -1.6512115025985041E-012  0.11919961740563582        0.0000000000000000     
  -1.6890044592966780E-012  0.12643440158824509        0.0000000000000000     
  -1.7832731818989700E-012  0.13380665288546306        0.0000000000000000     
   2.1636427979403426E-002  0.13408124789221662        0.0000000000000000     
   2.2097590885449256E-002  0.14155794611183412        0.0000000000000000     
   2.2532711808197395E-002  0.14914589149376523        0.0000000000000000     
   2.2941790747647826E-002  0.15684508403800998        0.0000000000000000     
   2.3324827703800552E-002  0.16465552374456832        0.0000000000000000     
   1.6186265350449737E-002  0.13396111258788895        0.0000000000000000     
   1.6531168992499332E-002  0.14144654950253541        0.0000000000000000     
   1.6856141467734238E-002  0.14904328953355564        0.0000000000000000     
   1.7161182776154454E-002  0.15675133268094965        0.0000000000000000     
   1.7446292917759981E-002  0.16457067894471744        0.0000000000000000     
   1.0763473143934058E-002  0.13387530165198744        0.0000000000000000     
   1.0992763213644226E-002  0.14136698049225174        0.0000000000000000     
   1.1208499385958413E-002  0.14897000241610564        0.0000000000000000     
   1.1410681660876614E-002  0.15668436742354919        0.0000000000000000     
   1.1599310038398836E-002  0.16451007551458235        0.0000000000000000     
   5.3680513598563882E-003  0.13382381508451216        0.0000000000000000     
   5.4823735488839405E-003  0.14131923908098312        0.0000000000000000     
   5.5897855628699129E-003  0.14892603014141523        0.0000000000000000     
   5.6902874018143019E-003  0.15664418826580853        0.0000000000000000     
   5.7838790657171076E-003  0.16447371345416292        0.0000000000000000     
  -1.7832731818989700E-012  0.13380665288546306        0.0000000000000000     
  -1.7815228459117094E-012  0.14130332526872955        0.0000000000000000     
  -1.5312599278838324E-012  0.14891137270948440        0.0000000000000000     
  -1.0324847530759906E-012  0.15663079520772769        0.0000000000000000     
  -2.8519547834449099E-013  0.16446159276345929        0.0000000000000000     
   2.3324827703800552E-002  0.16465552374456832        0.0000000000000000     
   2.3679375403803431E-002  0.17256572671036421        0.0000000000000000     
   2.4002986574804312E-002  0.18056420903232162        0.0000000000000000     
   2.4295661216803197E-002  0.18865097071044051        0.0000000000000000     
   2.4557399329800087E-002  0.19682601174472092        0.0000000000000000     
   1.7446292917759981E-002  0.16457067894471744        0.0000000000000000     
   1.7709932331917488E-002  0.17248963222783212        0.0000000000000000     
   1.7950561457993640E-002  0.18049649643326679        0.0000000000000000     
   1.8168180295988438E-002  0.18859127156102137        0.0000000000000000     
   1.8362788845901885E-002  0.19677395761109595        0.0000000000000000     
   1.1599310038398836E-002  0.16451007551458235        0.0000000000000000     
   1.1773555407400972E-002  0.17243527902497954        0.0000000000000000     
   1.1932588656758926E-002  0.18044813029051510        0.0000000000000000     
   1.2076409786472696E-002  0.18854862931118907        0.0000000000000000     
   1.2205018796542285E-002  0.19673677608700135        0.0000000000000000     
   5.7838790657171076E-003  0.16447371345416292        0.0000000000000000     
   5.8702446302538814E-003  0.17240266710180635        0.0000000000000000     
   5.9490681711001680E-003  0.18041911060406654        0.0000000000000000     
   6.0203496882559691E-003  0.18852304396094346        0.0000000000000000     
   6.0840891817212847E-003  0.19671446717243718        0.0000000000000000     
  -2.8519547834449099E-013  0.16446159276345929        0.0000000000000000     
   4.7621758966776007E-013  0.17239179645831271        0.0000000000000000     
   1.0173706495308910E-012  0.18040943737392115        0.0000000000000000     
   1.3382596896968635E-012  0.18851451551028472        0.0000000000000000     
   1.4388876375115434E-012  0.19670703086740340        0.0000000000000000     
   2.4557399329800087E-002  0.19682601174472092        0.0000000000000000     
   2.4789167760228815E-002  0.20507383877304861        0.0000000000000000     
   2.4991933354523221E-002  0.21337895843330928        0.0000000000000000     
   2.5165696112683301E-002  0.22174137072550301        0.0000000000000000     
   2.5310456034709057E-002  0.23016107564962976        0.0000000000000000     
   1.8362788845901885E-002  0.19677395761109595        0.0000000000000000     
   1.8535167238712052E-002  0.20502770478815097        0.0000000000000000     
   1.8686095605397003E-002  0.21333566329684697        0.0000000000000000     
   1.8815573945956749E-002  0.22169783313718389        0.0000000000000000     
   1.8923602260391283E-002  0.23011421430916185        0.0000000000000000     
   1.2205018796542285E-002  0.19673677608700135        0.0000000000000000     
   1.2318972438407235E-002  0.20499475194179598        0.0000000000000000     
   1.2418827463507098E-002  0.21330473819941667        0.0000000000000000     
   1.2504583871841866E-002  0.22166673485986355        0.0000000000000000     
   1.2576241663411546E-002  0.23008074192313652        0.0000000000000000     
   6.0840891817212847E-003  0.19671446717243718        0.0000000000000000     
   6.1405833593143749E-003  0.20497498023398353        0.0000000000000000     
   6.1901289288534998E-003  0.21328618314101844        0.0000000000000000     
   6.2327258903386610E-003  0.22164807589354177        0.0000000000000000     
   6.2683742437698560E-003  0.23006065849155372        0.0000000000000000     
   1.4388876375115434E-012  0.19670703086740340        0.0000000000000000     
   1.4334670603299848E-012  0.20496838966471370        0.0000000000000000     
   1.4362139949541941E-012  0.21327999812165216        0.0000000000000000     
   1.4471271403415642E-012  0.22164185623821878        0.0000000000000000     
   1.4662086648964401E-012  0.23005396401441355        0.0000000000000000     
   2.5310456034709057E-002  0.23016107564962976        0.0000000000000000     
   2.5432394132671315E-002  0.23861062746821218        0.0000000000000000     
   2.5537691418640884E-002  0.24706258044377294        0.0000000000000000     
   2.5626347892617772E-002  0.25551693457631203        0.0000000000000000     
   2.5698363554601974E-002  0.26397368986582948        0.0000000000000000     
   1.8923602260391283E-002  0.23011421430916185        0.0000000000000000     
   1.9014521203327979E-002  0.23855573342925432        0.0000000000000000     
   1.9092671429394217E-002  0.24699331711393499        0.0000000000000000     
   1.9158052938589996E-002  0.25542696536320381        0.0000000000000000     
   1.9210665730915313E-002  0.26385667817706082        0.0000000000000000     
   1.2576241663411546E-002  0.23008074192313652        0.0000000000000000     
   1.2636497871682927E-002  0.23851652340141552        0.0000000000000000     
   1.2688049530122807E-002  0.24694384330688052        0.0000000000000000     
   1.2730896638731179E-002  0.25536270163953145        0.0000000000000000     
   1.2765039197508050E-002  0.26377309839936830        0.0000000000000000     
   6.2683742437698560E-003  0.23006065849155372        0.0000000000000000     
   6.2983241377361585E-003  0.23849299738469579        0.0000000000000000     
   6.3238257208266483E-003  0.24691415902260949        0.0000000000000000     
   6.3448789930413210E-003  0.25532414340529486        0.0000000000000000     
   6.3614839543801802E-003  0.26372295053275197        0.0000000000000000     
   1.4662086648964401E-012  0.23005396401441355        0.0000000000000000     
   1.4876752173903496E-012  0.23848515537909509        0.0000000000000000     
   1.5057483255045967E-012  0.24690426426112194        0.0000000000000000     
   1.5204230290142423E-012  0.25531129066049418        0.0000000000000000     
   1.5317048844554204E-012  0.26370623457721176        0.0000000000000000     
   2.5698363554601974E-002  0.26397368986582948        0.0000000000000000     
   2.5765960189999881E-002  0.27237770028125857        0.0000000000000000     
   2.5841359584217877E-002  0.28067381979153294        0.0000000000000000     
   2.5924561737255963E-002  0.28886204839665247        0.0000000000000000     
   2.6015566649114145E-002  0.29694238609661716        0.0000000000000000     
   1.9210665730915313E-002  0.26385667817706082        0.0000000000000000     
   1.9260481561948567E-002  0.27222509892363472        0.0000000000000000     
   1.9317472187268144E-002  0.28047487097105434        0.0000000000000000     
   1.9381637606874051E-002  0.28860599431931960        0.0000000000000000     
   1.9452977820766281E-002  0.29661846896843058        0.0000000000000000     
   1.2765039197508050E-002  0.26377309839936830        0.0000000000000000     
   1.2797661987853369E-002  0.27211609795392971        0.0000000000000000     
   1.2835949791167093E-002  0.28033276467075419        0.0000000000000000     
   1.2879902607449223E-002  0.28842309854984166        0.0000000000000000     
   1.2929520436699760E-002  0.29638709959119219        0.0000000000000000     
   6.3614839543801802E-003  0.26372295053275197        0.0000000000000000     
   6.3775014677142925E-003  0.27205069737214349        0.0000000000000000     
   6.3967923959147291E-003  0.28024750089063249        0.0000000000000000     
   6.4193567389814916E-003  0.28831336108821853        0.0000000000000000     
   6.4451944969145776E-003  0.29624827796490205        0.0000000000000000     
   1.5317048844554204E-012  0.26370623457721176        0.0000000000000000     
   1.5313330031102579E-012  0.27202889717827622        0.0000000000000000     
   1.5110467131013161E-012  0.28021907963068909        0.0000000000000000     
   1.4708484538834832E-012  0.28827678193445044        0.0000000000000000     
   1.4107343765390468E-012  0.29620200408956016        0.0000000000000000     
  -1.5801325525810483E-011   5.5318026080812203E-002   0.0000000000000000     
  -1.2950003916434305E-011   6.0916861252808305E-002   0.0000000000000000     
  -1.0349332068421147E-011   6.6704094923210513E-002   0.0000000000000000     
  -7.9993083554677491E-012   7.2679727092018837E-002   0.0000000000000000     
  -5.8999341870369371E-012   7.8843757759233274E-002   0.0000000000000000     
  -3.5271577471254977E-003   5.5346550855297785E-002   0.0000000000000000     
  -3.7062064774407615E-003   6.0944970899840960E-002   0.0000000000000000     
  -3.8810238411514982E-003   6.6731599169739739E-002   0.0000000000000000     
  -4.0516098382577066E-003   7.2706435664994087E-002   0.0000000000000000     
  -4.2179644687593901E-003   7.8869480385604041E-002   0.0000000000000000     
  -7.0281542610315054E-003   5.5432125052969371E-002   0.0000000000000000     
  -7.4026790826293024E-003   6.1029299684555692E-002   0.0000000000000000     
  -7.7647914630179721E-003   6.6814111737079435E-002   0.0000000000000000     
  -8.1144914021975094E-003   7.2786561210540585E-002   0.0000000000000000     
  -8.4517789001679212E-003   7.8946648104939149E-002   0.0000000000000000     
  -1.0502989557519346E-002   5.5574748673826967E-002   0.0000000000000000     
  -1.1089417828515623E-002   6.1169847606952509E-002   0.0000000000000000     
  -1.1651302875948746E-002   6.6951632625229629E-002   0.0000000000000000     
  -1.2188644699818717E-002   7.2920103728658328E-002   0.0000000000000000     
  -1.2701443300125535E-002   7.9075260917238627E-002   0.0000000000000000     
  -1.3951663636589026E-002   5.5774421717870559E-002   0.0000000000000000     
  -1.4766422715099729E-002   6.1366614667031402E-002   0.0000000000000000     
  -1.5540558079943827E-002   6.7144161834190336E-002   0.0000000000000000     
  -1.6274069731121325E-002   7.3107063219347346E-002   0.0000000000000000     
  -1.6966957668632220E-002   7.9255318822502446E-002   0.0000000000000000     
  -5.8999341870369371E-012   7.8843757759233274E-002   0.0000000000000000     
  -4.1597174923330149E-012   8.5181098485609522E-002   0.0000000000000000     
  -2.8871625142729007E-012   9.1676660831903303E-002   0.0000000000000000     
  -2.0822746196573483E-012   9.8330444798114564E-002   0.0000000000000000     
  -1.7450485501058211E-012  0.10514245038424336        0.0000000000000000     
  -4.2179644687593901E-003   7.8869480385604041E-002   0.0000000000000000     
  -4.3799877489684221E-003   8.5205752992054545E-002   0.0000000000000000     
  -4.5375796951966771E-003   9.1700273144830563E-002   0.0000000000000000     
  -4.6907403074441609E-003   9.8353040843932052E-002   0.0000000000000000     
  -4.8394695857108677E-003  0.10516405608935905        0.0000000000000000     
  -8.4517789001679212E-003   7.8946648104939149E-002   0.0000000000000000     
  -8.7782686943944088E-003   8.5279716374824496E-002   0.0000000000000000     
  -9.0955755223421676E-003   9.1771109974745940E-002   0.0000000000000000     
  -9.4036993840112045E-003   9.8420828904703495E-002   0.0000000000000000     
  -9.7026402794015143E-003  0.10522887316469713        0.0000000000000000     
  -1.2701443300125535E-002   7.9075260917238627E-002   0.0000000000000000     
  -1.3194842840437680E-002   8.5402988633919374E-002   0.0000000000000000     
  -1.3673987484323637E-002   9.1889171321649463E-002   0.0000000000000000     
  -1.4138877231783410E-002   9.8533808980428877E-002   0.0000000000000000     
  -1.4589512082816988E-002  0.10533690161025767        0.0000000000000000     
  -1.6966957668632220E-002   7.9255318822502446E-002   0.0000000000000000     
  -1.7629710187098233E-002   8.5575569769339194E-002   0.0000000000000000     
  -1.8272815581141081E-002   9.2054457185541103E-002   0.0000000000000000     
  -1.8896273850760769E-002   9.8691981071108242E-002   0.0000000000000000     
  -1.9500084995957286E-002  0.10548814142604060        0.0000000000000000     
  -1.7450485501058211E-012  0.10514245038424336        0.0000000000000000     
  -1.6698929565517329E-012  0.11210230033763524        0.0000000000000000     
  -1.6512115025985041E-012  0.11919961740563582        0.0000000000000000     
  -1.6890044592966780E-012  0.12643440158824509        0.0000000000000000     
  -1.7832731818989700E-012  0.13380665288546306        0.0000000000000000     
  -4.8394695857108677E-003  0.10516405608935905        0.0000000000000000     
  -4.9823911551988235E-003  0.11212289528910357        0.0000000000000000     
  -5.1181286411100483E-003  0.11921913485115765        0.0000000000000000     
  -5.2466820434445447E-003  0.12645277477552128        0.0000000000000000     
  -5.3680513622023111E-003  0.13382381506219443        0.0000000000000000     
  -9.7026402794015143E-003  0.10522887316469713        0.0000000000000000     
  -9.9897043925407606E-003  0.11218468013704115        0.0000000000000000     
  -1.0262197907456611E-002  0.11927768720404973        0.0000000000000000     
  -1.0520120824149057E-002  0.12650789436572288        0.0000000000000000     
  -1.0763473142618106E-002  0.13387530162206063        0.0000000000000000     
  -1.4589512082816988E-002  0.10533690161025767        0.0000000000000000     
  -1.5021939713695706E-002  0.11228765488144800        0.0000000000000000     
  -1.5432207800690890E-002  0.11937527446431211        0.0000000000000000     
  -1.5820316343802543E-002  0.12659976035885001        0.0000000000000000     
  -1.6186265343030661E-002  0.13396111256506166        0.0000000000000000     
  -1.9500084995957286E-002  0.10548814142604060        0.0000000000000000     
  -2.0079097118663659E-002  0.11243181952232409        0.0000000000000000     
  -2.0628158320812894E-002  0.11951189663194474        0.0000000000000000     
  -2.1147268602405001E-002  0.12672837275490256        0.0000000000000000     
  -2.1636427963439973E-002  0.13408124789119749        0.0000000000000000     
  -1.7832731818989700E-012  0.13380665288546306        0.0000000000000000     
  -1.7815228459117094E-012  0.14130332526872955        0.0000000000000000     
  -1.5312599278838324E-012  0.14891137270948440        0.0000000000000000     
  -1.0324847530759906E-012  0.15663079520772769        0.0000000000000000     
  -2.8519547834449099E-013  0.16446159276345929        0.0000000000000000     
  -5.3680513622023111E-003  0.13382381506219443        0.0000000000000000     
  -5.4823735514142489E-003  0.14131923906202187        0.0000000000000000     
  -5.5897855651112580E-003  0.14892603012584829        0.0000000000000000     
  -5.6902874032933428E-003  0.15664418825367368        0.0000000000000000     
  -5.7838790659604997E-003  0.16447371344549802        0.0000000000000000     
  -1.0763473142618106E-002  0.13387530162206063        0.0000000000000000     
  -1.0992763213076313E-002  0.14136698046739099        0.0000000000000000     
  -1.1208499385736237E-002  0.14897000239604197        0.0000000000000000     
  -1.1410681660597872E-002  0.15668436740801350        0.0000000000000000     
  -1.1599310037661225E-002  0.16451007550330568        0.0000000000000000     
  -1.6186265343030661E-002  0.13396111256506166        0.0000000000000000     
  -1.6531168986767722E-002  0.14144654948483690        0.0000000000000000     
  -1.6856141463406190E-002  0.14904328952006540        0.0000000000000000     
  -1.7161182772946076E-002  0.15675133267074720        0.0000000000000000     
  -1.7446292915387369E-002  0.16457067893688232        0.0000000000000000     
  -2.1636427963439973E-002  0.13408124789119749        0.0000000000000000     
  -2.2097590872488467E-002  0.14155794611435954        0.0000000000000000     
  -2.2532711798121129E-002  0.14914589149791863        0.0000000000000000     
  -2.2941790740337947E-002  0.15684508404187475        0.0000000000000000     
  -2.3324827699138937E-002  0.16465552374622794        0.0000000000000000     
  -2.8519547834449099E-013  0.16446159276345929        0.0000000000000000     
   4.7621758966776007E-013  0.17239179645831271        0.0000000000000000     
   1.0173706495308910E-012  0.18040943737392115        0.0000000000000000     
   1.3382596896968635E-012  0.18851451551028472        0.0000000000000000     
   1.4388876375115434E-012  0.19670703086740340        0.0000000000000000     
  -5.7838790659604997E-003  0.16447371344549802        0.0000000000000000     
  -5.8702446292036633E-003  0.17240266709626517        0.0000000000000000     
  -5.9490681691137751E-003  0.18041911060091895        0.0000000000000000     
  -6.0203496856908283E-003  0.18852304395945943        0.0000000000000000     
  -6.0840891789348261E-003  0.19671446717188656        0.0000000000000000     
  -1.1599310037661225E-002  0.16451007550330568        0.0000000000000000     
  -1.1773555406057417E-002  0.17243527901743050        0.0000000000000000     
  -1.1932588654917571E-002  0.18044813028590004        0.0000000000000000     
  -1.2076409784241690E-002  0.18854862930871419        0.0000000000000000     
  -1.2205018794029772E-002  0.19673677608587306        0.0000000000000000     
  -1.7446292915387369E-002  0.16457067893688232        0.0000000000000000     
  -1.7709932330085037E-002  0.17248963222180871        0.0000000000000000     
  -1.7950561456394017E-002  0.18049649642886426        0.0000000000000000     
  -1.8168180294314325E-002  0.18859127155804906        0.0000000000000000     
  -1.8362788843845953E-002  0.19677395760936306        0.0000000000000000     
  -2.3324827699138937E-002  0.16465552374622794        0.0000000000000000     
  -2.3679375401286520E-002  0.17256572670939974        0.0000000000000000     
  -2.4002986573543123E-002  0.18056420902981177        0.0000000000000000     
  -2.4295661215908738E-002  0.18865097070746398        0.0000000000000000     
  -2.4557399328383366E-002  0.19682601174235642        0.0000000000000000     
   1.4388876375115434E-012  0.19670703086740340        0.0000000000000000     
   1.4334670603299848E-012  0.20496838966471370        0.0000000000000000     
   1.4362139949541941E-012  0.21327999812165216        0.0000000000000000     
   1.4471271403415642E-012  0.22164185623821878        0.0000000000000000     
   1.4662086648964401E-012  0.23005396401441355        0.0000000000000000     
  -6.0840891789348261E-003  0.19671446717188656        0.0000000000000000     
  -6.1405833564863359E-003  0.20497498023390068        0.0000000000000000     
  -6.1901289259859264E-003  0.21328618314120204        0.0000000000000000     
  -6.2327258874335994E-003  0.22164807589379082        0.0000000000000000     
  -6.2683742408293523E-003  0.23006065849166685        0.0000000000000000     
  -1.2205018794029772E-002  0.19673677608587306        0.0000000000000000     
  -1.2318972435695883E-002  0.20499475194145841        0.0000000000000000     
  -1.2418827460654088E-002  0.21330473819955217        0.0000000000000000     
  -1.2504583868904386E-002  0.22166673486015426        0.0000000000000000     
  -1.2576241660446772E-002  0.23008074192326461        0.0000000000000000     
  -1.8362788843845953E-002  0.19677395760936306        0.0000000000000000     
  -1.8535167236195183E-002  0.20502770478738727        0.0000000000000000     
  -1.8686095602568269E-002  0.21333566329670259        0.0000000000000000     
  -1.8815573942965232E-002  0.22169783313730915        0.0000000000000000     
  -1.8923602257386065E-002  0.23011421430920684        0.0000000000000000     
  -2.4557399328383366E-002  0.19682601174235642        0.0000000000000000     
  -2.4789167757984214E-002  0.20507383877168692        0.0000000000000000     
  -2.4991933351728470E-002  0.21337895843265323        0.0000000000000000     
  -2.5165696109616137E-002  0.22174137072525546        0.0000000000000000     
  -2.5310456031647218E-002  0.23016107564949348        0.0000000000000000     
   1.4662086648964401E-012  0.23005396401441355        0.0000000000000000     
   1.4876752173903496E-012  0.23848515537909509        0.0000000000000000     
   1.5057483255045967E-012  0.24690426426112194        0.0000000000000000     
   1.5204230290142423E-012  0.25531129066049418        0.0000000000000000     
   1.5317048844554204E-012  0.26370623457721176        0.0000000000000000     
  -6.2683742408293523E-003  0.23006065849166685        0.0000000000000000     
  -6.2983241347636170E-003  0.23849299738462576        0.0000000000000000     
  -6.3238257178268361E-003  0.24691415902246291        0.0000000000000000     
  -6.3448789900190034E-003  0.25532414340517839        0.0000000000000000     
  -6.3614839513401250E-003  0.26372295053277217        0.0000000000000000     
  -1.2576241660446772E-002  0.23008074192326461        0.0000000000000000     
  -1.2636497868718803E-002  0.23851652340130011        0.0000000000000000     
  -1.2688049527158031E-002  0.24694384330667746        0.0000000000000000     
  -1.2730896635764450E-002  0.25536270163939667        0.0000000000000000     
  -1.2765039194538056E-002  0.26377309839945784        0.0000000000000000     
  -1.8923602257386065E-002  0.23011421430920684        0.0000000000000000     
  -1.9014521200377884E-002  0.23855573342911815        0.0000000000000000     
  -1.9092671426487837E-002  0.24699331711376557        0.0000000000000000     
  -1.9158052935715902E-002  0.25542696536314902        0.0000000000000000     
  -1.9210665728062098E-002  0.26385667817726860        0.0000000000000000     
  -2.5310456031647218E-002  0.23016107564949348        0.0000000000000000     
  -2.5432394129740868E-002  0.23861062746807990        0.0000000000000000     
  -2.5537691415816261E-002  0.24706258044372725        0.0000000000000000     
  -2.5626347889873384E-002  0.25551693457643543        0.0000000000000000     
  -2.5698363551912243E-002  0.26397368986620451        0.0000000000000000     
   1.5317048844554204E-012  0.26370623457721176        0.0000000000000000     
   1.5313330031102579E-012  0.27202889717827622        0.0000000000000000     
   1.5110467131013161E-012  0.28021907963068909        0.0000000000000000     
   1.4708484538834832E-012  0.28827678193445044        0.0000000000000000     
   1.4107343765390468E-012  0.29620200408956016        0.0000000000000000     
  -6.3614839513401250E-003  0.26372295053277217        0.0000000000000000     
  -6.3775014646778707E-003  0.27205069737232246        0.0000000000000000     
  -6.3967923929199207E-003  0.28024750089090755        0.0000000000000000     
  -6.4193567360662750E-003  0.28831336108852734        0.0000000000000000     
  -6.4451944941169336E-003  0.29624827796518183        0.0000000000000000     
  -1.2765039194538056E-002  0.26377309839945784        0.0000000000000000     
  -1.2797661984895684E-002  0.27211609795427716        0.0000000000000000     
  -1.2835949788254149E-002  0.28033276467127105        0.0000000000000000     
  -1.2879902604613452E-002  0.28842309855043957        0.0000000000000000     
  -1.2929520433973591E-002  0.29638709959178250        0.0000000000000000     
  -1.9210665728062098E-002  0.26385667817726860        0.0000000000000000     
  -1.9260481559122109E-002  0.27222509892414015        0.0000000000000000     
  -1.9317472184491633E-002  0.28047487097177953        0.0000000000000000     
  -1.9381637604170682E-002  0.28860599432018691        0.0000000000000000     
  -1.9452977818159238E-002  0.29661846896936211        0.0000000000000000     
  -2.5698363551912243E-002  0.26397368986620451        0.0000000000000000     
  -2.5765960187357138E-002  0.27237770028191149        0.0000000000000000     
  -2.5841359581632379E-002  0.28067381979243311        0.0000000000000000     
  -2.5924561734737960E-002  0.28886204839776958        0.0000000000000000     
  -2.6015566646673875E-002  0.29694238609792067        0.0000000000000000     
  -1.3951663636589026E-002   5.5774421717870559E-002   0.0000000000000000     
  -1.4766422715099729E-002   6.1366614667031402E-002   0.0000000000000000     
  -1.5540558079943827E-002   6.7144161834190336E-002   0.0000000000000000     
  -1.6274069731121325E-002   7.3107063219347346E-002   0.0000000000000000     
  -1.6966957668632220E-002   7.9255318822502446E-002   0.0000000000000000     
  -1.7473147159369741E-002   5.6032494764878316E-002   0.0000000000000000     
  -1.8511721949964813E-002   6.1619738801747870E-002   0.0000000000000000     
  -1.9494682640679880E-002   6.7391126442593374E-002   0.0000000000000000     
  -2.0422029231514927E-002   7.3346657687414843E-002   0.0000000000000000     
  -2.1293761722469964E-002   7.9486332536212234E-002   0.0000000000000000     
  -2.1166410786990688E-002   5.6350318394628389E-002   0.0000000000000000     
  -2.2403343740694092E-002   6.1929357948057408E-002   0.0000000000000000     
  -2.3575802123833568E-002   6.7691953529070634E-002   0.0000000000000000     
  -2.4683785936409117E-002   7.3638105137668025E-002   0.0000000000000000     
  -2.5727295178420734E-002   7.9767812773849617E-002   0.0000000000000000     
  -2.5031454519451869E-002   5.6727892607120758E-002   0.0000000000000000     
  -2.6441288087287552E-002   6.2295472105960009E-002   0.0000000000000000     
  -2.7783916529404894E-002   6.8046643093622072E-002   0.0000000000000000     
  -2.9059339845803885E-002   7.3981405570106948E-002   0.0000000000000000     
  -3.0267558036484534E-002   8.0099759535414594E-002   0.0000000000000000     
  -2.9068278356753283E-002   5.7165217402355445E-002   0.0000000000000000     
  -3.0625554989745209E-002   6.2718081275455681E-002   0.0000000000000000     
  -3.2119025857393860E-002   6.8455195136247718E-002   0.0000000000000000     
  -3.3548690959699250E-002   7.4376558984731542E-002   0.0000000000000000     
  -3.4914550296661372E-002   8.0482172820907180E-002   0.0000000000000000     
  -1.6966957668632220E-002   7.9255318822502446E-002   0.0000000000000000     
  -1.7629710187098233E-002   8.5575569769339194E-002   0.0000000000000000     
  -1.8272815581141081E-002   9.2054457185541103E-002   0.0000000000000000     
  -1.8896273850760769E-002   9.8691981071108242E-002   0.0000000000000000     
  -1.9500084995957286E-002  0.10548814142604060        0.0000000000000000     
  -2.1293761722469964E-002   7.9486332536212234E-002   0.0000000000000000     
  -2.2125234122704205E-002   8.5797423362565906E-002   0.0000000000000000     
  -2.2931800441376868E-002   9.2267202540056159E-002   0.0000000000000000     
  -2.3713460678487959E-002   9.8895670068683023E-002   0.0000000000000000     
  -2.4470214834037475E-002  0.10568282594844644        0.0000000000000000     
  -2.5727295178420734E-002   7.9767812773849617E-002   0.0000000000000000     
  -2.6723778035583720E-002   8.6068512995081531E-002   0.0000000000000000     
  -2.7690682693613359E-002   9.2527642358829848E-002   0.0000000000000000     
  -2.8628009152509664E-002   9.9145200865094610E-002   0.0000000000000000     
  -2.9535757412272618E-002  0.10592118851387582        0.0000000000000000     
  -3.0267558036484534E-002   8.0099759535414594E-002   0.0000000000000000     
  -3.1425341925736774E-002   8.6388838666886042E-002   0.0000000000000000     
  -3.2549462337850554E-002   9.2835776641862183E-002   0.0000000000000000     
  -3.3639919272825870E-002   9.9440573460343046E-002   0.0000000000000000     
  -3.4696712730662702E-002  0.10620322912232866        0.0000000000000000     
  -3.4914550296661372E-002   8.0482172820907180E-002   0.0000000000000000     
  -3.6229925793163392E-002   8.6758400377979439E-002   0.0000000000000000     
  -3.7508139374088457E-002   9.3191605389153151E-002   0.0000000000000000     
  -3.8749191039436581E-002   9.9781787854428330E-002   0.0000000000000000     
  -3.9953080789207757E-002  0.10652894777380499        0.0000000000000000     
  -1.9500084995957286E-002  0.10548814142604060        0.0000000000000000     
  -2.0079097118663659E-002  0.11243181952232409        0.0000000000000000     
  -2.0628158320812894E-002  0.11951189663194474        0.0000000000000000     
  -2.1147268602405001E-002  0.12672837275490256        0.0000000000000000     
  -2.1636427963439973E-002  0.13408124789119749        0.0000000000000000     
  -2.4470214834037475E-002  0.10568282594844644        0.0000000000000000     
  -2.5195738512008806E-002  0.11261729528175460        0.0000000000000000     
  -2.5883707316385347E-002  0.11968770317101556        0.0000000000000000     
  -2.6534121247167093E-002  0.12689404961622935        0.0000000000000000     
  -2.7146980304354053E-002  0.13423633461739595        0.0000000000000000     
  -2.9535757412272618E-002  0.10592118851387582        0.0000000000000000     
  -3.0406425798295347E-002  0.11284420338182470        0.0000000000000000     
  -3.1232512635970974E-002  0.11990284354559248        0.0000000000000000     
  -3.2014017925299496E-002  0.12709710900517920        0.0000000000000000     
  -3.2750941666280904E-002  0.13442699976058484        0.0000000000000000     
  -3.4696712730662702E-002  0.10620322912232866        0.0000000000000000     
  -3.5711158977523277E-002  0.11311254382253438        0.0000000000000000     
  -3.6674574279569772E-002  0.12015731775567552        0.0000000000000000     
  -3.7586958636802177E-002  0.12733755092175214        0.0000000000000000     
  -3.8448312049220515E-002  0.13465324332076417        0.0000000000000000     
  -3.9953080789207757E-002  0.10652894777380499        0.0000000000000000     
  -4.1109938049692610E-002  0.11342231660388361        0.0000000000000000     
  -4.2209892247181753E-002  0.12045112580126462        0.0000000000000000     
  -4.3252943381675187E-002  0.12761537536594808        0.0000000000000000     
  -4.4239091453172903E-002  0.13491506529793398        0.0000000000000000     
  -2.1636427963439973E-002  0.13408124789119749        0.0000000000000000     
  -2.2097590872488467E-002  0.14155794611435954        0.0000000000000000     
  -2.2532711798121129E-002  0.14914589149791863        0.0000000000000000     
  -2.2941790740337947E-002  0.15684508404187475        0.0000000000000000     
  -2.3324827699138937E-002  0.16465552374622794        0.0000000000000000     
  -2.7146980304354053E-002  0.13423633461739595        0.0000000000000000     
  -2.7725053911926097E-002  0.14170215658756907        0.0000000000000000     
  -2.8271111493863094E-002  0.14927911393980242        0.0000000000000000     
  -2.8785153050165060E-002  0.15696720667409600        0.0000000000000000     
  -2.9267178580831981E-002  0.16476643479044978        0.0000000000000000     
  -3.2750941666280904E-002  0.13442699976058484        0.0000000000000000     
  -3.3446583146768148E-002  0.14188016713607557        0.0000000000000000     
  -3.4104241654614162E-002  0.14944426245591752        0.0000000000000000     
  -3.4723917189818966E-002  0.15711928572011066        0.0000000000000000     
  -3.5305609752382547E-002  0.16490523692865511        0.0000000000000000     
  -3.8448312049220515E-002  0.13465324332076417        0.0000000000000000     
  -3.9262178577014632E-002  0.14209197775987900        0.0000000000000000     
  -4.0032102280374342E-002  0.14964133704626389        0.0000000000000000     
  -4.0758083159299685E-002  0.15730132117991885        0.0000000000000000     
  -4.1440121213790634E-002  0.16507193016084384        0.0000000000000000     
  -4.4239091453172903E-002  0.13491506529793398        0.0000000000000000     
  -4.5171840202665514E-002  0.14233758845897942        0.0000000000000000     
  -4.6054693371143610E-002  0.14987033771084163        0.0000000000000000     
  -4.6887650958607183E-002  0.15751331305352051        0.0000000000000000     
  -4.7670712965056233E-002  0.16526651448701610        0.0000000000000000     
  -2.3324827699138937E-002  0.16465552374622794        0.0000000000000000     
  -2.3679375401286520E-002  0.17256572670939974        0.0000000000000000     
  -2.4002986573543123E-002  0.18056420902981177        0.0000000000000000     
  -2.4295661215908738E-002  0.18865097070746398        0.0000000000000000     
  -2.4557399328383366E-002  0.19682601174235642        0.0000000000000000     
  -2.9267178580831981E-002  0.16476643479044978        0.0000000000000000     
  -2.9713940554626787E-002  0.17266554987470867        0.0000000000000000     
  -3.0122191440312394E-002  0.18065330351271747        0.0000000000000000     
  -3.0491931237888809E-002  0.18872969570447626        0.0000000000000000     
  -3.0823159947356030E-002  0.19689472644998499        0.0000000000000000     
  -3.5305609752382547E-002  0.16490523692865511        0.0000000000000000     
  -3.5845683725070736E-002  0.17279108911224042        0.0000000000000000     
  -3.6340503490649365E-002  0.18076581530155639        0.0000000000000000     
  -3.6790069049118440E-002  0.18882941549660309        0.0000000000000000     
  -3.7194380400477949E-002  0.19698188969738045        0.0000000000000000     
  -4.1440121213790634E-002  0.16507193016084384        0.0000000000000000     
  -4.2074604912618364E-002  0.17294234442199505        0.0000000000000000     
  -4.2657922724554015E-002  0.18090174439632864        0.0000000000000000     
  -4.3190074649597614E-002  0.18895013008384454        0.0000000000000000     
  -4.3671060687749126E-002  0.19708750148454279        0.0000000000000000     
  -4.7670712965056233E-002  0.16526651448701610        0.0000000000000000     
  -4.8400704117269669E-002  0.17311931580397255        0.0000000000000000     
  -4.9074449142026362E-002  0.18106109079703403        0.0000000000000000     
  -4.9691948039326334E-002  0.18909183946620051        0.0000000000000000     
  -5.0253200809169569E-002  0.19721156181147204        0.0000000000000000     
  -2.4557399328383366E-002  0.19682601174235642        0.0000000000000000     
  -2.4789167757984214E-002  0.20507383877168692        0.0000000000000000     
  -2.4991933351728470E-002  0.21337895843265323        0.0000000000000000     
  -2.5165696109616137E-002  0.22174137072525546        0.0000000000000000     
  -2.5310456031647218E-002  0.23016107564949348        0.0000000000000000     
  -3.0823159947356030E-002  0.19689472644998499        0.0000000000000000     
  -3.1116775229118480E-002  0.20513448060277295        0.0000000000000000     
  -3.1373674743580583E-002  0.21343504301636954        0.0000000000000000     
  -3.1593858490742338E-002  0.22179641369077471        0.0000000000000000     
  -3.1777326470603738E-002  0.23021859262598848        0.0000000000000000     
  -3.7194380400477949E-002  0.19698188969738045        0.0000000000000000     
  -3.7553790877653453E-002  0.20521095698906086        0.0000000000000000     
  -3.7868653813570484E-002  0.21350433645681696        0.0000000000000000     
  -3.8138969208229040E-002  0.22186202810064853        0.0000000000000000     
  -3.8364737061629135E-002  0.23028403192055583        0.0000000000000000     
  -4.3671060687749126E-002  0.19708750148454279        0.0000000000000000     
  -4.4100214703589123E-002  0.20530326793055065        0.0000000000000000     
  -4.4476870561698183E-002  0.21358683875399537        0.0000000000000000     
  -4.4801028262076270E-002  0.22193821395487692        0.0000000000000000     
  -4.5072687804723406E-002  0.23035739353319534        0.0000000000000000     
  -5.0253200809169569E-002  0.19721156181147204        0.0000000000000000     
  -5.0756046706925531E-002  0.20541141342724226        0.0000000000000000     
  -5.1198324987963673E-002  0.21368254990790489        0.0000000000000000     
  -5.1580035652284022E-002  0.22202497125345982        0.0000000000000000     
  -5.1901178699886544E-002  0.23043867746390717        0.0000000000000000     
  -2.5310456031647218E-002  0.23016107564949348        0.0000000000000000     
  -2.5432394129740868E-002  0.23861062746807990        0.0000000000000000     
  -2.5537691415816261E-002  0.24706258044372725        0.0000000000000000     
  -2.5626347889873384E-002  0.25551693457643543        0.0000000000000000     
  -2.5698363551912243E-002  0.26397368986620451        0.0000000000000000     
  -3.1777326470603738E-002  0.23021859262598848        0.0000000000000000     
  -3.1931827686236487E-002  0.23867673325486172        0.0000000000000000     
  -3.2065111140712262E-002  0.24714598901024520        0.0000000000000000     
  -3.2177176834031068E-002  0.25562635989213894        0.0000000000000000     
  -3.2268024766192893E-002  0.26411784590054305        0.0000000000000000     
  -3.8364737061629135E-002  0.23028403192055583        0.0000000000000000     
  -3.8554532899293482E-002  0.23874957852613990        0.0000000000000000     
  -3.8716932246744822E-002  0.24723789852700226        0.0000000000000000     
  -3.8851935103983132E-002  0.25574899192314282        0.0000000000000000     
  -3.8959541471008441E-002  0.26428285871456159        0.0000000000000000     
  -4.5072687804723406E-002  0.23035739353319534        0.0000000000000000     
  -4.5300509768911860E-002  0.23882916328191450        0.0000000000000000     
  -4.5493154733913924E-002  0.24733830899399839        0.0000000000000000     
  -4.5650622699729602E-002  0.25588483066944689        0.0000000000000000     
  -4.5772913666358876E-002  0.26446872830826013        0.0000000000000000     
  -5.1901178699886544E-002  0.23043867746390717        0.0000000000000000     
  -5.2169758295091608E-002  0.23891548752218555        0.0000000000000000     
  -5.2393778602219575E-002  0.24744722041123363        0.0000000000000000     
  -5.2573239621270446E-002  0.25603387613105133        0.0000000000000000     
  -5.2708141352244220E-002  0.26467545468163867        0.0000000000000000     
  -2.5698363551912243E-002  0.26397368986620451        0.0000000000000000     
  -2.5765960187357138E-002  0.27237770028191149        0.0000000000000000     
  -2.5841359581632379E-002  0.28067381979243311        0.0000000000000000     
  -2.5924561734737960E-002  0.28886204839776958        0.0000000000000000     
  -2.6015566646673875E-002  0.29694238609792067        0.0000000000000000     
  -3.2268024766192893E-002  0.26411784590054305        0.0000000000000000     
  -3.2352530507366604E-002  0.27256756533630694        0.0000000000000000     
  -3.2445569627721070E-002  0.28092263650028032        0.0000000000000000     
  -3.2547142127256276E-002  0.28918305939246303        0.0000000000000000     
  -3.2657248005972236E-002  0.29734883401285517        0.0000000000000000     
  -3.8959541471008441E-002  0.26428285871456159        0.0000000000000000     
  -3.9058625156916306E-002  0.27278835739604257        0.0000000000000000     
  -3.9168059970802388E-002  0.28121434646236976        0.0000000000000000     
  -3.9287845912666632E-002  0.28956082591354315        0.0000000000000000     
  -3.9417982982509044E-002  0.29782779574956258        0.0000000000000000     
  -4.5772913666358876E-002  0.26446872830826013        0.0000000000000000     
  -4.5884244136006280E-002  0.27304007646111822        0.0000000000000000     
  -4.6008830610876322E-002  0.28154894967870142        0.0000000000000000     
  -4.6146673090968995E-002  0.28999534796100968        0.0000000000000000     
  -4.6297771576284313E-002  0.29837927130804293        0.0000000000000000     
  -5.2708141352244220E-002  0.26467545468163867        0.0000000000000000     
  -5.2829387444636500E-002  0.27332272253153389        0.0000000000000000     
  -5.2967881547942887E-002  0.28192644614927526        0.0000000000000000     
  -5.3123623662163402E-002  0.29048662553486271        0.0000000000000000     
  -5.3296613787298025E-002  0.29900326068829619        0.0000000000000000     
  -2.9068278356753283E-002   5.7165217402355445E-002   0.0000000000000000     
  -3.0625554989745209E-002   6.2718081275455681E-002   0.0000000000000000     
  -3.2119025857393860E-002   6.8455195136247718E-002   0.0000000000000000     
  -3.3548690959699250E-002   7.4376558984731542E-002   0.0000000000000000     
  -3.4914550296661372E-002   8.0482172820907180E-002   0.0000000000000000     
  -3.3167513770327901E-002   5.7661530932033245E-002   0.0000000000000000     
  -3.4887700348086262E-002   6.3198301086413958E-002   0.0000000000000000     
  -3.6543705506513507E-002   6.8919729717148909E-002   0.0000000000000000     
  -3.8135529245609631E-002   7.4825816824238084E-002   0.0000000000000000     
  -3.9663171565374633E-002   8.0916562407681511E-002   0.0000000000000000     
  -3.7219792231608678E-002   5.8216071347854940E-002   0.0000000000000000     
  -3.9159280062329944E-002   6.3737247168704381E-002   0.0000000000000000     
  -4.1020530875476878E-002   6.9442366896526983E-002   0.0000000000000000     
  -4.2803544671049472E-002   7.5331430531322754E-002   0.0000000000000000     
  -4.4508321449047719E-002   8.1404438073091737E-002   0.0000000000000000     
  -4.1225113740595627E-002   5.8828838649820539E-002   0.0000000000000000     
  -4.3440294132476270E-002   6.4334919522326922E-002   0.0000000000000000     
  -4.5549501964283978E-002   7.0023106674381941E-002   0.0000000000000000     
  -4.7552737236018772E-002   7.5893400105985595E-002   0.0000000000000000     
  -4.9449999947680630E-002   8.1945799817137885E-002   0.0000000000000000     
  -4.5183478297288734E-002   5.9499832837930047E-002   0.0000000000000000     
  -4.7730742558525205E-002   6.4991318147281610E-002   0.0000000000000000     
  -5.0130618772934801E-002   7.0661949050713782E-002   0.0000000000000000     
  -5.2383106940517524E-002   7.6511725548226550E-002   0.0000000000000000     
  -5.4488207061273365E-002   8.2540647639819956E-002   0.0000000000000000     
  -3.4914550296661372E-002   8.0482172820907180E-002   0.0000000000000000     
  -3.6229925793163392E-002   8.6758400377979439E-002   0.0000000000000000     
  -3.7508139374088457E-002   9.3191605389153151E-002   0.0000000000000000     
  -3.8749191039436581E-002   9.9781787854428330E-002   0.0000000000000000     
  -3.9953080789207757E-002  0.10652894777380499        0.0000000000000000     
  -3.9663171565374633E-002   8.0916562407681511E-002   0.0000000000000000     
  -4.1138258146296756E-002   8.7177792624053910E-002   0.0000000000000000     
  -4.2572414668864265E-002   9.3595333629930014E-002   0.0000000000000000     
  -4.3965641133077139E-002  0.10016918542530986        0.0000000000000000     
  -4.5317937538935406E-002  0.10689934801019342        0.0000000000000000     
  -4.4508321449047719E-002   8.1404438073091737E-002   0.0000000000000000     
  -4.6151067493570119E-002   8.7647609900801601E-002   0.0000000000000000     
  -4.7747989088715179E-002   9.4047166393420006E-002   0.0000000000000000     
  -4.9299086234482911E-002  0.10060310755094699        0.0000000000000000     
  -5.0804358930873282E-002  0.10731543337338255        0.0000000000000000     
  -4.9449999947680630E-002   8.1945799817137885E-002   0.0000000000000000     
  -5.1268353834983467E-002   8.8167852208222514E-002   0.0000000000000000     
  -5.3034862633641225E-002   9.4547103679623157E-002   0.0000000000000000     
  -5.4749526343653862E-002  0.10108355423133979        0.0000000000000000     
  -5.6412344965021413E-002  0.10777720386337240        0.0000000000000000     
  -5.4488207061273365E-002   8.2540647639819956E-002   0.0000000000000000     
  -5.6490117170536813E-002   8.8738519546316660E-002   0.0000000000000000     
  -5.8433035303642376E-002   9.5095145488539409E-002   0.0000000000000000     
  -6.0316961460590027E-002  0.10161052546648817        0.0000000000000000     
  -6.2141895641379778E-002  0.10828465948016297        0.0000000000000000     
  -3.9953080789207757E-002  0.10652894777380499        0.0000000000000000     
  -4.1109938049692610E-002  0.11342231660388361        0.0000000000000000     
  -4.2209892247181753E-002  0.12045112580126462        0.0000000000000000     
  -4.3252943381675187E-002  0.12761537536594808        0.0000000000000000     
  -4.4239091453172903E-002  0.13491506529793398        0.0000000000000000     
  -4.5317937538935406E-002  0.10689934801019342        0.0000000000000000     
  -4.6618344657644209E-002  0.11377530432988596        0.0000000000000000     
  -4.7855903260408714E-002  0.12078653732969272        0.0000000000000000     
  -4.9030613347228934E-002  0.12793304700961369        0.0000000000000000     
  -5.0142474918104855E-002  0.13521483336964887        0.0000000000000000     
  -5.0804358930873282E-002  0.10731543337338255        0.0000000000000000     
  -5.2251960444218939E-002  0.11417328960455500        0.0000000000000000     
  -5.3630044040852469E-002  0.12116582198829265        0.0000000000000000     
  -5.4938609720773877E-002  0.12829303052459551        0.0000000000000000     
  -5.6177657483983179E-002  0.13555491521346358        0.0000000000000000     
  -5.6412344965021413E-002  0.10777720386337240        0.0000000000000000     
  -5.8010785409416822E-002  0.11461627242789076        0.0000000000000000     
  -5.9532314588513026E-002  0.12158897977706447        0.0000000000000000     
  -6.0976932502310052E-002  0.12869532591089355        0.0000000000000000     
  -6.2344639150807860E-002  0.13593531082937807        0.0000000000000000     
  -6.2141895641379778E-002  0.10828465948016297        0.0000000000000000     
  -6.3894819553237836E-002  0.11510425279989317        0.0000000000000000     
  -6.5562714903390371E-002  0.12205601069600812        0.0000000000000000     
  -6.7145581691837389E-002  0.12913993316850786        0.0000000000000000     
  -6.8643419918578918E-002  0.13635602021739235        0.0000000000000000     
  -4.4239091453172903E-002  0.13491506529793398        0.0000000000000000     
  -4.5171840202665514E-002  0.14233758845897942        0.0000000000000000     
  -4.6054693371143610E-002  0.14987033771084163        0.0000000000000000     
  -4.6887650958607183E-002  0.15751331305352051        0.0000000000000000     
  -4.7670712965056233E-002  0.16526651448701610        0.0000000000000000     
  -5.0142474918104855E-002  0.13521483336964887        0.0000000000000000     
  -5.1195181367562813E-002  0.14261922145697814        0.0000000000000000     
  -5.2192426090129085E-002  0.15013353631878135        0.0000000000000000     
  -5.3134209085803685E-002  0.15775777795505849        0.0000000000000000     
  -5.4020530354586600E-002  0.16549194636580955        0.0000000000000000     
  -5.6177657483983179E-002  0.13555491521346358        0.0000000000000000     
  -5.7351815415548478E-002  0.14293909897747648        0.0000000000000000     
  -5.8465711600537866E-002  0.15043320473921384        0.0000000000000000     
  -5.9519346038951378E-002  0.15803723249867568        0.0000000000000000     
  -6.0512718730788971E-002  0.16575118225586202        0.0000000000000000     
  -6.2344639150807860E-002  0.13593531082937807        0.0000000000000000     
  -6.3641742346622482E-002  0.14329722102047443        0.0000000000000000     
  -6.4874549902369960E-002  0.15076934297213909        0.0000000000000000     
  -6.6043061818050239E-002  0.15835167668437211        0.0000000000000000     
  -6.7147278093663346E-002  0.16604422215717338        0.0000000000000000     
  -6.8643419918578918E-002  0.13635602021739235        0.0000000000000000     
  -7.0064962160784908E-002  0.14369358758597195        0.0000000000000000     
  -7.1418940995625374E-002  0.15114195101755709        0.0000000000000000     
  -7.2705356423100304E-002  0.15870111051214766        0.0000000000000000     
  -7.3924208443209710E-002  0.16637106606974378        0.0000000000000000     
  -4.7670712965056233E-002  0.16526651448701610        0.0000000000000000     
  -4.8400704117269669E-002  0.17311931580397255        0.0000000000000000     
  -4.9074449142026362E-002  0.18106109079703403        0.0000000000000000     
  -4.9691948039326334E-002  0.18909183946620051        0.0000000000000000     
  -5.0253200809169569E-002  0.19721156181147204        0.0000000000000000     
  -5.4020530354586600E-002  0.16549194636580955        0.0000000000000000     
  -5.4848596863853107E-002  0.17332553749633650        0.0000000000000000     
  -5.5615615580978418E-002  0.18124804729194124        0.0000000000000000     
  -5.6321586505962563E-002  0.18925947575262383        0.0000000000000000     
  -5.6966509638805507E-002  0.19735982287838416        0.0000000000000000     
  -6.0512718730788971E-002  0.16575118225586202        0.0000000000000000     
  -6.1442898677197107E-002  0.17356454373725050        0.0000000000000000     
  -6.2306954879322189E-002  0.18146680666931880        0.0000000000000000     
  -6.3104887337164225E-002  0.18945797105206705        0.0000000000000000     
  -6.3836696050723202E-002  0.19753803688549507        0.0000000000000000     
  -6.7147278093663346E-002  0.16604422215717338        0.0000000000000000     
  -6.8183609557301683E-002  0.17383633452671446        0.0000000000000000     
  -6.9148467037057695E-002  0.18171736892916671        0.0000000000000000     
  -7.0041850532931341E-002  0.18968732536453015        0.0000000000000000     
  -7.0863760044922633E-002  0.19774620383280475        0.0000000000000000     
  -7.3924208443209710E-002  0.16637106606974378        0.0000000000000000     
  -7.5070729504166822E-002  0.17414090986472847        0.0000000000000000     
  -7.6140152054184881E-002  0.18199973407148495        0.0000000000000000     
  -7.7132476093263888E-002  0.18994753869001321        0.0000000000000000     
  -7.8047701621403842E-002  0.19798432372031324        0.0000000000000000     
  -5.0253200809169569E-002  0.19721156181147204        0.0000000000000000     
  -5.0756046706925531E-002  0.20541141342724226        0.0000000000000000     
  -5.1198324987963673E-002  0.21368254990790489        0.0000000000000000     
  -5.1580035652284022E-002  0.22202497125345982        0.0000000000000000     
  -5.1901178699886544E-002  0.23043867746390717        0.0000000000000000     
  -5.6966509638805507E-002  0.19735982287838416        0.0000000000000000     
  -5.7547180688361371E-002  0.20554169369402034        0.0000000000000000     
  -5.8060395363484216E-002  0.21379769322433029        0.0000000000000000     
  -5.8506153664174061E-002  0.22212782146931409        0.0000000000000000     
  -5.8884455590430887E-002  0.23053207842897164        0.0000000000000000     
  -6.3836696050723202E-002  0.19753803688549507        0.0000000000000000     
  -6.4499510448595393E-002  0.20570040894576944        0.0000000000000000     
  -6.5090459959377053E-002  0.21393849200905660        0.0000000000000000     
  -6.5609544583068169E-002  0.22225228607535649        0.0000000000000000     
  -6.6056764319668781E-002  0.23064179114466921        0.0000000000000000     
  -7.0863760044922633E-002  0.19774620383280475        0.0000000000000000     
  -7.1613035987627596E-002  0.20588755918248958        0.0000000000000000     
  -7.2288518775642172E-002  0.21410494626208373        0.0000000000000000     
  -7.2890208408966373E-002  0.22239836507158711        0.0000000000000000     
  -7.3418104887600186E-002  0.23076781561099974        0.0000000000000000     
  -7.8047701621403842E-002  0.19798432372031324        0.0000000000000000     
  -7.8887757305457995E-002  0.20610314440418079        0.0000000000000000     
  -7.9654571812279598E-002  0.21429705598341170        0.0000000000000000     
  -8.0348145141868652E-002  0.22256605845800589        0.0000000000000000     
  -8.0968477294225155E-002  0.23091015182796340        0.0000000000000000     
  -5.1901178699886544E-002  0.23043867746390717        0.0000000000000000     
  -5.2169758295091608E-002  0.23891548752218555        0.0000000000000000     
  -5.2393778602219575E-002  0.24744722041123363        0.0000000000000000     
  -5.2573239621270446E-002  0.25603387613105133        0.0000000000000000     
  -5.2708141352244220E-002  0.26467545468163867        0.0000000000000000     
  -5.8884455590430887E-002  0.23053207842897164        0.0000000000000000     
  -5.9201370943495944E-002  0.23900992286718487        0.0000000000000000     
  -5.9462969524610478E-002  0.24756081354783541        0.0000000000000000     
  -5.9669251333774480E-002  0.25618475047092337        0.0000000000000000     
  -5.9820216370987965E-002  0.26488173363644874        0.0000000000000000     
  -6.6056764319668781E-002  0.23064179114466921        0.0000000000000000     
  -6.6434440179788071E-002  0.23911384093714433        0.0000000000000000     
  -6.6744893174035300E-002  0.24767526917293139        0.0000000000000000     
  -6.6988123302410482E-002  0.25632607585203060        0.0000000000000000     
  -6.7164130564913604E-002  0.26506626097444191        0.0000000000000000     
  -7.3418104887600186E-002  0.23076781561099974        0.0000000000000000     
  -7.3868966003967987E-002  0.23922724173206389        0.0000000000000000     
  -7.4239549550494083E-002  0.24779058728652170        0.0000000000000000     
  -7.4529855527178460E-002  0.25645785227437307        0.0000000000000000     
  -7.4739883934021131E-002  0.26522903669561815        0.0000000000000000     
  -8.0968477294225155E-002  0.23091015182796340        0.0000000000000000     
  -8.1504948416035686E-002  0.23935012525194369        0.0000000000000000     
  -8.1946938653986764E-002  0.24790676788860608        0.0000000000000000     
  -8.2294448008078391E-002  0.25658007973795066        0.0000000000000000     
  -8.2547476478310580E-002  0.26537006079997744        0.0000000000000000     
  -5.2708141352244220E-002  0.26467545468163867        0.0000000000000000     
  -5.2829387444636500E-002  0.27332272253153389        0.0000000000000000     
  -5.2967881547942887E-002  0.28192644614927526        0.0000000000000000     
  -5.3123623662163402E-002  0.29048662553486271        0.0000000000000000     
  -5.3296613787298025E-002  0.29900326068829619        0.0000000000000000     
  -5.9820216370987965E-002  0.26488173363644874        0.0000000000000000     
  -5.9952792704816439E-002  0.27360757433659272        0.0000000000000000     
  -6.0103908403825429E-002  0.28231808386353646        0.0000000000000000     
  -6.0273563468014955E-002  0.29101326221728008        0.0000000000000000     
  -6.0461757897384991E-002  0.29969310939782356        0.0000000000000000     
  -6.7164130564913604E-002  0.26506626097444191        0.0000000000000000     
  -6.7313197538555566E-002  0.27386591060559762        0.0000000000000000     
  -6.7475606800347296E-002  0.28269511081093029        0.0000000000000000     
  -6.7651358350288765E-002  0.29155386159043983        0.0000000000000000     
  -6.7840452188380002E-002  0.30044216294412629        0.0000000000000000     
  -7.4739883934021131E-002  0.26522903669561815        0.0000000000000000     
  -7.4910601945853889E-002  0.27409773133854870        0.0000000000000000     
  -7.5082976737508453E-002  0.28305752699145659        0.0000000000000000     
  -7.5257008308984852E-002  0.29210842365434186        0.0000000000000000     
  -7.5432696660283058E-002  0.30125042132720453        0.0000000000000000     
  -8.2547476478310580E-002  0.26537006079997744        0.0000000000000000     
  -8.2745005926711412E-002  0.27430303653544580        0.0000000000000000     
  -8.2926018215308941E-002  0.28340533240511545        0.0000000000000000     
  -8.3090513344103195E-002  0.29267694840898623        0.0000000000000000     
  -8.3238491313094159E-002  0.30211788454705818        0.0000000000000000     
  -4.5183478297288734E-002   5.9499832837930047E-002   0.0000000000000000     
  -4.7730742558525205E-002   6.4991318147281610E-002   0.0000000000000000     
  -5.0130618772934801E-002   7.0661949050713782E-002   0.0000000000000000     
  -5.2383106940517524E-002   7.6511725548226550E-002   0.0000000000000000     
  -5.4488207061273365E-002   8.2540647639819956E-002   0.0000000000000000     
  -4.9535551216459736E-002   6.0228499426378979E-002   0.0000000000000000     
  -5.2347803015558525E-002   6.5703189200605083E-002   0.0000000000000000     
  -5.4987376484113136E-002   7.1354262348396022E-002   0.0000000000000000     
  -5.7454271622123555E-002   7.7181718869751836E-002   0.0000000000000000     
  -5.9748488429589797E-002   8.3185558764672485E-002   0.0000000000000000     
  -5.4721997812880355E-002   6.1014283929362853E-002   0.0000000000000000     
  -5.7608653178657952E-002   6.6467278839333968E-002   0.0000000000000000     
  -6.0343270280502709E-002   7.2095414890302231E-002   0.0000000000000000     
  -6.2925849118414645E-002   7.7898692082267629E-002   0.0000000000000000     
  -6.5356389692393768E-002   8.3877110415230091E-002   0.0000000000000000     
  -6.0742818086550590E-002   6.1857186346881671E-002   0.0000000000000000     
  -6.3513293047823466E-002   6.7283587063468292E-002   0.0000000000000000     
  -6.6198300162103541E-002   7.2885406676432396E-002   0.0000000000000000     
  -6.8797839429390828E-002   7.8662645185773858E-002   0.0000000000000000     
  -7.1311910849685314E-002   8.4615302591492761E-002   0.0000000000000000     
  -6.7598012037470456E-002   6.2757206678935445E-002   0.0000000000000000     
  -7.0061722623055100E-002   6.8152113873008069E-002   0.0000000000000000     
  -7.2552466128915638E-002   7.3724237706786461E-002   0.0000000000000000     
  -7.5070242555052083E-002   7.9473578180270607E-002   0.0000000000000000     
  -7.7615051901464421E-002   8.5400135293460494E-002   0.0000000000000000     
  -5.4488207061273365E-002   8.2540647639819956E-002   0.0000000000000000     
  -5.6490117170536813E-002   8.8738519546316660E-002   0.0000000000000000     
  -5.8433035303642376E-002   9.5095145488539409E-002   0.0000000000000000     
  -6.0316961460590027E-002  0.10161052546648817        0.0000000000000000     
  -6.2141895641379778E-002  0.10828465948016297        0.0000000000000000     
  -5.9748488429589797E-002   8.3185558764672485E-002   0.0000000000000000     
  -6.1924012999379129E-002   8.9357753793339503E-002   0.0000000000000000     
  -6.4034831424358826E-002   9.5690275715934331E-002   0.0000000000000000     
  -6.6080943704528911E-002  0.10218312453245693        0.0000000000000000     
  -6.8062349839889347E-002  0.10883630024290736        0.0000000000000000     
  -6.5356389692393768E-002   8.3877110415230091E-002   0.0000000000000000     
  -6.7677696820659397E-002   9.0023696827546448E-002   0.0000000000000000     
  -6.9932575321430809E-002   9.6331478257573322E-002   0.0000000000000000     
  -7.2121025194708033E-002  0.10280045470531077        0.0000000000000000     
  -7.4243046440491095E-002  0.10943062617075873        0.0000000000000000     
  -7.1311910849685314E-002   8.4615302591492761E-002   0.0000000000000000     
  -7.3751168634377612E-002   9.0736348648937495E-002   0.0000000000000000     
  -7.6126266994858360E-002   9.7018753113456452E-002   0.0000000000000000     
  -7.8437205931127435E-002  0.10346251598504964        0.0000000000000000     
  -8.0683985443184975E-002  0.11006763726371709        0.0000000000000000     
  -7.7615051901464421E-002   8.5400135293460494E-002   0.0000000000000000     
  -8.0144428440533821E-002   9.1495709257512700E-002   0.0000000000000000     
  -8.2615906444641382E-002   9.7752100283583734E-002   0.0000000000000000     
  -8.5029485913787117E-002  0.10416930837167364        0.0000000000000000     
  -8.7385166847971041E-002  0.11074733352178237        0.0000000000000000     
  -6.2141895641379778E-002  0.10828465948016297        0.0000000000000000     
  -6.3894819553237836E-002  0.11510425279989317        0.0000000000000000     
  -6.5562714903390371E-002  0.12205601069600812        0.0000000000000000     
  -6.7145581691837389E-002  0.12913993316850786        0.0000000000000000     
  -6.8643419918578918E-002  0.13635602021739235        0.0000000000000000     
  -6.8062349839889347E-002  0.10883630024290736        0.0000000000000000     
  -6.9965272152810301E-002  0.11563494895758449        0.0000000000000000     
  -7.1775932965661871E-002  0.12256421678678711        0.0000000000000000     
  -7.3494332278444083E-002  0.12962410373051525        0.0000000000000000     
  -7.5120470091156924E-002  0.13681460978876894        0.0000000000000000     
  -7.4243046440491095E-002  0.10943062617075873        0.0000000000000000     
  -7.6283352485262496E-002  0.11620607913798692        0.0000000000000000     
  -7.8226656755504886E-002  0.12311090009106489        0.0000000000000000     
  -8.0072959251218184E-002  0.13014508902999269        0.0000000000000000     
  -8.1822259972402472E-002  0.13730864595477030        0.0000000000000000     
  -8.0683985443184975E-002  0.11006763726371709        0.0000000000000000     
  -8.2849060550594447E-002  0.11681764334110042        0.0000000000000000     
  -8.4914886272919363E-002  0.12369606060884143        0.0000000000000000     
  -8.6881462610159749E-002  0.13070288906694016        0.0000000000000000     
  -8.8748789562315564E-002  0.13783812871539647        0.0000000000000000     
  -8.7385166847971041E-002  0.11074733352178237        0.0000000000000000     
  -8.9662396348806128E-002  0.11746964156692508        0.0000000000000000     
  -9.1840621517905355E-002  0.12431969834011680        0.0000000000000000     
  -9.3919842355268721E-002  0.13129750384135760        0.0000000000000000     
  -9.5900058860896198E-002  0.13840305807064743        0.0000000000000000     
  -6.8643419918578918E-002  0.13635602021739235        0.0000000000000000     
  -7.0064962160784908E-002  0.14369358758597195        0.0000000000000000     
  -7.1418940995625374E-002  0.15114195101755709        0.0000000000000000     
  -7.2705356423100304E-002  0.15870111051214766        0.0000000000000000     
  -7.3924208443209710E-002  0.16637106606974378        0.0000000000000000     
  -7.5120470091156924E-002  0.13681460978876894        0.0000000000000000     
  -7.6664926469722811E-002  0.14412627596451488        0.0000000000000000     
  -7.8138281480064201E-002  0.15154964326071990        0.0000000000000000     
  -7.9540535122181108E-002  0.15908471167738392        0.0000000000000000     
  -8.0871687396073519E-002  0.16673148121450704        0.0000000000000000     
  -8.1822259972402472E-002  0.13730864595477030        0.0000000000000000     
  -8.3485086885123377E-002  0.14459336344664886        0.0000000000000000     
  -8.5071967955446637E-002  0.15199103408687953        0.0000000000000000     
  -8.6582903183372237E-002  0.15950165787546233        0.0000000000000000     
  -8.8017892568900163E-002  0.16712523481239716        0.0000000000000000     
  -8.8748789562315564E-002  0.13783812871539647        0.0000000000000000     
  -9.0525443406986608E-002  0.14509485003237396        0.0000000000000000     
  -9.2220000421772641E-002  0.15246612349603608        0.0000000000000000     
  -9.3832460606673662E-002  0.15995194910638277        0.0000000000000000     
  -9.5362823961689672E-002  0.16755232686341417        0.0000000000000000     
  -9.5900058860896198E-002  0.13840305807064743        0.0000000000000000     
  -9.7785996035312503E-002  0.14563073572169011        0.0000000000000000     
  -9.9582378879042213E-002  0.15297491148818942        0.0000000000000000     
 -0.10128920739208541       0.16043558537014538        0.0000000000000000     
 -0.10290648157444204       0.16801275736755800        0.0000000000000000     
  -7.3924208443209710E-002  0.16637106606974378        0.0000000000000000     
  -7.5070729504166822E-002  0.17414090986472847        0.0000000000000000     
  -7.6140152054184881E-002  0.18199973407148495        0.0000000000000000     
  -7.7132476093263888E-002  0.18994753869001321        0.0000000000000000     
  -7.8047701621403842E-002  0.19798432372031324        0.0000000000000000     
  -8.0871687396073519E-002  0.16673148121450704        0.0000000000000000     
  -8.2126411787602660E-002  0.17447851358639394        0.0000000000000000     
  -8.3299381782629855E-002  0.18231437050734933        0.0000000000000000     
  -8.4390597381155077E-002  0.19023905197737331        0.0000000000000000     
  -8.5400058583178312E-002  0.19825255799646577        0.0000000000000000     
  -8.8017892568900163E-002  0.16712523481239716        0.0000000000000000     
  -8.9372809677419326E-002  0.17484938952681228        0.0000000000000000     
  -9.0643528074318622E-002  0.18266174664783569        0.0000000000000000     
  -9.1830047759598035E-002  0.19056230617546749        0.0000000000000000     
  -9.2932368733257609E-002  0.19855106810970760        0.0000000000000000     
  -9.5362823961689672E-002  0.16755232686341417        0.0000000000000000     
  -9.6809923173616794E-002  0.17525353768598342        0.0000000000000000     
  -9.8172590929251194E-002  0.18304186249294402        0.0000000000000000     
  -9.9450827228592831E-002  0.19091730128429574        0.0000000000000000     
 -0.10064463207164173       0.19887985406003875        0.0000000000000000     
 -0.10290648157444204       0.16801275736755800        0.0000000000000000     
 -0.10443775227619509       0.17569095806390750        0.0000000000000000     
 -0.10588657034742757       0.18345471804267421        0.0000000000000000     
 -0.10725293578813941       0.19130403730385809        0.0000000000000000     
 -0.10853684859833068       0.19923891584745923        0.0000000000000000     
  -7.8047701621403842E-002  0.19798432372031324        0.0000000000000000     
  -7.8887757305457995E-002  0.20610314440418079        0.0000000000000000     
  -7.9654571812279598E-002  0.21429705598341170        0.0000000000000000     
  -8.0348145141868652E-002  0.22256605845800589        0.0000000000000000     
  -8.0968477294225155E-002  0.23091015182796340        0.0000000000000000     
  -8.5400058583178312E-002  0.19825255799646577        0.0000000000000000     
  -8.6332653253577543E-002  0.20634766808853044        0.0000000000000000     
  -8.7193269257230713E-002  0.21451716177747096        0.0000000000000000     
  -8.7981906594137835E-002  0.22276103906328734        0.0000000000000000     
  -8.8698565264298881E-002  0.23107929994597959        0.0000000000000000     
  -9.2932368733257609E-002  0.19855106810970760        0.0000000000000000     
  -9.3956702683477264E-002  0.20662163371322584        0.0000000000000000     
  -9.4909261298436992E-002  0.21476760424869198        0.0000000000000000     
  -9.5790044578136765E-002  0.22298897971610593        0.0000000000000000     
  -9.6599052522576570E-002  0.23128576011546778        0.0000000000000000     
 -0.10064463207164173       0.19887985406003875        0.0000000000000000     
 -0.10175990559515717       0.20692504127826705        0.0000000000000000     
 -0.10280254793589839       0.21504838339707466        0.0000000000000000     
 -0.10377255909386540       0.22324988041646168        0.0000000000000000     
 -0.10466993906905821       0.23152953233642801        0.0000000000000000     
 -0.10853684859833068       0.19923891584745923        0.0000000000000000     
 -0.10974226198861722       0.20725789078365406        0.0000000000000000     
 -0.11087312916961493       0.21535949922261918        0.0000000000000000     
 -0.11192945014132380       0.22354374116435458        0.0000000000000000     
 -0.11291122490374381       0.23181061660886024        0.0000000000000000     
  -8.0968477294225155E-002  0.23091015182796340        0.0000000000000000     
  -8.1504948416035686E-002  0.23935012525194369        0.0000000000000000     
  -8.1946938653986764E-002  0.24790676788860608        0.0000000000000000     
  -8.2294448008078391E-002  0.25658007973795066        0.0000000000000000     
  -8.2547476478310580E-002  0.26537006079997744        0.0000000000000000     
  -8.8698565264298881E-002  0.23107929994597959        0.0000000000000000     
  -8.9328807142857791E-002  0.23949747059645357        0.0000000000000000     
  -8.9858194104958447E-002  0.24804107718561519        0.0000000000000000     
  -9.0286726150600835E-002  0.25671011971346447        0.0000000000000000     
  -9.0614403279785011E-002  0.26550459818000133        0.0000000000000000     
  -9.6599052522576570E-002  0.23128576011546778        0.0000000000000000     
  -9.7326961911300872E-002  0.23968425686526362        0.0000000000000000     
  -9.7964449523854136E-002  0.24821078138397948        0.0000000000000000     
  -9.8511515360236335E-002  0.25686533367161540        0.0000000000000000     
  -9.8968159420447482E-002  0.26564791372817148        0.0000000000000000     
 -0.10466993906905821       0.23152953233642801        0.0000000000000000     
 -0.10549941272136497       0.23991048405837367        0.0000000000000000     
 -0.10626570491067386       0.24841588048369892        0.0000000000000000     
 -0.10696881563698489       0.25704572161240358        0.0000000000000000     
 -0.10760874490029802       0.26580000744448773        0.0000000000000000     
 -0.11291122490374381       0.23181061660886024        0.0000000000000000     
 -0.11384615957305005       0.24017615217578397        0.0000000000000000     
 -0.11476196026541760       0.24865637448477351        0.0000000000000000     
 -0.11565862698084645       0.25725128353582888        0.0000000000000000     
 -0.11653615971933662       0.26596087932895018        0.0000000000000000     
  -8.2547476478310580E-002  0.26537006079997744        0.0000000000000000     
  -8.2745005926711412E-002  0.27430303653544580        0.0000000000000000     
  -8.2926018215308941E-002  0.28340533240511545        0.0000000000000000     
  -8.3090513344103195E-002  0.29267694840898623        0.0000000000000000     
  -8.3238491313094159E-002  0.30211788454705818        0.0000000000000000     
  -9.0614403279785011E-002  0.26550459818000133        0.0000000000000000     
  -9.0871558512209766E-002  0.27448750270889671        0.0000000000000000     
  -9.1088524867573906E-002  0.28372182342382135        0.0000000000000000     
  -9.1265302345877486E-002  0.29320756032477535        0.0000000000000000     
  -9.1401890947120465E-002  0.30294471341175855        0.0000000000000000     
  -9.8968159420447482E-002  0.26564791372817148        0.0000000000000000     
  -9.9345408733430549E-002  0.27465680637150885        0.0000000000000000     
  -9.9654290328128545E-002  0.28399029641948897        0.0000000000000000     
  -9.9894804204541388E-002  0.29364838387211173        0.0000000000000000     
 -0.10006695036266917       0.30363106872937712        0.0000000000000000     
 -0.10760874490029802       0.26580000744448773        0.0000000000000000     
 -0.10816655659037382       0.27481094752328233        0.0000000000000000     
 -0.10862331459697279       0.28421075139211815        0.0000000000000000     
 -0.10897901892009494       0.29399941905099541        0.0000000000000000     
 -0.10923366955974025       0.30417695049991383        0.0000000000000000     
 -0.11653615971933662       0.26596087932895018        0.0000000000000000     
 -0.11733500208303954       0.27494992616421693        0.0000000000000000     
 -0.11799559767410671       0.28438318834170895        0.0000000000000000     
 -0.11851794649253808       0.29426066586142624        0.0000000000000000     
 -0.11890204853833371       0.30458235872336870        0.0000000000000000     
 </DataArray>
 <DataArray  type="Float64" Name="stress" NumberOfComponents="3" format="ascii">
   4581880559.7127352       -408308327.04334545       -1451875970.7639666     
   4660401909.8671198       -319580891.37314057       -1024105089.2498569     
   4737304286.4893169       -236250034.14355731       -696370607.27950525     
   4812587689.5793371       -158315755.35456538       -468672524.85291851     
   4886252119.1371698       -85778055.006196499       -341010841.97008824     
   5383955522.4571362       -58019548.860471964       -811802528.89921153     
   5222011508.4162111       -50838355.307646990       -526098171.10888821     
   5059410613.9448357       -45846763.189701319       -306512407.28256345     
   4896152839.0429897       -43044772.506625414       -153045237.42023215     
   4732238183.7106810       -42432383.258435726       -65696661.521905757     
   5735465213.6716461        157099647.86343479       -175908243.72537947     
   5429963851.3776112        111807004.08153248       -31147967.706836630     
   5124767701.7548256        67531735.870484829        81411519.927479103     
   4819876764.8032999        24273843.230301619        161770219.17755172     
   4515291040.5230322       -17966673.839025974        209928130.04339147     
   5636409633.3562994        237049263.12838554        455806884.75752485     
   5284258938.7513142        168355186.79440832        460745520.95630419     
   4933375549.9192972        103885463.03702140        467401174.35061103     
   4583759466.8602724        43640091.856235504        475773844.94043779     
   4235410689.5742116       -12380926.747966051        485863532.72579628     
   5086788781.5110741        181829296.93437004        1083342856.5495107     
   4784896770.5373154        118806192.83096981        949582294.88052773     
   4485234158.4382534        63214418.309901476        851456555.98683047     
   4187800945.2138939        15053973.371160507        788965639.86842406     
   3892597130.8642273       -25675141.985255480        762109546.52529955     
   4886252119.1371698       -85778055.006196499       -341010841.97008824     
   4780193973.4438152       -68754608.092231512       -278526495.40332294     
   4674701517.1997433       -49845529.680643559       -222139415.15925595     
   4569774750.4049635       -29050819.771415234       -171849601.23787057     
   4465413673.0594788       -6370478.3645465374       -127657053.63918608     
   4732238183.7106810       -42432383.258435726       -65696661.521905757     
   4613013479.3379459       -29227857.618353844       -23365325.275356840     
   4493908392.3873243       -15624607.237884760        15816444.757564658     
   4374922922.8588209       -1622632.1170196533        51848648.576859057     
   4256057070.7524385        12778067.744235277        84731286.182530522     
   4515291040.5230322       -17966673.839025974        209928130.04339147     
   4391321777.7825384       -6054469.3793358803        231586038.60468364     
   4267026060.4369802        4769553.0634837151        253042081.06142083     
   4142403888.4863696        14505393.489463806        274296257.41359842     
   4017455261.9307070        23153051.898597002        295348567.66121119     
   4235410689.5742116       -12380926.747966051        485863532.72579628     
   4115118868.7775769        765556.62480854988        486327596.23679638     
   3994054521.3487158        11336951.223482847        489537493.75230771     
   3872217647.2876277        19333257.048076391        495493225.27232724     
   3749608246.5943122        24754474.098572969        504194790.79686260     
   3892597130.8642273       -25675141.985255480        762109546.52529955     
   3784404752.3230796       -8767779.6059029102        740859347.62098002     
   3674993775.1225290        4077587.2421116829        725302682.83023417     
   3564364199.2625785        12860958.558788538        715439552.15306604     
   3452516024.7432265        17582334.344127893        711269955.58947492     
   4465413673.0594788       -6370478.3645465374       -127657053.63918608     
   4274769800.8538666       -8222326.8750841618       -111483507.72003293     
   4084452095.3796005       -8986952.9478027821       -96411295.718609944     
   3894460556.6366839       -8664356.5827043056       -82440417.634901091     
   3704795184.6251082       -7254537.7797763348       -69570873.468921125     
   4256057070.7524385        12778067.744235277        84731286.182530522     
   4063471257.6560841        6021444.7348279953        92078583.484490782     
   3871397914.2319136        973053.96603322029        100165285.05717480     
   3679837040.4799132       -2367104.5622112751        108991390.90060532     
   3488788636.4000793       -3999030.8498780727        118556901.01476665     
   4017455261.9307070        23153051.898597002        295348567.66121119     
   3828186759.9106369        13069429.980452538        294086969.77694875     
   3639617030.5035753        5315050.1056590080        295405514.35186714     
   3451746073.7095037       -110087.72583699226        299304201.38598186     
   3264573889.5284343       -3205983.5139648914        305783030.87928253     
   3749608246.5943122        24754474.098572969        504194790.79686260     
   3568916307.6175346        12921628.861784697        494541651.15733129     
   3389109444.1945848        4039035.4710831642        489309392.16544873     
   3210187656.3254642       -1893306.0735247135        488498013.82121450     
   3032150944.0101752       -4875395.7720289230        492107516.12462109     
   3452516024.7432265        17582334.344127893        711269955.58947492     
   3285659900.7767630        5578041.3788044453        693442627.62565458     
   3119875155.3049545       -2854989.9376709461        681876918.49792731     
   2955161788.3277969       -7716759.6052994728        676572828.20630622     
   2791519799.8452926       -9007267.6240934134        677530356.75078845     
   3704795184.6251082       -7254537.7797763348       -69570873.468921125     
   3534560578.4820232       -1555480.8322525024       -62565395.909528136     
   3362984426.5201283       -328243.28076410294       -49570435.153119154     
   3190066728.7394443       -3572825.1252403259       -30585991.199690342     
   3015807485.1399641       -11289226.365696430       -5612064.0492506567     
   3488788636.4000793       -3999030.8498780727        118556901.01476665     
   3333625511.7789397        4210286.0683755875        120770079.46789803     
   3177340462.1240535        8679852.8741451502        128007931.28612094     
   3019933487.4354463        9409669.5674979687        140270456.46941614     
   2861404587.7130928        6399736.1483756304        157557655.01779261     
   3264573889.5284343       -3205983.5139648914        305783030.87928253     
   3121725646.9094286        6686613.5190751553        303460134.47539240     
   2977975100.0417418        13571529.723181725        305197101.60464817     
   2833322248.9253821        17448765.098376274        310993932.26705980     
   2687767093.5603442        18318319.644651175        320850626.46261543     
   3032150944.0101752       -4875395.7720289230        492107516.12462109     
   2898860983.8734903        5873501.5198465586        485504769.11294925     
   2764888340.2731876        14346787.266346216        481997075.80248535     
   2630233013.2092690        20544461.467446566        481584436.19323611     
   2494895002.6817398        24466524.123186469        484266850.28520137     
   2791519799.8452926       -9007267.6240934134        677530356.75078845     
   2665031522.6711221        1770950.0706925392        666903983.38056016     
   2538080182.8183956        11005625.503636122        658407853.87961674     
   2410665780.2871151        18696758.674727440        652041968.24795234     
   2282788315.0772719        24844349.583956242        647806326.48555601     
   3015807485.1399641       -11289226.365696430       -5612064.0492506567     
   2856427113.2953186       -14860315.224633098       -1629468.7559643865     
   2698178386.7343516       -14659253.138011694        75260.556727711009     
   2541061305.4570422       -10686040.105840564       -497876.11116795911     
   2385075869.4633937       -2940676.1281446218       -3348878.7596449917     
   2861404587.7130928        6399736.1483756304        157557655.01779261     
   2697807187.0214090        1436366.7021898031        156772809.19694352     
   2535046292.1967034       -738649.85406970978        155343256.53292534     
   2373121903.2389750       -125313.52041065693        153268997.02574444     
   2212034020.1482224        3276375.7031692266        150550030.67540723     
   2687767093.5603442        18318319.644651175        320850626.46261543     
   2524618832.9856954        13362520.300471544        314954010.20814818     
   2362011938.8613377        10211275.790595293        310045846.24794590     
   2199946411.1872501        8864586.1149482727        306126134.58201522     
   2038422249.9634426        9322451.2735737562        303194875.21034116     
   2494895002.6817398        24466524.123186469        484266850.28520137     
   2336862051.1881919        20918145.570216298        472914134.27765888     
   2179075326.7282333        18190523.795892954        464183029.70179820     
   2021534829.3018661        16283658.800196290        458073536.55762404     
   1864240558.9090779        15197550.583116293        454585654.84514397     
   2282788315.0772719        24844349.583956242        647806326.48555601     
   2134536841.6288917        24103242.511428833        630653181.40545547     
   1986236455.7974086        23199094.161907792        617754806.89445829     
   1837887157.5828154        22131904.535336137        609111202.95257568     
   1689488946.9851189        20901673.631773651        604722369.57980287     
   2385075869.4633937       -2940676.1281446218       -3348878.7596449917     
   2244646984.2935805        6058779.8838047981       -8596761.4518195763     
   2100836207.7656488        3785264.7020245790       -12039390.109329896     
   1953643539.8795891       -9761221.6735197306       -13676764.732177228     
   1803068980.6354058       -34580679.242798448       -13508885.320357732     
   2212034020.1482224        3276375.7031692266        150550030.67540723     
   2075117799.7717199        11728550.395677686        141404319.10026810     
   1935913855.9379144        12554980.230521679        133281699.02056158     
   1794422188.6468015        5755665.2076580524        126182170.43629852     
   1650642797.8983917       -8669394.6728518009        120105733.34748214     
   2038422249.9634426        9322451.2735737562        303194875.21034116     
   1902783944.2681880        16556919.613036036        291427863.96984661     
   1765952083.0164468        19812869.430868864        279901781.68557346     
   1627926666.2082305        19090300.727126539        268616628.35752428     
   1488707693.8435254        14389213.501739204        257572403.98569396     
   1864240558.9090779        15197550.583116293        454585654.84514397     
   1727645417.7829995        20543887.535890579        441473873.15692294     
   1590950889.0012624        25558932.303129315        427820857.88570350     
   1454156972.5638547        30242684.884807467        413626609.03147399     
   1317263668.4707947        34595145.280977666        398891126.59425080     
   1689488946.9851189        20901673.631773651        604722369.57980287     
   1549702220.3161559        23689454.164258718        591542346.66148376     
   1410910273.8923488        29793168.847269356        577038927.62094188     
   1273113107.7136993        39212817.680807352        561212112.45817459     
   1136310721.7802029        51948400.664844334        544061901.17318475     
   1803068980.6354058       -34580679.242798448       -13508885.320357732     
   1771782556.5410550       -16411305.610779166       -8134844.0752095394     
   1748626852.8089936        28860469.228861451       -41493902.173561633     
   1733601869.4392531        101234645.27624404       -113586059.61539865     
   1726707606.4317911        200711222.53122115       -224411316.40072569     
   1650642797.8983917       -8669394.6728518009        120105733.34748214     
   1527768525.5483415       -13888940.215823770        135563256.38815951     
   1409116468.1839781       -5034435.8065128922        124699130.69294868     
   1294686625.8053243        17894118.555156112        87513356.261837512     
   1184478998.4123337        54896722.869057655        24005933.094818953     
   1488707693.8435254        14389213.501739204        257572403.98569396     
   1309706860.6880529       -3580864.9811010361        278553485.88252842     
   1131019737.1416554       -20505244.767022789        285624369.65105605     
   952646323.20433354       -36383925.856022954        278785055.29128778     
   774586618.87608123       -51216908.248131216        258035542.80321267     
   1317263668.4707947        34595145.280977666        398891126.59425080     
   1117597561.9601583        14512920.093333185        420835844.40787190     
   914336659.68197846       -17551957.652793765        441281814.70077169     
   707480961.63626873       -61599487.957351327        460229037.47295898     
   497030467.82301199       -117629670.82039830        477677512.72443688     
   1136310721.7802029        51948400.664844334        544061901.17318475     
   951440629.36466885        40392415.007479012        562410331.96418643     
   759067235.80498052        3825425.5362654626        591671465.84208632     
   559190541.10114551       -57752567.748767257        631845302.80685103     
   351810545.25314909       -144341564.84767690        682931842.85849607     
   1726707606.4317911        200711222.53122115       -224411316.40072569     
   1456456639.7578576        184654011.31921220       -96694009.007548288     
   1153991363.2488461        61215767.323599577        60153132.927070603     
   819311776.90471840       -169603509.45572805        246130109.40309253     
   452417880.72549629       -507803819.01870430        461236920.42057127     
   1184478998.4123337        54896722.869057655        24005933.094818953     
   977547701.90559196        11869309.293235958        155501759.40642214     
   732759299.98088229       -157348455.67584532        312799082.61990613     
   450113792.63820016       -452756572.03812921        495897902.73531199     
   129611179.87756515       -874355039.79361153        704798219.75262427     
   774586618.87608123       -51216908.248131216        258035542.80321267     
   621465456.42361724       -124067385.02165306        386726626.51985741     
   424844392.97029698       -341917531.79801011        537890869.49889028     
   184723428.51614341       -704767348.57716525        711528271.74030280     
  -98897436.938843966       -1212616835.3590889        907638833.24411762     
   497030467.82301199       -117629670.82039830        477677512.72443688     
   388209903.31190765       -223156071.62550250        596980592.33278441     
   230246642.21708700       -492491461.04299551        735428493.56400502     
   23140684.538552582       -925635839.07286143        893021216.41809237     
  -233107969.72369367       -1522589205.7151115        1069758760.8950540     
   351810545.25314909       -144341564.84767690        682931842.85849607     
   277781042.57050550       -285396750.51820648        786263656.84519947     
   148966047.72125068       -609070243.41076219        905411954.81524014     
  -34634439.294585824       -1115362043.5252404        1040376736.7686474     
  -273020418.47698921       -1804272150.8616414        1191158002.7053947     
   5086788781.5110741        181829296.93437004        1083342856.5495107     
   4784896770.5373154        118806192.83096981        949582294.88052773     
   4485234158.4382534        63214418.309901476        851456555.98683047     
   4187800945.2138939        15053973.371160507        788965639.86842406     
   3892597130.8642273       -25675141.985255480        762109546.52529955     
   4379292945.8936701        81376553.817593336        1058352189.5862352     
   4165099133.8877101        45621501.691663980        968420763.26053202     
   3952423886.9843454        14928333.241062164        904022039.83228362     
   3741267205.1835814       -10702951.534201145        865156019.30147934     
   3531629088.4854183       -31272352.634135962        851822701.66812587     
   3805208204.4537416        20947138.954060316        1034144864.9978858     
   3649849391.7646012        3801178.9103095531        987213267.94802213     
   3495298310.4059663       -10652343.365110636        955712253.91776383     
   3341554960.3778276       -22413427.872195005        939641822.90711915     
   3188619341.6801929       -31482074.610948563        939001974.91607881     
   3364534557.1912680        541052.34376287460        1010720882.7844698     
   3239147544.1679869       -6654775.5130988359        1005959808.9429897     
   3113857428.7031097       -13527611.508626699        1006527198.2432781     
   2988664210.7966356       -20077455.642817140        1012423050.6853368     
   2863567890.4485602       -26304307.915676355        1023647366.2691650     
   3057272004.1062584        20158293.986705899        988080242.94598353     
   2932993591.0978703        14253638.421444058        1024660386.2454376     
   2808101241.8757839        6302528.8105112314        1056466872.8088200     
   2682594956.4399996       -3695034.8460763693        1083499702.6361325     
   2556474734.7905111       -15739052.548339248        1105758875.7273810     
   3892597130.8642273       -25675141.985255480        762109546.52529955     
   3784404752.3230796       -8767779.6059029102        740859347.62098002     
   3674993775.1225290        4077587.2421116829        725302682.83023417     
   3564364199.2625785        12860958.558788538        715439552.15306604     
   3452516024.7432265        17582334.344127893        711269955.58947492     
   3531629088.4854183       -31272352.634135962        851822701.66812587     
   3436578295.9182391       -16299694.348918200        835293792.98907673     
   3340777638.5644174       -3826585.3525195122        823626732.65968597     
   3244227116.4239464        6146974.3550490141        816821520.67996395     
   3146926729.4968233        13620984.773787618        814878157.04989815     
   3188619341.6801929       -31482074.610948563        939001974.91607881     
   3104333890.0472345       -19156993.931781650        927741212.64717579     
   3019767307.5003839       -7769016.2989273071        920510612.96402550     
   2934919594.0396357        2681858.2876058817        917310175.86661971     
   2849790749.6649914        12195629.827815294        918139901.35496569     
   2863567890.4485602       -26304307.915676355        1023647366.2691650     
   2787671534.7100644       -17339678.354493618        1018201606.5952915     
   2711962781.9304299       -7749705.5971078873        1015954323.7432486     
   2636441632.1096520        2465610.3564600945        1016905517.7130407     
   2561108085.2477250        13306269.506211042        1021055188.5046738     
   2556474734.7905111       -15739052.548339248        1105758875.7273810     
   2486591229.9067268       -10847747.617058992        1106674974.8334098     
   2417364061.8545556       -3768653.2470694780        1109957864.9973567     
   2348793230.6339893        5498230.5616023540        1115607546.2192311     
   2280878736.2450352        16952903.808982849        1123624018.4990211     
   3452516024.7432265        17582334.344127893        711269955.58947492     
   3285659900.7767630        5578041.3788044453        693442627.62565458     
   3119875155.3049545       -2854989.9376709461        681876918.49792731     
   2955161788.3277969       -7716759.6052994728        676572828.20630622     
   2791519799.8452926       -9007267.6240934134        677530356.75078845     
   3146926729.4968233        13620984.773787618        814878157.04989815     
   2996762001.2464833        5303955.3367811441        800830831.48179770     
   2847392146.0517197       -363497.24830949306        792510515.27576303     
   2698817163.9125347       -3381372.9814658165        789917208.43180776     
   2551037054.8289328       -3749671.8626832962        793050910.94992816     
   2849790749.6649914        12195629.827815294        918139901.35496569     
   2714789961.4906912        7107627.2270900011        907549988.50366330     
   2580307540.9328928        3747516.6813809872        902152475.54040372     
   2446343487.9915981        2115298.1906754971        901947362.46518946     
   2312897802.6668124        2210971.7549985647        906934649.27802050     
   2561108085.2477250        13306269.506211042        1021055188.5046738     
   2439743781.5093846        10989057.049743176        1013600098.6912472     
   2318621339.9484773        9478051.8513865471        1010802799.2918402     
   2197740760.5649958        8773253.9111154079        1012663290.3064549     
   2077102043.3589468        8874663.2289537191        1019181571.7350812     
   2280878736.2450352        16952903.808982849        1123624018.4990211     
   2171623461.3025770        16948244.804764390        1118981162.0445604     
   2062333543.0984714        16828108.261722445        1118461486.5300822     
   1953008981.6327147        16592494.179851174        1122064991.9555969     
   1843649776.9053240        16241402.559188247        1129791678.3211014     
   2791519799.8452926       -9007267.6240934134        677530356.75078845     
   2665031522.6711221        1770950.0706925392        666903983.38056016     
   2538080182.8183956        11005625.503636122        658407853.87961674     
   2410665780.2871151        18696758.674727440        652041968.24795234     
   2282788315.0772719        24844349.583956242        647806326.48555601     
   2551037054.8289328       -3749671.8626832962        793050910.94992816     
   2430133641.7678256        4731043.4531596899        783096151.21721804     
   2308953600.9634538        12289666.291444421        775837389.78965306     
   2187496932.4158010        18926196.652118564        771274626.66723931     
   2065763636.1248658        24640634.535209060        769407861.84996510     
   2312897802.6668124        2210971.7549985647        906934649.27802050     
   2199195694.9641104        8879117.0655094385        897869010.60732710     
   2085403394.4534216        15246619.682712078        892065124.67764294     
   1971520901.1347291        21313479.606589198        889522991.48896706     
   1857548215.0080492        27079696.837155461        890242611.04130673     
   2077102043.3589468        8874663.2289537191        1019181571.7350812     
   1972217682.2599726        14215170.907715201        1011222561.5508891     
   1867429563.2883012        19876485.677463293        1007091058.5435779     
   1762737686.4439054        25858607.538134217        1006787062.7131412     
   1658142051.7267914        32161536.489757717        1010310574.0595845     
   1843649776.9053240        16241402.559188247        1129791678.3211014     
   1749199603.6554213        20739204.979813218        1123156804.0479064     
   1655032107.4680905        26179264.275679171        1120915191.3874619     
   1561147288.3433228        32561580.446751118        1123066840.3397613     
   1467545146.2811193        39886153.493049204        1129611750.9047995     
   2282788315.0772719        24844349.583956242        647806326.48555601     
   2134536841.6288917        24103242.511428833        630653181.40545547     
   1986236455.7974086        23199094.161907792        617754806.89445829     
   1837887157.5828154        22131904.535336137        609111202.95257568     
   1689488946.9851189        20901673.631773651        604722369.57980287     
   2065763636.1248658        24640634.535209060        769407861.84996510     
   1928734009.1645494        25308720.775905013        755193572.73119044     
   1791679392.9530535        25893509.512681723        745031504.19261098     
   1654599787.4903882        26395000.745553970        738921656.23422396     
   1517495192.7765365        26813194.474477291        736864028.85603929     
   1857548215.0080492        27079696.837155461        890242611.04130673     
   1731161720.2817416        28983362.114838481        878995088.20444727     
   1604774159.4361949        30883473.661724687        871597235.95886910     
   1478385532.4714019        32780031.477777660        868049054.30456960     
   1351995839.3873594        34673035.563019097        868350543.24154806     
   1658142051.7267914        32161536.489757717        1010310574.0595845     
   1541819974.9804661        35127166.528239787        1002057727.8252263     
   1425520755.2468224        38168986.609003246        997452002.19322789     
   1309244392.5258622        41286996.732045293        996493397.16360295     
   1192990886.8175924        44481196.897388995        999181912.73633730     
   1467545146.2811193        39886153.493049204        1129611750.9047995     
   1360708773.2607219        43740134.016093791        1124381491.5935256     
   1253919180.3849392        47750048.354533732        1122595802.8957019     
   1147176367.6537716        51915896.508352220        1124254684.8113291     
   1040480335.0672168        56237678.477556169        1129358137.3404014     
   1689488946.9851189        20901673.631773651        604722369.57980287     
   1549702220.3161559        23689454.164258718        591542346.66148376     
   1410910273.8923488        29793168.847269356        577038927.62094188     
   1273113107.7136993        39212817.680807352        561212112.45817459     
   1136310721.7802029        51948400.664844334        544061901.17318475     
   1517495192.7765365        26813194.474477291        736864028.85603929     
   1375583040.0682693        26048871.760617673        727567598.61323190     
   1233867140.9774399        25938727.771544337        718779337.51927447     
   1092347495.5040679        26482762.507337749        710499245.57415414     
   951024103.64814222        27680975.967940867        702727322.77788043     
   1351995839.3873594        34673035.563019097        868350543.24154806     
   1213191304.2714119        31926522.692273676        862006091.27526462     
   1073784496.1451943        27172433.120645821        858001373.72888911     
   933775415.00872517        20410766.848174870        856336390.60242498     
   793164060.86199474        11641523.874824584        857011141.89587605     
   1192990886.8175924        44481196.897388995        999181912.73633730     
   1062527012.9255759        41322406.959228694        994857824.64758110     
   930662339.39560497        33494284.894543707        994705036.24979949     
   797396866.22765744        20996830.703281164        998723547.54300523     
   662730593.42174625        3830044.3854613304        1006913358.5271878     
   1040480335.0672168        56237678.477556169        1129358137.3404014     
   923590166.03078127        54236524.561522692        1126122798.7301745     
   804500670.72866476        44904283.093219757        1128890325.0820036     
   683211849.16087866        28240954.072686523        1137660716.3958759     
   559723701.32741606        4246537.4998936057        1152433972.6718051     
   1136310721.7802029        51948400.664844334        544061901.17318475     
   951440629.36466885        40392415.007479012        562410331.96418643     
   759067235.80498052        3825425.5362654626        591671465.84208632     
   559190541.10114551       -57752567.748767257        631845302.80685103     
   351810545.25314909       -144341564.84767690        682931842.85849607     
   951024103.64814222        27680975.967940867        702727322.77788043     
   791798894.53332090        10706726.398760438        720835731.30193830     
   623936606.84359956       -35057785.086758614        749008638.64238977     
   447437240.57899314       -109612558.48856273        787246044.79923666     
   262300795.73948497       -212957593.80669767        835547949.77247918     
   793164060.86199474        11641523.874824584        857011141.89587605     
   657160294.27506518       -11478021.838032097        873556787.81711936     
   511385671.68250358       -67167087.569677204        899318728.28426790     
   355840193.08430606       -155425673.32010531        934296963.29733467     
   190523858.48046887       -276253779.08932412        978491492.85630035     
   662730593.42174625        3830044.3854613304        1006913358.5271878     
   547524828.58990991       -26161829.702883691        1020573501.5097474     
   421414430.32169217       -92502481.912507147        1042601734.7677231     
   284399398.61709058       -195191912.24340636        1072998058.3011234     
   136479733.47611535       -334230120.69555169        1111762472.1099532     
   559723701.32741606        4246537.4998936057        1152433972.6718051     
   462892497.47784120       -33344697.195825994        1161885872.3798001     
   354022882.76115614       -111063968.11526275        1178857658.0927460     
   233114857.17733800       -228911275.25847405        1203349329.8106291     
   100168420.72640768       -386886618.62539232        1235360887.5334594     
   351810545.25314909       -144341564.84767690        682931842.85849607     
   277781042.57050550       -285396750.51820648        786263656.84519947     
   148966047.72125068       -609070243.41076219        905411954.81524014     
  -34634439.294585824       -1115362043.5252404        1040376736.7686474     
  -273020418.47698921       -1804272150.8616414        1191158002.7053947     
   262300795.73948497       -212957593.80669767        835547949.77247918     
   223600904.88255227       -352560620.97221196        884928704.68726170     
   140666252.13315758       -639612854.44593000        945334486.59884775     
   13496837.491298497       -1074114294.2278628        1016765295.5072469     
  -157907339.04300988       -1656064940.3179517        1099221131.4124482     
   190523858.48046887       -276253779.08932412        978491492.85630035     
   173463702.34485215       -418511610.88112158        986230374.01897407     
   122719514.59089690       -673049548.06736135        1000202825.1919135     
   38291295.218607128       -1039867590.6480480        1020408846.3751118     
  -79820955.772002161       -1518965738.6231666        1046848437.5685927     
   136479733.47611535       -334230120.69555169        1111762472.1099532     
   127369434.95741042       -483249720.24493700        1090168664.8403471     
   95125835.094493836       -709380324.27500880        1070016970.5944448     
   39748933.887369871       -1012621932.7857889        1051307389.3722711     
  -38761268.663968027       -1392974545.7772672        1034039921.1738293     
   100168420.72640768       -386886618.62539232        1235360887.5334594     
   85318102.720200896       -546774949.06370950        1196743577.1513550     
   57885213.643922150       -748605183.06893849        1154776922.8064334     
   17869753.497550607       -992377320.64113545        1109460924.4987032     
  -34728277.718901932       -1278091361.7802579        1060795582.2281442     
   3057272004.1062584        20158293.986705899        988080242.94598353     
   2932993591.0978703        14253638.421444058        1024660386.2454376     
   2808101241.8757839        6302528.8105112314        1056466872.8088200     
   2682594956.4399996       -3695034.8460763693        1083499702.6361325     
   2556474734.7905111       -15739052.548339248        1105758875.7273810     
   2787589539.7185316        53974352.111089468        1126043102.5906279     
   2654078211.3202639        39049269.136397600        1143337604.3909788     
   2520347293.8289189        23392222.518123746        1160385157.4142773     
   2386396787.2445068        7003212.2562879324        1177185761.6605330     
   2252226691.5670257       -10117761.649109721        1193739417.1297383     
   2457727725.6651039        69736605.335767746        1261371867.6485708     
   2327916933.1884360        49671130.345080495        1259840799.5905514     
   2198280898.7393265        30188182.112917185        1262589490.7145083     
   2068819622.3177781        11287760.639288306        1269617941.0204344     
   1939533103.9237847       -7030134.0758123398        1280926150.5083327     
   2067686561.9459717        67445053.660731435        1394066538.1198061     
   1954509756.7023957        46119222.047500134        1374169971.8441575     
   1841902056.6070061        26690407.594892740        1363079872.7094989     
   1729863461.6598048        9158610.3029135466        1360796240.7158341     
   1618393971.8607934       -6476169.8284372687        1367319075.8631611     
   1617466048.5611353        47099697.085985422        1524127114.0043464     
   1533856681.8621373        28393544.243656218        1486325121.1517935     
   1451210767.4319556        12898898.964046776        1461856303.3992574     
   1369528305.2705898        615761.24716162682        1450720660.7467346     
   1288809295.3780456       -8455868.9069926143        1452918193.1942251     
   2556474734.7905111       -15739052.548339248        1105758875.7273810     
   2486591229.9067268       -10847747.617058992        1106674974.8334098     
   2417364061.8545556       -3768653.2470694780        1109957864.9973567     
   2348793230.6339893        5498230.5616023540        1115607546.2192311     
   2280878736.2450352        16952903.808982849        1123624018.4990211     
   2252226691.5670257       -10117761.649109721        1193739417.1297383     
   2188945666.2755485       -5608255.8444882631        1192567117.5451505     
   2126124070.9084990        432683.04156088829        1194194964.8490293     
   2063761905.4658728        8005055.0090218782        1198622959.0413721     
   2001859169.9476762        17108860.057910562        1205851100.1221879     
   1939533103.9237847       -7030134.0758123398        1280926150.5083327     
   1884092717.7404625       -2530979.5430964231        1277435727.5080783     
   1828914854.5743847        2843251.7137706280        1277178807.2268367     
   1773999514.4255490        9092559.6947791576        1280155389.6646125     
   1719346697.2939560        16216944.399931312        1286365474.8213999     
   1618393971.8607934       -6476169.8284372687        1367319075.8631611     
   1572032384.3014760       -1615918.7128646970        1361280804.7221954     
   1525736412.8522174        3463052.7695728540        1358909392.1307867     
   1479506057.5130146        8760744.6188665032        1360204838.0889440     
   1433341318.2838788        14277156.835047483        1365167142.5966601     
   1288809295.3780456       -8455868.9069926143        1452918193.1942251     
   1252764665.9585774       -2863073.3538216352        1444102349.1874979     
   1216588745.7419882        2292086.2089456320        1439386719.5608802     
   1180281534.7282760        7009609.7813000083        1438771304.3143711     
   1143843032.9174423        11289497.363249242        1442256103.4479697     
   2280878736.2450352        16952903.808982849        1123624018.4990211     
   2171623461.3025770        16948244.804764390        1118981162.0445604     
   2062333543.0984714        16828108.261722445        1118461486.5300822     
   1953008981.6327147        16592494.179851174        1122064991.9555969     
   1843649776.9053240        16241402.559188247        1129791678.3211014     
   2001859169.9476762        17108860.057910562        1205851100.1221879     
   1903571960.8928618        16082889.942677498        1200212807.7282364     
   1805343278.1093471        15252007.398444772        1199123995.3334899     
   1707173121.5971289        14616212.425201416        1202584662.9379485     
   1609061491.3562195        14175505.022978723        1210594810.5416043     
   1719346697.2939560        16216944.399931312        1286365474.8213999     
   1633245551.4388237        14535062.367292523        1279840444.2764037     
   1547296101.3879402        13358833.015475273        1278291192.7898223     
   1461498347.1413035        12688256.344489694        1281717720.3616562     
   1375852288.6989136        12523332.354321957        1290120026.9919040     
   1433341318.2838788        14277156.835047483        1365167142.5966601     
   1360644232.9404693        12304762.078614891        1357864071.6890516     
   1288192012.9342484        11148585.112817049        1355963078.8990741     
   1215984658.2652268        10808625.937684178        1359464164.2267263     
   1144022168.9334028        11284884.553203821        1368367327.6720049     
   1143843032.9174423        11289497.363249242        1442256103.4479697     
   1085768005.3977914        9391989.0766369104        1434283689.9661882     
   1028031012.7482820        8621263.6904998422        1432139653.6612496     
   970632054.96891332        8977321.2048285007        1435823994.5331533     
   913571132.05968273        10460161.619616210        1445336712.5819008     
   1843649776.9053240        16241402.559188247        1129791678.3211014     
   1749199603.6554213        20739204.979813218        1123156804.0479064     
   1655032107.4680905        26179264.275679171        1120915191.3874619     
   1561147288.3433228        32561580.446751118        1123066840.3397613     
   1467545146.2811193        39886153.493049204        1129611750.9047995     
   1609061491.3562195        14175505.022978723        1210594810.5416043     
   1526045347.9686651        18689101.075993180        1204739704.1313682     
   1443251331.5400724        23943120.325548053        1203283099.0104113     
   1360679442.0704455        29937562.771652281        1206224995.1787336     
   1278329679.5597746        36672428.414275885        1213565392.6363442     
   1375852288.6989136        12523332.354321957        1290120026.9919040     
   1304285145.6780963        17057213.191027820        1284974046.6570804     
   1232879579.5126374        22129683.545606077        1284231807.2880800     
   1161635590.2025337        27740743.418033302        1287893308.8848932     
   1090553177.7477889        33890392.808320224        1295958551.4475243     
   1144022168.9334028        11284884.553203821        1368367327.6720049     
   1083918996.7837100        15843541.324917912        1363859831.6250579     
   1023916851.3857743        20738953.935828626        1363761316.2204719     
   964015732.73958910        25971122.385902703        1368071781.4582384     
   904215640.84516037        31540046.675166756        1376791227.3383548     
   913571132.05968273        10460161.619616210        1445336712.5819008     
   864946901.28550899        15048085.477663577        1441397059.0352936     
   816363147.15948796        19770931.496222466        1441871625.8075845     
   767819869.68161786        24628699.675282001        1446760412.8987634     
   719317068.85189307        29621390.014828324        1456063420.3088303     
   1467545146.2811193        39886153.493049204        1129611750.9047995     
   1360708773.2607219        43740134.016093791        1124381491.5935256     
   1253919180.3849392        47750048.354533732        1122595802.8957019     
   1147176367.6537716        51915896.508352220        1124254684.8113291     
   1040480335.0672168        56237678.477556169        1129358137.3404014     
   1278329679.5597746        36672428.414275885        1213565392.6363442     
   1180835339.4062963        39152969.611823738        1209154650.7544689     
   1083309453.9517229        41528359.805730224        1208802464.9242020     
   985752023.19604683        43798598.995959640        1212508835.1455436     
   888163047.13927400        45963687.182527214        1220273761.4184885     
   1090553177.7477889        33890392.808320224        1295958551.4475243     
   1004155114.5702397        35523767.913067758        1292275947.3083975     
   917647180.64587903        36790907.195112556        1293265884.6590266     
   831029375.97471333        37691810.654474735        1298928363.4994156     
   744301700.55674112        38226478.291144490        1309263383.8295574     
   904215640.84516037        31540046.675166756        1376791227.3383548     
   830668098.75255036        32852528.919810236        1373745381.2553041     
   756932360.46742153        33537690.522730350        1375986062.1001706     
   683008425.98977411        33595531.483919680        1383513269.8729427     
   608896295.31960654        33026051.803372949        1396327004.5736284     
   719317068.85189307        29621390.014828324        1456063420.3088303     
   660374291.95323503        31139252.632078230        1453562952.5951986     
   601164993.41634238        31768709.788551718        1456962997.2476304     
   541689173.24122512        31509761.484269142        1466263554.2661300     
   481946831.42787379        30362407.719215319        1481464623.6506968     
   1040480335.0672168        56237678.477556169        1129358137.3404014     
   923590166.03078127        54236524.561522692        1126122798.7301745     
   804500670.72866476        44904283.093219757        1128890325.0820036     
   683211849.16087866        28240954.072686523        1137660716.3958759     
   559723701.32741606        4246537.4998936057        1152433972.6718051     
   888163047.13927400        45963687.182527214        1220273761.4184885     
   786643982.86875319        43555014.923775762        1217383916.2239766     
   682918177.75784266        33790539.863727808        1220409175.5049069     
   576985631.80656457        16670262.002457500        1229349539.2612655     
   468846345.01490462       -7805818.6600886583        1244205007.4930696     
   744301700.55674112        38226478.291144490        1309263383.8295574     
   657902996.80465269        35335064.415400475        1306710381.7136211     
   569290137.63748145        25063132.489382505        1309984723.5865054     
   478463123.05523682        7410682.5131180882        1319086409.4482155     
   385421953.05791104       -17622285.513415560        1334015439.2987363     
   608896295.31960654        33026051.803372949        1396327004.5736284     
   537367207.83848286        29576673.036407650        1394102195.1991117     
   463616550.36757725        18722060.970166832        1397616969.3267958     
   387644322.90689111        462215.60465975106        1406871326.9566917     
   309450525.45643467       -25202863.060084015        1421865268.0887866     
   481946831.42787379        30362407.719215319        1481464623.6506968     
   425036615.97024471        26279840.786791071        1479559356.6804454     
   365897415.94813168        14767325.306087032        1483305912.7257869     
   304529231.36154532       -4175138.7228640318        1492704291.7867146     
   240932062.21047246       -30547551.300098181        1507754493.8632312     
   559723701.32741606        4246537.4998936057        1152433972.6718051     
   462892497.47784120       -33344697.195825994        1161885872.3798001     
   354022882.76115614       -111063968.11526275        1178857658.0927460     
   233114857.17733800       -228911275.25847405        1203349329.8106291     
   100168420.72640768       -386886618.62539232        1235360887.5334594     
   468846345.01490462       -7805818.6600886583        1244205007.4930696     
   391062045.24541289       -41954022.624106482        1242716331.5071876     
   303102979.01424539       -110018114.79369341        1247564688.6398695     
   204969146.32139713       -211998095.16888845        1258750078.8911309     
   96660547.166881099       -347893963.74964851        1276272502.2609582     
   385421953.05791104       -17622285.513415560        1334015439.2987363     
   323304977.69315624       -49341332.648323879        1323760439.4253161     
   252876880.27217302       -108764119.97065841        1318659619.7840967     
   174137660.79495883       -195890647.48043191        1318712980.3750844     
   87087319.261513233       -310720915.17764044        1323920521.1982746     
   309450525.45643467       -25202863.060084015        1421865268.0887866     
   259621294.82107648       -55506627.268487319        1405018196.1341846     
   203344586.53493676       -107301983.64616299        1392142451.5254221     
   140620400.59800619       -180588932.19313973        1383238034.2624846     
   71448737.010294631       -275367472.90938932        1378304944.3453846     
   240932062.21047246       -30547551.300098181        1507754493.8632312     
   200010996.62916619       -60449906.484613284        1486489601.6338089     
   154506097.80252349       -105631705.82025231        1468013183.8638484     
   104417365.73055148       -166092949.30698782        1452325240.5533509     
   49744800.413228795       -241833636.94489232        1439425771.7023141     
   100168420.72640768       -386886618.62539232        1235360887.5334594     
   85318102.720200896       -546774949.06370950        1196743577.1513550     
   57885213.643922150       -748605183.06893849        1154776922.8064334     
   17869753.497550607       -992377320.64113545        1109460924.4987032     
  -34728277.718901932       -1278091361.7802579        1060795582.2281442     
   96660547.166881099       -347893963.74964851        1276272502.2609582     
   79761656.622759700       -489062032.68297219        1221954123.0073571     
   51480315.220090359       -668171604.47811949        1165089202.3400939     
   11816522.958877504       -885222679.13508260        1105677740.2591941     
  -39229720.160884142       -1140215256.6538696        1043719736.7646255     
   87087319.261513233       -310720915.17764044        1323920521.1982746     
   70433577.748499960       -432480606.13530046        1255301213.3199623     
   43597505.588485211       -588181399.24963331        1184938166.5771620     
   6579102.7814588249       -777823294.52066696        1112831380.9698794     
  -40621630.672568560       -1001406291.9483786        1038980856.4980823     
   71448737.010294631       -275367472.90938932        1378304944.3453846     
   57333866.097429007       -377030669.42066884        1296784848.0891812     
   34236784.749097884       -508634567.38349468        1214323815.5176313     
   2157492.9653016031       -670179166.79787278        1130921846.6307678     
  -38904009.253958672       -861664467.66379941        1046578941.4285649     
   49744800.413228795       -241833636.94489232        1439425771.7023141     
   40462521.669544011       -322712222.53908134        1346405027.3149889     
   23398152.701942056       -429531108.87966669        1253246149.1614969     
  -1448306.4896009564       -562290295.96671379        1159949137.2418463     
  -34076855.905054271       -720989783.80014515        1066513991.5560191     
   1617466048.5611353        47099697.085985422        1524127114.0043464     
   1533856681.8621373        28393544.243656218        1486325121.1517935     
   1451210767.4319556        12898898.964046776        1461856303.3992574     
   1369528305.2705898        615761.24716162682        1450720660.7467346     
   1288809295.3780456       -8455868.9069926143        1452918193.1942251     
   1154859594.3056045        17852820.368353367        1506462300.5098951     
   1104652743.4124858        7573265.3194832206        1481774800.3022537     
   1055168480.5552621       -297662.94307011366        1467503768.4313929     
   1006406805.7339302       -5759964.4193177819        1463649204.8973255     
   958367718.94849932       -8813639.1092314720        1470211109.7000444     
   731079775.80845797        253934.37823665142        1488324853.8635116     
   705941992.82628870       -4099057.2456558645        1476470838.0290267     
   681285933.64709413       -6846302.8596347272        1472116583.7681079     
   657111598.27087021       -7987802.4637106955        1475262091.0807514     
   633418986.69762170       -7523556.0578680336        1485907359.9669573     
   346126593.06969875       -5696960.8843647242        1469714774.0651839     
   337724430.10355085       -6623423.4517550766        1470413234.3321226     
   329563126.70745271       -6747020.7856453508        1475694749.4093986     
   321642682.88140863       -6067752.8860223740        1485559319.2970109     
   313963098.62541169       -4585619.7529068589        1500006943.9949601     
   46.089326311493160        134.58055155638678        1450632061.1149216     
   55.244268957956109        166.70118412954116        1463601989.2115395     
   59.736343161409032        183.27891772932577        1478238265.3552649     
   59.565541395820858        184.31373282008551        1494540889.5461037     
   54.731872514000173        169.80565891118229        1512509861.7840574     
   1288809295.3780456       -8455868.9069926143        1452918193.1942251     
   1252764665.9585774       -2863073.3538216352        1444102349.1874979     
   1216588745.7419882        2292086.2089456320        1439386719.5608802     
   1180281534.7282760        7009609.7813000083        1438771304.3143711     
   1143843032.9174423        11289497.363249242        1442256103.4479697     
   958367718.94849932       -8813639.1092314720        1470211109.7000444     
   932347932.10126722       -4314942.4500417113        1463065471.4083097     
   906229676.80120623       -144473.96694839001        1459783520.4598763     
   880012953.04831541        3697766.3400428891        1460365256.8547375     
   853697760.84259713        7211778.4709455967        1464810680.5929027     
   633418986.69762170       -7523556.0578680336        1485907359.9669573     
   616748250.88888812       -4321695.7527765930        1480470220.1252205     
   600011868.97161651       -1338655.8094775081        1478660240.5899754     
   583209840.94580793        1425563.7720318437        1480477421.3612216     
   566342166.81146288        3970962.9917519689        1485921762.4389579     
   313963098.62541169       -4585619.7529068589        1500006943.9949601     
   305965622.32143646       -2883333.2620378137        1496316595.3382304     
   297935322.25321603       -1290459.3186501265        1496016879.9511857     
   289872198.42074943        193002.07725042105        1499107797.8338211     
   281776250.82403874        1567050.9256679714        1505589348.9861398     
   54.731872514000173        169.80565891118229        1512509861.7840574     
   46.398915524732949        145.02218517182249        1510604597.0473449     
   36.646002898876873        115.50552597716644        1511853438.5435033     
   25.473142528470621        81.255707634009852        1516256386.2725344     
   12.880326658728368        42.272704293066582        1523813440.2344420     
   1143843032.9174423        11289497.363249242        1442256103.4479697     
   1085768005.3977914        9391989.0766369104        1434283689.9661882     
   1028031012.7482820        8621263.6904998422        1432139653.6612496     
   970632054.96891332        8977321.2048285007        1435823994.5331533     
   913571132.05968273        10460161.619616210        1445336712.5819008     
   853697760.84259713        7211778.4709455967        1464810680.5929027     
   810782149.82292366        5980837.0920234919        1458084988.2502992     
   768120065.80621016        5594985.7229688764        1457038185.2136765     
   725711508.79246569        6054224.3638092577        1461670271.4830313     
   683556478.78167558        7358553.0144976377        1471981247.0583720     
   566342166.81146288        3970962.9917519689        1485921762.4389579     
   538158864.08930528        3278456.0597848296        1480344198.7238240     
   510144580.50292921        3149346.2470884919        1480296036.4438083     
   482299316.05233896        3583633.5536797643        1485777275.5989146     
   454623070.73752975        4581317.9795408547        1496787916.1891358     
   281776250.82403874        1567050.9256679714        1505589348.9861398     
   267898148.19693369        1284845.9799151719        1501061321.3867624     
   254104556.83843285        1284345.2628435194        1501913207.3516481     
   240395476.74853441        1565548.7744468451        1508145006.8807869     
   226770907.92724329        2128456.5147401690        1519756719.9741809     
   12.880326658728368        42.272704293066582        1523813440.2344420     
   2.1458127857005653        6.8524307336451376        1520236356.2391169     
  -5.1872791318762470       -17.229770334829063        1521889697.9371910     
  -9.1189438097674813       -29.973879216572552        1528773465.3286588     
  -9.6491820943656901       -31.379902202340798        1540887658.4135187     
   913571132.05968273        10460161.619616210        1445336712.5819008     
   864946901.28550899        15048085.477663577        1441397059.0352936     
   816363147.15948796        19770931.496222466        1441871625.8075845     
   767819869.68161786        24628699.675282001        1446760412.8987634     
   719317068.85189307        29621390.014828324        1456063420.3088303     
   683556478.78167558        7358553.0144976377        1471981247.0583720     
   646245026.54219007        10546513.163562477        1468559731.8873811     
   608963931.80544066        13835664.988410056        1469749202.2801025     
   571713194.57143700        17226008.489078164        1475549658.2365334     
   534492814.84016228        20717543.665510207        1485961099.7566779     
   454623070.73752975        4581317.9795408547        1496787916.1891358     
   429186583.44650578        6537970.3437517881        1493872733.7241082     
   403770334.51280618        8562083.8990455717        1495765302.0676115     
   378374323.93643445        10653658.645431370        1502465621.2196484     
   352998551.71738607        12812694.582895115        1513973691.1802139     
   226770907.92724329        2128456.5147401690        1519756719.9741809     
   213771571.99845082        3022457.0182232261        1517336064.5454741     
   200782355.28157130        3950188.2280855998        1519919925.1701148     
   187803257.77660993        4911650.1443395540        1527508301.8481085     
   174834279.48355892        5906842.7669630721        1540101194.5794556     
  -9.6491820943656901       -31.379902202340798        1540887658.4135187     
  -7.8019697845123561       -26.813008361222959        1538949724.3514793     
  -5.8882561372551638       -22.024445477093774        1542213071.5876105     
  -3.9080384532881367       -17.014201082819682        1550677700.1219144     
  -1.8613209874495120       -11.782291442862991        1564343609.9543900     
   719317068.85189307        29621390.014828324        1456063420.3088303     
   660374291.95323503        31139252.632078230        1453562952.5951986     
   601164993.41634238        31768709.788551718        1456962997.2476304     
   541689173.24122512        31509761.484269142        1466263554.2661300     
   481946831.42787379        30362407.719215319        1481464623.6506968     
   534492814.84016228        20717543.665510207        1485961099.7566779     
   490691060.69617212        21977540.239537060        1484306766.3311465     
   446689415.23937070        22571232.437523469        1488458368.6685052     
   402487878.46976155        22498620.259486929        1498415906.7687430     
   358086450.38734615        21759703.705426857        1514179380.6318710     
   352998551.71738607        12812694.582895115        1513973691.1802139     
   324067601.46183324        13733759.453823105        1513243227.4224474     
   295003390.21888858        14210621.033442140        1518224122.8243854     
   265805917.98856223        14243279.321790665        1528916377.3860283     
   236475184.77084857        13831734.318847395        1545319991.1073782     
   174834279.48355892        5906842.7669630721        1540101194.5794556     
   160503914.25021109        6407910.2749125063        1540372335.8691082     
   146106918.35489821        6686875.5763116628        1546260259.7152858     
   131643291.79762456        6743738.6711762026        1557764966.1179881     
   117113034.57838160        6578499.5594738089        1574886455.0772154     
  -1.8613209874495120       -11.782291442862991        1564343609.9543900     
 -0.93868392912068566       -7.2971566518247268        1565694091.6711235     
 -0.35260292853998398       -3.9338753866135447        1572566779.3412001     
 -0.10305419521402182       -1.6923697333636079        1584961672.9646196     
 -0.19005419948437338      -0.57269042987715546        1602878772.5413821     
   481946831.42787379        30362407.719215319        1481464623.6506968     
   425036615.97024471        26279840.786791071        1479559356.6804454     
   365897415.94813168        14767325.306087032        1483305912.7257869     
   304529231.36154532       -4175138.7228640318        1492704291.7867146     
   240932062.21047246       -30547551.300098181        1507754493.8632312     
   358086450.38734615        21759703.705426857        1514179380.6318710     
   316041188.69731957        18888998.606686041        1510711518.9893374     
   272324188.56466162        10445832.032506242        1512746753.7292898     
   226935449.98938519       -3569796.0170679688        1520285084.8517275     
   179874972.97148526       -23157885.542053841        1533326512.3566518     
   236475184.77084857        13831734.318847395        1545319991.1073782     
   208869943.61098421        12045411.082546309        1540939655.2680562     
   180150210.13035482        6544113.4436952174        1541913689.1781156     
   150315984.32894510       -2672158.5977556556        1548242092.8375640     
   119367266.20677528       -15603405.041742973        1559924866.2463908     
   117113034.57838160        6578499.5594738089        1574886455.0772154     
   103522880.71124522        5749078.2143946476        1570243765.5166032     
   89375480.645197406        3062169.5396119431        1570806719.0722663     
   74670834.380229414       -1482226.4649061523        1576575315.7442088     
   59408941.916345060       -7884109.7991465293        1587549555.5324366     
 -0.19005419948437338      -0.57269042987715546        1602878772.5413821     
  -1.9021414480143756E-003   2.2137969113555801E-003   1598623849.7349737     
  0.10919845613824337       0.32028120997830989        1599425843.4117451     
  0.14322114922598367       0.38142019304870139        1605284753.5716908     
  0.10019988501922868       0.18574876069500357        1616200580.2148070     
   240932062.21047246       -30547551.300098181        1507754493.8632312     
   200010996.62916619       -60449906.484613284        1486489601.6338089     
   154506097.80252349       -105631705.82025231        1468013183.8638484     
   104417365.73055148       -166092949.30698782        1452325240.5533509     
   49744800.413228795       -241833636.94489232        1439425771.7023141     
   179874972.97148526       -23157885.542053841        1533326512.3566518     
   148576297.80811322       -45767014.782355897        1507645493.0897572     
   113839747.72144631       -79835727.100299269        1484894786.0054374     
   75665322.711475492       -125364022.49592373        1465074391.1037169     
   34053022.778208204       -182351900.96920577        1448184308.3845890     
   119367266.20677528       -15603405.041742973        1559924866.2463908     
   98096232.098842502       -30797733.146557197        1531164671.3177228     
   74533281.389648363       -53631783.255576611        1505476626.2947695     
   48678414.079192773       -84105555.368801892        1482860731.1775284     
   20531630.167473271       -122219049.48624018        1463316985.9660063     
   59408941.916345060       -7884109.7991465293        1587549555.5324366     
   48570799.501356304       -15542061.577219803        1557047136.3177137     
   36586698.807136297       -27019874.286064439        1529758704.7318339     
   23456639.833692148       -42317547.925655298        1505684260.7747941     
   9180622.5810290314       -61435082.495977402        1484823804.4465947     
  0.10019988501922868       0.18574876069500357        1616200580.2148070     
   1.5646915997301624E-002  -7.4366017007391538E-002   1585292888.0897374     
  -2.6093687650168722E-002 -0.19177429790704506        1557741021.3166356     
  -2.5018105718956150E-002 -0.16646161326639361        1533544979.8954997     
   1.8869155322480874E-002   1.5573622977296834E-003   1512704763.8263345     
   49744800.413228795       -241833636.94489232        1439425771.7023141     
   40462521.669544011       -322712222.53908134        1346405027.3149889     
   23398152.701942056       -429531108.87966669        1253246149.1614969     
  -1448306.4896009564       -562290295.96671379        1159949137.2418463     
  -34076855.905054271       -720989783.80014515        1066513991.5560191     
   34053022.778208204       -182351900.96920577        1448184308.3845890     
   29882118.492310166       -242173598.68802404        1347653387.7588985     
   19874646.532053784       -321450521.98803681        1246333145.5879767     
   4030606.8974646330       -420182670.86916023        1144223581.8718102     
  -17650000.411471426       -538370045.33143711        1041324696.6104085     
   20531630.167473271       -122219049.48624018        1463316985.9660063     
   19611563.827716663       -161542020.28322133        1357545665.4098072     
   14800452.363197580       -213835141.49607742        1250333835.5293038     
   6098295.7739156485       -279098413.12481105        1141681496.3244903     
  -6494905.9401271194       -357331835.16941410        1031588647.7953647     
   9180622.5810290314       -61435082.495977402        1484823804.4465947     
   9650857.6757837571       -80817487.324610442        1376081860.2677212     
   8175570.1953687444       -106684967.40380646        1265248218.9854741     
   4754760.1397670582       -139037522.73362508        1152322880.5998514     
  -611572.49101419002       -177875153.31404713        1037305845.1108344     
   1.8869155322480874E-002   1.5573622977296834E-003   1512704763.8263345     
   3.6506695102808892E-002  0.18779721367733462        1403261972.3326333     
   2.8561448078407312E-002  0.28875763959422224        1291076295.9565041     
  -4.9936703124235371E-003  0.30435390929118344        1176147734.6979148     
  -6.4143928264164568E-002  0.23463374100783443        1058476288.5568644     
   46.089326311493160        134.58055155638678        1450632061.1149216     
   55.244268957956109        166.70118412954116        1463601989.2115395     
   59.736343161409032        183.27891772932577        1478238265.3552649     
   59.565541395820858        184.31373282008551        1494540889.5461037     
   54.731872514000173        169.80565891118229        1512509861.7840574     
  -346126560.62020624        5697045.0848220140        1469714812.9848258     
  -337724375.73814636        6623581.7560478747        1470413259.6046703     
  -329563059.32969296        6747223.5152522475        1475694761.5327356     
  -321642611.39484888        6067970.3624241054        1485559318.7690275     
  -313963031.93361545        4585822.2975620031        1500006931.3135469     
  -731079812.40893149       -254037.93466702104        1488324934.8337395     
  -705942002.48228514        4099038.0824028850        1476470892.1976111     
  -681285924.83998585        6846339.8183159828        1472116612.1308239     
  -657111579.48203433        7987867.2730700672        1475262094.6333742     
  -633418966.40842843        7523620.4466708899        1485907339.7052619     
  -1154859709.2768500       -17853114.477911472        1506462426.6616545     
  -1104652824.9881506       -7573464.3197625875        1481774886.9903672     
  -1055168536.7945398        297532.18809992075        1467503817.1495283     
  -1006406844.6960106        5759875.0456838608        1463649217.1391435     
  -958367748.69256985        8813564.2529762387        1470211086.9592102     
  -1617466251.2239602       -47100184.544916809        1524127288.4685819     
  -1533856843.2557445       -28393925.450449944        1486325243.9829364     
  -1451210895.1933529       -12899199.375396430        1461856376.5888517     
  -1369528407.0367827       -616006.31974929571        1450720686.2863331     
  -1288809378.7860351        8455653.7164911628        1452918173.0753827     
   54.731872514000173        169.80565891118229        1512509861.7840574     
   46.398915524732949        145.02218517182249        1510604597.0473449     
   36.646002898876873        115.50552597716644        1511853438.5435033     
   25.473142528470621        81.255707634009852        1516256386.2725344     
   12.880326658728368        42.272704293066582        1523813440.2344420     
  -313963031.93361545        4585822.2975620031        1500006931.3135469     
  -305965566.24822545        2883503.7719039321        1496316579.3200541     
  -297935278.01981229        1290593.7229902744        1496016861.2021530     
  -289872167.24836683       -192907.84914895892        1499107776.9598386     
  -281776233.93389440       -1567000.9445322156        1505589326.5931149     
  -633418966.40842843        7523620.4466708899        1485907339.7052619     
  -616748233.43978631        4321746.1583008766        1480470195.0784676     
  -600011853.96513999        1338693.5566112399        1478660211.9699805     
  -583209827.98448384       -1425537.3583777249        1480477390.3798006     
  -566342155.49782050       -3970946.5866785944        1485921730.3079264     
  -958367748.69256985        8813564.2529762387        1470211086.9592102     
  -932347955.17577052        4314872.1813654304        1463065444.3225894     
  -906229691.18998504        144415.00637507439        1459783490.8469920     
  -880012956.73521149       -3697807.2719897032        1460365226.5324175     
  -853697751.81145298       -7211794.6537377238        1464810651.3788667     
  -1288809378.7860351        8455653.7164911628        1452918173.0753827     
  -1252764731.4561734        2862881.8411093354        1444102327.0524123     
  -1216588789.6943474       -2292241.9277212024        1439386697.8331828     
  -1180281553.5005536       -7009717.5899940729        1438771285.4176929     
  -1143843022.8747919       -11289545.145708680        1442256089.8059449     
   12.880326658728368        42.272704293066582        1523813440.2344420     
   2.1458127857005653        6.8524307336451376        1520236356.2391169     
  -5.1872791318762470       -17.229770334829063        1521889697.9371910     
  -9.1189438097674813       -29.973879216572552        1528773465.3286588     
  -9.6491820943656901       -31.379902202340798        1540887658.4135187     
  -281776233.93389440       -1567000.9445322156        1505589326.5931149     
  -267898143.90583998       -1284835.7420867234        1501061306.1886983     
  -254104561.28866583       -1284361.9092447758        1501913198.9953082     
  -240395486.08237734       -1565579.4460213482        1508145005.0129516     
  -226770918.28696913       -2128488.3523981720        1519756724.2416239     
  -566342155.49782050       -3970946.5866785944        1485921730.3079264     
  -538158857.51395476       -3278448.6035461128        1480344177.5467207     
  -510144577.75327611       -3149344.6977058649        1480296025.5141826     
  -482299316.21578860       -3583634.8691700399        1485777274.2103078     
  -454623072.90148568       -4581319.1179129481        1496787923.6351020     
  -853697751.81145298       -7211794.6537377238        1464810651.3788667     
  -810782138.67853057       -5980831.7319405079        1458084970.3131850     
  -768120054.58109939       -5594965.5951177180        1457038177.4938006     
  -725711499.51916718       -6054196.2432923019        1461670272.9207191     
  -683556473.49272859       -7358523.6764423847        1471981256.5939398     
  -1143843022.8747919       -11289545.145708680        1442256089.8059449     
  -1085767987.3995688       -9391985.1272768974        1434283684.4880922     
  -1028030991.7721413       -8621224.6015002131        1432139654.9341750     
  -970632035.99252546       -8977263.5684247017        1435824001.1441963     
  -913571120.06070280       -10460102.027997792        1445336723.1181548     
  -9.6491820943656901       -31.379902202340798        1540887658.4135187     
  -7.8019697845123561       -26.813008361222959        1538949724.3514793     
  -5.8882561372551638       -22.024445477093774        1542213071.5876105     
  -3.9080384532881367       -17.014201082819682        1550677700.1219144     
  -1.8613209874495120       -11.782291442862991        1564343609.9543900     
  -226770918.28696913       -2128488.3523981720        1519756724.2416239     
  -213771579.75614741       -3022483.2118577957        1517336068.5633433     
  -200782360.52237517       -3950209.0614815205        1519919928.9034388     
  -187803260.58565769       -4911665.9012888297        1527508305.2619097     
  -174834279.94599405       -5906853.7312757149        1540101197.6387632     
  -454623072.90148568       -4581319.1179129481        1496787923.6351020     
  -429186584.20074993       -6537969.3578180373        1493872740.4164300     
  -403770334.16062760       -8562081.7997675687        1495765307.9363408     
  -378374322.78110695       -10653656.443725601        1502465626.1948349     
  -352998550.06219763       -12812693.289715812        1513973695.1919088     
  -683556473.49272859       -7358523.6764423847        1471981256.5939398     
  -646245021.13578296       -10546485.250915736        1468559739.9107349     
  -608963926.80300450       -13835640.239279300        1469749208.6863177     
  -571713190.49438715       -17225988.641511649        1475549662.9206846     
  -534492812.20993197       -20717530.457620144        1485961102.6138401     
  -913571120.06070280       -10460102.027997792        1445336723.1181548     
  -864946890.56124270       -15048030.891131520        1441397067.0462687     
  -816363138.44951832       -19770884.380050421        1441871631.1533699     
  -767819863.72549558       -24628662.494640738        1446760415.4394650     
  -719317066.38919592       -29621365.234976709        1456063419.9045537     
  -1.8613209874495120       -11.782291442862991        1564343609.9543900     
 -0.93868392912068566       -7.2971566518247268        1565694091.6711235     
 -0.35260292853998398       -3.9338753866135447        1572566779.3412001     
 -0.10305419521402182       -1.6923697333636079        1584961672.9646196     
 -0.19005419948437338      -0.57269042987715546        1602878772.5413821     
  -174834279.94599405       -5906853.7312757149        1540101197.6387632     
  -160503914.28704745       -6407917.5330113694        1540372338.0507088     
  -146106918.21732715       -6686879.9654996693        1546260261.1419029     
  -131643291.73683792       -6743741.0287614167        1557764966.9123476     
  -117113034.84557928       -6578500.7227900140        1574886455.3620384     
  -352998550.06219763       -12812693.289715812        1513973695.1919088     
  -324067600.45006287       -13733759.613233343        1513243230.1709399     
  -295003389.67984325       -14210622.076468185        1518224124.5551214     
  -265805917.75154078       -14243280.679425538        1528916378.3444562     
  -236475184.66515386       -13831735.422101110        1545319991.5389452     
  -534492812.20993197       -20717530.457620144        1485961102.6138401     
  -490691059.42774141       -21977533.537861764        1484306768.0318186     
  -446689414.74015105       -22571230.266770869        1488458369.5808525     
  -402487878.14716554       -22498620.644364521        1498415907.2609427     
  -358086449.64878148       -21759704.670626462        1514179381.0720894     
  -719317066.38919592       -29621365.234976709        1456063419.9045537     
  -660374291.22008014       -31139239.306888223        1453562951.6333437     
  -601164993.39824927       -31768704.536412358        1456962996.2190979     
  -541689172.92371583       -31509760.923598289        1466263553.6618147     
  -481946829.79645985       -30362408.468373701        1481464623.9614918     
 -0.19005419948437338      -0.57269042987715546        1602878772.5413821     
  -1.9021414480143756E-003   2.2137969113555801E-003   1598623849.7349737     
  0.10919845613824337       0.32028120997830989        1599425843.4117451     
  0.14322114922598367       0.38142019304870139        1605284753.5716908     
  0.10019988501922868       0.18574876069500357        1616200580.2148070     
  -117113034.84557928       -6578500.7227900140        1574886455.3620384     
  -103522880.73249090       -5749078.5447799899        1570243765.7302742     
  -89375480.521060511       -3062169.3722970039        1570806719.1876400     
  -74670834.211287886        1482226.7946590222        1576575315.7341425     
  -59408941.803178594        7884109.9560730979        1587549555.3697815     
  -236475184.66515386       -13831735.422101110        1545319991.5389452     
  -208869943.46725586       -12045411.693046637        1540939655.6197889     
  -180150209.99560982       -6544113.7181681544        1541913689.3957274     
  -150315984.25021863        2672158.5025315732        1548242092.8667567     
  -119367266.23108210        15603404.969046593        1559924866.0328827     
  -358086449.64878148       -21759704.670626462        1514179381.0720894     
  -316041188.20619136       -18888999.442561090        1510711519.4035218     
  -272324188.31444734       -10445832.717316180        1512746754.0359995     
  -226935449.97355694        3569795.5050817579        1520285084.9695313     
  -179874973.18351170        23157885.224665575        1533326512.2041180     
  -481946829.79645985       -30362408.468373701        1481464623.9614918     
  -425036614.94929135       -26279841.793314904        1479559357.0814760     
  -365897415.47757620       -14767326.369763285        1483305913.1084692     
  -304529231.38129771        4175137.8023315966        1492704292.0424778     
  -240932062.66047099        30547550.722918987        1507754493.8834918     
  0.10019988501922868       0.18574876069500357        1616200580.2148070     
   1.5646915997301624E-002  -7.4366017007391538E-002   1585292888.0897374     
  -2.6093687650168722E-002 -0.19177429790704506        1557741021.3166356     
  -2.5018105718956150E-002 -0.16646161326639361        1533544979.8954997     
   1.8869155322480874E-002   1.5573622977296834E-003   1512704763.8263345     
  -59408941.803178594        7884109.9560730979        1587549555.3697815     
  -48570799.475312665        15542061.474244848        1557047136.2176950     
  -36586698.818881109        27019874.087633990        1529758704.6974380     
  -23456639.833881091        42317547.796252184        1505684260.8090158     
  -9180622.5203097463        61435082.600107796        1484823804.5524120     
  -119367266.23108210        15603404.969046593        1559924866.0328827     
  -98096232.119767711        30797733.076795414        1531164671.1871696     
  -74533281.394125775        53631783.232305095        1505476626.2531435     
  -48678414.054161221        84105555.435554162        1482860731.2308106     
  -20531630.099867120        122219049.68657134        1463316986.1201727     
  -179874973.18351170        23157885.224665575        1533326512.2041180     
  -148576297.91771317        45767014.733304694        1507645492.9981551     
  -113839747.75182714        79835727.242232531        1484894785.9837494     
  -75665322.685858101        125364022.75143780        1465074391.1608968     
  -34053022.719808497        182351901.26091304        1448184308.5295982     
  -240932062.66047099        30547550.722918987        1507754493.8834918     
  -200010996.86914700        60449906.443774119        1486489601.6506646     
  -154506097.89198631        105631706.11742097        1468013183.8892565     
  -104417365.72898234        166092949.74387613        1452325240.5992641     
  -49744800.380141228        241833637.32312399        1439425771.7806873     
   1.8869155322480874E-002   1.5573622977296834E-003   1512704763.8263345     
   3.6506695102808892E-002  0.18779721367733462        1403261972.3326333     
   2.8561448078407312E-002  0.28875763959422224        1291076295.9565041     
  -4.9936703124235371E-003  0.30435390929118344        1176147734.6979148     
  -6.4143928264164568E-002  0.23463374100783443        1058476288.5568644     
  -9180622.5203097463        61435082.600107796        1484823804.5524120     
  -9650857.6135614254        80817487.676813677        1376081860.3230803     
  -8175570.1596459225        106684967.91074137        1265248218.9930971     
  -4754760.1585483700        139037523.30194449        1152322880.5624647     
   611572.38971897960        177875153.85037857        1037305845.0311769     
  -20531630.099867120        122219049.68657134        1463316986.1201727     
  -19611563.784588329        161542020.60952917        1357545665.4900923     
  -14800452.349357873        213835141.93232703        1250333835.5411589     
  -6098295.7941885442        279098413.65492272        1141681496.2733734     
   6494905.8809296936        357331835.77734101        1031588647.6867491     
  -34053022.719808497        182351901.26091304        1448184308.5295982     
  -29882118.476567477        242173598.98595899        1347653387.8336639     
  -19874646.540605500        321450522.35340536        1246333145.6006913     
  -4030606.9119289815        420182671.36323762        1144223581.8306668     
   17650000.409477621        538370046.01549792        1041324696.5236062     
  -49744800.380141228        241833637.32312399        1439425771.7806873     
  -40462521.689493909        322712222.80612463        1346405027.3538091     
  -23398152.733359009        429531109.17408186        1253246149.1716940     
   1448306.4882590473        562290296.42698348        1159949137.2343268     
   34076855.975368708        720989784.56485796        1066513991.5417125     
  -1617466251.2239602       -47100184.544916809        1524127288.4685819     
  -1533856843.2557445       -28393925.450449944        1486325243.9829364     
  -1451210895.1933529       -12899199.375396430        1461856376.5888517     
  -1369528407.0367827       -616006.31974929571        1450720686.2863331     
  -1288809378.7860351        8455653.7164911628        1452918173.0753827     
  -2067686693.3198996       -67445198.308460116        1394066702.5334799     
  -1954509886.9475231       -46119416.299295068        1374170086.9368727     
  -1841902178.2006412       -26690626.375112176        1363079941.5792799     
  -1729863567.0792584       -9158828.5359280109        1360796266.4607000     
  -1618394053.5833707        6475977.2182774544        1367319061.5811317     
  -2457727780.5341620       -69736405.607503533        1261371957.8554087     
  -2327917023.9077716       -49671135.128679276        1259840860.4748940     
  -2198281002.6265488       -30188315.800420880        1262589526.4808354     
  -2068819716.6904998       -11287947.622735023        1269617955.8732419     
  -1939533166.0996184        7029969.4043867588        1280926148.6521089     
  -2787589512.8667421       -53973806.442041397        1126043054.4343758     
  -2654078254.1364875       -39049081.938600540        1143337564.5969963     
  -2520347368.4710755       -23392267.651316524        1160385131.2935236     
  -2386396855.8705072       -7003363.5801708698        1177185754.5239606     
  -2252226716.3347845        10117630.274820447        1193739434.2883058     
  -3057271890.3176479       -20157400.812075257        988079992.27037895     
  -2932993577.6336770       -14253256.729072332        1024660199.3031811     
  -2808101275.7342191       -6302481.9277893305        1056466756.0173409     
  -2682594984.6192822        3694923.5917576551        1083499662.4128573     
  -2556474704.2888622        15738959.829587460        1105758918.4897311     
  -1288809378.7860351        8455653.7164911628        1452918173.0753827     
  -1252764731.4561734        2862881.8411093354        1444102327.0524123     
  -1216588789.6943474       -2292241.9277212024        1439386697.8331828     
  -1180281553.5005536       -7009717.5899940729        1438771285.4176929     
  -1143843022.8747919       -11289545.145708680        1442256089.8059449     
  -1618394053.5833707        6475977.2182774544        1367319061.5811317     
  -1572032440.8097095        1615764.4697300196        1361280795.8246572     
  -1525736443.5662112       -3463166.7126848698        1358909388.4227083     
  -1479506061.8528657       -8760816.3289470077        1360204839.3752854     
  -1433341295.6696835       -14277184.379083157        1365167148.6823907     
  -1939533166.0996184        7029969.4043867588        1280926148.6521089     
  -1884092754.8799157        2530865.6833454370        1277435734.8729801     
  -1828914869.1524942       -2843323.0119708776        1277178820.9991672     
  -1773999508.9173574       -9092596.6815671921        1280155407.0306683     
  -1719346674.1745028       -16216955.325435996        1286365492.9674792     
  -2252226716.3347845        10117630.274820447        1193739434.2883058     
  -2188945673.6667857        5608185.4819687605        1192567144.1973841     
  -2126124066.4531991       -432710.82558524609        1194194995.5625601     
  -2063761894.6940184       -8005058.6478283405        1198622988.3838394     
  -2001859158.3892472       -17108857.984769821        1205851122.6612151     
  -2556474704.2888622        15738959.829587460        1105758918.4897311     
  -2486591197.1703272        10847723.865584135        1106675023.7978666     
  -2417364035.4683237        3768669.8464754820        1109957912.1128869     
  -2348793219.1828570       -5498202.2277537584        1115607583.4347935     
  -2280878748.3139157       -16952892.357070684        1123624037.7635880     
  -1143843022.8747919       -11289545.145708680        1442256089.8059449     
  -1085767987.3995688       -9391985.1272768974        1434283684.4880922     
  -1028030991.7721413       -8621224.6015002131        1432139654.9341750     
  -970632035.99252546       -8977263.5684247017        1435824001.1441963     
  -913571120.06070280       -10460102.027997792        1445336723.1181548     
  -1433341295.6696835       -14277184.379083157        1365167148.6823907     
  -1360644210.4591017       -12304758.017143190        1357864077.3922768     
  -1288191994.0894575       -11148561.124998093        1355963084.0553868     
  -1215984646.5607476       -10808593.702630877        1359464168.6717176     
  -1144022167.8729639       -11284855.750024498        1368367331.2412667     
  -1719346674.1745028       -16216955.325435996        1286365492.9674792     
  -1633245532.9734681       -14535060.743476093        1279840455.2131200     
  -1547296089.6064990       -13358825.608404458        1278291197.6012645     
  -1461498344.0735946       -12688249.920214713        1281717720.1319177     
  -1375852296.3747568       -12523333.678910732        1290120022.8050735     
  -2001859158.3892472       -17108857.984769821        1205851122.6612151     
  -1903571954.9426563       -16082893.306247234        1200212817.9506171     
  -1805343278.3232672       -15252018.051730037        1199123995.5718124     
  -1707173128.5310764       -14616232.221210718        1202584655.5248005     
  -1609061505.5660796       -14175535.814669251        1210594797.8095777     
  -2280878748.3139157       -16952892.357070684        1123624037.7635880     
  -2171623476.3666730       -16948255.705467105        1118981165.6047714     
  -2062333560.2397645       -16828138.454977632        1118461477.9670289     
  -1953008999.9331818       -16592540.605572701        1122064974.8503628     
  -1843649795.4469264       -16241462.157261610        1129791656.2547719     
  -913571120.06070280       -10460102.027997792        1445336723.1181548     
  -864946890.56124270       -15048030.891131520        1441397067.0462687     
  -816363138.44951832       -19770884.380050421        1441871631.1533699     
  -767819863.72549558       -24628662.494640738        1446760415.4394650     
  -719317066.38919592       -29621365.234976709        1456063419.9045537     
  -1144022167.8729639       -11284855.750024498        1368367331.2412667     
  -1083918997.4444642       -15843518.385944486        1363859833.1545050     
  -1023916853.6326690       -20738936.410878420        1363761315.7048099     
  -964015736.43756628       -25971109.824792027        1368071778.8921828     
  -904215645.85916042       -31540038.627692282        1376791222.7166207     
  -1375852296.3747568       -12523333.678910732        1290120022.8050735     
  -1304285155.1369982       -17057221.123542905        1284974041.9362957     
  -1232879589.7449217       -22129694.720444560        1284231802.1626596     
  -1161635600.1985185       -27740754.469594657        1287893303.4841623     
  -1090553186.4978004       -33890400.371023893        1295958545.9008112     
  -1609061505.5660796       -14175535.814669251        1210594797.8095777     
  -1526045363.6388466       -18689139.103933156        1204739693.3916368     
  -1443251346.7862768       -23943159.308744371        1203283090.5269127     
  -1360679455.0083637       -29937596.429081738        1206224989.2154016     
  -1278329688.3051131       -36672450.464954019        1213565389.4571121     
  -1843649795.4469264       -16241462.157261610        1129791656.2547719     
  -1749199622.9500103       -20739272.327121258        1123156787.5205269     
  -1655032124.7567279       -26179330.175762057        1120915180.7975721     
  -1561147300.8670893       -32561635.703216910        1123066836.0859072     
  -1467545151.2810941       -39886188.909477949        1129611753.3855331     
  -719317066.38919592       -29621365.234976709        1456063419.9045537     
  -660374291.22008014       -31139239.306888223        1453562951.6333437     
  -601164993.39824927       -31768704.536412358        1456962996.2190979     
  -541689172.92371583       -31509760.923598289        1466263553.6618147     
  -481946829.79645985       -30362408.468373701        1481464623.9614918     
  -904215645.85916042       -31540038.627692282        1376791222.7166207     
  -830668102.28910244       -32852523.959680557        1373745377.9015951     
  -756932362.27371645       -33537687.807244867        1375986060.0595794     
  -683008425.81299925       -33595530.170372277        1383513269.1905735     
  -608896292.90694952       -33026051.049055248        1396327005.2945838     
  -1090553186.4978004       -33890400.371023893        1295958545.9008112     
  -1004155119.9095147       -35523770.577903152        1292275943.9666841     
  -917647183.08327985       -36790906.658285409        1293265883.1216204     
  -831029376.01910222       -37691808.612188637        1298928363.3656142     
  -744301698.71697450       -38226476.439597428        1309263384.6986744     
  -1278329688.3051131       -36672450.464954019        1213565389.4571121     
  -1180835344.0813117       -39152979.161531210        1209154649.8286107     
  -1083309455.8269494       -41528361.089564919        1208802465.4052184     
  -985752023.54202509       -43798596.249059379        1212508836.1869309     
  -888163047.22653341       -45963684.640003115        1220273762.1737635     
  -1467545151.2810941       -39886188.909477949        1129611753.3855331     
  -1360708774.8044982       -43740149.710579515        1124381495.4873724     
  -1253919180.5047231       -47750051.101080656        1122595806.9103699     
  -1147176368.3817599       -51915893.080960095        1124254687.6545305     
  -1040480338.4356278       -56237675.650269389        1129358137.7198465     
  -481946829.79645985       -30362408.468373701        1481464623.9614918     
  -425036614.94929135       -26279841.793314904        1479559357.0814760     
  -365897415.47757620       -14767326.369763285        1483305913.1084692     
  -304529231.38129771        4175137.8023315966        1492704292.0424778     
  -240932062.66047099        30547550.722918987        1507754493.8834918     
  -608896292.90694952       -33026051.049055248        1396327005.2945838     
  -537367206.34270751       -29576673.223799556        1394102195.7102852     
  -463616549.67005968       -18722061.703863099        1397616969.6589861     
  -387644322.88902169       -462216.48929013312        1406871327.1406879     
  -309450525.99958539        25202862.419943824        1421865268.1553960     
  -744301698.71697450       -38226476.439597428        1309263384.6986744     
  -657902995.78996074       -35335064.070420295        1306710382.1412387     
  -569290137.27069807       -25063133.060430199        1309984723.7428000     
  -478463123.15920579       -7410683.4096634090        1319086409.5033567     
  -385421953.45546192        17622284.881936729        1334015439.4229088     
  -888163047.22653341       -45963684.640003115        1220273762.1737635     
  -786643983.29104722       -43555014.333181947        1217383916.3743446     
  -682918178.27948475       -33790540.439444691        1220409175.3599100     
  -576985632.19183576       -16670262.958750397        1229349539.1304595     
  -468846345.02809918        7805818.1089030206        1244205007.6860032     
  -1040480338.4356278       -56237675.650269389        1129358137.7198465     
  -923590168.84598935       -54236524.012140125        1126122798.4095900     
  -804500672.69640946       -44904283.840875626        1128890324.5103159     
  -683211849.98692477       -28240955.136592150        1137660716.0220249     
  -559723700.71749401       -4246537.8991579413        1152433972.9447074     
  -240932062.66047099        30547550.722918987        1507754493.8834918     
  -200010996.86914700        60449906.443774119        1486489601.6506646     
  -154506097.89198631        105631706.11742097        1468013183.8892565     
  -104417365.72898234        166092949.74387613        1452325240.5992641     
  -49744800.380141228        241833637.32312399        1439425771.7806873     
  -309450525.99958539        25202862.419943824        1421865268.1553960     
  -259621295.14604047        55506627.193800718        1405018196.1984315     
  -203344586.70283806        107301983.93318231        1392142451.5749114     
  -140620400.66997606        180588932.63808799        1383238034.2848351     
  -71448737.047455966        275367473.30853105        1378304944.3282108     
  -385421953.45546192        17622284.881936729        1334015439.4229088     
  -323304977.93389076        49341332.590536967        1323760439.5462501     
  -252876880.41884148        108764120.27740562        1318659619.8650718     
  -174137660.91031978        195890647.94251502        1318712980.3793705     
  -87087319.408317283        310720915.58588743        1323920521.0891435     
  -468846345.02809918        7805818.1089030206        1244205007.6860032     
  -391062045.23269808        41954022.634007722        1242716331.6941199     
  -303102979.04000491        110018115.15008055        1247564688.7597334     
  -204969146.45001727        211998095.65713251        1258750078.8828630     
  -96660547.462739483        347893964.15516227        1276272502.0634966     
  -559723700.71749401       -4246537.8991579413        1152433972.9447074     
  -462892497.04247206        33344697.324145198        1161885872.6420391     
  -354022882.56632483        111063968.55120187        1178857658.2589078     
  -233114857.28907692        228911275.78192475        1203349329.7953126     
  -100168421.21070817        386886619.01638651        1235360887.2512619     
  -49744800.380141228        241833637.32312399        1439425771.7806873     
  -40462521.689493909        322712222.80612463        1346405027.3538091     
  -23398152.733359009        429531109.17408186        1253246149.1716940     
   1448306.4882590473        562290296.42698348        1159949137.2343268     
   34076855.975368708        720989784.56485796        1066513991.5417125     
  -71448737.047455966        275367473.30853105        1378304944.3282108     
  -57333866.150865227        377030669.72061181        1296784848.0657530     
  -34236784.782794625        508634567.70429975        1214323815.5025458     
  -2157492.9432294071        670179167.25963497        1130921846.6386034     
   38904009.367822111        861664468.38658094        1046578941.4739165     
  -87087319.408317283        310720915.58588743        1323920521.0891435     
  -70433577.864346623        432480606.45947599        1255301213.2314305     
  -43597505.642885029        588181399.59135616        1184938166.5274754     
  -6579102.7439381778        777823294.98152077        1112831380.9772918     
   40621630.832488418        1001406292.6299679        1038980856.5808674     
  -96660547.462739483        347893964.15516227        1276272502.0634966     
  -79761656.829935789        489062033.02270287        1221954122.8508523     
  -51480315.313645661        668171604.83520079        1165089202.2464771     
  -11816522.913868845        885222679.59265304        1105677740.2503710     
   39229720.369382977        1140215257.2950165        1043719736.8625441     
  -100168421.21070817        386886619.01638651        1235360887.2512619     
  -85318103.047634214        546774949.41030359        1196743576.9240215     
  -57885213.795073986        748605183.43584156        1154776922.6595600     
  -17869753.453027666        992377321.09299302        1109460924.4578724     
   34728277.978494287        1278091362.3817434        1060795582.3189638     
  -3057271890.3176479       -20157400.812075257        988079992.27037895     
  -2932993577.6336770       -14253256.729072332        1024660199.3031811     
  -2808101275.7342191       -6302481.9277893305        1056466756.0173409     
  -2682594984.6192822        3694923.5917576551        1083499662.4128573     
  -2556474704.2888622        15738959.829587460        1105758918.4897311     
  -3364534566.5385499       -540582.28205251694        1010720476.6345130     
  -3239147570.8599558        6654986.2607531548        1005959524.6268023     
  -3113857444.6835232        13527656.463034153        1006527034.9813341     
  -2988664188.0092392        20077428.324800849        1012423007.6981089     
  -2863567800.8371124        26304301.846053720        1023647442.7771269     
  -3805208295.7510624       -20947079.649511337        1034144405.3383203     
  -3649849437.9896054       -3801132.9204390049        987212959.11952090     
  -3495298308.4479389        10652386.409324884        955712087.94384873     
  -3341554907.1260681        22413478.339785814        939641791.81130791     
  -3188619234.0239892        31482142.870937228        939002070.72189438     
  -4379293077.9551744       -81376892.914449930        1058351778.3818029     
  -4165099179.0226159       -45621614.272638321        968420502.78134060     
  -3952423867.0274806       -14928292.088923454        904021914.90489125     
  -3741267141.9697709        10703073.636705399        865156014.75245583     
  -3531629003.8494940        31272482.904226065        851822802.32403541     
  -5086788913.1509047       -181830022.07687545        1083342595.7649667     
  -4784896793.9589863       -118806457.79584503        949582155.61226034     
  -4485234120.4221334       -63214379.031702518        851456515.86445653     
  -4187800892.5403419       -15053785.784435272        788965676.52154982     
  -3892597110.3136215        25675321.945938349        762109637.58354628     
  -2556474704.2888622        15738959.829587460        1105758918.4897311     
  -2486591197.1703272        10847723.865584135        1106675023.7978666     
  -2417364035.4683237        3768669.8464754820        1109957912.1128869     
  -2348793219.1828570       -5498202.2277537584        1115607583.4347935     
  -2280878748.3139157       -16952892.357070684        1123624037.7635880     
  -2863567800.8371124        26304301.846053720        1023647442.7771269     
  -2787671468.9860067        17339701.213473082        1018201669.6031175     
  -2711962745.1432047        7749740.5532190800        1015954370.4477152     
  -2636441629.3086987       -2465580.1346914768        1016905545.3109188     
  -2561108121.4824948       -13306260.850276351        1021055194.1927334     
  -3188619234.0239892        31482142.870937228        939002070.72189438     
  -3104333817.4068251        19157055.579823852        927741279.37534332     
  -3019767271.3897295        7769066.2884855270        920510653.05912089     
  -2934919595.9727044       -2681825.0030885935        917310191.77322829     
  -2849790791.1557474       -12195618.294892669        918139895.51766455     
  -3531629003.8494940        31272482.904226065        851822802.32403541     
  -3436578242.4327788        16299786.964635372        835293853.11454570     
  -3340777614.2078996        3826647.0522570610        823626759.94710648     
  -3244227119.1748662       -6146936.8329305649        816821522.82171905     
  -3146926757.3336649       -13620964.690902472        814878141.73838139     
  -3892597110.3136215        25675321.945938349        762109637.58354628     
  -3784404744.0638719        8767895.3679022789        740859390.82072437     
  -3674993773.5977230       -4077517.1554806232        725302691.11167181     
  -3564364198.9151869       -12860915.624230146        715439538.45639086     
  -3452516020.0162525       -17582300.038320065        711269932.85488379     
  -2280878748.3139157       -16952892.357070684        1123624037.7635880     
  -2171623476.3666730       -16948255.705467105        1118981165.6047714     
  -2062333560.2397645       -16828138.454977632        1118461477.9670289     
  -1953008999.9331818       -16592540.605572701        1122064974.8503628     
  -1843649795.4469264       -16241462.157261610        1129791656.2547719     
  -2561108121.4824948       -13306260.850276351        1021055194.1927334     
  -2439743811.4516559       -10989062.790930510        1013600095.3746313     
  -2318621362.7882056       -9478069.2895543575        1010802788.6979731     
  -2197740775.4921365       -8773280.3461079597        1012663274.1627579     
  -2077102049.5634542       -8874695.9606255293        1019181551.7689854     
  -2849790791.1557474       -12195618.294892669        918139895.51766455     
  -2714789992.6973996       -7107623.7246221304        907549980.23537791     
  -2580307561.1534967       -3747518.8691662550        902152464.71490264     
  -2446343496.5240397       -2115303.7285245657        901947348.95623600     
  -2312897798.8090253       -2210978.3026940823        906934632.95937955     
  -3146926757.3336649       -13620964.690902472        814878141.73838139     
  -2996762020.1039095       -5303938.5065470934        800830820.18700898     
  -2847392155.3356524        363512.80614936352        792510506.01781559     
  -2698817163.0288968        3381389.2471678257        789917199.23079848     
  -2551037043.1836410        3749690.8165296316        793050899.82595873     
  -3452516020.0162525       -17582300.038320065        711269932.85488379     
  -3285659893.6711750       -5578007.1366820335        693442615.22952676     
  -3119875145.3346591        2855025.7364171743        681876912.60671544     
  -2955161775.0067024        7716798.5809839964        676572824.98644626     
  -2791519782.6873031        9007311.3970263004        677530352.36872447     
  -1843649795.4469264       -16241462.157261610        1129791656.2547719     
  -1749199622.9500103       -20739272.327121258        1123156787.5205269     
  -1655032124.7567279       -26179330.175762057        1120915180.7975721     
  -1561147300.8670893       -32561635.703216910        1123066836.0859072     
  -1467545151.2810941       -39886188.909477949        1129611753.3855331     
  -2077102049.5634542       -8874695.9606255293        1019181551.7689854     
  -1972217687.7100103       -14215208.555861354        1011222548.7690533     
  -1867429566.3077335       -19876522.654984474        1007091053.0533226     
  -1762737685.3566315       -25858638.258018494        1006787064.6217933     
  -1658142044.8566945       -32161555.364946425        1010310583.4744647     
  -2312897798.8090253       -2210978.3026940823        906934632.95937955     
  -2199195689.6764569       -8879125.9465272427        897869001.85498059     
  -2085403387.1425843       -15246628.919347525        892065123.30769086     
  -1971520891.2074211       -21313487.221187353        889522997.31751180     
  -1857548201.8709471       -27079700.852004051        890242623.88444221     
  -2551037043.1836410        3749690.8165296316        793050899.82595873     
  -2430133628.8493514       -4731024.4991214275        783096146.77830815     
  -2308953587.2612929       -12289648.968877554        775837391.56067419     
  -2187496918.4194655       -18926182.592729807        771274634.17305934     
  -2065763622.3238575       -24640625.370658875        769407874.61546636     
  -2791519782.6873031        9007311.3970263004        677530352.36872447     
  -2665031505.2286940       -1770904.2136667967        666903983.53903723     
  -2538080166.6638498       -11005582.803560615        658407857.81227732     
  -2410665766.9927626       -18696724.372655630        652041975.18844664     
  -2282788306.2154279       -24844328.920918345        647806335.66754448     
  -1467545151.2810941       -39886188.909477949        1129611753.3855331     
  -1360708774.8044982       -43740149.710579515        1124381495.4873724     
  -1253919180.5047231       -47750051.101080656        1122595806.9103699     
  -1147176368.3817599       -51915893.080960095        1124254687.6545305     
  -1040480338.4356278       -56237675.650269389        1129358137.7198465     
  -1658142044.8566945       -32161555.364946425        1010310583.4744647     
  -1541819969.8374753       -35127175.004446447        1002057735.2138742     
  -1425520752.9747872       -38168988.499039054        997452007.01223624     
  -1309244394.2686388       -41286995.848774672        996493398.86954796     
  -1192990893.7190220       -44481197.053604007        999181910.78580260     
  -1857548201.8709471       -27079700.852004051        890242623.88444221     
  -1731161711.9154217       -28983364.411779165        878995096.61842775     
  -1604774156.0961504       -30883475.092401147        871597240.14914894     
  -1478385534.4131255       -32780032.893845320        868049054.47660780     
  -1351995846.8663590       -34673037.816138089        868350539.60080397     
  -2065763622.3238575       -24640625.370658875        769407874.61546636     
  -1928734001.0383496       -25308717.932618618        755193579.70102346     
  -1791679389.8688097       -25893510.881145000        745031506.32110167     
  -1654599788.8152299       -26395004.216207683        738921654.47571027     
  -1517495197.8776240       -26813197.937839031        736864024.16483688     
  -2282788306.2154279       -24844328.920918345        647806335.66754448     
  -2134536837.2062483       -24103235.566946149        630653184.46166325     
  -1986236454.2927649       -23199095.865277767        617754805.52810133     
  -1837887157.4749575       -22131909.815867186        609111198.86685479     
  -1689488946.7528322       -20901677.418736041        604722364.47791219     
  -1040480338.4356278       -56237675.650269389        1129358137.7198465     
  -923590168.84598935       -54236524.012140125        1126122798.4095900     
  -804500672.69640946       -44904283.840875626        1128890324.5103159     
  -683211849.98692477       -28240955.136592150        1137660716.0220249     
  -559723700.71749401       -4246537.8991579413        1152433972.9447074     
  -1192990893.7190220       -44481197.053604007        999181910.78580260     
  -1062527017.9733385       -41322407.605925620        994857823.11739123     
  -930662342.47085810       -33494285.635596931        994705035.27890885     
  -797396867.21160054       -20996831.142671704        998723547.27035308     
  -662730592.19555521       -3830044.1271264255        1006913359.0917225     
  -1351995846.8663590       -34673037.816138089        868350539.60080397     
  -1213191309.4819217       -31926523.914084673        862006088.97056913     
  -1073784499.1438339       -27172433.499868989        858001372.58921039     
  -933775415.85211086       -20410766.573528111        856336390.45672262     
  -793164059.60673666       -11641523.135024369        857011142.57311380     
  -1517495197.8776240       -26813197.937839031        736864024.16483688     
  -1375583043.3717296       -26048872.936612844        727567595.96911800     
  -1233867142.7153344       -25938727.433705389        718779336.44122064     
  -1092347495.9084363       -26482761.429115772        710499245.58114541     
  -951024102.95103002       -27680974.922855914        702727323.38888466     
  -1689488946.7528322       -20901677.418736041        604722364.47791219     
  -1549702219.6427798       -23689454.673513651        591542344.11304283     
  -1410910273.1853631       -29793167.437086940        577038926.83494103     
  -1273113107.3805857       -39212815.709455669        561212112.64360702     
  -1136310722.2284501       -51948399.490625381        544061901.53903568     
  -559723700.71749401       -4246537.8991579413        1152433972.9447074     
  -462892497.04247206        33344697.324145198        1161885872.6420391     
  -354022882.56632483        111063968.55120187        1178857658.2589078     
  -233114857.28907692        228911275.78192475        1203349329.7953126     
  -100168421.21070817        386886619.01638651        1235360887.2512619     
  -662730592.19555521       -3830044.1271264255        1006913359.0917225     
  -547524827.80690134        26161830.018349320        1020573501.8463874     
  -421414429.99825513        92502482.230464876        1042601734.8638113     
  -284399398.76959419        195191912.50929105        1072998058.1439883     
  -136479734.12092811        334230120.85481244        1111762471.6869133     
  -793164059.60673666       -11641523.135024369        857011142.57311380     
  -657160293.52385223        11478022.226738632        873556788.10715592     
  -511385671.40206355        67167087.718177736        899318728.24717200     
  -355840193.24137288        155425673.33929220        934296962.99315810     
  -190523859.04178196        276253779.09007490        978491492.34511304     
  -951024102.95103002       -27680974.922855914        702727323.38888466     
  -791798894.19328272       -10706726.050563425        720835731.42434967     
  -623936606.77775455        35057785.014325857        749008638.40901077     
  -447437240.70441252        109612558.27192178        787246044.34284997     
  -262300795.97328717        212957593.72213525        835547949.22588181     
  -1136310722.2284501       -51948399.490625381        544061901.53903568     
  -951440629.81523407       -40392414.813675046        562410331.79796553     
  -759067236.12533069       -3825425.8810999095        591671465.34930360     
  -559190541.15873218        57752567.307125300        631845302.19304073     
  -351810544.91544271        144341564.75098723        682931842.32918108     
  -100168421.21070817        386886619.01638651        1235360887.2512619     
  -85318103.047634214        546774949.41030359        1196743576.9240215     
  -57885213.795073986        748605183.43584156        1154776922.6595600     
  -17869753.453027666        992377321.09299302        1109460924.4578724     
   34728277.978494287        1278091362.3817434        1060795582.3189638     
  -136479734.12092811        334230120.85481244        1111762471.6869133     
  -127369435.37760633        483249720.48788303        1090168664.5545924     
  -95125835.290027291        709380324.60182214        1070016970.4429548     
  -39748933.858181000        1012621933.1966577        1051307389.3520067     
   38761268.917930126        1392974546.2723539        1034039921.2817417     
  -190523859.04178196        276253779.09007490        978491492.34511304     
  -173463702.69562778        418511611.06903106        986230373.70495725     
  -122719514.75042403        673049548.37815809        1000202825.0433958     
  -38291295.206163824        1039867591.0174674        1020408846.3604236     
   79820955.937137604        1518965738.9869092        1046848437.6560663     
  -262300795.97328717        212957593.72213525        835547949.22588181     
  -223600905.00168997        352560621.15378183        884928704.37512231     
  -140666252.17626086        639612854.76486766        945334486.46088707     
  -13496837.496990144        1074114294.5554206        1016765295.4831434     
   157907339.03610581        1656064940.5253794        1099221131.4419215     
  -351810544.91544271        144341564.75098723        682931842.32918108     
  -277781042.29579890        285396750.74209863        786263656.56509018     
  -148966047.56753591        609070243.76192927        905411954.69541538     
   34634439.269367099        1115362043.8105545        1040376736.7201504     
   273020418.21484429        1804272150.8877940        1191158002.6393244     
  -5086788913.1509047       -181830022.07687545        1083342595.7649667     
  -4784896793.9589863       -118806457.79584503        949582155.61226034     
  -4485234120.4221334       -63214379.031702518        851456515.86445653     
  -4187800892.5403419       -15053785.784435272        788965676.52154982     
  -3892597110.3136215        25675321.945938349        762109637.58354628     
  -5636409601.3840008       -237049832.63970661        455806766.50918907     
  -5284258876.5232658       -168355398.58670759        460745465.31113172     
  -4933375495.0559921       -103885442.51188231        467401167.35219300     
  -4583759456.9821720       -43639964.415248394        475773872.63237250     
  -4235410762.3018036        12381035.703199148        485863581.15166426     
  -5735465057.7622986       -157100073.64609671       -175908255.19227195     
  -5429963719.1349955       -111807167.39179349       -31147964.797131460     
  -5124767621.6395330       -67531731.576973677        81411531.671338022     
  -4819876765.2759199       -24273766.201633692        161770234.21314156     
  -4515291150.0441504        17966728.734214783        209928142.82828000     
  -5383955282.2858114        58019254.903946161       -811802469.33941793     
  -5222011321.7941647        50838235.788886547       -526098134.71254355     
  -5059410500.1727581        45846753.773039818       -306512391.17811215     
  -4896152817.4215889        43044808.856403112       -153045238.73613492     
  -4732238273.5406513        42432401.038985491       -65696677.386608504     
  -4581880274.9545164        408308153.01043153       -1451875875.9322445     
  -4660401684.5007782        319580810.95531964       -1024105044.4350808     
  -4737304130.6556606        236250013.53814149       -696370601.19615483     
  -4812587613.4191780        158315760.75886893       -468672546.21545750     
  -4886252132.7913170        85778052.617499828       -341010879.49300247     
  -3892597110.3136215        25675321.945938349        762109637.58354628     
  -3784404744.0638719        8767895.3679022789        740859390.82072437     
  -3674993773.5977230       -4077517.1554806232        725302691.11167181     
  -3564364198.9151869       -12860915.624230146        715439538.45639086     
  -3452516020.0162525       -17582300.038320065        711269932.85488379     
  -4235410762.3018036        12381035.703199148        485863581.15166426     
  -4115118920.8616481       -765486.27791380882        486327618.88217282     
  -3994054548.8593655       -11336906.385253191        489537497.10608590     
  -3872217646.2949400       -19333224.618805408        495493215.82340193     
  -3749608213.1683884       -24754440.978577375        504194775.03411543     
  -4515291150.0441504        17966728.734214783        209928142.82828000     
  -4391321852.1575060        6054505.7268457413        231586045.78882009     
  -4267026097.3629951       -4769527.5876259804        253042082.68239054     
  -4142403885.6606035       -14505371.209160328        274296253.50899768     
  -4017455217.0503368       -23153025.137790442        295348558.26863313     
  -4732238273.5406513        42432401.038985491       -65696677.386608504     
  -4613013537.9514408        29227871.382177114       -23365328.459339444     
  -4493908419.1086130        15624619.237412214        15816447.840591881     
  -4374922917.0121660        1622644.6047117710        51848651.513183154     
  -4256057031.6621046       -12778052.515937090        84731282.558437750     
  -4886252132.7913170        85778052.617499828       -341010879.49300247     
  -4780193978.2434464        68754610.688097239       -278526503.86230773     
  -4674701514.0962219        49845534.089848995       -222139407.41932064     
  -4569774740.3496332        29050822.822826147       -171849590.16404548     
  -4465413657.0037012        6370476.8869550228       -127657052.09647396     
  -3452516020.0162525       -17582300.038320065        711269932.85488379     
  -3285659893.6711750       -5578007.1366820335        693442615.22952676     
  -3119875145.3346591        2855025.7364171743        681876912.60671544     
  -2955161775.0067024        7716798.5809839964        676572824.98644626     
  -2791519782.6873031        9007311.3970263004        677530352.36872447     
  -3749608213.1683884       -24754440.978577375        504194775.03411543     
  -3568916280.6270604       -12921599.618126869        494541641.30033469     
  -3389109422.8924055       -4039007.6132380962        489309386.14755082     
  -3210187639.9644094        1893335.0361206532        488498009.57576168     
  -3032150931.8430810        4875428.3299067020        492107511.58497196     
  -4017455217.0503368       -23153025.137790442        295348558.26863313     
  -3828186725.2314730       -13069409.394131660        294086962.16196442     
  -3639617005.0173783       -5315032.3330483437        295405508.21475375     
  -3451746056.4080529        110106.04546284676        299304196.42698556     
  -3264573879.4035106        3206005.7413880825        305783026.79866910     
  -4256057031.6621046       -12778052.515937090        84731282.558437750     
  -4063471227.4844060       -6021436.4646818638        92078577.814433247     
  -3871397891.7095881       -973048.42302942276        100165278.80832900     
  -3679837024.3376479        2367111.6090233326        108991385.54012497     
  -3488788625.3685913        3999043.6314761639        118556898.00982627     
  -4465413657.0037012        6370476.8869550228       -127657052.09647396     
  -4274769787.3858709        8222319.1702015400       -111483511.74228214     
  -4084452082.9690313        8986944.1168127060       -96411302.071733743     
  -3894460543.7531767        8664351.7267985344       -82440423.084843040     
  -3704795169.7383165        7254542.0001573563       -69570874.781578794     
  -2791519782.6873031        9007311.3970263004        677530352.36872447     
  -2665031505.2286940       -1770904.2136667967        666903983.53903723     
  -2538080166.6638498       -11005582.803560615        658407857.81227732     
  -2410665766.9927626       -18696724.372655630        652041975.18844664     
  -2282788306.2154279       -24844328.920918345        647806335.66754448     
  -3032150931.8430810        4875428.3299067020        492107511.58497196     
  -2898860973.0506201       -5873465.6653690338        485504768.34921914     
  -2764888332.3022981       -14346753.141126513        481997078.04841220     
  -2630233009.5981359       -20544434.097408056        481584440.68254542     
  -2494895004.9381137       -24466508.534166694        484266856.25162333     
  -3264573879.4035106        3206005.7413880825        305783026.79866910     
  -3121725639.7571368       -6686586.7824299335        303460133.48139584     
  -2977975097.3053150       -13571503.288076997        305197102.93108040     
  -2833322252.0480275       -17448743.775509357        310993935.14771992     
  -2687767103.9852791       -18318308.244745493        320850630.13131988     
  -3488788625.3685913        3999043.6314761639        118556898.00982627     
  -3333625505.3482690       -4210267.5648880005        120770078.93556447     
  -3177340461.6728806       -8679833.2443650961        128007932.46027474     
  -3019933494.3424320       -9409653.4069645405        140270458.58396760     
  -2861404603.3569136       -6399728.0526851416        157557657.30663002     
  -3704795169.7383165        7254542.0001573563       -69570874.781578794     
  -3534560569.8240085        1555491.9872648716       -62565395.288275085     
  -3362984425.4050179        328256.98994851112       -49570433.363984928     
  -3190066736.4813657        3572837.0081981421       -30585989.008704808     
  -3015807503.0530286        11289232.042044520       -5612062.2224375969     
  -2282788306.2154279       -24844328.920918345        647806335.66754448     
  -2134536837.2062483       -24103235.566946149        630653184.46166325     
  -1986236454.2927649       -23199095.865277767        617754805.52810133     
  -1837887157.4749575       -22131909.815867186        609111198.86685479     
  -1689488946.7528322       -20901677.418736041        604722364.47791219     
  -2494895004.9381137       -24466508.534166694        484266856.25162333     
  -2336862053.2021499       -20918140.360214710        472914136.46393406     
  -2179075327.2761493       -18190524.886136174        464183029.23530805     
  -2021534827.1601188       -16283662.111958146        458073534.56575799     
  -1864240552.8540392       -15197552.037621379        454585652.45526981     
  -2687767103.9852791       -18318308.244745493        320850630.13131988     
  -2524618840.1317992       -13362516.433609128        314954012.09515798     
  -2362011941.8025584       -10211276.369935632        310045846.90481788     
  -2199946408.9975595       -8864588.0537326336        306126134.56030470     
  -2038422241.7167859       -9322451.4849520922        303194875.06160885     
  -2861404603.3569136       -6399728.0526851416        157557657.30663002     
  -2697807197.9951811       -1436363.7870991230        156772811.35533720     
  -2535046297.8719764        738649.68338239193        155343258.53662926     
  -2373121902.9872937        125312.35881137848        153268998.85048318     
  -2212034013.3411088       -3276375.7607771158        150550032.29692602     
  -3015807503.0530286        11289232.042044520       -5612062.2224375969     
  -2856427126.7923288        14860317.579241276       -1629465.7555170599     
  -2698178395.4844098        14659253.273799181        75264.130725859723     
  -2541061309.1293001        10686039.125672579       -497872.56367665197     
  -2385075867.7269731        2940675.1349487305       -3348875.8387660682     
  -1689488946.7528322       -20901677.418736041        604722364.47791219     
  -1549702219.6427798       -23689454.673513651        591542344.11304283     
  -1410910273.1853631       -29793167.437086940        577038926.83494103     
  -1273113107.3805857       -39212815.709455669        561212112.64360702     
  -1136310722.2284501       -51948399.490625381        544061901.53903568     
  -1864240552.8540392       -15197552.037621379        454585652.45526981     
  -1727645413.2805932       -20543887.300939441        441473871.87171447     
  -1590950886.3045695       -25558931.222312212        427820857.32904911     
  -1454156971.9259586       -30242683.801748574        413626608.82727242     
  -1317263670.1447752       -34595145.039253473        398891126.36638439     
  -2038422241.7167859       -9322451.4849520922        303194875.06160885     
  -1902783938.3824708       -16556919.367581367        291427863.65713006     
  -1765952079.5903456       -19812869.057501674        279901781.24766475     
  -1627926665.3404131       -19090300.554745972        268616627.83320248     
  -1488707695.6326826       -14389213.859319687        257572403.41374955     
  -2212034013.3411088       -3276375.7607771158        150550032.29692602     
  -2075117794.9484229       -11728550.873457313        141404319.46928239     
  -1935913853.0427039       -12554980.942672491        133281698.59077035     
  -1794422187.6239812       -5755665.9685407877        126182169.66138938     
  -1650642798.6921947        8669394.0491142273        120105732.68113457     
  -2385075867.7269731        2940675.1349487305       -3348875.8387660682     
  -2244646982.9784284       -6058781.8185091019       -8596760.6918108538     
  -2100836206.6616447       -3785266.8778280020       -12039390.641616931     
  -1953643538.7766056        9761219.9570400715       -13676765.688163800     
  -1803068979.3233199        34580678.686051130       -13508885.831464274     
  -1136310722.2284501       -51948399.490625381        544061901.53903568     
  -951440629.81523407       -40392414.813675046        562410331.79796553     
  -759067236.12533069       -3825425.8810999095        591671465.34930360     
  -559190541.15873218        57752567.307125300        631845302.19304073     
  -351810544.91544271        144341564.75098723        682931842.32918108     
  -1317263670.1447752       -34595145.039253473        398891126.36638439     
  -1117597563.0736644       -14512920.134985566        420835844.07523638     
  -914336660.18220806        17551957.503769100        441281814.32991612     
  -707480961.47040331        61599487.877016306        460229037.13041586     
  -497030466.93823922        117629670.98479760        477677512.47674334     
  -1488707695.6326826       -14389213.859319687        257572403.41374955     
  -1309706861.7510536        3580864.9180328846        278553485.54013050     
  -1131019737.5054238        20505244.908730745        285624369.46575493     
  -952646322.89577806        36383926.112803042        278785055.19063061     
  -774586617.92211020        51216908.530285716        258035542.71474370     
  -1650642798.6921947        8669394.0491142273        120105732.68113457     
  -1527768525.8474107        13888940.345359325        135563256.19264475     
  -1409116468.0949731        5034436.3338052034        124699130.75682107     
  -1294686625.4348497       -17894117.985489368        87513356.373668045     
  -1184478997.8670740       -54896722.612580717        24005933.043180771     
  -1803068979.3233199        34580678.686051130       -13508885.831464274     
  -1771782555.3627534        16411306.146963477       -8134843.9672177192     
  -1748626851.9508634       -28860468.221045971       -41493901.796887301     
  -1733601869.0876472       -101234644.41797370       -113586059.32046118     
  -1726707606.7730756       -200711222.44370514       -224411316.53795183     
  -351810544.91544271        144341564.75098723        682931842.32918108     
  -277781042.29579890        285396750.74209863        786263656.56509018     
  -148966047.56753591        609070243.76192927        905411954.69541538     
   34634439.269367099        1115362043.8105545        1040376736.7201504     
   273020418.21484429        1804272150.8877940        1191158002.6393244     
  -497030466.93823922        117629670.98479760        477677512.47674334     
  -388209902.73759103        223156071.79921308        596980592.16031730     
  -230246641.95764697        492491461.21124524        735428493.43717313     
  -23140684.598424494        925635839.22092462        893021216.30732167     
   233107969.34010971        1522589205.8282406        1069758760.7707405     
  -774586617.92211020        51216908.530285716        258035542.71474370     
  -621465455.85799086        124067385.05272856        386726626.39510721     
  -424844392.74389946        341917531.74170029        537890869.36761379     
  -184723428.57983631        704767348.59724891        711528271.63227034     
   98897436.634166062        1212616835.6192975        907638833.18909240     
  -1184478997.8670740       -54896722.612580717        24005933.043180771     
  -977547701.65698457       -11869309.497352481        155501759.26944357     
  -732759299.92627788        157348455.35330021        312799082.48672581     
  -450113792.67493832        452756571.93940604        495897902.69501179     
  -129611179.90293169        874355040.26101494        704798219.89433789     
  -1726707606.7730756       -200711222.44370514       -224411316.53795183     
  -1456456640.1345801       -184654011.85100073       -96694009.216655374     
  -1153991363.5047731       -61215767.953901649        60153132.794511892     
  -819311776.88364029        169603509.24761140        246130109.49556389     
  -452417880.27122521        507803819.75338697        461236920.88650626     
 </DataArray>
 <DataArray  type="Float64" Name="VM" NumberOfComponents="1" format="ascii">
   5418025160.7851171     
   5143658912.2548494     
   5007179879.8228617     
   4960537713.8195343     
   4964958814.7905178     
   5592833632.7952700     
   5326143545.3637161     
   5110141373.1856852     
   4924955613.4968557     
   4754958152.5819073     
   5666748016.4400473     
   5375203329.2343941     
   5093290054.5911703     
   4815943638.1477661     
   4538888652.8268461     
   5577856120.9878511     
   5262980420.3734341     
   4948926355.8863001     
   4635925137.2359257     
   4324290164.1194458     
   5338955891.1500034     
   5004597511.4896488     
   4691772037.3642473     
   4397983705.9287348     
   4122541388.8607240     
   4964958814.7905178     
   4839046704.5748215     
   4715545523.5067282     
   4594021961.0462198     
   4474069249.1026144     
   4754958152.5819073     
   4627873587.7998924     
   4501824385.8339205     
   4376655909.6429338     
   4252215781.8622208     
   4538888652.8268461     
   4412621331.5550756     
   4287105460.1245728     
   4162372940.2692666     
   4038459957.0264106     
   4324290164.1194458     
   4200071085.8649406     
   4077531179.2853985     
   3956781686.2375698     
   3837967218.1893282     
   4122541388.8607240     
   4000199338.6636100     
   3881855575.7958050     
   3767569198.7460041     
   3657483779.5521421     
   4474069249.1026144     
   4283241614.6010833     
   4092361406.0098906     
   3901413892.5027332     
   3710385004.8584805     
   4252215781.8622208     
   4063594756.9355149     
   3874797405.1620364     
   3685858675.6127853     
   3496824435.3187656     
   4038459957.0264106     
   3855465457.9339871     
   3672776726.8560209     
   3490512853.3305254     
   3308841022.8525958     
   3837967218.1893282     
   3664004462.5373030     
   3491512773.7214341     
   3320734432.2816534     
   3152024028.2899723     
   3657483779.5521421     
   3495690573.3574157     
   3337275047.6657643     
   3182624293.2976050     
   3032317602.5393629     
   3710385004.8584805     
   3536999028.8387141     
   3364244331.4845157     
   3192294246.7796402     
   3021483551.7046847     
   3496824435.3187656     
   3338082907.6772189     
   3180746295.4109945     
   3025012006.1013331     
   2871208487.8666167     
   3308841022.8525958     
   3162373493.4549470     
   3017870112.8090606     
   2875540493.3699555     
   2735695068.3171124     
   3152024028.2899723     
   3015550974.5225220     
   2881338168.7849188     
   2749596655.0447516     
   2620610887.4261565     
   3032317602.5393629     
   2903783615.2988424     
   2777506378.8169732     
   2653688682.1484480     
   2532584539.9784312     
   3021483551.7046847     
   2863887577.2910919     
   2705537801.8645492     
   2546421288.0447669     
   2386554615.1958556     
   2871208487.8666167     
   2710723848.3829017     
   2549652396.4667058     
   2387986416.1975346     
   2225725437.1601534     
   2735695068.3171124     
   2576379557.4500847     
   2417327200.5409589     
   2258645791.0426745     
   2100483392.5087249     
   2620610887.4261565     
   2466459472.5500913     
   2314186532.7404475     
   2164126691.0452838     
   2016739023.6729207     
   2532584539.9784312     
   2387163492.7414827     
   2245986993.2985711     
   2109666432.1107402     
   1979031093.2832153     
   2386554615.1958556     
   2241673188.4553652     
   2099049718.2507708     
   1958685649.0274885     
   1820755994.7247965     
   2225725437.1601534     
   2083722357.3482263     
   1943426550.9231682     
   1804832913.5515456     
   1668017697.7734725     
   2100483392.5087249     
   1960649695.6467602     
   1821819352.5801375     
   1684012096.0386729     
   1547277268.0455880     
   2016739023.6729207     
   1879996204.7241948     
   1743618950.1984010     
   1607722123.0198488     
   1472464553.3909936     
   1979031093.2832153     
   1848024243.8497174     
   1717102710.3339806     
   1586603095.7465003     
   1457011058.6519325     
   1820755994.7247965     
   1780100713.6369092     
   1735865155.2823188     
   1696711143.2537427     
   1681165035.0589080     
   1668017697.7734725     
   1552617417.6142416     
   1428068027.9457562     
   1294736322.6220002     
   1158753203.6688595     
   1547277268.0455880     
   1397430105.7484903     
   1244010365.3221896     
   1084750266.8942795     
   917620050.82214141     
   1472464553.3909936     
   1328278493.0319219     
   1198564523.3961320     
   1087812747.5676200     
   1001932619.5943620     
   1457011058.6519325     
   1348093460.4618101     
   1274173974.6364019     
   1243386331.7510071     
   1262764323.8926466     
   1681165035.0589080     
   1383644347.6128871     
   1129449497.7814138     
   1010314497.1543514     
   1153475043.2116175     
   1158753203.6688595     
   1008305492.1583396     
   985151293.30967021     
   1161519309.9732170     
   1544293875.4008880     
   917620050.82214141     
   963009903.68322802     
   1144832680.1339083     
   1476422787.0281191     
   1957478058.6922777     
   1001932619.5943620     
   1164600550.0548139     
   1425314375.1873515     
   1808650802.0414402     
   2334703612.0194311     
   1262764323.8926466     
   1446555575.8248098     
   1715575896.1627784     
   2110391754.3343058     
   2663438973.9269300     
   5338955891.1500034     
   5004597511.4896488     
   4691772037.3642473     
   4397983705.9287348     
   4122541388.8607240     
   4710497336.0545168     
   4469186767.5773497     
   4244365898.7121425     
   4035185530.8681941     
   3841956542.4579263     
   4196272970.4189997     
   4028810173.0200195     
   3872288032.3882961     
   3726951553.4990115     
   3593583574.3542147     
   3792485042.6407609     
   3680970294.6794777     
   3574591604.4440389     
   3473834040.7858176     
   3379289709.7999954     
   3494938737.0242748     
   3422080575.1635160     
   3349050750.2188311     
   3275386458.4625053     
   3200649207.7914987     
   4122541388.8607240     
   4000199338.6636100     
   3881855575.7958050     
   3767569198.7460041     
   3657483779.5521421     
   3841956542.4579263     
   3736241212.9920101     
   3634374310.4034109     
   3536480931.2769284     
   3442753020.9836712     
   3593583574.3542147     
   3504117131.2811894     
   3418264901.4129267     
   3336204887.8404140     
   3258165694.4627180     
   3379289709.7999954     
   3306048111.0636835     
   3236094662.6235700     
   3169640455.4505525     
   3106933211.4851685     
   3200649207.7914987     
   3143949114.1133018     
   3090112102.0802431     
   3039356223.8789458     
   2991925884.3478150     
   3657483779.5521421     
   3495690573.3574157     
   3337275047.6657643     
   3182624293.2976050     
   3032317602.5393629     
   3442753020.9836712     
   3299803932.6909938     
   3161154209.3363905     
   3027318749.9637704     
   2898992740.4341736     
   3258165694.4627180     
   3133971965.9289079     
   3014957474.2431650     
   2901715582.8483863     
   2794991727.4379034     
   3106933211.4851685     
   3001302296.5685263     
   2901600529.9517484     
   2808437448.3888073     
   2722533986.1128507     
   2991925884.3478150     
   2904442634.5974898     
   2823413881.5687232     
   2749400596.7768984     
   2683030475.7952518     
   3032317602.5393629     
   2903783615.2988424     
   2777506378.8169732     
   2653688682.1484480     
   2532584539.9784312     
   2898992740.4341736     
   2780969898.7801690     
   2666235635.5446625     
   2555130854.2521877     
   2448070711.4055858     
   2794991727.4379034     
   2689892174.0601292     
   2589340646.6835818     
   2493808816.7833114     
   2403853688.9915938     
   2722533986.1128507     
   2632398612.0743408     
   2548189065.2290545     
   2470463811.8593554     
   2399859037.5691075     
   2683030475.7952518     
   2609271158.4574690     
   2542801940.0951610     
   2484199080.7937446     
   2434093887.6711011     
   2532584539.9784312     
   2387163492.7414827     
   2245986993.2985711     
   2109666432.1107402     
   1979031093.2832153     
   2448070711.4055858     
   2320084829.4512486     
   2197637021.9581108     
   2081523392.2199814     
   1972746183.5841131     
   2403853688.9915938     
   2294664059.3543706     
   2192199378.8081908     
   2097323120.2728167     
   2011048275.6859486     
   2399859037.5691075     
   2310117325.1032357     
   2227978254.5164561     
   2154244182.6023059     
   2089792730.0553665     
   2434093887.6711011     
   2363604280.9166241     
   2301169851.7484922     
   2247442541.6891727     
   2203088108.2533545     
   1979031093.2832153     
   1848024243.8497174     
   1717102710.3339806     
   1586603095.7465003     
   1457011058.6519325     
   1972746183.5841131     
   1856108479.9364820     
   1743854123.3257217     
   1636894481.0919964     
   1536347902.4387593     
   2011048275.6859486     
   1913970472.1055861     
   1825670621.9463508     
   1747349448.2797978     
   1680302177.0416951     
   2089792730.0553665     
   2013949178.7698414     
   1950486276.5412378     
   1900496249.7769940     
   1865023258.7960477     
   2203088108.2533545     
   2147166912.0308774     
   2106250767.6359806     
   2081128815.0323200     
   2072497032.8870175     
   1457011058.6519325     
   1348093460.4618101     
   1274173974.6364019     
   1243386331.7510071     
   1262764323.8926466     
   1536347902.4387593     
   1475599879.3075845     
   1447564021.1776321     
   1456203537.6603105     
   1504803216.2468116     
   1680302177.0416951     
   1651919696.0475628     
   1651271490.1478295     
   1680719646.8851171     
   1742866957.5730047     
   1865023258.7960477     
   1854589697.6234612     
   1867132519.1276135     
   1904854289.0074003     
   1970786521.2138519     
   2072497032.8870175     
   2068997990.4587340     
   2084730852.3708348     
   2122322868.1052523     
   2185593364.9955263     
   1262764323.8926466     
   1446555575.8248098     
   1715575896.1627784     
   2110391754.3343058     
   2663438973.9269300     
   1504803216.2468116     
   1613203541.7573237     
   1788808378.7181008     
   2066358106.9618542     
   2476053774.3548512     
   1742866957.5730047     
   1787677054.1359136     
   1884640326.9099414     
   2060657988.9814856     
   2340952361.0635400     
   1970786521.2138519     
   1968935667.3818622     
   2003636373.3965161     
   2093555702.5332363     
   2257344177.6265354     
   2185593364.9955263     
   2156264685.3305163     
   2146537400.8789272     
   2166927834.9031172     
   2228497133.1354327     
   3494938737.0242748     
   3422080575.1635160     
   3349050750.2188311     
   3275386458.4625053     
   3200649207.7914987     
   3380388962.8194876     
   3296009529.0647559     
   3214532982.1774993     
   3136164086.9528623     
   3061120108.7478614     
   3262985158.5143580     
   3172952997.5297723     
   3090207889.1529512     
   3015390331.4509120     
   2949201361.5442915     
   3157639286.0343080     
   3065472922.2060142     
   2986321259.5946903     
   2920953193.2307258     
   2870262418.1074381     
   3084010865.3682017     
   2989558158.5894332     
   2915224109.2932658     
   2861561839.6592965     
   2829295448.0513291     
   3200649207.7914987     
   3143949114.1133018     
   3090112102.0802431     
   3039356223.8789458     
   2991925884.3478150     
   3061120108.7478614     
   3011717074.9119391     
   2966106649.5481462     
   2924508120.9670687     
   2887163651.0595436     
   2949201361.5442915     
   2906906687.3169951     
   2869371826.8911467     
   2836797528.9756813     
   2809402411.4434977     
   2870262418.1074381     
   2834269745.9748278     
   2804015709.0485892     
   2779662741.1996865     
   2761385723.6511450     
   2829295448.0513291     
   2798090250.0426250     
   2773591045.7354517     
   2755908003.0390587     
   2745159180.7396445     
   2991925884.3478150     
   2904442634.5974898     
   2823413881.5687232     
   2749400596.7768984     
   2683030475.7952518     
   2887163651.0595436     
   2813318731.1085258     
   2746935917.5385733     
   2688555543.4802203     
   2638766748.8025432     
   2809402411.4434977     
   2749170358.8170609     
   2697354024.6393309     
   2654429409.2963729     
   2620901591.2136493     
   2761385723.6511450     
   2714064524.6191010     
   2676024859.5355258     
   2647644393.3549542     
   2629313854.1924620     
   2745159180.7396445     
   2709297318.4327574     
   2683492337.5489368     
   2668007708.4842639     
   2663110993.7125654     
   2683030475.7952518     
   2609271158.4574690     
   2542801940.0951610     
   2484199080.7937446     
   2434093887.6711011     
   2638766748.8025432     
   2579696985.0997438     
   2528371489.2800746     
   2485265698.5744147     
   2450880468.2398343     
   2620901591.2136493     
   2575398633.5543227     
   2537903179.8080587     
   2508774538.2215891     
   2488377225.7955918     
   2629313854.1924620     
   2595823417.5176296     
   2570434912.8513803     
   2553394889.0168691     
   2544944782.7416973     
   2663110993.7125654     
   2639738668.3917298     
   2624439135.0993195     
   2617363291.0132079     
   2618654110.9378405     
   2434093887.6711011     
   2363604280.9166241     
   2301169851.7484922     
   2247442541.6891727     
   2203088108.2533545     
   2450880468.2398343     
   2394960699.4653063     
   2348170800.9693751     
   2311056865.7767158     
   2284146923.6449351     
   2488377225.7955918     
   2446190800.1914010     
   2413975723.1602921     
   2392143844.9528069     
   2381072463.6193404     
   2544944782.7416973     
   2515020546.3903098     
   2495736071.9912252     
   2487370105.6282640     
   2490165313.6015368     
   2618654110.9378405     
   2599045222.4019060     
   2590662828.3252950     
   2593672677.9868636     
   2608212769.5639749     
   2203088108.2533545     
   2147166912.0308774     
   2106250767.6359806     
   2081128815.0323200     
   2072497032.8870175     
   2284146923.6449351     
   2243326615.3499713     
   2216447276.8728075     
   2203967487.1327481     
   2206281001.5045476     
   2381072463.6193404     
   2352299713.0988812     
   2336371365.0374622     
   2333538730.5148458     
   2344023084.2310019     
   2490165313.6015368     
   2470689691.8508911     
   2463049033.7931957     
   2467377140.0636649     
   2483806830.8586779     
   2608212769.5639749     
   2595662637.9737644     
   2594086536.5107026     
   2603560109.6342177     
   2624178373.7611933     
   2072497032.8870175     
   2068997990.4587340     
   2084730852.3708348     
   2122322868.1052523     
   2185593364.9955263     
   2206281001.5045476     
   2191832094.6011286     
   2192390288.4369950     
   2209923956.8846645     
   2247357468.7544661     
   2344023084.2310019     
   2319469352.4861283     
   2306484307.3952017     
   2306473668.5317931     
   2321527122.2184815     
   2483806830.8586779     
   2450943348.8439436     
   2426698133.2839918     
   2412016443.9270716     
   2408273320.0637264     
   2624178373.7611933     
   2585479306.2999048     
   2552751272.2937565     
   2526574490.3631282     
   2507753511.7813277     
   2185593364.9955263     
   2156264685.3305163     
   2146537400.8789272     
   2166927834.9031172     
   2228497133.1354327     
   2247357468.7544661     
   2182674420.9344034     
   2134431949.9422088     
   2112294693.4307446     
   2127193489.9638317     
   2321527122.2184815     
   2224815706.6243191     
   2141433332.7450008     
   2079747770.5017126     
   2049934043.4258008     
   2408273320.0637264     
   2282982424.4837508     
   2168188709.3993235     
   2070638391.1209321     
   1999109655.8897858     
   2507753511.7813277     
   2357383642.3608937     
   2215168709.7567587     
   2086097818.6100585     
   1977062143.1900508     
   3084010865.3682017     
   2989558158.5894332     
   2915224109.2932658     
   2861561839.6592965     
   2829295448.0513291     
   2849857521.6034393     
   2792654451.5920558     
   2752162173.0190434     
   2728642828.9902272     
   2722417160.0660238     
   2679482164.2761559     
   2653518984.8193989     
   2640121852.0551753     
   2639375503.2874255     
   2651377722.4437966     
   2569434275.2387218     
   2569568794.8437433     
   2577577530.6174893     
   2593472952.4026566     
   2617268818.1944599     
   2512568432.9394078     
   2535033007.3732667     
   2560383781.2878079     
   2588620754.6830425     
   2619743927.5589719     
   2829295448.0513291     
   2798090250.0426250     
   2773591045.7354517     
   2755908003.0390587     
   2745159180.7396445     
   2722417160.0660238     
   2700925032.9792471     
   2685942470.4194636     
   2677532901.5751328     
   2675762730.0306668     
   2651377722.4437966     
   2637885270.1279368     
   2630613534.0610476     
   2629590183.5587373     
   2634843590.6026387     
   2617268818.1944599     
   2609865041.9059801     
   2608323428.9943757     
   2612650483.9547815     
   2622852763.0776181     
   2619743927.5589719     
   2616443912.2331152     
   2618606969.1550608     
   2626233098.3248119     
   2639322299.7423749     
   2745159180.7396445     
   2709297318.4327574     
   2683492337.5489368     
   2668007708.4842639     
   2663110993.7125654     
   2675762730.0306668     
   2651525939.4943166     
   2637161909.7184677     
   2632819814.3702679     
   2638647380.0934281     
   2634843590.6026387     
   2619564509.8315043     
   2613901271.2824407     
   2617918911.4142704     
   2631680556.2649150     
   2622852763.0776181     
   2613614763.5923548     
   2613708909.6945958     
   2623150809.7474036     
   2641955405.8903027     
   2639322299.7423749     
   2633126608.5195298     
   2635990280.3428664     
   2647913315.2123747     
   2668895713.1280518     
   2663110993.7125654     
   2639738668.3917298     
   2624439135.0993195     
   2617363291.0132079     
   2618654110.9378405     
   2638647380.0934281     
   2623152929.1969466     
   2615930279.5992332     
   2617067969.6252422     
   2626647973.6483850     
   2631680556.2649150     
   2622290047.4595122     
   2621371433.7044020     
   2628965269.3427320     
   2645108370.7068057     
   2641955405.8903027     
   2636662189.8081813     
   2640076848.6675901     
   2652209758.0480237     
   2673070194.7592063     
   2668895713.1280518     
   2665539112.8708811     
   2671191396.0865993     
   2685852562.7752109     
   2709522612.9367142     
   2618654110.9378405     
   2599045222.4019060     
   2590662828.3252950     
   2593672677.9868636     
   2608212769.5639749     
   2626647973.6483850     
   2615334830.6707802     
   2614666997.7991104     
   2624728166.3564162     
   2645585970.2128658     
   2645108370.7068057     
   2640165327.3991046     
   2645382811.9927058     
   2660794162.6939001     
   2686425616.4476705     
   2673070194.7592063     
   2672641927.4670897     
   2682009940.2195754     
   2701181729.4144821     
   2730163063.0120363     
   2709522612.9367142     
   2711861715.8847895     
   2723765560.1139140     
   2745234145.6240883     
   2776267472.4153113     
   2608212769.5639749     
   2595662637.9737644     
   2594086536.5107026     
   2603560109.6342177     
   2624178373.7611933     
   2645585970.2128658     
   2634580992.5811415     
   2633748877.3813710     
   2643127460.5737166     
   2662766868.8955226     
   2686425616.4476705     
   2676703361.3143477     
   2676529744.8082614     
   2685919663.3236032     
   2704893955.6469469     
   2730163063.0120363     
   2721608224.3820777     
   2722136094.4295497     
   2731749949.7997732     
   2750454642.7821302     
   2776267472.4153113     
   2768897729.9323287     
   2770286823.7278457     
   2780434753.8018532     
   2799341520.1543446     
   2624178373.7611933     
   2585479306.2999048     
   2552751272.2937565     
   2526574490.3631282     
   2507753511.7813277     
   2662766868.8955226     
   2617241721.3608904     
   2577432693.0171375     
   2543669790.4444542     
   2516413088.2545538     
   2704893955.6469469     
   2654616406.3330035     
   2609944165.6790938     
   2571024173.6897039     
   2538061899.2585735     
   2750454642.7821302     
   2697506797.5344481     
   2650196655.3912191     
   2608560694.2775702     
   2572649948.2540703     
   2799341520.1543446     
   2745807827.0490274     
   2698086593.9546466     
   2656177820.8711982     
   2620081507.7986903     
   2507753511.7813277     
   2357383642.3608937     
   2215168709.7567587     
   2086097818.6100585     
   1977062143.1900508     
   2516413088.2545538     
   2348464735.4586592     
   2184068012.8001680     
   2026328238.4146869     
   1879819929.6782002     
   2538061899.2585735     
   2357634244.4097357     
   2176950499.8420043     
   1997484682.1046166     
   1821519366.4495256     
   2572649948.2540703     
   2384996524.4949188     
   2194283459.2630725     
   2000889600.6538525     
   1805420009.1779511     
   2620081507.7986903     
   2430521032.4094329     
   2236209741.0444980     
   2037147633.7038291     
   1833334710.3874249     
   2512568432.9394078     
   2535033007.3732667     
   2560383781.2878079     
   2588620754.6830425     
   2619743927.5589719     
   2569434343.4755135     
   2569568841.8254933     
   2577577556.2277560     
   2593472956.5405045     
   2617268800.8352518     
   2679482295.0684142     
   2653519075.2384787     
   2640121902.0801816     
   2639375512.8021474     
   2651377691.3762083     
   2849857710.1395583     
   2792654582.9203935     
   2752162247.4366236     
   2728642846.4308362     
   2722417120.3240209     
   3084011108.3893018     
   2989558329.6615410     
   2915224209.2710524     
   2861561868.6039186     
   2829295405.5203080     
   2619743927.5589719     
   2616443912.2331152     
   2618606969.1550608     
   2626233098.3248119     
   2639322299.7423749     
   2617268800.8352518     
   2609865017.9333320     
   2608323399.4127331     
   2612650449.7859640     
   2622852725.3604112     
   2651377691.3762083     
   2637885229.8378124     
   2630613486.6968274     
   2629590131.2741194     
   2634843535.5567799     
   2722417120.3240209     
   2700924984.7061825     
   2685942417.0419049     
   2677532846.4997115     
   2675762676.6450300     
   2829295405.5203080     
   2798090202.0607448     
   2773590997.1457257     
   2755907958.6472211     
   2745159145.3155484     
   2639322299.7423749     
   2633126608.5195298     
   2635990280.3428664     
   2647913315.2123747     
   2668895713.1280518     
   2622852725.3604112     
   2613614737.4873967     
   2613708894.9197645     
   2623150805.9912233     
   2641955412.7990193     
   2634843535.5567799     
   2619564473.3391275     
   2613901252.3278952     
   2617918908.9606194     
   2631680569.2453561     
   2675762676.6450300     
   2651525907.3154917     
   2637161896.5537076     
   2632819818.0302420     
   2638647398.4073267     
   2745159145.3155484     
   2709297303.3285260     
   2683492338.9466209     
   2668007722.5762105     
   2663111016.7620711     
   2668895713.1280518     
   2665539112.8708811     
   2671191396.0865993     
   2685852562.7752109     
   2709522612.9367142     
   2641955412.7990193     
   2636662196.3374467     
   2640076854.7491469     
   2652209763.6140499     
   2673070199.7425060     
   2631680569.2453561     
   2622290059.0977392     
   2621371443.8517137     
   2628965277.8583360     
   2645108377.4584394     
   2638647398.4073267     
   2623152944.6774745     
   2615930291.9956393     
   2617067978.7082963     
   2626647979.2122931     
   2663111016.7620711     
   2639738686.6630692     
   2624439148.2068195     
   2617363298.6108479     
   2618654112.7239985     
   2709522612.9367142     
   2711861715.8847895     
   2723765560.1139140     
   2745234145.6240883     
   2776267472.4153113     
   2673070199.7425060     
   2672641931.0408039     
   2682009942.5711060     
   2701181730.7343478     
   2730163063.4939260     
   2645108377.4584394     
   2640165331.9945889     
   2645382814.8613720     
   2660794164.2624760     
   2686425617.1405158     
   2626647979.2122931     
   2615334833.9060936     
   2614666999.4407878     
   2624728167.1250873     
   2645585970.8144202     
   2618654112.7239985     
   2599045222.1394167     
   2590662827.1308732     
   2593672676.9493165     
   2608212769.7411180     
   2776267472.4153113     
   2768897729.9323287     
   2770286823.7278457     
   2780434753.8018532     
   2799341520.1543446     
   2730163063.4939260     
   2721608224.7471128     
   2722136094.6278310     
   2731749949.7823663     
   2750454642.5000167     
   2686425617.1405158     
   2676703361.8898463     
   2676529745.1668806     
   2685919663.3668809     
   2704893955.2766724     
   2645585970.8144202     
   2634580993.1923447     
   2633748877.8518023     
   2643127460.7529531     
   2662766868.6337824     
   2608212769.7411180     
   2595662638.4253120     
   2594086537.0331655     
   2603560110.0211439     
   2624178373.8068361     
   2799341520.1543446     
   2745807827.0490274     
   2698086593.9546466     
   2656177820.8711982     
   2620081507.7986903     
   2750454642.5000167     
   2697506797.3591862     
   2650196655.3284860     
   2608560694.3341513     
   2572649948.4390211     
   2704893955.2766724     
   2654616406.1058931     
   2609944165.6064248     
   2571024173.7838292     
   2538061899.5335093     
   2662766868.6337824     
   2617241721.2075200     
   2577432692.9889965     
   2543669790.5582557     
   2516413088.5251164     
   2624178373.8068361     
   2585479306.3478136     
   2552751272.3661456     
   2526574490.4799356     
   2507753511.9542584     
   2620081507.7986903     
   2430521032.4094329     
   2236209741.0444980     
   2037147633.7038291     
   1833334710.3874249     
   2572649948.4390211     
   2384996524.6020823     
   2194283459.3008485     
   2000889600.6301229     
   1805420009.0983551     
   2538061899.5335093     
   2357634244.5703011     
   2176950499.9059920     
   1997484682.0933247     
   1821519366.3887572     
   2516413088.5251164     
   2348464735.6189766     
   2184068012.8780789     
   2026328238.4494610     
   1879819929.7269144     
   2507753511.9542584     
   2357383642.4679656     
   2215168709.8360872     
   2086097818.7215972     
   1977062143.4275720     
   3084011108.3893018     
   2989558329.6615410     
   2915224209.2710524     
   2861561868.6039186     
   2829295405.5203080     
   3157639544.1490836     
   3065473100.0441785     
   2986321362.8385715     
   2920953227.5418310     
   2870262389.1319528     
   3262985374.8204627     
   3172953134.2218208     
   3090207960.1430702     
   3015390351.3398156     
   2949201345.5491443     
   3380389109.0433431     
   3296009595.0283537     
   3214532994.7767906     
   3136164073.8239894     
   3061120098.3219171     
   3494938810.7124872     
   3422080557.7059627     
   3349050687.6167598     
   3275386395.9549875     
   3200649190.1894279     
   2829295405.5203080     
   2798090202.0607448     
   2773590997.1457257     
   2755907958.6472211     
   2745159145.3155484     
   2870262389.1319528     
   2834269721.6494966     
   2804015689.4918041     
   2779662726.5329342     
   2761385713.9911180     
   2949201345.5491443     
   2906906684.1164808     
   2869371831.9145932     
   2836797537.6038246     
   2809402419.0071673     
   3061120098.3219171     
   3011717086.2506537     
   2966106673.4981132     
   2924508148.1848254     
   2887163672.0269246     
   3200649190.1894279     
   3143949130.3972378     
   3090112138.7067060     
   3039356266.9171443     
   2991925919.5190778     
   2745159145.3155484     
   2709297303.3285260     
   2683492338.9466209     
   2668007722.5762105     
   2663111016.7620711     
   2761385713.9911180     
   2714064522.9591985     
   2676024864.0151830     
   2647644402.1210313     
   2629313865.4485164     
   2809402419.0071673     
   2749170363.6439490     
   2697354026.8385615     
   2654429409.0197229     
   2620901588.7006168     
   2887163672.0269246     
   2813318739.0638981     
   2746935914.5490489     
   2688555531.7392306     
   2638766730.6832733     
   2991925919.5190778     
   2904442645.9201279     
   2823413873.0146508     
   2749400572.5698009     
   2683030440.4887409     
   2663111016.7620711     
   2639738686.6630692     
   2624439148.2068195     
   2617363298.6108479     
   2618654112.7239985     
   2629313865.4485164     
   2595823424.8514814     
   2570434916.2656708     
   2553394888.5130577     
   2544944778.3210454     
   2620901588.7006168     
   2575398629.2910423     
   2537903174.3365946     
   2508774532.0408754     
   2488377219.3503022     
   2638766730.6832733     
   2579696968.2938023     
   2528371475.0414777     
   2485265688.0888033     
   2450880462.5925107     
   2683030440.4887409     
   2609271127.9341111     
   2542801916.4864345     
   2484199066.1745291     
   2434093884.0022998     
   2618654112.7239985     
   2599045222.1394167     
   2590662827.1308732     
   2593672676.9493165     
   2608212769.7411180     
   2544944778.3210454     
   2515020542.7940531     
   2495736069.5270724     
   2487370104.6048865     
   2490165314.3226089     
   2488377219.3503022     
   2446190796.5400457     
   2413975721.6911678     
   2392143845.0724816     
   2381072464.7523627     
   2450880462.5925107     
   2394960698.1316600     
   2348170802.2873349     
   2311056868.0938883     
   2284146925.3316250     
   2434093884.0022998     
   2363604283.1209021     
   2301169856.9967189     
   2247442547.1147428     
   2203088110.9802117     
   2608212769.7411180     
   2595662638.4253120     
   2594086537.0331655     
   2603560110.0211439     
   2624178373.8068361     
   2490165314.3226089     
   2470689692.3816805     
   2463049034.1665673     
   2467377140.3062716     
   2483806830.9971237     
   2381072464.7523627     
   2352299713.5783978     
   2336371365.1495109     
   2333538730.5404425     
   2344023084.4532051     
   2284146925.3316250     
   2243326615.8308349     
   2216447276.7101278     
   2203967486.8953233     
   2206281001.7732673     
   2203088110.9802117     
   2147166912.8061352     
   2106250767.3205299     
   2081128814.5245967     
   2072497033.1250730     
   2624178373.8068361     
   2585479306.3478136     
   2552751272.3661456     
   2526574490.4799356     
   2507753511.9542584     
   2483806830.9971237     
   2450943348.9868884     
   2426698133.4116621     
   2412016444.0186977     
   2408273320.0890265     
   2344023084.4532051     
   2319469352.7240448     
   2306484307.5849051     
   2306473668.6094422     
   2321527122.1094055     
   2206281001.7732673     
   2191832094.9177694     
   2192390288.6883464     
   2209923956.9581151     
   2247357468.5251708     
   2072497033.1250730     
   2068997990.8160398     
   2084730852.6746786     
   2122322868.1827049     
   2185593364.6602407     
   2507753511.9542584     
   2357383642.4679656     
   2215168709.8360872     
   2086097818.7215972     
   1977062143.4275720     
   2408273320.0890265     
   2282982424.5028839     
   2168188709.4562521     
   2070638391.2798698     
   1999109656.2431936     
   2321527122.1094055     
   2224815706.5575380     
   2141433332.7684374     
   2079747770.6795640     
   2049934043.8419917     
   2247357468.5251708     
   2182674420.7846599     
   2134431949.9218941     
   2112294693.6002452     
   2127193490.3936849     
   2185593364.6602407     
   2156264685.1012158     
   2146537400.8052237     
   2166927835.0386372     
   2228497133.5350099     
   3494938810.7124872     
   3422080557.7059627     
   3349050687.6167598     
   3275386395.9549875     
   3200649190.1894279     
   3792484934.6507387     
   3680970178.1993361     
   3574591500.2321415     
   3473833971.6210060     
   3379289700.4235992     
   4196272739.7325015     
   4028810008.6392374     
   3872287927.2722807     
   3726951505.0020123     
   3593583584.3422446     
   4710497028.7531805     
   4469186588.7712555     
   4244365819.3529754     
   4035185526.1772132     
   3841956592.1991405     
   5338955534.8308649     
   5004597333.9536219     
   4691771997.6790333     
   4397983764.2573528     
   4122541505.9748383     
   3200649190.1894279     
   3143949130.3972378     
   3090112138.7067060     
   3039356266.9171443     
   2991925919.5190778     
   3379289700.4235992     
   3306048123.4455800     
   3236094690.4693017     
   3169640492.2296948     
   3106933250.4151230     
   3593583584.3422446     
   3504117147.3744292     
   3418264924.0573468     
   3336204917.2747927     
   3258165730.7411518     
   3841956592.1991405     
   3736241247.0033631     
   3634374334.9760833     
   3536480952.4275980     
   3442753044.6002336     
   4122541505.9748383     
   4000199409.8556929     
   3881855612.0973330     
   3767569210.7780581     
   3657483777.8645916     
   2991925919.5190778     
   2904442645.9201279     
   2823413873.0146508     
   2749400572.5698009     
   2683030440.4887409     
   3106933250.4151230     
   3001302315.1809006     
   2901600530.1835303     
   2808437432.3227239     
   2722533956.0341096     
   3258165730.7411518     
   3133971987.2521515     
   3014957480.8848343     
   2901715575.1112866     
   2794991705.6575799     
   3442753044.6002336     
   3299803949.1933079     
   3161154217.7450008     
   3027318749.2415810     
   2898992729.4138036     
   3657483777.8645916     
   3495690575.3450751     
   3337275051.4935760     
   3182624297.0485024     
   3032317604.0595512     
   2683030440.4887409     
   2609271127.9341111     
   2542801916.4864345     
   2484199066.1745291     
   2434093884.0022998     
   2722533956.0341096     
   2632398587.5127444     
   2548189047.6595316     
   2470463802.7845907     
   2399859038.4912128     
   2794991705.6575799     
   2689892157.3802104     
   2589340635.7360849     
   2493808812.2696915     
   2403853691.6770430     
   2898992729.4138036     
   2780969892.0017462     
   2666235632.6770358     
   2555130855.0325775     
   2448070715.6399899     
   3032317604.0595512     
   2903783620.4203987     
   2777506386.2241259     
   2653688690.5731735     
   2532584548.1898575     
   2434093884.0022998     
   2363604283.1209021     
   2301169856.9967189     
   2247442547.1147428     
   2203088110.9802117     
   2399859038.4912128     
   2310117328.6249924     
   2227978258.9822598     
   2154244186.2636242     
   2089792731.0826461     
   2403853691.6770430     
   2294664061.9271731     
   2192199380.8812213     
   2097323121.3630044     
   2011048275.2148559     
   2448070715.6399899     
   2320084830.6970158     
   2197637021.0848289     
   2081523390.0565290     
   1972746180.9315667     
   2532584548.1898575     
   2387163494.2660828     
   2245986990.1126766     
   2109666426.2336717     
   1979031086.8328052     
   2203088110.9802117     
   2147166912.8061352     
   2106250767.3205299     
   2081128814.5245967     
   2072497033.1250730     
   2089792731.0826461     
   2013949178.9561834     
   1950486276.3327038     
   1900496249.6672292     
   1865023259.3213174     
   2011048275.2148559     
   1913970471.8840811     
   1825670621.9750075     
   1747349448.5815339     
   1680302177.6592395     
   1972746180.9315667     
   1856108478.8329031     
   1743854123.3238893     
   1636894481.7099965     
   1536347903.1565704     
   1979031086.8328052     
   1848024240.6351376     
   1717102709.5216739     
   1586603096.4222934     
   1457011059.8193786     
   2072497033.1250730     
   2068997990.8160398     
   2084730852.6746786     
   2122322868.1827049     
   2185593364.6602407     
   1865023259.3213174     
   1854589697.9935455     
   1867132519.2592018     
   1904854288.8195360     
   1970786520.6297703     
   1680302177.6592395     
   1651919696.2862515     
   1651271490.0237014     
   1680719646.4221718     
   1742866956.8180289     
   1536347903.1565704     
   1475599879.3966446     
   1447564020.7688198     
   1456203536.9137886     
   1504803215.3742709     
   1457011059.8193786     
   1348093460.6276009     
   1274173974.0386035     
   1243386330.7226689     
   1262764322.8959413     
   2185593364.6602407     
   2156264685.1012158     
   2146537400.8052237     
   2166927835.0386372     
   2228497133.5350099     
   1970786520.6297703     
   1968935667.0534427     
   2003636373.3211744     
   2093555702.6977265     
   2257344178.0020952     
   1742866956.8180289     
   1787677053.7444057     
   1884640326.8334653     
   2060657989.1461465     
   2340952361.3627663     
   1504803215.3742709     
   1613203541.3254449     
   1788808378.6370521     
   2066358107.0991278     
   2476053774.5280933     
   1262764322.8959413     
   1446555575.3538752     
   1715575896.0723476     
   2110391754.4172821     
   2663438973.9165807     
   5338955534.8308649     
   5004597333.9536219     
   4691771997.6790333     
   4397983764.2573528     
   4122541505.9748383     
   5577855796.8289251     
   5262980244.7254257     
   4948926309.5877934     
   4635925197.8451624     
   4324290305.4491339     
   5666747658.2001772     
   5375203117.8792534     
   5093289977.1781101     
   4815943678.2922831     
   4538888791.2914619     
   5592833229.8741055     
   5326143290.9825315     
   5110141252.3887444     
   4924955610.4163923     
   4754958252.0475159     
   5418024746.3033733     
   5143658632.8654222     
   5007179715.4542522     
   4960537647.5646029     
   4964958834.8610973     
   4122541505.9748383     
   4000199409.8556929     
   3881855612.0973330     
   3767569210.7780581     
   3657483777.8645916     
   4324290305.4491339     
   4200071179.2063341     
   4077531229.2380099     
   3956781697.4284058     
   3837967195.3936028     
   4538888791.2914619     
   4412621424.8890924     
   4287105509.7940516     
   4162372947.6991158     
   4038459923.6047606     
   4754958252.0475159     
   4627873653.4052362     
   4501824418.6179504     
   4376655910.1478691     
   4252215750.1539283     
   4964958834.8610973     
   4839046712.1298561     
   4715545521.5519638     
   4594021951.3063946     
   4474069232.1949444     
   3657483777.8645916     
   3495690575.3450751     
   3337275051.4935760     
   3182624297.0485024     
   3032317604.0595512     
   3837967195.3936028     
   3664004446.4428248     
   3491512764.0144334     
   3320734428.6027350     
   3152024030.1601424     
   4038459923.6047606     
   3855465431.9669509     
   3672776708.9178786     
   3490512844.0039449     
   3308841022.7134695     
   4252215750.1539283     
   4063594730.5243607     
   3874797384.9453702     
   3685858662.5383530     
   3496824430.3914113     
   4474069232.1949444     
   4283241597.6012578     
   4092361389.6323433     
   3901413877.5389590     
   3710384992.1686649     
   3032317604.0595512     
   2903783620.4203987     
   2777506386.2241259     
   2653688690.5731735     
   2532584548.1898575     
   3152024030.1601424     
   3015550980.9238024     
   2881338178.4862351     
   2749596666.8491750     
   2620610900.1464381     
   3308841022.7134695     
   3162373499.2559576     
   3017870123.4413290     
   2875540507.7474403     
   2735695085.3390937     
   3496824430.3914113     
   3338082910.4174638     
   3180746304.8534937     
   3025012021.2965693     
   2871208507.8323655     
   3710384992.1686649     
   3536999025.7303638     
   3364244337.1440449     
   3192294260.4081478     
   3021483572.4614348     
   2532584548.1898575     
   2387163494.2660828     
   2245986990.1126766     
   2109666426.2336717     
   1979031086.8328052     
   2620610900.1464381     
   2466459478.1312017     
   2314186532.4687872     
   2164126686.2660184     
   2016739015.8211787     
   2735695085.3390937     
   2576379567.0006623     
   2417327203.3808208     
   2258645787.9687705     
   2100483384.3579905     
   2871208507.8323655     
   2710723861.1250196     
   2549652402.3916249     
   2387986415.7215214     
   2225725430.7004242     
   3021483572.4614348     
   2863887591.9692926     
   2705537810.6832542     
   2546421291.2217541     
   2386554612.9496312     
   1979031086.8328052     
   1848024240.6351376     
   1717102709.5216739     
   1586603096.4222934     
   1457011059.8193786     
   2016739015.8211787     
   1879996199.8112371     
   1743618947.8250902     
   1607722122.7607057     
   1472464554.7861247     
   2100483384.3579905     
   1960649689.9371903     
   1821819349.2527893     
   1684012095.0351388     
   1547277269.3043716     
   2225725430.7004242     
   2083722352.3983321     
   1943426547.6099770     
   1804832911.9979060     
   1668017698.1052666     
   2386554612.9496312     
   2241673186.1680956     
   2099049716.0710776     
   1958685647.0800369     
   1820755993.1381290     
   1457011059.8193786     
   1348093460.6276009     
   1274173974.0386035     
   1243386330.7226689     
   1262764322.8959413     
   1472464554.7861247     
   1328278493.6294968     
   1198564523.3127553     
   1087812746.9896104     
   1001932618.8093234     
   1547277269.3043716     
   1397430106.5116541     
   1244010365.5950348     
   1084750266.6618853     
   917620050.05044973     
   1668017698.1052666     
   1552617417.9235389     
   1428068028.1365139     
   1294736322.5537257     
   1158753203.2401357     
   1820755993.1381290     
   1780100712.7289844     
   1735865154.8888578     
   1696711143.2330046     
   1681165035.4785132     
   1262764322.8959413     
   1446555575.3538752     
   1715575896.0723476     
   2110391754.4172821     
   2663438973.9165807     
   1001932618.8093234     
   1164600549.6053615     
   1425314374.9760172     
   1808650801.9701712     
   2334703612.0034599     
   917620050.05044973     
   963009903.14551163     
   1144832679.8037813     
   1476422786.9059417     
   1957478058.8493340     
   1158753203.2401357     
   1008305491.7588620     
   985151292.96636283     
   1161519309.8853862     
   1544293875.8884785     
   1681165035.4785132     
   1383644347.8192189     
   1129449497.7269499     
   1010314497.0837491     
   1153475043.9599001     
 </DataArray>
 <DataArray  type="Float64" Name="strain" NumberOfComponents="3" format="ascii">
   7.8406217630428987E-002  -2.9714541582619436E-002  -6.2914625399771884E-002
   7.9271269621317697E-002  -2.8628357738887944E-002  -4.4377887200827137E-002
   8.0136321612206407E-002  -2.7624022001505877E-002  -3.0176059648778564E-002
   8.1001373603095117E-002  -2.6701534370472776E-002  -2.0309142743626468E-002
   8.1866425593983827E-002  -2.5860894845789129E-002  -1.4777136485370490E-002
   9.0022689785254628E-002  -2.7886770093293545E-002  -3.5178109585632500E-002
   8.7287716916808422E-002  -2.6957363463875172E-002  -2.2797587414718490E-002
   8.4552744048362438E-002  -2.6061165789552532E-002  -1.3282204315577750E-002
   8.1817771179916288E-002  -2.5198177070325373E-002  -6.6319602882100592E-003
   7.9082798311470193E-002  -2.4368397306194001E-002  -2.8468553326159163E-003
   9.4805588655210271E-002  -2.6058998603967654E-002  -7.6226905614331097E-003
   8.9940362502552523E-002  -2.5286369188862512E-002  -1.3497452672962540E-003
   8.5075136349894664E-002  -2.4498309577599381E-002   3.5278325301907609E-003
   8.0209910197236833E-002  -2.3694819770178142E-002   7.0100428310272411E-003
   7.5344684044579002E-002  -2.2875899766598928E-002   9.0968856352136307E-003
   9.2754914240296388E-002  -2.4231227114641735E-002   1.9751631672826078E-002
   8.7229206378549862E-002  -2.3615374913849768E-002   1.9965639241439848E-002
   8.1703498516803183E-002  -2.2935453365646133E-002   2.0254050888526477E-002
   7.6177790655056699E-002  -2.2191462470030770E-002   2.0616866614085638E-002
   7.0652082793310034E-002  -2.1383402227003828E-002   2.1054086418117839E-002
   8.3870666540512728E-002  -2.2403455625315871E-002   4.6944857117145466E-002
   7.9154248544800410E-002  -2.1944380638837080E-002   4.1148566111489537E-002
   7.4437830549088063E-002  -2.1372597153692913E-002   3.6896450759429322E-002
   6.9721412553375758E-002  -2.0688105169883460E-002   3.4188511060965043E-002
   6.5004994557663398E-002  -1.9890904687408728E-002   3.3024747016096312E-002
   8.1866425593983827E-002  -2.5860894845789129E-002  -1.4777136485370490E-002
   8.0013672597858077E-002  -2.5046880002089600E-002  -1.2069481467477328E-002
   7.8160919601732270E-002  -2.4204266414009440E-002  -9.6260413235677578E-003
   7.6308166605606464E-002  -2.3333054081548406E-002  -7.4468160536410588E-003
   7.4455413609480714E-002  -2.2433243004706505E-002  -5.5318056576980634E-003
   7.9082798311470193E-002  -2.4368397306194001E-002  -2.8468553326159163E-003
   7.7029697277057524E-002  -2.3552198356995624E-002  -1.0124974285987964E-003
   7.4976596242644827E-002  -2.2729952082568033E-002   6.8537927282780187E-004
   7.2923495208232103E-002  -2.1901658482911097E-002   2.2467747716638925E-003
   7.0870394173819462E-002  -2.1067317558024934E-002   3.6716890679096559E-003
   7.5344684044579002E-002  -2.2875899766598928E-002   9.0968856352136307E-003
   7.3218968643272320E-002  -2.2057516711901620E-002   1.0035395006202957E-002
   7.1093253241965582E-002  -2.1255637751126835E-002   1.0965156845994903E-002
   6.8967537840658844E-002  -2.0470262884274119E-002   1.1886171154589266E-002
   6.6841822439352133E-002  -1.9701392111343585E-002   1.2798437931985818E-002
   7.0652082793310034E-002  -2.1383402227003828E-002   2.1054086418117839E-002
   6.8581486696502242E-002  -2.0562835066807741E-002   2.1074195836927843E-002
   6.6510890599694519E-002  -1.9781323419685533E-002   2.1213291395933333E-002
   6.4440294502886741E-002  -1.9038867285636862E-002   2.1471373095134180E-002
   6.2369698406079005E-002  -1.8335466664662015E-002   2.1848440934530713E-002
   6.5004994557663398E-002  -1.9890904687408728E-002   3.3024747016096312E-002
   6.3117251436747512E-002  -1.9068153421713779E-002   3.2103905063575799E-002
   6.1229508315831599E-002  -1.8307009088244119E-002   3.1429782922643479E-002
   5.9341765194915699E-002  -1.7607471686999748E-002   3.1002380593299531E-002
   5.7454022073999800E-002  -1.6969541217980666E-002   3.0821698075543913E-002
   7.4455413609480714E-002  -2.2433243004706505E-002  -5.5318056576980634E-003
   7.1287274981939874E-002  -2.1510887785520738E-002  -4.8309520012014273E-003
   6.8119136354399035E-002  -2.0572043026028053E-002  -4.1778228144730978E-003
   6.4950997726858251E-002  -1.9616708726228491E-002  -3.5724180975123809E-003
   6.1782859099317355E-002  -1.8644884886121815E-002  -3.0147378503199151E-003
   7.0870394173819462E-002  -2.1067317558024934E-002   3.6716890679096559E-003
   6.7694413737260595E-002  -2.0216998876033287E-002   3.9900719509946003E-003
   6.4518433300701727E-002  -1.9340772005059015E-002   4.3404956858109078E-003
   6.1342452864142943E-002  -1.8438636945103087E-002   4.7229602723595637E-003
   5.8166472427584048E-002  -1.7510593696165033E-002   5.1374657106398880E-003
   6.6841822439352133E-002  -1.9701392111343585E-002   1.2798437931985818E-002
   6.3737765515275019E-002  -1.8923109966545643E-002   1.2743768690334445E-002
   6.0633708591197960E-002  -1.8109500984090227E-002   1.2800905621914244E-002
   5.7529651667120915E-002  -1.7260565163978135E-002   1.2969848726725880E-002
   5.4425594743043731E-002  -1.6376302506208251E-002   1.3250598004768910E-002
   6.2369698406079005E-002  -1.8335466664662015E-002   2.1848440934530713E-002
   5.9417330315983320E-002  -1.7629221057057928E-002   2.1430138216817690E-002
   5.6464962225887663E-002  -1.6878229963121535E-002   2.1203406993836112E-002
   5.3512594135792034E-002  -1.6082493382852735E-002   2.1168247265585961E-002
   5.0560226045696398E-002  -1.5242011316251358E-002   2.1324659032066914E-002
   5.7454022073999800E-002  -1.6969541217980666E-002   3.0821698075543913E-002
   5.4733108139385367E-002  -1.6335332147570408E-002   3.0049180530445030E-002
   5.2012194204770934E-002  -1.5646958942152622E-002   2.9547999801576852E-002
   4.9291280270156446E-002  -1.4904421601727308E-002   2.9318155888939934E-002
   4.6570366335542013E-002  -1.4107720126294687E-002   2.9359648792534165E-002
   6.1782859099317355E-002  -1.8644884886121815E-002  -3.0147378503199151E-003
   5.8917120378861654E-002  -1.7698727572947659E-002  -2.7111671560795525E-003
   5.6051381658405952E-002  -1.6820392853946708E-002  -2.1480521899684968E-003
   5.3185642937950278E-002  -1.6009880729117895E-002  -1.3253929519865815E-003
   5.0319904217494549E-002  -1.5267191198461427E-002  -2.4318944213419513E-004
   5.8166472427584048E-002  -1.7510593696165033E-002   5.1374657106398880E-003
   5.5539373765973787E-002  -1.6597956124421775E-002   5.2333701102755814E-003
   5.2912275104363499E-002  -1.5742038096051181E-002   5.5470103557319073E-003
   5.0285176442753279E-002  -1.4942839611052264E-002   6.0783864470080329E-003
   4.7658077781143005E-002  -1.4200360669425871E-002   6.8274983841043468E-003
   5.4425594743043731E-002  -1.6376302506208251E-002   1.3250598004768910E-002
   5.1995327714228434E-002  -1.5497184675895892E-002   1.3149939160600338E-002
   4.9565060685413123E-002  -1.4663683338155681E-002   1.3225207736201422E-002
   4.7134793656597819E-002  -1.3875798492987305E-002   1.3476403731572592E-002
   4.4704526627782487E-002  -1.3133530140390870E-002   1.3903527146713335E-002
   5.0560226045696398E-002  -1.5242011316251358E-002   2.1324659032066914E-002
   4.8284982223625601E-002  -1.4396413227370009E-002   2.1038539994894467E-002
   4.6009738401554728E-002  -1.3585328580260167E-002   2.0886539951441033E-002
   4.3734494579483911E-002  -1.2808757374922233E-002   2.0868658901706898E-002
   4.1459250757413066E-002  -1.2066699611355591E-002   2.0984896845692061E-002
   4.6570366335542013E-002  -1.4107720126294687E-002   2.9359648792534165E-002
   4.4408337294165240E-002  -1.3295641778844070E-002   2.8899172613157609E-002
   4.2246308252788412E-002  -1.2506973822364709E-002   2.8531007001450059E-002
   4.0084279211411611E-002  -1.1741716256856785E-002   2.8255151957411268E-002
   3.7922250170034755E-002  -1.0999869082320424E-002   2.8071607481040761E-002
   5.0319904217494549E-002  -1.5267191198461427E-002  -2.4318944213419513E-004
   4.7681420131045149E-002  -1.4529807486887147E-002  -7.0610312758456750E-005
   4.5042936044595916E-002  -1.3735212819305287E-002   3.2612907915341438E-006
   4.2404451958146572E-002  -1.2883407195715887E-002  -2.1574631483944895E-005
   3.9765967871697283E-002  -1.1974390616119379E-002  -1.4511807958461631E-004
   4.7658077781143005E-002  -1.4200360669425871E-002   6.8274983841043468E-003
   4.4956271283512539E-002  -1.3465096490070549E-002   6.7934883985342198E-003
   4.2254464785882073E-002  -1.2687542291884679E-002   6.7315411164267647E-003
   3.9552658288251635E-002  -1.1867698074868385E-002   6.6416565377822590E-003
   3.6850851790621197E-002  -1.1005563839021626E-002   6.5238346626009802E-003
   4.4704526627782487E-002  -1.3133530140390870E-002   1.3903527146713335E-002
   4.2010167948259236E-002  -1.2400385493253951E-002   1.3648007109019755E-002
   3.9315809268735985E-002  -1.1639871764463433E-002   1.3435320004077655E-002
   3.6621450589212762E-002  -1.0851988954020446E-002   1.3265465831887327E-002
   3.3927091909689511E-002  -1.0036737061924317E-002   1.3138444592448117E-002
   4.1459250757413066E-002  -1.2066699611355591E-002   2.0984896845692061E-002
   3.8843110125285449E-002  -1.1335674496437353E-002   2.0492945818698552E-002
   3.6226969493157755E-002  -1.0592201237042950E-002   2.0114597953744588E-002
   3.3610828861030118E-002  -9.8362798331727251E-003   1.9849853250830374E-002
   3.0994688228902383E-002  -9.0679102848267856E-003   1.9698711709956240E-002
   3.7922250170034755E-002  -1.0999869082320424E-002   2.8071607481040761E-002
   3.5455097814591052E-002  -1.0270963499620644E-002   2.7328304527569736E-002
   3.2987945459147267E-002  -9.5445307096219123E-003   2.6769374965426529E-002
   3.0520793103703578E-002  -8.8205707123251431E-003   2.6394818794611613E-002
   2.8053640748259778E-002  -8.0990835077293655E-003   2.6204636015124794E-002
   3.9765967871697283E-002  -1.1974390616119379E-002  -1.4511807958461631E-004
   3.7380489172140652E-002  -1.1122255256737823E-002  -3.7252632957884835E-004
   3.4995010472584021E-002  -1.0441093293794501E-002  -5.2170690473762882E-004
   3.2609531773027417E-002  -9.9309047272899409E-003  -5.9265980506101323E-004
   3.0224053073470758E-002  -9.5916895572236704E-003  -5.8538503054883506E-004
   3.6850851790621197E-002  -1.1005563839021626E-002   6.5238346626009802E-003
   3.4526653910883609E-002  -1.0180113158930637E-002   6.1275204943449513E-003
   3.2202456031145965E-002  -9.4703196091808772E-003   5.7755402908910014E-003
   2.9878258151408404E-002  -8.8761831897730403E-003   5.4678940522396025E-003
   2.7554060271670788E-002  -8.3977039007061549E-003   5.2045817783908932E-003
   3.3927091909689511E-002  -1.0036737061924317E-002   1.3138444592448117E-002
   3.1630281139737954E-002  -9.2379710611236732E-003   1.2628540772026686E-002
   2.9333470369786438E-002  -8.4995459245677529E-003   1.2129077206374850E-002
   2.7036659599834874E-002  -7.8214616522557096E-003   1.1640053895492719E-002
   2.4739848829883393E-002  -7.2037182441886394E-003   1.1161470839380072E-002
   3.0994688228902383E-002  -9.0679102848267856E-003   1.9698711709956240E-002
   2.8691370858703873E-002  -8.2958289633168203E-003   1.9130534503466662E-002
   2.6388053488505394E-002  -7.5287722399541568E-003   1.8538903841713819E-002
   2.4084736118306874E-002  -6.7667401147391490E-003   1.7923819724697206E-002
   2.1781418748108357E-002  -6.0097325876710128E-003   1.7285282152417536E-002
   2.8053640748259778E-002  -8.0990835077293655E-003   2.6204636015124794E-002
   2.5709923067781304E-002  -7.3536868655098009E-003   2.5633501688664295E-002
   2.3366205387302802E-002  -6.5579985553405884E-003   2.5005020196907479E-002
   2.1022487706824286E-002  -5.7120185772217072E-003   2.4319191539854235E-002
   1.8678770026345826E-002  -4.8157469311536083E-003   2.3576015717504673E-002
   3.0224053073470758E-002  -9.5916895572236704E-003  -5.8538503054883506E-004
   2.9611765803738144E-002  -9.1324345428849263E-003  -3.5250990992574671E-004
   2.8999478534005585E-002  -8.2621264435639441E-003  -1.7980690941876709E-003
   2.8387191264272998E-002  -6.9807652592588643E-003  -4.9220625833339415E-003
   2.7774903994540412E-002  -5.2883509899719350E-003  -9.7244903773647806E-003
   2.7554060271670788E-002  -8.3977039007061549E-003   5.2045817783908932E-003
   2.5532253460218146E-002  -7.8703249646721041E-003   5.8744077768202452E-003
   2.3510446648765532E-002  -7.1294896043617717E-003   5.4036289966944429E-003
   2.1488639837312959E-002  -6.1751978197740198E-003   3.7922454380129589E-003
   1.9466833025860275E-002  -5.0074496109107081E-003   1.0402571007754879E-003
   2.4739848829883393E-002  -7.2037182441886394E-003   1.1161470839380072E-002
   2.1846352003039721E-002  -6.6082153864586157E-003   1.2070651054909565E-002
   1.8952855176196035E-002  -5.9968527651586556E-003   1.2377056018212429E-002
   1.6059358349352341E-002  -5.3696303802887174E-003   1.2080685729289137E-002
   1.3165861522508676E-002  -4.7265482318492591E-003   1.1181540188139216E-002
   2.1781418748108357E-002  -6.0097325876710128E-003   1.7285282152417536E-002
   1.8554061432202638E-002  -5.3461058082452384E-003   1.8236219924341115E-002
   1.5326704116296944E-002  -4.8642159259564555E-003   1.9122211970366773E-002
   1.2099346800391235E-002  -4.5640629408038660E-003   1.9943258290494890E-002
   8.8719894844855249E-003  -4.4456468527883652E-003   2.0699358884725599E-002
   1.8678770026345826E-002  -4.8157469311536083E-003   2.3576015717504673E-002
   1.5655381747707087E-002  -4.0839962300320276E-003   2.4371114385114745E-002
   1.2631993469068348E-002  -3.7315790867538112E-003   2.5639096853157073E-002
   9.6086051904295949E-003  -3.7584955013185151E-003   2.7379963121630213E-002
   6.5852169117908699E-003  -4.1647454737270273E-003   2.9593713190534832E-002
   2.7774903994540412E-002  -5.2883509899719350E-003  -9.7244903773647806E-003
   2.3351007272701563E-002  -4.2047163434690837E-003  -4.1900737236604257E-003
   1.8927110550862769E-002  -4.7496940275175703E-003   2.6066357601730594E-003
   1.4503213829023948E-002  -6.9232840421190600E-003   1.0665638074134010E-002
   1.0079317107185126E-002  -1.0725486387272554E-002   1.9986933218224756E-002
   1.9466833025860275E-002  -5.0074496109107081E-003   1.0402571007754879E-003
   1.6233115151960353E-002  -4.6899166879740273E-003   6.7384095742782923E-003
   1.2999397278060598E-002  -6.2862707611684998E-003   1.3554626913529266E-002
   9.7656794041606487E-003  -9.7965118304931542E-003   2.1488909118530186E-002
   6.5319615302608103E-003  -1.5220639895948018E-002   3.0541256189280386E-002
   1.3165861522508676E-002  -4.7265482318492591E-003   1.1181540188139216E-002
   1.0978094532168553E-002  -5.1751170324789708E-003   1.6758153815860488E-002
   8.7903275418283328E-003  -7.8228474948183191E-003   2.3308604344951911E-002
   6.6025605514882166E-003  -1.2669739618866804E-002   3.0832891775413124E-002
   4.4147935611480449E-003  -1.9715793404623927E-002   3.9331016107245098E-002
   8.8719894844855249E-003  -4.4456468527883652E-003   2.0699358884725599E-002
   7.5859454133259743E-003  -5.6603173769845805E-003   2.5869159001087327E-002
   6.2999013421664272E-003  -9.3594242284686935E-003   3.1868568054440216E-002
   5.0138572710068507E-003  -1.5542967407240454E-002   3.8697586044784002E-002
   3.7278131998473296E-003  -2.4210946913300058E-002   4.6356212972119004E-002
   6.5852169117908699E-003  -4.1647454737270273E-003   2.9593713190534832E-002
   6.0566677954327908E-003  -6.1455177214893020E-003   3.4071425129958643E-002
   5.5281186790746561E-003  -1.0896000962118957E-002   3.9234518041993738E-002
   4.9995695627164383E-003  -1.8416195195614410E-002   4.5082991926641391E-002
   4.4710204463583869E-003  -2.8706100421975744E-002   5.1616846783900439E-002
   8.3870666540512728E-002  -2.2403455625315871E-002   4.6944857117145466E-002
   7.9154248544800410E-002  -2.1944380638837080E-002   4.1148566111489537E-002
   7.4437830549088063E-002  -2.1372597153692913E-002   3.6896450759429322E-002
   6.9721412553375758E-002  -2.0688105169883460E-002   3.4188511060965043E-002
   6.5004994557663398E-002  -1.9890904687408728E-002   3.3024747016096312E-002
   7.2581332995806547E-002  -2.0540188832508466E-002   4.5861928215403525E-002
   6.9190211389670186E-002  -2.0065137307910819E-002   4.1964899741289724E-002
   6.5799089783533771E-002  -1.9513313880904021E-002   3.9174288392732293E-002
   6.2407968177397369E-002  -1.8884718551487926E-002   3.7490094169730773E-002
   5.9016846571260995E-002  -1.8179351319662695E-002   3.6912317072285455E-002
   6.3315401046125389E-002  -1.8676922039701033E-002   4.4812944149908385E-002
   6.0811817301525142E-002  -1.8185893976984516E-002   4.2779241611080959E-002
   5.8308233556924986E-002  -1.7654030608115004E-002   4.1414197669769767E-002
   5.5804649812324775E-002  -1.7081331933092390E-002   4.0717812325975163E-002
   5.3301066067724626E-002  -1.6467797951916774E-002   4.0690085579696750E-002
   5.6072870691468990E-002  -1.6813655246893627E-002   4.3797904920660359E-002
   5.4019066280365277E-002  -1.6306650646058247E-002   4.3591591720862889E-002
   5.1965261869261634E-002  -1.5794747335325994E-002   4.3616178590542051E-002
   4.9911457458158018E-002  -1.5277945314696799E-002   4.3871665529697929E-002
   4.7857653047054388E-002  -1.4756244584170741E-002   4.4358052538330486E-002
   5.0853741931837448E-002  -1.4950388454086194E-002   4.2816810527659288E-002
   4.8811958326190619E-002  -1.4427407315131952E-002   4.4401950070635632E-002
   4.6770174720543845E-002  -1.3935464062537067E-002   4.5780231155048867E-002
   4.4728391114897043E-002  -1.3474558696301271E-002   4.6951653780899077E-002
   4.2686607509250213E-002  -1.3044691216424875E-002   4.7916217948186512E-002
   6.5004994557663398E-002  -1.9890904687408728E-002   3.3024747016096312E-002
   6.3117251436747512E-002  -1.9068153421713779E-002   3.2103905063575799E-002
   6.1229508315831599E-002  -1.8307009088244119E-002   3.1429782922643479E-002
   5.9341765194915699E-002  -1.7607471686999748E-002   3.1002380593299531E-002
   5.7454022073999800E-002  -1.6969541217980666E-002   3.0821698075543913E-002
   5.9016846571260995E-002  -1.8179351319662695E-002   3.6912317072285455E-002
   5.7357803403715241E-002  -1.7454553052073163E-002   3.6196064362859992E-002
   5.5698760236169556E-002  -1.6767664615364081E-002   3.5690491748586392E-002
   5.4039717068623858E-002  -1.6118686009535581E-002   3.5395599229465106E-002
   5.2380673901078117E-002  -1.5507617234587656E-002   3.5311386805495587E-002
   5.3301066067724626E-002  -1.6467797951916774E-002   4.0690085579696750E-002
   5.1834683137112814E-002  -1.5840952682432533E-002   4.0202119214710952E-002
   5.0368300206501036E-002  -1.5228320142484042E-002   3.9888793228441105E-002
   4.8901917275889231E-002  -1.4629900332071413E-002   3.9750107620886856E-002
   4.7435534345277447E-002  -1.4045693251194702E-002   3.9786062392048516E-002
   4.7857653047054388E-002  -1.4756244584170741E-002   4.4358052538330486E-002
   4.6547890636940203E-002  -1.4227352312791881E-002   4.4122069619129296E-002
   4.5238128226826040E-002  -1.3688975669603948E-002   4.4024687362207438E-002
   4.3928365816711903E-002  -1.3141114654607260E-002   4.4065905767565097E-002
   4.2618603406597698E-002  -1.2583769267801775E-002   4.4245724835202532E-002
   4.2686607509250213E-002  -1.3044691216424875E-002   4.7916217948186512E-002
   4.1497425903197410E-002  -1.2613751943151286E-002   4.7955915576114422E-002
   4.0308244297144608E-002  -1.2149631196723937E-002   4.8098174149885459E-002
   3.9119062691091805E-002  -1.1652328977143238E-002   4.8342993669500012E-002
   3.7929881085039002E-002  -1.1121845284408793E-002   4.8690374134957581E-002
   5.7454022073999800E-002  -1.6969541217980666E-002   3.0821698075543913E-002
   5.4733108139385367E-002  -1.6335332147570408E-002   3.0049180530445030E-002
   5.2012194204770934E-002  -1.5646958942152622E-002   2.9547999801576852E-002
   4.9291280270156446E-002  -1.4904421601727308E-002   2.9318155888939934E-002
   4.6570366335542013E-002  -1.4107720126294687E-002   2.9359648792534165E-002
   5.2380673901078117E-002  -1.5507617234587656E-002   3.5311386805495587E-002
   4.9919513577424149E-002  -1.4895410750619398E-002   3.4702669364211236E-002
   4.7458353253770208E-002  -1.4243019017730424E-002   3.4342122328616401E-002
   4.4997192930116239E-002  -1.3550442035920436E-002   3.4229745698711671E-002
   4.2536032606462298E-002  -1.2817679805189386E-002   3.4365539474496887E-002
   4.7435534345277447E-002  -1.4045693251194702E-002   3.9786062392048516E-002
   4.5210961222042739E-002  -1.3455489353668623E-002   3.9327166168492078E-002
   4.2986388098807976E-002  -1.2839079093308114E-002   3.9093273940084161E-002
   4.0761814975573255E-002  -1.2196462470113398E-002   3.9084385706824876E-002
   3.8537241852338547E-002  -1.1527639484084085E-002   3.9300501468714222E-002
   4.2618603406597698E-002  -1.2583769267801775E-002   4.4245724835202532E-002
   4.0607451073241027E-002  -1.2015567956717869E-002   4.3922670943287383E-002
   3.8596298739884356E-002  -1.1435139168885944E-002   4.3801454635979745E-002
   3.6585146406527685E-002  -1.0842482904306387E-002   4.3882075913279715E-002
   3.4573994073171015E-002  -1.0237599162978839E-002   4.4164534775186851E-002
   3.7929881085039002E-002  -1.1121845284408793E-002   4.8690374134957581E-002
   3.6108983131019123E-002  -1.0575646559766810E-002   4.8489183688597615E-002
   3.4288085176999245E-002  -1.0031199244463648E-002   4.8466664416303568E-002
   3.2467187222979324E-002  -9.4885033384993871E-003   4.8622816318075870E-002
   3.0646289268959459E-002  -8.9475588418734819E-003   4.8957639393914398E-002
   4.6570366335542013E-002  -1.4107720126294687E-002   2.9359648792534165E-002
   4.4408337294165240E-002  -1.3295641778844070E-002   2.8899172613157609E-002
   4.2246308252788412E-002  -1.2506973822364709E-002   2.8531007001450059E-002
   4.0084279211411611E-002  -1.1741716256856785E-002   2.8255151957411268E-002
   3.7922250170034755E-002  -1.0999869082320424E-002   2.8071607481040761E-002
   4.2536032606462298E-002  -1.2817679805189386E-002   3.4365539474496887E-002
   4.0478572145531300E-002  -1.2071817484619801E-002   3.3934166552746114E-002
   3.8421111684600343E-002  -1.1339940233293197E-002   3.3619620224218300E-002
   3.6363651223669420E-002  -1.0622048051210361E-002   3.3421900488913706E-002
   3.4306190762738387E-002  -9.9181409383708452E-003   3.3341007346831819E-002
   3.8537241852338547E-002  -1.1527639484084085E-002   3.9300501468714222E-002
   3.6608865997407626E-002  -1.0847993190395394E-002   3.8907657126317510E-002
   3.4680490142476803E-002  -1.0172906644221907E-002   3.8656155402697859E-002
   3.2752114287545875E-002  -9.5023798455638256E-003   3.8545996297855240E-002
   3.0823738432615044E-002  -8.8364127944209891E-003   3.8577179811789958E-002
   3.4573994073171015E-002  -1.0237599162978839E-002   4.4164534775186851E-002
   3.2799218849794302E-002  -9.6241688961712785E-003   4.3819644333871866E-002
   3.1024443626417705E-002  -9.0058730551504512E-003   4.3640612536888376E-002
   2.9249668403041086E-002  -8.3827116399172903E-003   4.3627439384236119E-002
   2.7474893179664398E-002  -7.7546846504713274E-003   4.3780124875915330E-002
   3.0646289268959459E-002  -8.9475588418734819E-003   4.8957639393914398E-002
   2.9049630702691287E-002  -8.4003446019468853E-003   4.8670128175409277E-002
   2.7452972136423115E-002  -7.8388394660791338E-003   4.8572991626790019E-002
   2.5856313570154957E-002  -7.2630434342707620E-003   4.8666229748056317E-002
   2.4259655003886743E-002  -6.6729565065214436E-003   4.8949842539207977E-002
   3.7922250170034755E-002  -1.0999869082320424E-002   2.8071607481040761E-002
   3.5455097814591052E-002  -1.0270963499620644E-002   2.7328304527569736E-002
   3.2987945459147267E-002  -9.5445307096219123E-003   2.6769374965426529E-002
   3.0520793103703578E-002  -8.8205707123251431E-003   2.6394818794611613E-002
   2.8053640748259778E-002  -8.0990835077293655E-003   2.6204636015124794E-002
   3.4306190762738387E-002  -9.9181409383708452E-003   3.3341007346831819E-002
   3.2019023215529629E-002  -9.2218580328909949E-003   3.2725054818351584E-002
   2.9731855668320817E-002  -8.5268384728872382E-003   3.2284698515013144E-002
   2.7444688121112032E-002  -7.8330822583593737E-003   3.2019938436816373E-002
   2.5157520573903219E-002  -7.1405893893080608E-003   3.1930774583761701E-002
   3.0823738432615044E-002  -8.8364127944209891E-003   3.8577179811789958E-002
   2.8707778527454833E-002  -8.1727525661614009E-003   3.8089787155526050E-002
   2.6591818622294629E-002  -7.5091462361522310E-003   3.7769213558217662E-002
   2.4475858717134476E-002  -6.8455938043940484E-003   3.7615459019864683E-002
   2.2359898811974227E-002  -6.1820952708864785E-003   3.7628523540467085E-002
   2.7474893179664398E-002  -7.7546846504713274E-003   4.3780124875915330E-002
   2.5521363750366569E-002  -7.1236470994316681E-003   4.3422501539093140E-002
   2.3567834321068688E-002  -6.4914539994173903E-003   4.3222920095039877E-002
   2.1614304891770811E-002  -5.8581053504285566E-003   4.3181380543756129E-002
   1.9660775462472930E-002  -5.2236011524648129E-003   4.3297882885241286E-002
   2.4259655003886743E-002  -6.6729565065214436E-003   4.8949842539207977E-002
   2.2459778884264897E-002  -6.0745416327020463E-003   4.8723197969052778E-002
   2.0659902764642982E-002  -5.4737617626824664E-003   4.8645818125480411E-002
   1.8860026645021101E-002  -4.8706168964629884E-003   4.8717703008490931E-002
   1.7060150525399165E-002  -4.2651070340434805E-003   4.8938852618084061E-002
   2.8053640748259778E-002  -8.0990835077293655E-003   2.6204636015124794E-002
   2.5709923067781304E-002  -7.3536868655098009E-003   2.5633501688664295E-002
   2.3366205387302802E-002  -6.5579985553405884E-003   2.5005020196907479E-002
   2.1022487706824286E-002  -5.7120185772217072E-003   2.4319191539854235E-002
   1.8678770026345826E-002  -4.8157469311536083E-003   2.3576015717504673E-002
   2.5157520573903219E-002  -7.1405893893080608E-003   3.1930774583761701E-002
   2.2796139642334734E-002  -6.4437673376643856E-003   3.1527929273240052E-002
   2.0434758710766276E-002  -5.7370235753614607E-003   3.1147104625835226E-002
   1.8073377779197777E-002  -5.0203581023980440E-003   3.0788300641546681E-002
   1.5711996847629334E-002  -4.2937709187750306E-003   3.0451517320374821E-002
   2.2359898811974227E-002  -6.1820952708864785E-003   3.7628523540467085E-002
   2.0060222457728830E-002  -5.5338478098191646E-003   3.7353597288594803E-002
   1.7760546103483342E-002  -4.9160485953818750E-003   3.7180059528251860E-002
   1.5460869749237879E-002  -4.3286976275740442E-003   3.7107910259438416E-002
   1.3161193394992457E-002  -3.7717949063962308E-003   3.7137149482154630E-002
   1.9660775462472930E-002  -5.2236011524648129E-003   4.3297882885241286E-002
   1.7502171513963456E-002  -4.6239282819740685E-003   4.3110505734728514E-002
   1.5343567565454031E-002  -4.0950736154022963E-003   4.3103884904157980E-002
   1.3184963616944552E-002  -3.6370371527502682E-003   4.3278020393530230E-002
   1.1026359668435130E-002  -3.2498188940177086E-003   4.3632912202844806E-002
   1.7060150525399165E-002  -4.2651070340434805E-003   4.8938852618084061E-002
   1.5121986811038740E-002  -3.7140087541285283E-003   4.8798654611640901E-002
   1.3183823096678315E-002  -3.2740986354229951E-003   4.8918580753553487E-002
   1.1245659382317877E-002  -2.9453766779262841E-003   4.9298631043821289E-002
   9.3074956679574661E-003  -2.7278428816388534E-003   4.9938805482444892E-002
   1.8678770026345826E-002  -4.8157469311536083E-003   2.3576015717504673E-002
   1.5655381747707087E-002  -4.0839962300320276E-003   2.4371114385114745E-002
   1.2631993469068348E-002  -3.7315790867538112E-003   2.5639096853157073E-002
   9.6086051904295949E-003  -3.7584955013185151E-003   2.7379963121630213E-002
   6.5852169117908699E-003  -4.1647454737270273E-003   2.9593713190534832E-002
   1.5711996847629334E-002  -4.2937709187750306E-003   3.0451517320374821E-002
   1.3143114610228213E-002  -3.7805490326872637E-003   3.1236215023083991E-002
   1.0574232372827119E-002  -3.7039794523306413E-003   3.2457041007836890E-002
   8.0053501354260329E-003  -4.0640621777043445E-003   3.4113995274633588E-002
   5.4364678980249048E-003  -4.8607972088090534E-003   3.6207077823474099E-002
   1.3161193394992457E-002  -3.7717949063962308E-003   3.7137149482154630E-002
   1.1010061680441247E-002  -3.4771018353425276E-003   3.7854127472075172E-002
   8.8589299658901124E-003  -3.6763798179071383E-003   3.8970478225651611E-002
   6.7077982513389610E-003  -4.3696288540899519E-003   4.0486201742884503E-002
   4.5566665367877679E-003  -5.5568489438910795E-003   4.2401298023773015E-002
   1.1026359668435130E-002  -3.2498188940177086E-003   4.3632912202844806E-002
   9.2562229583462510E-003  -3.1736546379976110E-003   4.4224851732089052E-002
   7.4860862482574054E-003  -3.6487801834835798E-003   4.5179408506601335E-002
   5.7159495381685415E-003  -4.6751955304755594E-003   4.6496582526382016E-002
   3.9458128280796811E-003  -6.2529006789731056E-003   4.8176373791431304E-002
   9.3074956679574661E-003  -2.7278428816388534E-003   4.9938805482444892E-002
   7.8815984439431497E-003  -2.8702074406529721E-003   5.0348387803124672E-002
   6.4557012199289165E-003  -3.6211805490601601E-003   5.1083831850685657E-002
   5.0298039959146695E-003  -4.9807622068612570E-003   5.2145137625127264E-002
   3.6039067719004225E-003  -6.9489524140552428E-003   5.3532305126449908E-002
   6.5852169117908699E-003  -4.1647454737270273E-003   2.9593713190534832E-002
   6.0566677954327908E-003  -6.1455177214893020E-003   3.4071425129958643E-002
   5.5281186790746561E-003  -1.0896000962118957E-002   3.9234518041993738E-002
   4.9995695627164383E-003  -1.8416195195614410E-002   4.5082991926641391E-002
   4.4710204463583869E-003  -2.8706100421975744E-002   5.1616846783900439E-002
   5.4364678980249048E-003  -4.8607972088090534E-003   3.6207077823474099E-002
   5.4894848529035978E-003  -6.9940148739496277E-003   3.8346910536448009E-002
   5.5425018077822769E-003  -1.1363545501431288E-002   4.0964494419283404E-002
   5.5955187626609559E-003  -1.7969389091254208E-002   4.4059829471980699E-002
   5.6485357175395934E-003  -2.6811545643417478E-002   4.7632915694539424E-002
   4.5566665367877679E-003  -5.5568489438910795E-003   4.2401298023773015E-002
   4.9836197601531435E-003  -7.8425120264096204E-003   4.2736649540822208E-002
   5.4105729835184219E-003  -1.1831090040743841E-002   4.3342122424982921E-002
   5.8375262068836933E-003  -1.7522582986893839E-002   4.4217716676254848E-002
   6.2644794302491313E-003  -2.4916990864859434E-002   4.5363432294639017E-002
   3.9458128280796811E-003  -6.2529006789731056E-003   4.8176373791431304E-002
   4.5390725171815249E-003  -8.6910091788693355E-003   4.7240642143081706E-002
   5.1323322062832751E-003  -1.2298634580055950E-002   4.6367402059092608E-002
   5.7255918953851102E-003  -1.7075776882533332E-002   4.5556653539465079E-002
   6.3188515844868690E-003  -2.3022436086301279E-002   4.4808396584199273E-002
   3.6039067719004225E-003  -6.9489524140552428E-003   5.3532305126449908E-002
   4.1558431239885618E-003  -9.5395063313294948E-003   5.1858888343225384E-002
   4.7077794760767289E-003  -1.2766179119368587E-002   5.0040333321612118E-002
   5.2597158281648543E-003  -1.6628970778173345E-002   4.8076640061610471E-002
   5.8116521802529242E-003  -2.1127881307743124E-002   4.5967808563219581E-002
   5.0853741931837448E-002  -1.4950388454086194E-002   4.2816810527659288E-002
   4.8811958326190619E-002  -1.4427407315131952E-002   4.4401950070635632E-002
   4.6770174720543845E-002  -1.3935464062537067E-002   4.5780231155048867E-002
   4.4728391114897043E-002  -1.3474558696301271E-002   4.6951653780899077E-002
   4.2686607509250213E-002  -1.3044691216424875E-002   4.7916217948186512E-002
   4.6189953901420083E-002  -1.3038375163407834E-002   4.8795201112260544E-002
   4.4039390509655746E-002  -1.2619569904328026E-002   4.9544629523609079E-002
   4.1888827117891367E-002  -1.2211866093842533E-002   5.0283356821285347E-002
   3.9738263726127009E-002  -1.1815263731951069E-002   5.1011383005289762E-002
   3.7587700334362650E-002  -1.1429762818653627E-002   5.1728708075621993E-002
   4.0613445734406228E-002  -1.1126361872729390E-002   5.4659447598104732E-002
   3.8550259901415196E-002  -1.0811732493524170E-002   5.4593101315590559E-002
   3.6487074068424191E-002  -1.0488268125148012E-002   5.4712211264295360E-002
   3.4423888235433193E-002  -1.0155968767600752E-002   5.5016777444218824E-002
   3.2360702402442140E-002  -9.8148344208824623E-003   5.5506799855361083E-002
   3.4124217430795870E-002  -9.2143485820510018E-003   6.0409549985191595E-002
   3.2344566501469094E-002  -9.0038950827203076E-003   5.9547365446580160E-002
   3.0564915572142304E-002  -8.7646701564534843E-003   5.9066794484078283E-002
   2.8785264642815514E-002  -8.4966738032504641E-003   5.8967837097686146E-002
   2.7005613713488745E-002  -8.1999060231112558E-003   5.9250493287403651E-002
   2.6722268990588993E-002  -7.3023352913725859E-003   6.6045508273521680E-002
   2.5422310309817342E-002  -7.1960576719164171E-003   6.4407421916577723E-002
   2.4122351629045691E-002  -7.0410721877589982E-003   6.3347106480634491E-002
   2.2822392948274026E-002  -6.8373788389002564E-003   6.2864561965691831E-002
   2.1522434267502388E-002  -6.5849776253401049E-003   6.2959788371749759E-002
   4.2686607509250213E-002  -1.3044691216424875E-002   4.7916217948186512E-002
   4.1497425903197410E-002  -1.2613751943151286E-002   4.7955915576114422E-002
   4.0308244297144608E-002  -1.2149631196723937E-002   4.8098174149885459E-002
   3.9119062691091805E-002  -1.1652328977143238E-002   4.8342993669500012E-002
   3.7929881085039002E-002  -1.1121845284408793E-002   4.8690374134957581E-002
   3.7587700334362650E-002  -1.1429762818653627E-002   5.1728708075621993E-002
   3.6510469050481581E-002  -1.1038199262119214E-002   5.1677908426956520E-002
   3.5433237766600512E-002  -1.0623408970516481E-002   5.1748448476791276E-002
   3.4356006482719435E-002  -1.0185391943845665E-002   5.1940328225126120E-002
   3.3278775198838387E-002  -9.7241481821065401E-003   5.2253547671961470E-002
   3.2360702402442140E-002  -9.8148344208824623E-003   5.5506799855361083E-002
   3.1414200193389856E-002  -9.4626465810872529E-003   5.5355548192016733E-002
   3.0467697984337558E-002  -9.0971867443090798E-003   5.5344414979829587E-002
   2.9521195775285253E-002  -8.7184549105480923E-003   5.5473400218799880E-002
   2.8574693566232948E-002  -8.3264510798042590E-003   5.5742503908927335E-002
   2.7005613713488745E-002  -8.1999060231112558E-003   5.9250493287403651E-002
   2.6208619331922256E-002  -7.8870939000551255E-003   5.8988834871295130E-002
   2.5411624950355760E-002  -7.5709645181015403E-003   5.8886073659000754E-002
   2.4614630568789243E-002  -7.2515178772506305E-003   5.8942209650520910E-002
   2.3817636187222744E-002  -6.9287539775019363E-003   5.9157242845855273E-002
   2.1522434267502388E-002  -6.5849776253401049E-003   6.2959788371749759E-002
   2.0893726466078733E-002  -6.3115412190232478E-003   6.2577768464791572E-002
   2.0265018664655077E-002  -6.0447422918941812E-003   6.2373424514304804E-002
   1.9636310863231435E-002  -5.7845808439530473E-003   6.2346756520289412E-002
   1.9007603061807793E-002  -5.5310568751997247E-003   6.2497764482745355E-002
   3.7929881085039002E-002  -1.1121845284408793E-002   4.8690374134957581E-002
   3.6108983131019123E-002  -1.0575646559766810E-002   4.8489183688597615E-002
   3.4288085176999245E-002  -1.0031199244463648E-002   4.8466664416303568E-002
   3.2467187222979324E-002  -9.4885033384993871E-003   4.8622816318075870E-002
   3.0646289268959459E-002  -8.9475588418734819E-003   4.8957639393914398E-002
   3.3278775198838387E-002  -9.7241481821065401E-003   5.2253547671961470E-002
   3.1645784898500978E-002  -9.2498116387530194E-003   5.2009221668223582E-002
   3.0012794598163563E-002  -8.7725162672393220E-003   5.1962039797784562E-002
   2.8379804297826144E-002  -8.2922620675656214E-003   5.2112002060644431E-002
   2.6746813997488766E-002  -7.8090490397314527E-003   5.2459108456802850E-002
   2.8574693566232948E-002  -8.3264510798042590E-003   5.5742503908927335E-002
   2.7148083878810597E-002  -7.9239767177392423E-003   5.5459752585310829E-002
   2.5721474191388295E-002  -7.5138332900151136E-003   5.5392618354225633E-002
   2.4294864503965948E-002  -7.0960207966316909E-003   5.5541101215671768E-002
   2.2868254816543615E-002  -6.6705392375892014E-003   5.5905201169649171E-002
   2.3817636187222744E-002  -6.9287539775019363E-003   5.9157242845855273E-002
   2.2615880071948077E-002  -6.5981417967254305E-003   5.8840776439858904E-002
   2.1414123956673387E-002  -6.2551503127909573E-003   5.8758400085626543E-002
   2.0212367841398696E-002  -5.8997795256980649E-003   5.8910113783158136E-002
   1.9010611726124026E-002  -5.5320294354469501E-003   5.9295917532453550E-002
   1.9007603061807793E-002  -5.5310568751997247E-003   6.2497764482745355E-002
   1.8049173477913336E-002  -5.2723068757116742E-003   6.2152293231868161E-002
   1.7090743894018864E-002  -4.9964673355664124E-003   6.2059384991987487E-002
   1.6132314310124414E-002  -4.7035382547640919E-003   6.2219039763103307E-002
   1.5173884726229964E-002  -4.3935196333048099E-003   6.2631257545215702E-002
   3.0646289268959459E-002  -8.9475588418734819E-003   4.8957639393914398E-002
   2.9049630702691287E-002  -8.4003446019468853E-003   4.8670128175409277E-002
   2.7452972136423115E-002  -7.8388394660791338E-003   4.8572991626790019E-002
   2.5856313570154957E-002  -7.2630434342707620E-003   4.8666229748056317E-002
   2.4259655003886743E-002  -6.6729565065214436E-003   4.8949842539207977E-002
   2.6746813997488766E-002  -7.8090490397314527E-003   5.2459108456802850E-002
   2.5340643627431117E-002  -7.3187417219101047E-003   5.2205387179025953E-002
   2.3934473257373468E-002  -6.8172046522745611E-003   5.2142267623784488E-002
   2.2528302887315832E-002  -6.3044378308246898E-003   5.2269749791078457E-002
   2.1122132517258196E-002  -5.7804412575609421E-003   5.2587833680908247E-002
   2.2868254816543615E-002  -6.6705392375892014E-003   5.5905201169649171E-002
   2.1652799695346468E-002  -6.2371388418733520E-003   5.5682208688473483E-002
   2.0437344574149259E-002  -5.7955698384697524E-003   5.5650044982483465E-002
   1.9221889452952064E-002  -5.3458322273787807E-003   5.5808710051678707E-002
   1.8006434331754882E-002  -4.8879260086002740E-003   5.6158203896059383E-002
   1.9010611726124026E-002  -5.5320294354469501E-003   5.9295917532453550E-002
   1.7986098906437244E-002  -5.1555359618365854E-003   5.9100592703752515E-002
   1.6961586086750430E-002  -4.7739350246650616E-003   5.9096323702887116E-002
   1.5937073267063638E-002  -4.3872266239329012E-003   5.9283110529856992E-002
   1.4912560447376840E-002  -3.9954107596396893E-003   5.9660953184662045E-002
   1.5173884726229964E-002  -4.3935196333048099E-003   6.2631257545215702E-002
   1.4340541260703499E-002  -4.0739330817998187E-003   6.2460539224862721E-002
   1.3507197795177020E-002  -3.7523002108603987E-003   6.2481103784995329E-002
   1.2673854329650555E-002  -3.4286210204867232E-003   6.2692951225613081E-002
   1.1840510864124076E-002  -3.1028955106789935E-003   6.3096081546715976E-002
   2.4259655003886743E-002  -6.6729565065214436E-003   4.8949842539207977E-002
   2.2459778884264897E-002  -6.0745416327020463E-003   4.8723197969052778E-002
   2.0659902764642982E-002  -5.4737617626824664E-003   4.8645818125480411E-002
   1.8860026645021101E-002  -4.8706168964629884E-003   4.8717703008490931E-002
   1.7060150525399165E-002  -4.2651070340434805E-003   4.8938852618084061E-002
   2.1122132517258196E-002  -5.7804412575609421E-003   5.2587833680908247E-002
   1.9484824142045817E-002  -5.2516272035010858E-003   5.2396701532693657E-002
   1.7847515766833397E-002  -4.7244079396631111E-003   5.2381440146715419E-002
   1.6210207391620983E-002  -4.1987834660475731E-003   5.2542049522973561E-002
   1.4572899016408597E-002  -3.6747537826542498E-003   5.2878529661467832E-002
   1.8006434331754882E-002  -4.8879260086002740E-003   5.6158203896059383E-002
   1.6558299736605324E-002  -4.4287127743000698E-003   5.5998624383363893E-002
   1.5110165141455755E-002  -3.9750541166441861E-003   5.6041521668557817E-002
   1.3662030546306181E-002  -3.5269500356323209E-003   5.6286895751641343E-002
   1.2213895951156628E-002  -3.0844005312646305E-003   5.6734746632614158E-002
   1.4912560447376840E-002  -3.9954107596396893E-003   5.9660953184662045E-002
   1.3680205667943457E-002  -3.6057983450992481E-003   5.9528966521063181E-002
   1.2447850888510040E-002  -3.2257002936249349E-003   5.9626062691007398E-002
   1.1215496109076637E-002  -2.8551166052168762E-003   5.9952241694494181E-002
   9.9831413296432442E-003  -2.4940472798751501E-003   6.0507503531523898E-002
   1.1840510864124076E-002  -3.1028955106789935E-003   6.3096081546715976E-002
   1.0850541936060193E-002  -2.7828839158982044E-003   6.2987727945791938E-002
   9.8605730079962817E-003  -2.4763464706058502E-003   6.3135063214063980E-002
   8.8706040799324051E-003  -2.1832831748016396E-003   6.3538087351532296E-002
   7.8806351518684870E-003  -1.9036940284857806E-003   6.4196800358196859E-002
   1.7060150525399165E-002  -4.2651070340434805E-003   4.8938852618084061E-002
   1.5121986811038740E-002  -3.7140087541285283E-003   4.8798654611640901E-002
   1.3183823096678315E-002  -3.2740986354229951E-003   4.8918580753553487E-002
   1.1245659382317877E-002  -2.9453766779262841E-003   4.9298631043821289E-002
   9.3074956679574661E-003  -2.7278428816388534E-003   4.9938805482444892E-002
   1.4572899016408597E-002  -3.6747537826542498E-003   5.2878529661467832E-002
   1.2892957973193675E-002  -3.2073029989475033E-003   5.2753303036372323E-002
   1.1213016929978739E-002  -2.8514152243937496E-003   5.2884397605212630E-002
   9.5330758867637894E-003  -2.6070904589918648E-003   5.3271813367988169E-002
   7.8531348435488535E-003  -2.4743287027426675E-003   5.3915550324699690E-002
   1.2213895951156628E-002  -3.0844005312646305E-003   5.6734746632614158E-002
   1.0788374624667210E-002  -2.7005972437665893E-003   5.6624116540923586E-002
   9.3628532981777784E-003  -2.4287318133643654E-003   5.6766004688748567E-002
   7.9373319716883571E-003  -2.2688042400575495E-003   5.7160411076089337E-002
   6.5118106451989288E-003  -2.2208145238464816E-003   5.7807335702945245E-002
   9.9831413296432442E-003  -2.4940472798751501E-003   6.0507503531523898E-002
   8.8082367654593423E-003  -2.1938914885856198E-003   6.0411095125294842E-002
   7.6333322012754543E-003  -2.0060484023351061E-003   6.0563402004161153E-002
   6.4584276370915532E-003  -1.9305180211234597E-003   6.0964424168123310E-002
   5.2835230729076643E-003  -1.9673003449502402E-003   6.1614161617180759E-002
   7.8806351518684870E-003  -1.9036940284857806E-003   6.4196800358196859E-002
   6.9525443955701233E-003  -1.6871857334047058E-003   6.4114238789485967E-002
   6.0244536392717596E-003  -1.5833649913058745E-003   6.4276589551450769E-002
   5.0963628829734098E-003  -1.5922318021887941E-003   6.4683852644090961E-002
   4.1682721266750322E-003  -1.7137861660539988E-003   6.5336028067406682E-002
   9.3074956679574661E-003  -2.7278428816388534E-003   4.9938805482444892E-002
   7.8815984439431497E-003  -2.8702074406529721E-003   5.0348387803124672E-002
   6.4557012199289165E-003  -3.6211805490601601E-003   5.1083831850685657E-002
   5.0298039959146695E-003  -4.9807622068612570E-003   5.2145137625127264E-002
   3.6039067719004225E-003  -6.9489524140552428E-003   5.3532305126449908E-002
   7.8531348435488535E-003  -2.4743287027426675E-003   5.3915550324699690E-002
   6.7274708672107469E-003  -2.6545439366288393E-003   5.3851041031978131E-002
   5.6018068908725571E-003  -3.3491501416327840E-003   5.4061136507727675E-002
   4.4761429145343951E-003  -4.5581473177551263E-003   5.4545836751949003E-002
   3.3504789381962607E-003  -6.2815354649952138E-003   5.5305141764641519E-002
   6.5118106451989288E-003  -2.2208145238464816E-003   5.7807335702945245E-002
   5.6351229581275558E-003  -2.4388804326045121E-003   5.7362952375097032E-002
   4.7584352710561759E-003  -3.0771197342051720E-003   5.7141916857310862E-002
   3.8817475839848063E-003  -4.1355324286486590E-003   5.7144229149586993E-002
   3.0050598969134229E-003  -5.6141185159349072E-003   5.7369889251925238E-002
   5.2835230729076643E-003  -1.9673003449502402E-003   6.1614161617180759E-002
   4.6045547166937116E-003  -2.2232169285801712E-003   6.0884121832481333E-002
   3.9255863604797606E-003  -2.8050893267774005E-003   6.0326172899434954E-002
   3.2466180042658018E-003  -3.7129175395423600E-003   5.9940314818040998E-002
   2.5676496480518569E-003  -4.9467015668746284E-003   5.9726547588300004E-002
   4.1682721266750322E-003  -1.7137861660539988E-003   6.5336028067406682E-002
   3.6357661429091692E-003  -2.0075534245560522E-003   6.4414549404131716E-002
   3.1032601591433201E-003  -2.5330589193501563E-003   6.3613904634100105E-002
   2.5707541753774640E-003  -3.2903026504358876E-003   6.2934093757311876E-002
   2.0382481916116080E-003  -4.2792846178143495E-003   6.2375116773766948E-002
   3.6039067719004225E-003  -6.9489524140552428E-003   5.3532305126449908E-002
   4.1558431239885618E-003  -9.5395063313294948E-003   5.1858888343225384E-002
   4.7077794760767289E-003  -1.2766179119368587E-002   5.0040333321612118E-002
   5.2597158281648543E-003  -1.6628970778173345E-002   4.8076640061610471E-002
   5.8116521802529242E-003  -2.1127881307743124E-002   4.5967808563219581E-002
   3.3504789381962607E-003  -6.2815354649952138E-003   5.5305141764641519E-002
   3.7746711071275224E-003  -8.5498421611633346E-003   5.2951345330318811E-002
   4.1988632760587702E-003  -1.1393594984069111E-002   5.0487198768070729E-002
   4.6230554449900388E-003  -1.4812793933712431E-002   4.7912702077898411E-002
   5.0472476139212796E-003  -1.8807439010093407E-002   4.5227855259800442E-002
   3.0050598969134229E-003  -5.6141185159349072E-003   5.7369889251925238E-002
   3.3362959931515015E-003  -7.5601779909975075E-003   5.4396385910531697E-002
   3.6675320893895871E-003  -1.0021010848769649E-002   5.1347320551677025E-002
   3.9987681856276484E-003  -1.2996617089251743E-002   4.8222693175361438E-002
   4.3300042818657514E-003  -1.6486996712443469E-002   4.5022503781583567E-002
   2.5676496480518569E-003  -4.9467015668746284E-003   5.9726547588300004E-002
   2.8407177820604940E-003  -6.5705138208316249E-003   5.6194010083864515E-002
   3.1137859160691051E-003  -8.6484267134704015E-003   5.2620698672430688E-002
   3.3868540500777240E-003  -1.1180440244791054E-002   4.9006613353999938E-002
   3.6599221840863533E-003  -1.4166554414793531E-002   4.5351754128571148E-002
   2.0382481916116080E-003  -4.2792846178143495E-003   6.2375116773766948E-002
   2.2879364738544739E-003  -5.5808496506657423E-003   5.8344217850316182E-002
   2.5376247560973675E-003  -7.2758425781708214E-003   5.4307333130331537E-002
   2.7873130383402195E-003  -9.3642634003305580E-003   5.0264462613813343E-002
   3.0370013205831548E-003  -1.1846112117143814E-002   4.6215606300760825E-002
   2.6722268990588993E-002  -7.3023352913725859E-003   6.6045508273521680E-002
   2.5422310309817342E-002  -7.1960576719164171E-003   6.4407421916577723E-002
   2.4122351629045691E-002  -7.0410721877589982E-003   6.3347106480634491E-002
   2.2822392948274026E-002  -6.8373788389002564E-003   6.2864561965691831E-002
   2.1522434267502388E-002  -6.5849776253401049E-003   6.2959788371749759E-002
   1.9158395803251640E-002  -5.4767509653887991E-003   6.5280033022095452E-002
   1.8373012730277347E-002  -5.3970426284043749E-003   6.4210241346430996E-002
   1.7587629657303053E-002  -5.2808034518274788E-003   6.3591829965360364E-002
   1.6802246584328759E-002  -5.1280334356582809E-003   6.3424798878884109E-002
   1.6016863511354479E-002  -4.9387325798963544E-003   6.3709148087001927E-002
   1.2183393258249783E-002  -3.6511666394050124E-003   6.4494077000752173E-002
   1.1786195166666423E-002  -3.5980275848923743E-003   6.3980402981257831E-002
   1.1388997075083077E-002  -3.5205347158960495E-003   6.3791718629951338E-002
   1.0991798983499723E-002  -3.4186880324161961E-003   6.3928023946832557E-002
   1.0594600891916370E-002  -3.2924875344525761E-003   6.4389318931901487E-002
   5.7972613555834704E-003  -1.8255823134212396E-003   6.3687640209491303E-002
   5.6618576189846233E-003  -1.7990125413803390E-003   6.3717906821058642E-002
   5.5264538823857727E-003  -1.7602659799646862E-003   6.3946772474407276E-002
   5.3910501457869221E-003  -1.7093426291740826E-003   6.4374237169537135E-002
   5.2556464091880629E-003  -1.6462424890088395E-003   6.5000300906448275E-002
   9.5252680742952123E-011   2.0125625610489806E-009   6.2860722648313272E-002
   8.7231895318229391E-011   2.5021317240359053E-009   6.3422752865833376E-002
   7.9211130710188371E-011   2.7559669130150510E-009   6.4056991498728150E-002
   7.1190359163253447E-011   2.7740678400223207E-009   6.4763438546997829E-002
   6.3169580677424619E-011   2.5564349526163710E-009   6.5542094010642482E-002
   2.1522434267502388E-002  -6.5849776253401049E-003   6.2959788371749759E-002
   2.0893726466078733E-002  -6.3115412190232478E-003   6.2577768464791572E-002
   2.0265018664655077E-002  -6.0447422918941812E-003   6.2373424514304804E-002
   1.9636310863231435E-002  -5.7845808439530473E-003   6.2346756520289412E-002
   1.9007603061807793E-002  -5.5310568751997247E-003   6.2497764482745355E-002
   1.6016863511354479E-002  -4.9387325798963544E-003   6.3709148087001927E-002
   1.5560706913937995E-002  -4.7336553680070309E-003   6.3399503761026751E-002
   1.5104550316521512E-002  -4.5335562834551701E-003   6.3257285886594641E-002
   1.4648393719105042E-002  -4.3384353262408623E-003   6.3282494463705291E-002
   1.4192237121688558E-002  -4.1482924963638923E-003   6.3475129492359117E-002
   1.0594600891916370E-002  -3.2924875344525761E-003   6.4389318931901487E-002
   1.0300745993578685E-002  -3.1557695169907168E-003   6.4153709538759554E-002
   1.0006891095240996E-002  -3.0223702750160411E-003   6.4075277092232263E-002
   9.7130361969033074E-003  -2.8922898085285090E-003   6.4154021592319602E-002
   9.4191812985656223E-003  -2.7655281175281154E-003   6.4389943039021513E-002
   5.2556464091880629E-003  -1.6462424890088395E-003   6.5000300906448275E-002
   5.1138437050007963E-003  -1.5778836659744791E-003   6.4840385797989980E-002
   4.9720410008135176E-003  -1.5111842665769155E-003   6.4827398131218045E-002
   4.8302382966262380E-003  -1.4461442908162399E-003   6.4961337906132247E-002
   4.6884355924389724E-003  -1.3827637386923941E-003   6.5242205122732724E-002
   6.3169580677424619E-011   2.5564349526163710E-009   6.5542094010642482E-002
   4.8204332886436774E-011   2.1850418419067097E-009   6.5459532538718279E-002
   3.3239085095448928E-011   1.7418620851250566E-009   6.5513649003551805E-002
   1.8273837304461082E-011   1.2268960812578111E-009   6.5704443405143156E-002
   3.3085895134732368E-012   6.4014343825746778E-010   6.6031915743492486E-002
   1.9007603061807793E-002  -5.5310568751997247E-003   6.2497764482745355E-002
   1.8049173477913336E-002  -5.2723068757116742E-003   6.2152293231868161E-002
   1.7090743894018864E-002  -4.9964673355664124E-003   6.2059384991987487E-002
   1.6132314310124414E-002  -4.7035382547640919E-003   6.2219039763103307E-002
   1.5173884726229964E-002  -4.3935196333048099E-003   6.2631257545215702E-002
   1.4192237121688558E-002  -4.1482924963638923E-003   6.3475129492359117E-002
   1.3483131644921945E-002  -3.9542301309142269E-003   6.3183682824179632E-002
   1.2774026168155324E-002  -3.7473505669815693E-003   6.3138321359259314E-002
   1.2064920691388713E-002  -3.5276538045655066E-003   6.3339045097598023E-002
   1.1355815214622103E-002  -3.2951398436667501E-003   6.3785854039196122E-002
   9.4191812985656223E-003  -2.7655281175281154E-003   6.4389943039021513E-002
   8.9529221211894980E-003  -2.6361533861167796E-003   6.4148248611365713E-002
   8.4866629438133771E-003  -2.4982337983965042E-003   6.4146161579231697E-002
   8.0204037664372511E-003  -2.3517693543670323E-003   6.4383681942619633E-002
   7.5541445890611250E-003  -2.1967600540286347E-003   6.4860809701529215E-002
   4.6884355924389724E-003  -1.3827637386923941E-003   6.5242205122732724E-002
   4.4585449067159853E-003  -1.3180766413194156E-003   6.5045990593426375E-002
   4.2286542209929966E-003  -1.2491170298114390E-003   6.5082905651904749E-002
   3.9987635352700061E-003  -1.1758849041685580E-003   6.5352950298167428E-002
   3.7688728495470208E-003  -1.0983802643905471E-003   6.5856124532214511E-002
   3.3085895134732368E-012   6.4014343825746778E-010   6.6031915743492486E-002
   1.5013927601170707E-012   1.0347811496558279E-010   6.5876908770361731E-002
  -3.0580052379214351E-013  -2.6122644325443645E-010   6.5948553577278274E-002
  -2.1130007465952616E-012  -4.5396993456070511E-010   6.6246850164241880E-002
  -3.9201905610575238E-012  -4.7475245956718481E-010   6.6771798531252480E-002
   1.5173884726229964E-002  -4.3935196333048099E-003   6.2631257545215702E-002
   1.4340541260703499E-002  -4.0739330817998187E-003   6.2460539224862721E-002
   1.3507197795177020E-002  -3.7523002108603987E-003   6.2481103784995329E-002
   1.2673854329650555E-002  -3.4286210204867232E-003   6.2692951225613081E-002
   1.1840510864124076E-002  -3.1028955106789935E-003   6.3096081546715976E-002
   1.1355815214622103E-002  -3.2951398436667501E-003   6.3785854039196122E-002
   1.0718017876552022E-002  -3.0554499133182422E-003   6.3637588381786514E-002
   1.0080220538481961E-002  -2.8142252425537029E-003   6.3689132098804446E-002
   9.4424232004118938E-003  -2.5714658313725491E-003   6.3940485190249780E-002
   8.8046258623418194E-003  -2.3271716797756414E-003   6.4391647656122708E-002
   7.5541445890611250E-003  -2.1967600540286347E-003   6.4860809701529215E-002
   7.1204198723896703E-003  -2.0369667448366657E-003   6.4734485128044694E-002
   6.6866951557182086E-003  -1.8761502742466046E-003   6.4816496422929831E-002
   6.2529704390467504E-003  -1.7143106422583161E-003   6.5106843586184765E-002
   5.8192457223752922E-003  -1.5514478488720118E-003   6.5605526617809273E-002
   3.7688728495470208E-003  -1.0983802643905471E-003   6.5856124532214511E-002
   3.5477472482163975E-003  -1.0184835763552003E-003   6.5751229463637206E-002
   3.3266216468857603E-003  -9.3807530593976313E-004   6.5863196757371636E-002
   3.1054960455551344E-003  -8.5715545314405707E-004   6.6192026413418037E-002
   2.8843704442244999E-003  -7.7572401796840995E-004   6.6737718431776408E-002
  -3.9201905610575238E-012  -4.7475245956718481E-010   6.6771798531252480E-002
   4.0322120642422021E-012  -4.0787362376448755E-010   6.6687821388564106E-002
   1.1984625097882784E-011  -3.3763281059862038E-010   6.6829233102129793E-002
   1.9937031192629462E-011  -2.6402982578055401E-010   6.7196033671949623E-002
   2.7889440756823092E-011  -1.8706491911046896E-010   6.7788223098023570E-002
   1.1840510864124076E-002  -3.1028955106789935E-003   6.3096081546715976E-002
   1.0850541936060193E-002  -2.7828839158982044E-003   6.2987727945791938E-002
   9.8605730079962817E-003  -2.4763464706058502E-003   6.3135063214063980E-002
   8.8706040799324051E-003  -2.1832831748016396E-003   6.3538087351532296E-002
   7.8806351518684870E-003  -1.9036940284857806E-003   6.4196800358196859E-002
   8.8046258623418194E-003  -2.3271716797756414E-003   6.4391647656122708E-002
   8.0682966437385165E-003  -2.0871629661552427E-003   6.4319959874349686E-002
   7.3319674251352274E-003  -1.8572598689047953E-003   6.4499862642301897E-002
   6.5956382065319244E-003  -1.6374623880240254E-003   6.4931355959978870E-002
   5.8593089879286353E-003  -1.4277705235129501E-003   6.5614439827381077E-002
   5.8192457223752922E-003  -1.5514478488720118E-003   6.5605526617809273E-002
   5.3324578937614386E-003  -1.3914420164121144E-003   6.5573873188306056E-002
   4.8456700651475990E-003  -1.2381732672037404E-003   6.5789711989056698E-002
   4.3588822365337506E-003  -1.0916416012463001E-003   6.6253043020061228E-002
   3.8720944079199057E-003  -9.5184701854011955E-004   6.6963866281319728E-002
   2.8843704442244999E-003  -7.7572401796840995E-004   6.6737718431776408E-002
   2.6430256861289560E-003  -6.9572106666918043E-004   6.6749467887661354E-002
   2.4016809280334121E-003  -6.1908666550263003E-004   6.7004611254329050E-002
   2.1603361699378616E-003  -5.4582081446851935E-004   6.7503148531779480E-002
   1.9189914118423242E-003  -4.7592351356734452E-004   6.8245079720012675E-002
   2.7889440756823092E-011  -1.8706491911046896E-010   6.7788223098023570E-002
   2.0841051107112207E-011  -1.1692585788480869E-010   6.7846743972415358E-002
   1.3792661457401323E-011  -6.3801575134192490E-011   6.8144560438118673E-002
   6.7442787465843423E-012  -2.7690891246656690E-011   6.8681672495133517E-002
  -3.0411784202044601E-013  -8.5945695005307243E-012   6.9458080143459888E-002
   7.8806351518684870E-003  -1.9036940284857806E-003   6.4196800358196859E-002
   6.9525443955701233E-003  -1.6871857334047058E-003   6.4114238789485967E-002
   6.0244536392717596E-003  -1.5833649913058745E-003   6.4276589551450769E-002
   5.0963628829734098E-003  -1.5922318021887941E-003   6.4683852644090961E-002
   4.1682721266750322E-003  -1.7137861660539988E-003   6.5336028067406682E-002
   5.8593089879286353E-003  -1.4277705235129501E-003   6.5614439827381077E-002
   5.1729081519218956E-003  -1.2653893000418304E-003   6.5464165822871290E-002
   4.4865073159151628E-003  -1.1875237422815377E-003   6.5552359328269222E-002
   3.8001064799084265E-003  -1.1941738502313920E-003   6.5879020343574859E-002
   3.1137056439016902E-003  -1.2853396238916570E-003   6.6444148868788244E-002
   3.8720944079199057E-003  -9.5184701854011955E-004   6.6963866281319728E-002
   3.4209386714370051E-003  -8.4359286667914923E-004   6.6774051728282435E-002
   2.9697829349541044E-003  -7.9168249325685391E-004   6.6816259864385011E-002
   2.5186271984711968E-003  -7.9611589827398646E-004   6.7090490689627774E-002
   2.0674714619883031E-003  -8.5689308172959278E-004   6.7596744204010267E-002
   1.9189914118423242E-003  -4.7592351356734452E-004   6.8245079720012675E-002
   1.6966359541154474E-003  -4.2179643331631544E-004   6.8043896505719473E-002
   1.4742804963885636E-003  -3.9584124423245465E-004   6.8068291159798205E-002
   1.2519250386616877E-003  -3.9805794631624959E-004   6.8318263682249053E-002
   1.0295695809348169E-003  -4.2844653956750078E-004   6.8793814073072251E-002
  -3.0411784202044601E-013  -8.5945695005307243E-012   6.9458080143459888E-002
  -4.2771342023684156E-014   4.6407322429331543E-014   6.9273700155182194E-002
   2.1856821907917379E-013   4.7920278856139475E-012   6.9308453214508958E-002
   4.7991818852288759E-013   5.6408974713484383E-012   6.9562339321439931E-002
   7.4125428017879358E-013   2.5948132531539159E-012   7.0035358475974974E-002
   4.1682721266750322E-003  -1.7137861660539988E-003   6.5336028067406682E-002
   3.6357661429091692E-003  -2.0075534245560522E-003   6.4414549404131716E-002
   3.1032601591433201E-003  -2.5330589193501563E-003   6.3613904634100105E-002
   2.5707541753774640E-003  -3.2903026504358876E-003   6.2934093757311876E-002
   2.0382481916116080E-003  -4.2792846178143495E-003   6.2375116773766948E-002
   3.1137056439016902E-003  -1.2853396238916570E-003   6.6444148868788244E-002
   2.7051067040470000E-003  -1.5056650687464979E-003   6.5331304700556148E-002
   2.2965077641922682E-003  -1.8997941902788862E-003   6.4345440726902292E-002
   1.8879088243375433E-003  -2.4677269884894396E-003   6.3486556947827733E-002
   1.4793098844828323E-003  -3.2094634633778041E-003   6.2754653363332191E-002
   2.0674714619883031E-003  -8.5689308172959278E-004   6.7596744204010267E-002
   1.7889258673801610E-003  -1.0037767129368325E-003   6.6350469090434655E-002
   1.5103802727720224E-003  -1.2665294612078520E-003   6.5237320472773350E-002
   1.2318346781638890E-003  -1.6451513265426619E-003   6.4257298351026226E-002
   9.5328908355575559E-004  -2.1396423089413696E-003   6.3410402725193604E-002
   1.0295695809348169E-003  -4.2844653956750078E-004   6.8793814073072251E-002
   8.8722363290870410E-004  -5.0188835712711155E-004   6.7472042573767599E-002
   7.4487768488259391E-004  -6.3326473213675544E-004   6.6289543871712805E-002
   6.0253173685647895E-004  -8.2257566459604907E-004   6.5246317966907746E-002
   4.6018578883037092E-004  -1.0698211545047687E-003   6.4342364859352436E-002
   7.4125428017879358E-013   2.5948132531539159E-012   7.0035358475974974E-002
   6.3261201832531810E-013  -1.3176681967763670E-012   6.8696025150555284E-002
   5.2397669536574654E-013  -3.0657698601999073E-012   6.7502110923720882E-002
   4.1533963768269899E-013  -2.6492696925117798E-012   6.6453615795471654E-002
   3.0669911055269949E-013  -6.8389738316909643E-014   6.5550539765807825E-002
   2.0382481916116080E-003  -4.2792846178143495E-003   6.2375116773766948E-002
   2.2879364738544739E-003  -5.5808496506657423E-003   5.8344217850316182E-002
   2.5376247560973675E-003  -7.2758425781708214E-003   5.4307333130331537E-002
   2.7873130383402195E-003  -9.3642634003305580E-003   5.0264462613813343E-002
   3.0370013205831548E-003  -1.1846112117143814E-002   4.6215606300760825E-002
   1.4793098844828323E-003  -3.2094634633778041E-003   6.2754653363332191E-002
   1.7089033016452898E-003  -4.1856372372619521E-003   5.8398313469552265E-002
   1.9384967188077473E-003  -5.4568819324608830E-003   5.4007769642145653E-002
   2.1680901359702118E-003  -7.0231975489733270E-003   4.9583021881111772E-002
   2.3976835531326623E-003  -8.8845840867999293E-003   4.5124070186451037E-002
   9.5328908355575559E-004  -2.1396423089413696E-003   6.3410402725193604E-002
   1.1345694985447179E-003  -2.7904248238589391E-003   5.8826978834424976E-002
   1.3158499135336801E-003  -3.6379212867506117E-003   5.4181132872936494E-002
   1.4971303285226494E-003  -4.6821316976164290E-003   4.9472864840727909E-002
   1.6784107435116186E-003  -5.9230560564562662E-003   4.4702174737799139E-002
   4.6018578883037092E-004  -1.0698211545047687E-003   6.4342364859352436E-002
   5.6493506455278144E-004  -1.3952124104557595E-003   5.9630213944934583E-002
   6.6968434027517808E-004  -1.8189606410402848E-003   5.4827422822703878E-002
   7.7443361599757645E-004  -2.3410658462592535E-003   4.9933991492660222E-002
   8.7918289171999911E-004  -2.9615280261123811E-003   4.4949919954802825E-002
   3.0669911055269949E-013  -6.8389738316909643E-014   6.5550539765807825E-002
  -3.3054115000652473E-013   2.9474200857748656E-012   6.0808018801080777E-002
  -9.6776406333098919E-013   4.6698200861783334E-012   5.5946639491448513E-002
  -1.6049973849963095E-012   5.0975335064151750E-012   5.0966401836909647E-002
  -2.2422341761085818E-012   4.2312819914513966E-012   4.5867305837464123E-002
   9.5252680742952123E-011   2.0125625610489806E-009   6.2860722648313272E-002
   8.7231895318229391E-011   2.5021317240359053E-009   6.3422752865833376E-002
   7.9211130710188371E-011   2.7559669130150510E-009   6.4056991498728150E-002
   7.1190359163253447E-011   2.7740678400223207E-009   6.4763438546997829E-002
   6.3169580677424619E-011   2.5564349526163710E-009   6.5542094010642482E-002
  -5.7972612357608810E-003   1.8255835545147314E-003   6.3687641896009117E-002
  -5.6618575044160117E-003   1.7990149079581963E-003   6.3717907916202382E-002
  -5.5264537730711442E-003   1.7602690219026690E-003   6.3946772999751877E-002
  -5.3910500417262688E-003   1.7093458963479795E-003   6.4374237146657853E-002
  -5.2556463103814004E-003   1.6462455312941104E-003   6.5000300356920365E-002
  -1.2183393350475524E-002   3.6511650964668740E-003   6.4494080509462051E-002
  -1.1786195231783434E-002   3.5980273137848073E-003   6.3980405328563153E-002
  -1.1388997113091343E-002   3.5205352878385290E-003   6.3791719859002366E-002
  -1.0991798994399256E-002   3.4186890186280062E-003   6.3928024100779551E-002
  -1.0594600875707162E-002   3.2924885061533238E-003   6.4389318053894681E-002
  -1.9158396248891273E-002   5.4767466384190583E-003   6.5280038488671699E-002
  -1.8373013094870362E-002   5.3970397196113767E-003   6.4210245102915911E-002
  -1.7587629940849496E-002   5.2808015537743648E-003   6.3591832076479560E-002
  -1.6802246786828595E-002   5.1280321409081170E-003   6.3424799409362881E-002
  -1.6016863632807712E-002   4.9387314810124538E-003   6.3709147101565777E-002
  -2.6722269931008083E-002   7.3023281803711870E-003   6.6045515833638546E-002
  -2.5422311093676826E-002   7.1960521254378906E-003   6.4407427239260573E-002
  -2.4122352256345569E-002   7.0410678197101589E-003   6.3347109652183570E-002
  -2.2822393419014299E-002   6.8373752631880926E-003   6.2864563072407773E-002
  -2.1522434581683042E-002   6.5849744558716949E-003   6.2959787499933251E-002
   6.3169580677424619E-011   2.5564349526163710E-009   6.5542094010642482E-002
   4.8204332886436774E-011   2.1850418419067097E-009   6.5459532538718279E-002
   3.3239085095448928E-011   1.7418620851250566E-009   6.5513649003551805E-002
   1.8273837304461082E-011   1.2268960812578111E-009   6.5704443405143156E-002
   3.3085895134732368E-012   6.4014343825746778E-010   6.6031915743492486E-002
  -5.2556463103814004E-003   1.6462455312941104E-003   6.5000300356920365E-002
  -5.1138436229966108E-003   1.5778862274395261E-003   6.4840385103869011E-002
  -4.9720409356118229E-003   1.5111862854822328E-003   6.4827397318759958E-002
  -4.8302382482270359E-003   1.4461457054226849E-003   6.4961337001593011E-002
  -4.6884355608422454E-003   1.3827644872606015E-003   6.5242204152368310E-002
  -1.0594600875707162E-002   3.2924885061533238E-003   6.4389318053894681E-002
  -1.0300745954787943E-002   3.1557702698372797E-003   6.4153708453400266E-002
  -1.0006891033868722E-002   3.0223708291025539E-003   6.4075275852032487E-002
  -9.7130361129495087E-003   2.8922901839494568E-003   6.4154020249791360E-002
  -9.4191811920302827E-003   2.7655283343777926E-003   6.4389941646676815E-002
  -1.6016863632807712E-002   4.9387314810124538E-003   6.3709147101565777E-002
  -1.5560706947169670E-002   4.7336543122349431E-003   6.3399502587312209E-002
  -1.5104550261531626E-002   4.5335553727228438E-003   6.3257284603369657E-002
  -1.4648393575893575E-002   4.3384346624762279E-003   6.3282493149738092E-002
  -1.4192236890255529E-002   4.1482921814949697E-003   6.3475128226417557E-002
  -2.1522434581683042E-002   6.5849744558716949E-003   6.2959787499933251E-002
  -2.0893726600141771E-002   6.3115383546326898E-003   6.2577767505604537E-002
  -2.0265018618600517E-002   6.0447399163430504E-003   6.2373423572771258E-002
  -1.9636310637059257E-002   5.7845791410028671E-003   6.2346755701433360E-002
  -1.9007602655517986E-002   5.5310560286121468E-003   6.2497763891590952E-002
   3.3085895134732368E-012   6.4014343825746778E-010   6.6031915743492486E-002
   1.5013927601170707E-012   1.0347811496558279E-010   6.5876908770361731E-002
  -3.0580052379214351E-013  -2.6122644325443645E-010   6.5948553577278274E-002
  -2.1130007465952616E-012  -4.5396993456070511E-010   6.6246850164241880E-002
  -3.9201905610575238E-012  -4.7475245956718481E-010   6.6771798531252480E-002
  -4.6884355608422454E-003   1.3827644872606015E-003   6.5242204152368310E-002
  -4.4585448863868997E-003   1.3180767904944213E-003   6.5045989934843590E-002
  -4.2286542119315401E-003   1.2491167746225829E-003   6.5082905289796683E-002
  -3.9987635374761823E-003   1.1758844396448642E-003   6.5352950217227909E-002
  -3.7688728630208279E-003   1.0983797855615429E-003   6.5856124717137032E-002
  -9.4191811920302827E-003   2.7655283343777926E-003   6.4389941646676815E-002
  -8.9529220488815155E-003   2.6361534775106721E-003   6.4148247693691235E-002
  -8.4866629057327395E-003   2.4982338104712828E-003   6.4146161105614580E-002
  -8.0204037625839601E-003   2.3517693332594427E-003   6.4383681882446669E-002
  -7.5541446194351963E-003   2.1967600458755454E-003   6.4860810024187754E-002
  -1.4192236890255529E-002   4.1482921814949697E-003   6.3475128226417557E-002
  -1.3483131485982475E-002   3.9542301645269784E-003   6.3183682046904679E-002
  -1.2774026081709400E-002   3.7473508463202014E-003   6.3138321024731367E-002
  -1.2064920677436326E-002   3.5276542268742979E-003   6.3339045159897828E-002
  -1.1355815273163265E-002   3.2951403061896034E-003   6.3785854452404062E-002
  -1.9007602655517986E-002   5.5310560286121468E-003   6.2497763891590952E-002
  -1.8049173197689762E-002   5.2723068515432292E-003   6.2152292994483993E-002
  -1.7090743739861521E-002   4.9964678821690367E-003   6.2059385047147586E-002
  -1.6132314282033301E-002   4.7035391204888824E-003   6.2219040049581842E-002
  -1.5173884824205057E-002   4.3935205665035504E-003   6.2631258001786705E-002
  -3.9201905610575238E-012  -4.7475245956718481E-010   6.6771798531252480E-002
   4.0322120642422021E-012  -4.0787362376448755E-010   6.6687821388564106E-002
   1.1984625097882784E-011  -3.3763281059862038E-010   6.6829233102129793E-002
   1.9937031192629462E-011  -2.6402982578055401E-010   6.7196033671949623E-002
   2.7889440756823092E-011  -1.8706491911046896E-010   6.7788223098023570E-002
  -3.7688728630208279E-003   1.0983797855615429E-003   6.5856124717137032E-002
  -3.5477472465431682E-003   1.0184831785831072E-003   6.5751229637744879E-002
  -3.3266216300655120E-003   9.3807498492051722E-004   6.5863196919149020E-002
  -3.1054960135878506E-003   8.5715520457347455E-004   6.6192026561349426E-002
  -2.8843703971101892E-003   7.7572383754204166E-004   6.6737718564346404E-002
  -7.5541446194351963E-003   2.1967600458755454E-003   6.4860810024187754E-002
  -7.1204198898900759E-003   2.0369667650401158E-003   6.4734485418045301E-002
  -6.6866951603449555E-003   1.8761503074736785E-003   6.4816496677241431E-002
  -6.2529704307998212E-003   1.7143106731767749E-003   6.5106843801776185E-002
  -5.8192457012547147E-003   1.5514478621490579E-003   6.5605526791649382E-002
  -1.1355815273163265E-002   3.2951403061896034E-003   6.3785854452404062E-002
  -1.0718017926008469E-002   3.0554503514969855E-003   6.3637588729465178E-002
  -1.0080220578853678E-002   2.8142256300270341E-003   6.3689132376407095E-002
  -9.4424232316988946E-003   2.5714661417800752E-003   6.3940485393229662E-002
  -8.8046258845440994E-003   2.3271718867559910E-003   6.4391647779933073E-002
  -1.5173884824205057E-002   4.3935205665035504E-003   6.2631258001786705E-002
  -1.4340541354898387E-002   4.0739339379540218E-003   6.2460539572004981E-002
  -1.3507197885591720E-002   3.7523009525800843E-003   6.2481104016646027E-002
  -1.2673854416285055E-002   3.4286216103834657E-003   6.2692951335710151E-002
  -1.1840510946978383E-002   3.1028959113630350E-003   6.3096081529197323E-002
   2.7889440756823092E-011  -1.8706491911046896E-010   6.7788223098023570E-002
   2.0841051107112207E-011  -1.1692585788480869E-010   6.7846743972415358E-002
   1.3792661457401323E-011  -6.3801575134192490E-011   6.8144560438118673E-002
   6.7442787465843423E-012  -2.7690891246656690E-011   6.8681672495133517E-002
  -3.0411784202044601E-013  -8.5945695005307243E-012   6.9458080143459888E-002
  -2.8843703971101892E-003   7.7572383754204166E-004   6.6737718564346404E-002
  -2.6430256504524005E-003   6.9572094588504774E-004   6.6749467982197386E-002
  -2.4016809037946205E-003   6.1908659166164115E-004   6.7004611316149126E-002
  -2.1603361571368249E-003   5.4582077487149924E-004   6.7503148566201723E-002
  -1.9189914104790380E-003   4.7592349551472957E-004   6.8245079732354996E-002
  -5.8192457012547147E-003   1.5514478621490579E-003   6.5605526791649382E-002
  -5.3324578761015477E-003   1.3914420086964252E-003   6.5573873307407396E-002
  -4.8456700509483799E-003   1.2381732471247464E-003   6.5789712064055261E-002
  -4.3588822257952190E-003   1.0916415774339452E-003   6.6253043061593103E-002
  -3.8720944006420590E-003   9.5184699962408414E-004   6.6963866300020963E-002
  -8.8046258845440994E-003   2.3271718867559910E-003   6.4391647779933073E-002
  -8.0682966561063819E-003   2.0871630715076778E-003   6.4319959948045471E-002
  -7.3319674276686626E-003   1.8572599025879072E-003   6.4499862681836939E-002
  -6.5956381992309365E-003   1.6374623799964190E-003   6.4931355981307518E-002
  -5.8593089707932259E-003   1.4277705037334665E-003   6.5614439846457207E-002
  -1.1840510946978383E-002   3.1028959113630350E-003   6.3096081529197323E-002
  -1.0850541990466894E-002   2.7828841343189303E-003   6.2987727904111557E-002
  -9.8605730339554262E-003   2.4763465580510402E-003   6.3135063169494243E-002
  -8.8706040774439408E-003   2.1832831825586083E-003   6.3538087325345299E-002
  -7.8806351209324624E-003   1.9036940078427378E-003   6.4196800371664642E-002
  -3.0411784202044601E-013  -8.5945695005307243E-012   6.9458080143459888E-002
  -4.2771342023684156E-014   4.6407322429331543E-014   6.9273700155182194E-002
   2.1856821907917379E-013   4.7920278856139475E-012   6.9308453214508958E-002
   4.7991818852288759E-013   5.6408974713484383E-012   6.9562339321439931E-002
   7.4125428017879358E-013   2.5948132531539159E-012   7.0035358475974974E-002
  -1.9189914104790380E-003   4.7592349551472957E-004   6.8245079732354996E-002
  -1.6966359528176149E-003   4.2179642791612126E-004   6.8043896514978552E-002
  -1.4742804951561900E-003   3.9584124640035245E-004   6.8068291164797734E-002
  -1.2519250374947600E-003   3.9805795096742314E-004   6.8318263681812846E-002
  -1.0295695798333421E-003   4.2844654161711127E-004   6.8793814066023862E-002
  -3.8720944006420590E-003   9.5184699962408414E-004   6.6963866300020963E-002
  -3.4209386659890314E-003   8.4359285578550214E-004   6.6774051743524188E-002
  -2.9697829313359899E-003   7.9168248800857988E-004   6.6816259873814857E-002
  -2.5186271966829684E-003   7.9611589629328613E-004   6.7090490690892790E-002
  -2.0674714620299347E-003   8.5689308063952030E-004   6.7596744194758251E-002
  -5.8593089707932259E-003   1.4277705037334665E-003   6.5614439846457207E-002
  -5.1729081395570503E-003   1.2653892836549385E-003   6.5464165840819280E-002
  -4.4865073083208747E-003   1.1875237296169669E-003   6.5552359341559979E-002
  -3.8001064770846913E-003   1.1941738416191474E-003   6.5879020348679693E-002
  -3.1137056458485231E-003   1.2853396196619848E-003   6.6444148862178448E-002
  -7.8806351209324624E-003   1.9036940078427378E-003   6.4196800371664642E-002
  -6.9525443735216144E-003   1.6871857115245414E-003   6.4114238806863955E-002
  -6.0244536261107873E-003   1.5833649712251596E-003   6.4276589568033671E-002
  -5.0963628786999532E-003   1.5922317869453487E-003   6.4683852655174040E-002
  -4.1682721312891122E-003   1.7137861586843384E-003   6.5336028068284646E-002
   7.4125428017879358E-013   2.5948132531539159E-012   7.0035358475974974E-002
   6.3261201832531810E-013  -1.3176681967763670E-012   6.8696025150555284E-002
   5.2397669536574654E-013  -3.0657698601999073E-012   6.7502110923720882E-002
   4.1533963768269899E-013  -2.6492696925117798E-012   6.6453615795471654E-002
   3.0669911055269949E-013  -6.8389738316909643E-014   6.5550539765807825E-002
  -1.0295695798333421E-003   4.2844654161711127E-004   6.8793814066023862E-002
  -8.8722363195976872E-004   5.0188835528064413E-004   6.7472042569433455E-002
  -7.4487768408618843E-004   6.3326472888830532E-004   6.6289543870222317E-002
  -6.0253173621261247E-004   8.2257566244027525E-004   6.5246317968390685E-002
  -4.6018578833903478E-004   1.0698211559366788E-003   6.4342364863937851E-002
  -2.0674714620299347E-003   8.5689308063952030E-004   6.7596744194758251E-002
  -1.7889258673801055E-003   1.0037767118787622E-003   6.6350469084777347E-002
  -1.5103802727302884E-003   1.2665294608423805E-003   6.5237320470969556E-002
  -1.2318346780804579E-003   1.6451513275300422E-003   6.4257298353335129E-002
  -9.5328908343064213E-004   2.1396423119421915E-003   6.3410402731874149E-002
  -3.1137056458485231E-003   1.2853396196619848E-003   6.6444148862178448E-002
  -2.7051067056284095E-003   1.5056650684769773E-003   6.5331304696586726E-002
  -2.2965077654082816E-003   1.8997941927963446E-003   6.4345440725962474E-002
  -1.8879088251881572E-003   2.4677269926199202E-003   6.3486556950305528E-002
  -1.4793098849680401E-003   3.2094634679475931E-003   6.2754653369615929E-002
  -4.1682721312891122E-003   1.7137861586843384E-003   6.5336028068284646E-002
  -3.6357661467046540E-003   2.0075534250753035E-003   6.4414549404862131E-002
  -3.1032601621202097E-003   2.5330589247502810E-003   6.3613904635201113E-002
  -2.5707541775357532E-003   3.2903026577095137E-003   6.2934093759301452E-002
  -2.0382481929513072E-003   4.2792846239527726E-003   6.2375116777163120E-002
   3.0669911055269949E-013  -6.8389738316909643E-014   6.5550539765807825E-002
  -3.3054115000652473E-013   2.9474200857748656E-012   6.0808018801080777E-002
  -9.6776406333098919E-013   4.6698200861783334E-012   5.5946639491448513E-002
  -1.6049973849963095E-012   5.0975335064151750E-012   5.0966401836909647E-002
  -2.2422341761085818E-012   4.2312819914513966E-012   4.5867305837464123E-002
  -4.6018578833903478E-004   1.0698211559366788E-003   6.4342364863937851E-002
  -5.6493506527675874E-004   1.3952124160147017E-003   5.9630213947333477E-002
  -6.6968434221447229E-004   1.8189606493105859E-003   5.4827422823034211E-002
  -7.7443361915219538E-004   2.3410658558251501E-003   4.9933991491040136E-002
  -8.7918289608990979E-004   2.9615280355577145E-003   4.4949919951351003E-002
  -9.5328908343064213E-004   2.1396423119421915E-003   6.3410402731874149E-002
  -1.1345694994574513E-003   2.7904248290817613E-003   5.8826978837903998E-002
  -1.3158499154842665E-003   3.6379212939522398E-003   5.4181132873450222E-002
  -1.4971303315110896E-003   4.6821317065529888E-003   4.9472864838512848E-002
  -1.6784107475378771E-003   5.9230560668843690E-003   4.4702174733092459E-002
  -1.4793098849680401E-003   3.2094634679475931E-003   6.2754653369615929E-002
  -1.7089033028725863E-003   4.1856372421488208E-003   5.8398313472792104E-002
  -1.9384967207771184E-003   5.4568819385931167E-003   5.4007769642696629E-002
  -2.1680901386816713E-003   7.0231975572802724E-003   4.9583021879328892E-002
  -2.3976835565861967E-003   8.8845840982109126E-003   4.5124070182689602E-002
  -2.0382481929513072E-003   4.2792846239527726E-003   6.2375116777163120E-002
  -2.2879364755221884E-003   5.5808496552162135E-003   5.8344217851998392E-002
  -2.5376247580930593E-003   7.2758425832348261E-003   5.4307333130773405E-002
  -2.7873130406639336E-003   9.3642634080084303E-003   5.0264462613487493E-002
  -3.0370013232348114E-003   1.1846112129537456E-002   4.6215606300140877E-002
  -2.6722269931008083E-002   7.3023281803711870E-003   6.6045515833638546E-002
  -2.5422311093676826E-002   7.1960521254378906E-003   6.4407427239260573E-002
  -2.4122352256345569E-002   7.0410678197101589E-003   6.3347109652183570E-002
  -2.2822393419014299E-002   6.8373752631880926E-003   6.2864563072407773E-002
  -2.1522434581683042E-002   6.5849744558716949E-003   6.2959787499933251E-002
  -3.4124218897122693E-002   9.2143468281251639E-003   6.0409557109784129E-002
  -3.2344567700962244E-002   9.0038924964160327E-003   5.9547370433931157E-002
  -3.0564916504801795E-002   8.7646671180846708E-003   5.9066797468435461E-002
  -2.8785265308641332E-002   8.4966706931308249E-003   5.8967838213297000E-002
  -2.7005614112480900E-002   8.1999032215548107E-003   5.9250492668515703E-002
  -4.0613447647531851E-002   1.1126365475879085E-002   5.4659451507067705E-002
  -3.8550261389486126E-002   1.0811732867394203E-002   5.4593103953912078E-002
  -3.6487075131440380E-002   1.0488266416459065E-002   5.4712212814169540E-002
  -3.4423888873394655E-002   1.0155966123073583E-002   5.5016778087840487E-002
  -3.2360702615348909E-002   9.8148319872378709E-003   5.5506799774924717E-002
  -4.6189956182235495E-002   1.3038384123633021E-002   4.8795199025489622E-002
  -4.4039392159248451E-002   1.2619573238372428E-002   4.9544627799203170E-002
  -4.1888828136261338E-002   1.2211865714833434E-002   5.0283355689386022E-002
  -3.9738264113274267E-002   1.1815261553016355E-002   5.1011382696038297E-002
  -3.7587700090287182E-002   1.1429760752920931E-002   5.1728708819159912E-002
  -5.0853744501233755E-002   1.4950402771386984E-002   4.2816799665049754E-002
  -4.8811960010249261E-002   1.4427413609350515E-002   4.4401941969804515E-002
  -4.6770175519264712E-002   1.3935465013207943E-002   4.5780226094084775E-002
  -4.4728391028280162E-002   1.3474556982959039E-002   4.6951652037890479E-002
  -4.2686606537295640E-002   1.3044689518604102E-002   4.7916219801221682E-002
  -2.1522434581683042E-002   6.5849744558716949E-003   6.2959787499933251E-002
  -2.0893726600141771E-002   6.3115383546326898E-003   6.2577767505604537E-002
  -2.0265018618600517E-002   6.0447399163430504E-003   6.2373423572771258E-002
  -1.9636310637059257E-002   5.7845791410028671E-003   6.2346755701433360E-002
  -1.9007602655517986E-002   5.5310560286121468E-003   6.2497763891590952E-002
  -2.7005614112480900E-002   8.1999032215548107E-003   5.9250492668515703E-002
  -2.6208619502510473E-002   7.8870916118773809E-003   5.8988834485735150E-002
  -2.5411624892540098E-002   7.5709627726196424E-003   5.8886073498317357E-002
  -2.4614630282569692E-002   7.2515167037818778E-003   5.8942209706262370E-002
  -2.3817635672599306E-002   6.9287534053636968E-003   5.9157243109570268E-002
  -3.2360702615348909E-002   9.8148319872378709E-003   5.5506799774924717E-002
  -3.1414200243081988E-002   9.4626448691220028E-003   5.5355548511162471E-002
  -3.0467697870815050E-002   9.0971856288962899E-003   5.5344415576630585E-002
  -2.9521195498548120E-002   8.7184542665606664E-003   5.5473400971328961E-002
  -2.8574693126281199E-002   8.3264507821152467E-003   5.5742504695257433E-002
  -3.7587700090287182E-002   1.1429760752920931E-002   5.1728708819159912E-002
  -3.6510468821856275E-002   1.1038198126366743E-002   5.1677909581886644E-002
  -3.5433237553425395E-002   1.0623408485172910E-002   5.1748449807710942E-002
  -3.4356006284994502E-002   1.0185391829339622E-002   5.1940329496633041E-002
  -3.3278775016563608E-002   9.7241481588667411E-003   5.2253548648652649E-002
  -4.2686606537295640E-002   1.3044689518604102E-002   4.7916219801221682E-002
  -4.1497425238833374E-002   1.2613751383611371E-002   4.7955917697907552E-002
  -4.0308243940371108E-002   1.2149631341449543E-002   4.8098176191558428E-002
  -3.9119062641908842E-002   1.1652329392118386E-002   4.8342995282174381E-002
  -3.7929881343446575E-002   1.1121845535618402E-002   4.8690374969755479E-002
  -1.9007602655517986E-002   5.5310560286121468E-003   6.2497763891590952E-002
  -1.8049173197689762E-002   5.2723068515432292E-003   6.2152292994483993E-002
  -1.7090743739861521E-002   4.9964678821690367E-003   6.2059385047147586E-002
  -1.6132314282033301E-002   4.7035391204888824E-003   6.2219040049581842E-002
  -1.5173884824205057E-002   4.3935205665035504E-003   6.2631258001786705E-002
  -2.3817635672599306E-002   6.9287534053636968E-003   5.9157243109570268E-002
  -2.2615879717565981E-002   6.5981417520097896E-003   5.8840776686998664E-002
  -2.1414123762532634E-002   6.2551506183639860E-003   5.8758400309066761E-002
  -2.0212367807499305E-002   5.8997800044265566E-003   5.8910113975774434E-002
  -1.9010611852465942E-002   5.5320299101977444E-003   5.9295917687121558E-002
  -2.8574693126281199E-002   8.3264507821152467E-003   5.5742504695257433E-002
  -2.7148083579173754E-002   7.9239766524760724E-003   5.5459753059235201E-002
  -2.5721474032066295E-002   7.5138333545590880E-003   5.5392618562721457E-002
  -2.4294864484958836E-002   7.0960208883643940E-003   5.5541101205716432E-002
  -2.2868254937851391E-002   6.6705392538919384E-003   5.5905200988219855E-002
  -3.3278775016563608E-002   9.7241481588667411E-003   5.2253548648652649E-002
  -3.1645784782513037E-002   9.2498115529424940E-003   5.2009222111193402E-002
  -3.0012794548462472E-002   8.7725160907541691E-003   5.1962039808111871E-002
  -2.8379804314411890E-002   8.2922617723018722E-003   5.2112001739408019E-002
  -2.6746814080361312E-002   7.8090485975859103E-003   5.2459107905081702E-002
  -3.7929881343446575E-002   1.1121845535618402E-002   4.8690374969755479E-002
  -3.6108983327583888E-002   1.0575646453408916E-002   4.8489183842873429E-002
  -3.4288085311721186E-002   1.0031198826949195E-002   4.8466664045237917E-002
  -3.2467187295858499E-002   9.4885026562396974E-003   4.8622815576849054E-002
  -3.0646289279995798E-002   8.9475579412802708E-003   4.8957638437706785E-002
  -1.5173884824205057E-002   4.3935205665035504E-003   6.2631258001786705E-002
  -1.4340541354898387E-002   4.0739339379540218E-003   6.2460539572004981E-002
  -1.3507197885591720E-002   3.7523009525800843E-003   6.2481104016646027E-002
  -1.2673854416285055E-002   3.4286216103834657E-003   6.2692951335710151E-002
  -1.1840510946978383E-002   3.1028959113630350E-003   6.3096081529197323E-002
  -1.9010611852465942E-002   5.5320299101977444E-003   5.9295917687121558E-002
  -1.7986099032144681E-002   5.1555363474565796E-003   5.9100592770028548E-002
  -1.6961586211823424E-002   4.7739353279820373E-003   5.9096323680541768E-002
  -1.5937073391502146E-002   4.3872268517746310E-003   5.9283110418661258E-002
  -1.4912560571180879E-002   3.9954109188342635E-003   5.9660952984386895E-002
  -2.2868254937851391E-002   6.6705392538919384E-003   5.5905200988219855E-002
  -2.1652799813332256E-002   6.2371387569592762E-003   5.5682208483906148E-002
  -2.0437344688813138E-002   5.7955697033838655E-003   5.5650044760381920E-002
  -1.9221889564294003E-002   5.3458320931660148E-003   5.5808709817647038E-002
  -1.8006434439774885E-002   4.8879259263052699E-003   5.6158203655701816E-002
  -2.6746814080361312E-002   7.8090485975859103E-003   5.2459107905081702E-002
  -2.5340643698461111E-002   7.3187411664620144E-003   5.2205386713637600E-002
  -2.3934473316560893E-002   6.8172040787856450E-003   5.2142267256166219E-002
  -2.2528302934660654E-002   6.3044373345571229E-003   5.2269749532667407E-002
  -2.1122132552760447E-002   5.7804409337763318E-003   5.2587833543141525E-002
  -3.0646289279995798E-002   8.9475579412802708E-003   4.8957638437706785E-002
  -2.9049630687531233E-002   8.4003435759646972E-003   4.8670127459222834E-002
  -2.7452972095066655E-002   7.8388384541876049E-003   4.8572991167894791E-002
  -2.5856313502602070E-002   7.2630425759484980E-003   4.8666229563722643E-002
  -2.4259654910137513E-002   6.6729559412475048E-003   4.8949842646706432E-002
  -1.1840510946978383E-002   3.1028959113630350E-003   6.3096081529197323E-002
  -1.0850541990466894E-002   2.7828841343189303E-003   6.2987727904111557E-002
  -9.8605730339554262E-003   2.4763465580510402E-003   6.3135063169494243E-002
  -8.8706040774439408E-003   2.1832831825586083E-003   6.3538087325345299E-002
  -7.8806351209324624E-003   1.9036940078427378E-003   6.4196800371664642E-002
  -1.4912560571180879E-002   3.9954109188342635E-003   5.9660952984386895E-002
  -1.3680205751686637E-002   3.6057984454508363E-003   5.9528966375735792E-002
  -1.2447850932192382E-002   3.2257003479145008E-003   5.9626062602581770E-002
  -1.1215496112698125E-002   2.8551166262254582E-003   5.9952241664924855E-002
  -9.9831412932038822E-003   2.4940472803838265E-003   6.0507503562765297E-002
  -1.8006434439774885E-002   4.8879259263052699E-003   5.6158203655701816E-002
  -1.6558299812269060E-002   4.4287127565825202E-003   5.5998624238556310E-002
  -1.5110165184763236E-002   3.9750541377783083E-003   5.6041521601936886E-002
  -1.3662030557257426E-002   3.5269500698923671E-003   5.6286895745843286E-002
  -1.2213895929751587E-002   3.0844005529249152E-003   5.6734746670275893E-002
  -2.1122132552760447E-002   5.7804409337763318E-003   5.2587833543141525E-002
  -1.9484824172214203E-002   5.2516270677143706E-003   5.2396701492573132E-002
  -1.7847515791667996E-002   4.7244079276419979E-003   5.2381440167559468E-002
  -1.6210207411121787E-002   4.1987835135591355E-003   5.2542049568100338E-002
  -1.4572899030575542E-002   3.6747538254659484E-003   5.2878529694196423E-002
  -2.4259654910137513E-002   6.6729559412475048E-003   4.8949842646706432E-002
  -2.2459778831522073E-002   6.0745413788461655E-003   4.8723198137786139E-002
  -2.0659902752906648E-002   5.4737617175056041E-003   4.8645818299449362E-002
  -1.8860026674291201E-002   4.8706169572261329E-003   4.8717703131696322E-002
  -1.7060150595675783E-002   4.2651070980069816E-003   4.8938852634526686E-002
  -7.8806351209324624E-003   1.9036940078427378E-003   6.4196800371664642E-002
  -6.9525443735216144E-003   1.6871857115245414E-003   6.4114238806863955E-002
  -6.0244536261107873E-003   1.5833649712251596E-003   6.4276589568033671E-002
  -5.0963628786999532E-003   1.5922317869453487E-003   6.4683852655174040E-002
  -4.1682721312891122E-003   1.7137861586843384E-003   6.5336028068284646E-002
  -9.9831412932038822E-003   2.4940472803838265E-003   6.0507503562765297E-002
  -8.8082367395927938E-003   2.1938914779835450E-003   6.0411095147445693E-002
  -7.6333321859816793E-003   2.0060483866192469E-003   6.0563402018556062E-002
  -6.4584276323705779E-003   1.9305180062902730E-003   6.0964424176096474E-002
  -5.2835230787594764E-003   1.9673003369969910E-003   6.1614161620067165E-002
  -1.2213895929751587E-002   3.0844005529249152E-003   5.6734746670275893E-002
  -1.0788374609480577E-002   2.7005972444427984E-003   5.6624116559453680E-002
  -9.3628532892094836E-003   2.4287318020129872E-003   5.6766004695521330E-002
  -7.9373319689384457E-003   2.2688042256349718E-003   5.7160411078478794E-002
  -6.5118106486673818E-003   2.2208145153095882E-003   5.7807335708326052E-002
  -1.4572899030575542E-002   3.6747538254659484E-003   5.2878529694196423E-002
  -1.2892957983184879E-002   3.2073030109022044E-003   5.2753303042888271E-002
  -1.1213016935794190E-002   2.8514152174066790E-003   5.2884397598929433E-002
  -9.5330758884035107E-003   2.6070904449800054E-003   5.3271813362319911E-002
  -7.8531348410128352E-003   2.4743286936222131E-003   5.3915550333060135E-002
  -1.7060150595675783E-002   4.2651070980069816E-003   4.8938852634526686E-002
  -1.5121986860705788E-002   3.7140087773609443E-003   4.8798654597748903E-002
  -1.3183823125735780E-002   3.2740986328007871E-003   4.8918580728780359E-002
  -1.1245659390765786E-002   2.9453766643247545E-003   4.9298631027621082E-002
  -9.3074956557957778E-003   2.7278428719348380E-003   4.9938805494270655E-002
  -4.1682721312891122E-003   1.7137861586843384E-003   6.5336028068284646E-002
  -3.6357661467046540E-003   2.0075534250753035E-003   6.4414549404862131E-002
  -3.1032601621202097E-003   2.5330589247502810E-003   6.3613904635201113E-002
  -2.5707541775357532E-003   3.2903026577095137E-003   6.2934093759301452E-002
  -2.0382481929513072E-003   4.2792846239527726E-003   6.2375116777163120E-002
  -5.2835230787594764E-003   1.9673003369969910E-003   6.1614161620067165E-002
  -4.6045547217363446E-003   2.2232169289602144E-003   6.0884121835265370E-002
  -3.9255863647132128E-003   2.8050893324005621E-003   6.0326172901579489E-002
  -3.2466180076900410E-003   3.7129175473180134E-003   5.9940314819009521E-002
  -2.5676496506669214E-003   4.9467015737127973E-003   5.9726547587555801E-002
  -6.5118106486673818E-003   2.2208145153095882E-003   5.7807335708326052E-002
  -5.6351229618508639E-003   2.4388804328450697E-003   5.7362952380337506E-002
  -4.7584352750343869E-003   3.0771197400509681E-003   5.7141916860819778E-002
  -3.8817475882179050E-003   4.1355324369268497E-003   5.7144229149772720E-002
  -3.0050599014013919E-003   5.6141185234730440E-003   5.7369889247196215E-002
  -7.8531348410128352E-003   2.4743286936222131E-003   5.3915550333060135E-002
  -6.7274708670483404E-003   2.6545439367302859E-003   5.3851041040078533E-002
  -5.6018068930838187E-003   3.3491501477013672E-003   5.4061136512921784E-002
  -4.4761429191192839E-003   4.5581473265356286E-003   5.4545836751590734E-002
  -3.3504789451548030E-003   6.2815354732330686E-003   5.5305141756084850E-002
  -9.3074956557957778E-003   2.7278428719348380E-003   4.9938805494270655E-002
  -7.8815984373285936E-003   2.8702074406147804E-003   5.0348387814488360E-002
  -6.4557012188614232E-003   3.6211805553516552E-003   5.1083831857886008E-002
  -5.0298040003942390E-003   4.9807622161441301E-003   5.2145137624463545E-002
  -3.6039067819270687E-003   6.9489524229933153E-003   5.3532305114221357E-002
  -2.0382481929513072E-003   4.2792846239527726E-003   6.2375116777163120E-002
  -2.2879364755221884E-003   5.5808496552162135E-003   5.8344217851998392E-002
  -2.5376247580930593E-003   7.2758425832348261E-003   5.4307333130773405E-002
  -2.7873130406639336E-003   9.3642634080084303E-003   5.0264462613487493E-002
  -3.0370013232348114E-003   1.1846112129537456E-002   4.6215606300140877E-002
  -2.5676496506669214E-003   4.9467015737127973E-003   5.9726547587555801E-002
  -2.8407177844508129E-003   6.5705138260978568E-003   5.6194010082849299E-002
  -3.1137859182347426E-003   8.6484267189856356E-003   5.2620698671776989E-002
  -3.3868540520186653E-003   1.1180440252376730E-002   4.9006613354339479E-002
  -3.6599221858025360E-003   1.4166554426270572E-002   4.5351754130536381E-002
  -3.0050599014013919E-003   5.6141185234730440E-003   5.7369889247196215E-002
  -3.3362959967031570E-003   7.5601779969796667E-003   5.4396385906695321E-002
  -3.6675320920048649E-003   1.0021010854737028E-002   5.1347320549523928E-002
  -3.9987681873065737E-003   1.2996617096745038E-002   4.8222693175682646E-002
  -4.3300042826083657E-003   1.6486996723003688E-002   4.5022503785170920E-002
  -3.3504789451548030E-003   6.2815354732330686E-003   5.5305141756084850E-002
  -3.7746711122791108E-003   8.5498421678613934E-003   5.2951345323536930E-002
  -4.1988632794034315E-003   1.1393594990488240E-002   5.0487198764014009E-002
  -4.6230554465277462E-003   1.4812793941113563E-002   4.7912702077516078E-002
  -5.0472476136520323E-003   1.8807439019736694E-002   4.5227855264043576E-002
  -3.6039067819270687E-003   6.9489524229933153E-003   5.3532305114221357E-002
  -4.1558431311787547E-003   9.5395063387432311E-003   5.1858888333374265E-002
  -4.7077794804304407E-003   1.2766179126239396E-002   5.0040333315247598E-002
  -5.2597158296820920E-003   1.6628970785481687E-002   4.8076640059841136E-002
  -5.8116521789338127E-003   2.1127881316469921E-002   4.5967808567155100E-002
  -5.0853744501233755E-002   1.4950402771386984E-002   4.2816799665049754E-002
  -4.8811960010249261E-002   1.4427413609350515E-002   4.4401941969804515E-002
  -4.6770175519264712E-002   1.3935465013207943E-002   4.5780226094084775E-002
  -4.4728391028280162E-002   1.3474556982959039E-002   4.6951652037890479E-002
  -4.2686606537295640E-002   1.3044689518604102E-002   4.7916219801221682E-002
  -5.6072873197565570E-002   1.6813663127991874E-002   4.3797887320828899E-002
  -5.4019067778969698E-002   1.6306654291979000E-002   4.3591579400494768E-002
  -5.1965262360373896E-002   1.5794748164468186E-002   4.3616171515857810E-002
  -4.9911456941777989E-002   1.5277944745459543E-002   4.3871663666918054E-002
  -4.7857651523182144E-002   1.4756244034953125E-002   4.4358055853675499E-002
  -6.3315402864270148E-002   1.8676923484596791E-002   4.4812924231327211E-002
  -6.0811818301891231E-002   1.8185894974607375E-002   4.2779228228512572E-002
  -5.8308233739512272E-002   1.7654031315728444E-002   4.1414190477566781E-002
  -5.5804649177133396E-002   1.7081332507960106E-002   4.0717810978490011E-002
  -5.3301064614754506E-002   1.6467798551302232E-002   4.0690089731282089E-002
  -7.2581333501347323E-002   2.0540183841201709E-002   4.5861910396544796E-002
  -6.9190211579013741E-002   2.0065135657235778E-002   4.1964888453858096E-002
  -6.5799089656680063E-002   1.9513314466988681E-002   3.9174282979211952E-002
  -6.2407967734346377E-002   1.8884720270460613E-002   3.7490093972606421E-002
  -5.9016845812012698E-002   1.8179353067651241E-002   3.6912321434041537E-002
  -8.3870665108797371E-002   2.2403444197806599E-002   4.6944845816481895E-002
  -7.9154247610337208E-002   2.1944376339864180E-002   4.1148560076531282E-002
  -7.4437830111877046E-002   2.1372597618248959E-002   3.6896449020793115E-002
  -6.9721412613416855E-002   2.0688108032961120E-002   3.4188512649267158E-002
  -6.5004995114956721E-002   1.9890907584000417E-002   3.3024750961953675E-002
  -4.2686606537295640E-002   1.3044689518604102E-002   4.7916219801221682E-002
  -4.1497425238833374E-002   1.2613751383611371E-002   4.7955917697907552E-002
  -4.0308243940371108E-002   1.2149631341449543E-002   4.8098176191558428E-002
  -3.9119062641908842E-002   1.1652329392118386E-002   4.8342995282174381E-002
  -3.7929881343446575E-002   1.1121845535618402E-002   4.8690374969755479E-002
  -4.7857651523182144E-002   1.4756244034953125E-002   4.4358055853675499E-002
  -4.6547889655834146E-002   1.4227352365154586E-002   4.4122072349468425E-002
  -4.5238127788486168E-002   1.3688976068269673E-002   4.4024689386067656E-002
  -4.3928365921138184E-002   1.3141115144298634E-002   4.4065906963473150E-002
  -4.2618604053790199E-002   1.2583769593241201E-002   4.4245725081685117E-002
  -5.3301064614754506E-002   1.6467798551302232E-002   4.0690089731282089E-002
  -5.1834682234679540E-002   1.5840953346697856E-002   4.0202122106264879E-002
  -5.0368299854604587E-002   1.5228320795090074E-002   3.9888794965895237E-002
  -4.8901917474529634E-002   1.4629900896478714E-002   3.9750108310173227E-002
  -4.7435535094454667E-002   1.4045693650863861E-002   3.9786062139098799E-002
  -5.9016845812012698E-002   1.8179353067651241E-002   3.6912321434041537E-002
  -5.7357802975369493E-002   1.7454554328241154E-002   3.6196066968296983E-002
  -5.5698760138726280E-002   1.6767665521910450E-002   3.5690492931041283E-002
  -5.4039717302083116E-002   1.6118686648658821E-002   3.5395599322274492E-002
  -5.2380674465439904E-002   1.5507617708486618E-002   3.5311386141996526E-002
  -6.5004995114956721E-002   1.9890907584000417E-002   3.3024750961953675E-002
  -6.3117251877904040E-002   1.9068155309784396E-002   3.2103906935564724E-002
  -6.1229508640851318E-002   1.8307010248730604E-002   3.1429783281505780E-002
  -5.9341765403798631E-002   1.7607472400838764E-002   3.1002379999776938E-002
  -5.7454022166745944E-002   1.6969541766109264E-002   3.0821697090378297E-002
  -3.7929881343446575E-002   1.1121845535618402E-002   4.8690374969755479E-002
  -3.6108983327583888E-002   1.0575646453408916E-002   4.8489183842873429E-002
  -3.4288085311721186E-002   1.0031198826949195E-002   4.8466664045237917E-002
  -3.2467187295858499E-002   9.4885026562396974E-003   4.8622815576849054E-002
  -3.0646289279995798E-002   8.9475579412802708E-003   4.8957638437706785E-002
  -4.2618604053790199E-002   1.2583769593241201E-002   4.4245725081685117E-002
  -4.0607451543572946E-002   1.2015568010742772E-002   4.3922670799567354E-002
  -3.8596299033355652E-002   1.1435138992448454E-002   4.3801454176912169E-002
  -3.6585146523138400E-002   1.0842482538358882E-002   4.3882075213719507E-002
  -3.4573994012921105E-002   1.0237598648473512E-002   4.4164533909989367E-002
  -4.7435535094454667E-002   1.4045693650863861E-002   3.9786062139098799E-002
  -4.5210961759666879E-002   1.3455489568076628E-002   3.9327165810199710E-002
  -4.2986388424879118E-002   1.2839079157948047E-002   3.9093273470979115E-002
  -4.0761815090091372E-002   1.2196462420478123E-002   3.9084385121436895E-002
  -3.8537241755303618E-002   1.1527639355666891E-002   3.9300500761573112E-002
  -5.2380674465439904E-002   1.5507617708486618E-002   3.5311386141996526E-002
  -4.9919513975865755E-002   1.4895411125410429E-002   3.4702668874770387E-002
  -4.7458353486291620E-002   1.4243019323447417E-002   3.4342121927438678E-002
  -4.4997192996717450E-002   1.3550442302597280E-002   3.4229745300001266E-002
  -4.2536032507143336E-002   1.2817680062860368E-002   3.4365538992458214E-002
  -5.7454022166745944E-002   1.6969541766109264E-002   3.0821697090378297E-002
  -5.4733108192169505E-002   1.6335332682744508E-002   3.0049179993279496E-002
  -5.2012194217593066E-002   1.5646959488946913E-002   2.9547999546291004E-002
  -4.9291280243016627E-002   1.4904422184716579E-002   2.9318155749412669E-002
  -4.6570366268440189E-002   1.4107720770053622E-002   2.9359648602644728E-002
  -3.0646289279995798E-002   8.9475579412802708E-003   4.8957638437706785E-002
  -2.9049630687531233E-002   8.4003435759646972E-003   4.8670127459222834E-002
  -2.7452972095066655E-002   7.8388384541876049E-003   4.8572991167894791E-002
  -2.5856313502602070E-002   7.2630425759484980E-003   4.8666229563722643E-002
  -2.4259654910137513E-002   6.6729559412475048E-003   4.8949842646706432E-002
  -3.4573994012921105E-002   1.0237598648473512E-002   4.4164533909989367E-002
  -3.2799218752387532E-002   9.6241682959523622E-003   4.3819643779992312E-002
  -3.1024443491853973E-002   9.0058724539555934E-003   4.3640612298977310E-002
  -2.9249668231320435E-002   8.3827111224828513E-003   4.3627439466944376E-002
  -2.7474892970786841E-002   7.7546843015343647E-003   4.3780125283893467E-002
  -3.8537241755303618E-002   1.1527639355666891E-002   3.9300500761573112E-002
  -3.6608865864874982E-002   1.0847993015940166E-002   3.8907656747049157E-002
  -3.4680489974446338E-002   1.0172906453723797E-002   3.8656155343333269E-002
  -3.2752114084017743E-002   9.5023796690173138E-003   3.8545996550425510E-002
  -3.0823738193589099E-002   8.8364126618213357E-003   3.8577180368325831E-002
  -4.2536032507143336E-002   1.2817680062860368E-002   3.4365538992458214E-002
  -4.0478572024993581E-002   1.2071817735928067E-002   3.3934166360393356E-002
  -3.8421111542843826E-002   1.1339940453491838E-002   3.3619620300962549E-002
  -3.6363651060694113E-002   1.0622048215551832E-002   3.3421900814165906E-002
  -3.4306190578544331E-002   9.9181410221083066E-003   3.3341007900003543E-002
  -4.6570366268440189E-002   1.4107720770053622E-002   2.9359648602644728E-002
  -4.4408337232743234E-002   1.3295642455915690E-002   2.8899172620024949E-002
  -4.2246308197046362E-002   1.2506974453259906E-002   2.8531007171865352E-002
  -4.0084279161349434E-002   1.1741716762086220E-002   2.8255152258166022E-002
  -3.7922250125652535E-002   1.0999869382395167E-002   2.8071607878926930E-002
  -2.4259654910137513E-002   6.6729559412475048E-003   4.8949842646706432E-002
  -2.2459778831522073E-002   6.0745413788461655E-003   4.8723198137786139E-002
  -2.0659902752906648E-002   5.4737617175056041E-003   4.8645818299449362E-002
  -1.8860026674291201E-002   4.8706169572261329E-003   4.8717703131696322E-002
  -1.7060150595675783E-002   4.2651070980069816E-003   4.8938852634526686E-002
  -2.7474892970786841E-002   7.7546843015343647E-003   4.3780125283893467E-002
  -2.5521363622269026E-002   7.1236469324466034E-003   4.3422501859267881E-002
  -2.3567834273751261E-002   6.4914539565566198E-003   4.3222920303863571E-002
  -2.1614304925233439E-002   5.8581053738636160E-003   4.3181380617680412E-002
  -1.9660775576715681E-002   5.2236011843683761E-003   4.3297882800718113E-002
  -3.0823738193589099E-002   8.8364126618213357E-003   3.8577180368325831E-002
  -2.8707778376531469E-002   8.1727524860474576E-003   3.8089787520131868E-002
  -2.6591818559473835E-002   7.5091461956073996E-003   3.7769213739796456E-002
  -2.4475858742416201E-002   6.8455937905015397E-003   3.7615459027319671E-002
  -2.2359898925358626E-002   6.1820952707294929E-003   3.7628523382701506E-002
  -3.4306190578544331E-002   9.9181410221083066E-003   3.3341007900003543E-002
  -3.2019023094309401E-002   9.2218580396481037E-003   3.2725055120377683E-002
  -2.9731855610074437E-002   8.5268384346582973E-003   3.2284698607247739E-002
  -2.7444688125839459E-002   7.8330822071393542E-003   3.2019938360614113E-002
  -2.5157520641604543E-002   7.1405893570908041E-003   3.1930774380476264E-002
  -3.7922250125652535E-002   1.0999869382395167E-002   2.8071607878926930E-002
  -3.5455097775602740E-002   1.0270963593248805E-002   2.7328304660005409E-002
  -3.2987945425553028E-002   9.5445306737091951E-003   2.6769374906217724E-002
  -3.0520793075503289E-002   8.8205706237770021E-003   2.6394818617563709E-002
  -2.8053640725453521E-002   8.0990834434518932E-003   2.6204635794042863E-002
  -1.7060150595675783E-002   4.2651070980069816E-003   4.8938852634526686E-002
  -1.5121986860705788E-002   3.7140087773609443E-003   4.8798654597748903E-002
  -1.3183823125735780E-002   3.2740986328007871E-003   4.8918580728780359E-002
  -1.1245659390765786E-002   2.9453766643247545E-003   4.9298631027621082E-002
  -9.3074956557957778E-003   2.7278428719348380E-003   4.9938805494270655E-002
  -1.9660775576715681E-002   5.2236011843683761E-003   4.3297882800718113E-002
  -1.7502171594859346E-002   4.6239282964345985E-003   4.3110505668420285E-002
  -1.5343567613002984E-002   4.0950736184276748E-003   4.3103884862086050E-002
  -1.3184963631146650E-002   3.6370371503468071E-003   4.3278020381715299E-002
  -1.1026359649290288E-002   3.2498188921923354E-003   4.3632912227307974E-002
  -2.2359898925358626E-002   6.1820952707294929E-003   3.7628523382701506E-002
  -2.0060222538461604E-002   5.5338478155081972E-003   3.7353597188724663E-002
  -1.7760546151564555E-002   4.9160486040546875E-003   3.7180059478865782E-002
  -1.5460869764667540E-002   4.3286976363684192E-003   3.7107910253124647E-002
  -1.3161193377770490E-002   3.7717949124499439E-003   3.7137149511501599E-002
  -2.5157520641604543E-002   7.1405893570908041E-003   3.1930774380476264E-002
  -2.2796139691512431E-002   6.4437673345817681E-003   3.1527929158661781E-002
  -2.0434758741420381E-002   5.7370235896815822E-003   3.1147104579119563E-002
  -1.8073377791328359E-002   5.0203581223902515E-003   3.0788300641849634E-002
  -1.5711996841236222E-002   4.2937709327075524E-003   3.0451517346851670E-002
  -2.8053640725453521E-002   8.0990834434518932E-003   2.6204635794042863E-002
  -2.5709923054012096E-002   7.3536868536553390E-003   2.5633501578231854E-002
  -2.3366205382570615E-002   6.5579985753086989E-003   2.5005020162847447E-002
  -2.1022487711129148E-002   5.7120186084120006E-003   2.4319191547889640E-002
  -1.8678770039687709E-002   4.8157469529651609E-003   2.3576015733358213E-002
  -9.3074956557957778E-003   2.7278428719348380E-003   4.9938805494270655E-002
  -7.8815984373285936E-003   2.8702074406147804E-003   5.0348387814488360E-002
  -6.4557012188614232E-003   3.6211805553516552E-003   5.1083831857886008E-002
  -5.0298040003942390E-003   4.9807622161441301E-003   5.2145137624463545E-002
  -3.6039067819270687E-003   6.9489524229933153E-003   5.3532305114221357E-002
  -1.1026359649290288E-002   3.2498188921923354E-003   4.3632912227307974E-002
  -9.2562229468734353E-003   3.1736546393403287E-003   4.4224851746676785E-002
  -7.4860862444565759E-003   3.6487801871656900E-003   4.5179408510765157E-002
  -5.7159495420396923E-003   4.6751955356694880E-003   4.6496582519572824E-002
  -3.9458128396228642E-003   6.2529006848515145E-003   4.8176373773099579E-002
  -1.3161193377770490E-002   3.7717949124499439E-003   3.7137149511501599E-002
  -1.1010061669864565E-002   3.4771018380649055E-003   3.7854127484643424E-002
  -8.8589299619586150E-003   3.6763798189799468E-003   3.8970478224044119E-002
  -6.7077982540526757E-003   4.3696288551950679E-003   4.0486201729703519E-002
  -4.5566665461467398E-003   5.5568489467101578E-003   4.2401298001621568E-002
  -1.5711996841236222E-002   4.2937709327075524E-003   3.0451517346851670E-002
  -1.3143114606301895E-002   3.7805490367903566E-003   3.1236215028388484E-002
  -1.0574232371367539E-002   3.7039794507942037E-003   3.2457040997723799E-002
  -8.0053501364331509E-003   4.0640621747207589E-003   3.4113995254856831E-002
  -5.4364679014987961E-003   4.8607972085686901E-003   3.6207077799788212E-002
  -1.8678770039687709E-002   4.8157469529651609E-003   2.3576015733358213E-002
  -1.5655381756185527E-002   4.0839962355149195E-003   2.4371114377911840E-002
  -1.2631993472683345E-002   3.7315790826083217E-003   2.5639096831803154E-002
  -9.6086051891811630E-003   3.7584954942457491E-003   2.7379963095031767E-002
  -6.5852169056789811E-003   4.1647454704270004E-003   2.9593713167597846E-002
  -3.6039067819270687E-003   6.9489524229933153E-003   5.3532305114221357E-002
  -4.1558431311787547E-003   9.5395063387432311E-003   5.1858888333374265E-002
  -4.7077794804304407E-003   1.2766179126239396E-002   5.0040333315247598E-002
  -5.2597158296820920E-003   1.6628970785481687E-002   4.8076640059841136E-002
  -5.8116521789338127E-003   2.1127881316469921E-002   4.5967808567155100E-002
  -3.9458128396228642E-003   6.2529006848515145E-003   4.8176373773099579E-002
  -4.5390725253995207E-003   8.6910091850194160E-003   4.7240642130699007E-002
  -5.1323322111762326E-003   1.2298634586480506E-002   4.6367402052528039E-002
  -5.7255918969529723E-003   1.7075776889235200E-002   4.5556653538586955E-002
  -6.3188515827296010E-003   2.3022436093282916E-002   4.4808396588875476E-002
  -4.5566665461467398E-003   5.5568489467101578E-003   4.2401298001621568E-002
  -4.9836197669389515E-003   7.8425120312953234E-003   4.2736649527214815E-002
  -5.4105729877311909E-003   1.1831090046721421E-002   4.3342122418547152E-002
  -5.8375262085234008E-003   1.7522582992988610E-002   4.4217716675618357E-002
  -6.2644794293155864E-003   2.4916990870096134E-002   4.5363432298429540E-002
  -5.4364679014987961E-003   4.8607972085686901E-003   3.6207077799788212E-002
  -5.4894848557970749E-003   6.9940148775714805E-003   3.8346910522921968E-002
  -5.5425018100953528E-003   1.1363545506962433E-002   4.0964494413305109E-002
  -5.5955187643936047E-003   1.7969389096741960E-002   4.4059829470936215E-002
  -5.6485357186918002E-003   2.6811545646909130E-002   4.7632915695816597E-002
  -6.5852169056789811E-003   4.1647454704270004E-003   2.9593713167597846E-002
  -6.0566677919738077E-003   6.1455177238473047E-003   3.4071425117820575E-002
  -5.5281186782685787E-003   1.0896000967203168E-002   3.9234518036801336E-002
  -4.9995695645633220E-003   1.8416195200495741E-002   4.5082991924539850E-002
  -4.4710204508582319E-003   2.8706100423722347E-002   5.1616846781037395E-002
  -8.3870665108797371E-002   2.2403444197806599E-002   4.6944845816481895E-002
  -7.9154247610337208E-002   2.1944376339864180E-002   4.1148560076531282E-002
  -7.4437830111877046E-002   2.1372597618248959E-002   3.6896449020793115E-002
  -6.9721412613416855E-002   2.0688108032961120E-002   3.4188512649267158E-002
  -6.5004995114956721E-002   1.9890907584000417E-002   3.3024750961953675E-002
  -9.2754910859868145E-002   2.4231217462924892E-002   1.9751626548731527E-002
  -8.7229204282454231E-002   2.3615371072837871E-002   1.9965636830149042E-002
  -8.1703497705040457E-002   2.2935453433415257E-002   2.0254050585261696E-002
  -7.6177791127626626E-002   2.2191464544656720E-002   2.0616867814069476E-002
  -7.0652084550212713E-002   2.1383404406562334E-002   2.1054088516572117E-002
  -9.4805583927807829E-002   2.6058990728043213E-002  -7.6226910583317847E-003
  -8.9940359481957638E-002   2.5286365805811756E-002  -1.3497451412090300E-003
  -8.5075135036107349E-002   2.4498309248581436E-002   3.5278330390913146E-003
  -8.0209910590257172E-002   2.3694821056352372E-002   7.0100434825694675E-003
  -7.5344686144406925E-002   2.2875901229124335E-002   9.0968861892254671E-003
  -9.0022684312616591E-002   2.7886763993161492E-002  -3.5178107004708109E-002
  -8.7287713208847179E-002   2.6957360538785599E-002  -2.2797585837543554E-002
  -8.4552742105077835E-002   2.6061165063747786E-002  -1.3282203617718194E-002
  -8.1817771001308506E-002   2.5198177568048000E-002  -6.6319603452325128E-003
  -7.9082799897539122E-002   2.4368398051686349E-002  -2.8468560200863684E-003
  -7.8406212014294097E-002   2.9714537258279772E-002  -6.2914621290397266E-002
  -7.9271265463122909E-002   2.8628355271759220E-002  -4.4377885258853500E-002
  -8.0136318911951721E-002   2.7624020878913996E-002  -3.0176059385166709E-002
  -8.1001372360780644E-002   2.6701534079743704E-002  -2.0309143669336491E-002
  -8.1866425809609455E-002   2.5860894874248253E-002  -1.4777138111363441E-002
  -6.5004995114956721E-002   1.9890907584000417E-002   3.3024750961953675E-002
  -6.3117251877904040E-002   1.9068155309784396E-002   3.2103906935564724E-002
  -6.1229508640851318E-002   1.8307010248730604E-002   3.1429783281505780E-002
  -5.9341765403798631E-002   1.7607472400838764E-002   3.1002379999776938E-002
  -5.7454022166745944E-002   1.6969541766109264E-002   3.0821697090378297E-002
  -7.0652084550212713E-002   2.1383404406562334E-002   2.1054088516572117E-002
  -6.8581487916304570E-002   2.0562836499676343E-002   2.1074196818227489E-002
  -6.6510891282396484E-002   1.9781324304542602E-002   2.1213291541263724E-002
  -6.4440294648488314E-002   1.9038867821161279E-002   2.1471372685680751E-002
  -6.2369698014580255E-002   1.8335467049532317E-002   2.1848440251478335E-002
  -7.5344686144406925E-002   2.2875901229124335E-002   9.0968861892254671E-003
  -7.3218970064592659E-002   2.2057517689568290E-002   1.0035395317515537E-002
  -7.1093253984778462E-002   2.1255638360354545E-002   1.0965156916236923E-002
  -6.8967537904964266E-002   2.0470263241483683E-002   1.1886170985389900E-002
  -6.6841821825150000E-002   1.9701392332955175E-002   1.2798437524974102E-002
  -7.9082799897539122E-002   2.4368398051686349E-002  -2.8468560200863684E-003
  -7.7029698322768222E-002   2.3552198879460154E-002  -1.0124975665713760E-003
  -7.4976596747997268E-002   2.2729952416166599E-002   6.8537940642564819E-004
  -7.2923495173226341E-002   2.1901658661806031E-002   2.2467748989046035E-003
  -7.0870393598455400E-002   2.1067317616378242E-002   3.6716889108656357E-003
  -8.1866425809609455E-002   2.5860894874248253E-002  -1.4777138111363441E-002
  -8.0013672690831261E-002   2.5046880069352184E-002  -1.2069481834033335E-002
  -7.8160919572052956E-002   2.4204266471978597E-002  -9.6260409881705616E-003
  -7.6308166453274678E-002   2.3333054082128601E-002  -7.4468155737753040E-003
  -7.4455413334496456E-002   2.2433242899801087E-002  -5.5318055908472052E-003
  -5.7454022166745944E-002   1.6969541766109264E-002   3.0821697090378297E-002
  -5.4733108192169505E-002   1.6335332682744508E-002   3.0049179993279496E-002
  -5.2012194217593066E-002   1.5646959488946913E-002   2.9547999546291004E-002
  -4.9291280243016627E-002   1.4904422184716579E-002   2.9318155749412669E-002
  -4.6570366268440189E-002   1.4107720770053622E-002   2.9359648602644728E-002
  -6.2369698014580255E-002   1.8335467049532317E-002   2.1848440251478335E-002
  -5.9417330012360367E-002   1.7629221409499851E-002   2.1430137789681170E-002
  -5.6464962010140562E-002   1.6878230320908058E-002   2.1203406733060537E-002
  -5.3512594007920758E-002   1.6082493783757392E-002   2.1168247081616340E-002
  -5.0560226005700884E-002   1.5242011798047184E-002   2.1324658835348786E-002
  -6.6841821825150000E-002   1.9701392332955175E-002   1.2798437524974102E-002
  -6.3737765040220551E-002   1.8923110136255167E-002   1.2743768360351793E-002
  -6.0633708255291061E-002   1.8109501152869419E-002   1.2800905355972662E-002
  -5.7529651470361536E-002   1.7260565382797979E-002   1.2969848511836041E-002
  -5.4425594685432122E-002   1.6376302826040690E-002   1.3250597827942329E-002
  -7.0870393598455400E-002   2.1067317616378242E-002   3.6716889108656357E-003
  -6.7694413275750015E-002   2.0216998863010663E-002   3.9900717052921073E-003
  -6.4518432953044658E-002   1.9340771984830783E-002   4.3404954150275902E-003
  -6.1342452630339245E-002   1.8438636981838626E-002   4.7229600400720819E-003
  -5.8166472307633901E-002   1.7510593854034223E-002   5.1374655804258054E-003
  -7.4455413334496456E-002   2.2433242899801087E-002  -5.5318055908472052E-003
  -7.1287274718948856E-002   2.1510887589766048E-002  -4.8309521754988927E-003
  -6.8119136103401257E-002   2.0572042816792036E-002  -4.1778230897751290E-003
  -6.4950997487853601E-002   1.9616708580879189E-002  -3.5724183336765317E-003
  -6.1782858872306057E-002   1.8644884882027535E-002  -3.0147379072017477E-003
  -4.6570366268440189E-002   1.4107720770053622E-002   2.9359648602644728E-002
  -4.4408337232743234E-002   1.3295642455915690E-002   2.8899172620024949E-002
  -4.2246308197046362E-002   1.2506974453259906E-002   2.8531007171865352E-002
  -4.0084279161349434E-002   1.1741716762086220E-002   2.8255152258166022E-002
  -3.7922250125652535E-002   1.0999869382395167E-002   2.8071607878926930E-002
  -5.0560226005700884E-002   1.5242011798047184E-002   2.1324658835348786E-002
  -4.8284982222516828E-002   1.4396413770830285E-002   2.1038539961799496E-002
  -4.6009738439332669E-002   1.3585329109159383E-002   2.0886540048764529E-002
  -4.3734494656148565E-002   1.2808757813033880E-002   2.0868659096243636E-002
  -4.1459250872964398E-002   1.2066699882454457E-002   2.0984897104237010E-002
  -5.4425594685432122E-002   1.6376302826040690E-002   1.3250597827942329E-002
  -5.1995327728706797E-002   1.5497185085745185E-002   1.3149939117527154E-002
  -4.9565060771981528E-002   1.4663683765058624E-002   1.3225207793680152E-002
  -4.7134793815256246E-002   1.3875798863981648E-002   1.3476403856401198E-002
  -4.4704526858530921E-002   1.3133530382513969E-002   1.3903527305690527E-002
  -5.8166472307633901E-002   1.7510593854034223E-002   5.1374655804258054E-003
  -5.5539373751313376E-002   1.6597956400659877E-002   5.2333700872077941E-003
  -5.2912275194992850E-002   1.5742038420958317E-002   5.5470104066119054E-003
  -5.0285176638672380E-002   1.4942839914929418E-002   6.0783865386385954E-003
  -4.7658078082351799E-002   1.4200360882573149E-002   6.8274984832873004E-003
  -6.1782858872306057E-002   1.8644884882027535E-002  -3.0147379072017477E-003
  -5.8917120290336467E-002   1.7698727715574458E-002  -2.7111671291585870E-003
  -5.6051381708366710E-002   1.6820393076857565E-002  -2.1480521124393470E-003
  -5.3185643126397092E-002   1.6009880965876799E-002  -1.3253928570438750E-003
  -5.0319904544427363E-002   1.5267191382632550E-002  -2.4318936297229587E-004
  -3.7922250125652535E-002   1.0999869382395167E-002   2.8071607878926930E-002
  -3.5455097775602740E-002   1.0270963593248805E-002   2.7328304660005409E-002
  -3.2987945425553028E-002   9.5445306737091951E-003   2.6769374906217724E-002
  -3.0520793075503289E-002   8.8205706237770021E-003   2.6394818617563709E-002
  -2.8053640725453521E-002   8.0990834434518932E-003   2.6204635794042863E-002
  -4.1459250872964398E-002   1.2066699882454457E-002   2.0984897104237010E-002
  -3.8843110184901428E-002   1.1335674593340506E-002   2.0492945913437144E-002
  -3.6226969496838471E-002   1.0592201221611808E-002   2.0114597933530015E-002
  -3.3610828808775528E-002   9.8362797672679608E-003   1.9849853164516179E-002
  -3.0994688120712544E-002   9.0679102303098391E-003   1.9698711606395025E-002
  -4.4704526858530921E-002   1.3133530382513969E-002   1.3903527305690527E-002
  -4.2010168086695276E-002   1.2400385593432178E-002   1.3648007190790179E-002
  -3.9315809314859632E-002   1.1639871769513865E-002   1.3435320032542108E-002
  -3.6621450543023994E-002   1.0851988910758920E-002   1.3265465830946538E-002
  -3.3927091771188342E-002   1.0036737017168063E-002   1.3138444586003051E-002
  -4.7658078082351799E-002   1.4200360882573149E-002   6.8274984832873004E-003
  -4.4956271480984189E-002   1.3465096593524253E-002   6.7934884920646116E-003
  -4.2254464879616524E-002   1.2687542317416256E-002   6.7315412032539351E-003
  -3.9552658278248949E-002   1.1867698054249989E-002   6.6416566168542718E-003
  -3.6850851676881263E-002   1.1005563804025925E-002   6.5238347328667942E-003
  -5.0319904544427363E-002   1.5267191382632550E-002  -2.4318936297229587E-004
  -4.7681420367768346E-002   1.4529807593615662E-002  -7.0610182739072602E-005
  -4.5042936191109162E-002   1.3735212865318702E-002   3.2614456647872547E-006
  -4.2404452014450034E-002   1.2883407197741045E-002  -2.1574477759321586E-005
  -3.9765967837790961E-002   1.1974390590884010E-002  -1.4511795301319630E-004
  -2.8053640725453521E-002   8.0990834434518932E-003   2.6204635794042863E-002
  -2.5709923054012096E-002   7.3536868536553390E-003   2.5633501578231854E-002
  -2.3366205382570615E-002   6.5579985753086989E-003   2.5005020162847447E-002
  -2.1022487711129148E-002   5.7120186084120006E-003   2.4319191547889640E-002
  -1.8678770039687709E-002   4.8157469529651609E-003   2.3576015733358213E-002
  -3.0994688120712544E-002   9.0679102303098391E-003   1.9698711606395025E-002
  -2.8691370784838521E-002   8.2958289447206401E-003   1.9130534447774294E-002
  -2.6388053448964596E-002   7.5287722444843108E-003   1.8538903817592128E-002
  -2.4084736113090567E-002   6.7667401296006499E-003   1.7923819715848471E-002
  -2.1781418777216649E-002   6.0097326000696505E-003   1.7285282142543323E-002
  -3.3927091771188342E-002   1.0036737017168063E-002   1.3138444586003051E-002
  -3.1630281042869940E-002   9.2379710357859968E-003   1.2628540758475637E-002
  -2.9333470314551587E-002   8.4995459136600338E-003   1.2129077187398807E-002
  -2.7036659586233153E-002   7.8214616507896323E-003   1.1640053872772109E-002
  -2.4739848857914776E-002   7.2037182471747507E-003   1.1161470814595814E-002
  -3.6850851676881263E-002   1.1005563804025925E-002   6.5238347328667942E-003
  -3.4526653828106428E-002   1.0180113126851159E-002   6.1275205103355698E-003
  -3.2202455979331704E-002   9.4703195828356457E-003   5.7755402722667153E-003
  -2.9878258130556983E-002   8.8761831719775600E-003   5.4678940186602062E-003
  -2.7554060281782151E-002   8.3977038942795457E-003   5.2045817495158311E-003
  -3.9765967837790961E-002   1.1974390590884010E-002  -1.4511795301319630E-004
  -3.7380489140547923E-002   1.1122255217916988E-002  -3.7252629664513703E-004
  -3.4995010443304941E-002   1.0441093252011091E-002  -5.2170692780340033E-004
  -3.2609531746061959E-002   9.9309046931670281E-003  -5.9265984648709802E-004
  -3.0224053048818922E-002   9.5916895413841186E-003  -5.8538505269678520E-004
  -1.8678770039687709E-002   4.8157469529651609E-003   2.3576015733358213E-002
  -1.5655381756185527E-002   4.0839962355149195E-003   2.4371114377911840E-002
  -1.2631993472683345E-002   3.7315790826083217E-003   2.5639096831803154E-002
  -9.6086051891811630E-003   3.7584954942457491E-003   2.7379963095031767E-002
  -6.5852169056789811E-003   4.1647454704270004E-003   2.9593713167597846E-002
  -2.1781418777216649E-002   6.0097326000696505E-003   1.7285282142543323E-002
  -1.8554061450552814E-002   5.3461058131185624E-003   1.8236219909926910E-002
  -1.5326704123888979E-002   4.8642159259738582E-003   1.9122211954296364E-002
  -1.2099346797225137E-002   4.5640629386356213E-003   1.9943258275651354E-002
  -8.8719894705613089E-003   4.4456468511044900E-003   2.0699358873992213E-002
  -2.4739848857914776E-002   7.2037182471747507E-003   1.1161470814595814E-002
  -2.1846352020441058E-002   6.6082153907224828E-003   1.2070651040072322E-002
  -1.8952855182967382E-002   5.9968527693392976E-003   1.2377056010182713E-002
  -1.6059358345493650E-002   5.3696303830256080E-003   1.2080685724927327E-002
  -1.3165861508019933E-002   4.7265482317819796E-003   1.1181540184305561E-002
  -2.7554060281782151E-002   8.3977038942795457E-003   5.2045817495158311E-003
  -2.5532253465850308E-002   7.8703249683263754E-003   5.8744077683479390E-003
  -2.3510446649918578E-002   7.1294896127049520E-003   5.4036289994622462E-003
  -2.1488639833986717E-002   6.1751978274160926E-003   3.7922454428589488E-003
  -1.9466833018054998E-002   5.0074496124590251E-003   1.0402570985378334E-003
  -3.0224053048818922E-002   9.5916895413841186E-003  -5.8538505269678520E-004
  -2.9611765786780708E-002   9.1324345459298240E-003  -3.5250990524610115E-004
  -2.8999478524742495E-002   8.2621264560702179E-003  -1.7980690778651165E-003
  -2.8387191262704253E-002   6.9807652718053420E-003  -4.9220625705533178E-003
  -2.7774904000666067E-002   5.2883509931369588E-003  -9.7244903833112462E-003
  -6.5852169056789811E-003   4.1647454704270004E-003   2.9593713167597846E-002
  -6.0566677919738077E-003   6.1455177238473047E-003   3.4071425117820575E-002
  -5.5281186782685787E-003   1.0896000967203168E-002   3.9234518036801336E-002
  -4.9995695645633220E-003   1.8416195200495741E-002   4.5082991924539850E-002
  -4.4710204508582319E-003   2.8706100423722347E-002   5.1616846781037395E-002
  -8.8719894705613089E-003   4.4456468511044900E-003   2.0699358873992213E-002
  -7.5859454046225822E-003   5.6603173770081727E-003   2.5869158993613750E-002
  -6.2999013386836750E-003   9.3594242299756547E-003   3.1868568048944168E-002
  -5.0138572727450315E-003   1.5542967410007533E-002   3.8697586039983939E-002
  -3.7278132068060410E-003   2.4210946917103460E-002   4.6356212966732091E-002
  -1.3165861508019933E-002   4.7265482317819796E-003   1.1181540184305561E-002
  -1.0978094522896824E-002   5.1751170301687632E-003   1.6758153810454646E-002
  -8.7903275377734930E-003   7.8228474927478364E-003   2.3308604339263267E-002
  -6.6025605526501829E-003   1.2669739619519997E-002   3.0832891770731716E-002
  -4.4147935675270533E-003   1.9715793410484128E-002   3.9331016104860672E-002
  -1.9466833018054998E-002   5.0074496124590251E-003   1.0402570985378334E-003
  -1.6233115146796314E-002   4.6899166833290484E-003   6.7384095683425543E-003
  -1.2999397275537800E-002   6.2862707555197267E-003   1.3554626907758119E-002
  -9.7656794042793350E-003   9.7965118290314589E-003   2.1488909116783843E-002
  -6.5319615330206027E-003   1.5220639903864908E-002   3.0541256195421307E-002
  -2.7774904000666067E-002   5.2883509931369588E-003  -9.7244903833112462E-003
  -2.3351007276321334E-002   4.2047163364895557E-003  -4.1900737327217330E-003
  -1.8927110551976711E-002   4.7496940182921721E-003   2.6066357544288488E-003
  -1.4503213827632061E-002   6.9232840385450578E-003   1.0665638078141103E-002
  -1.0079317103287355E-002   1.0725486397245909E-002   1.9986933238415272E-002
 </DataArray>
 </PointData>
 </Piece>
 </UnstructuredGrid>
 </VTKFile>
