 <VTKFile type="UnstructuredGrid"  version="0.1"   >
 <UnstructuredGrid>
 <Piece  NumberOfPoints="          1600 "  NumberOfCells="         1024 ">
 <Points>
 <DataArray  type="Float64" NumberOfComponents="3"  format="ascii" >
   0.0000000000000000        0.0000000000000000        0.0000000000000000     
   3.1250000000000000E-002   0.0000000000000000        0.0000000000000000     
   6.2500000000000000E-002   0.0000000000000000        0.0000000000000000     
   9.3750000000000000E-002   0.0000000000000000        0.0000000000000000     
  0.12500000000000000        0.0000000000000000        0.0000000000000000     
   0.0000000000000000        3.1250000000000000E-002   0.0000000000000000     
   3.1250000000000000E-002   3.1250000000000000E-002   0.0000000000000000     
   6.2500000000000000E-002   3.1250000000000000E-002   0.0000000000000000     
   9.3750000000000000E-002   3.1250000000000000E-002   0.0000000000000000     
  0.12500000000000000        3.1250000000000000E-002   0.0000000000000000     
   0.0000000000000000        6.2500000000000000E-002   0.0000000000000000     
   3.1250000000000000E-002   6.2500000000000000E-002   0.0000000000000000     
   6.2500000000000000E-002   6.2500000000000000E-002   0.0000000000000000     
   9.3750000000000000E-002   6.2500000000000000E-002   0.0000000000000000     
  0.12500000000000000        6.2500000000000000E-002   0.0000000000000000     
   0.0000000000000000        9.3750000000000000E-002   0.0000000000000000     
   3.1250000000000000E-002   9.3750000000000000E-002   0.0000000000000000     
   6.2500000000000000E-002   9.3750000000000000E-002   0.0000000000000000     
   9.3750000000000000E-002   9.3750000000000000E-002   0.0000000000000000     
  0.12500000000000000        9.3750000000000000E-002   0.0000000000000000     
   0.0000000000000000       0.12500000000000000        0.0000000000000000     
   3.1250000000000000E-002  0.12500000000000000        0.0000000000000000     
   6.2500000000000000E-002  0.12500000000000000        0.0000000000000000     
   9.3750000000000000E-002  0.12500000000000000        0.0000000000000000     
  0.12500000000000000       0.12500000000000000        0.0000000000000000     
  0.12500000000000000        0.0000000000000000        0.0000000000000000     
  0.15625000000000000        0.0000000000000000        0.0000000000000000     
  0.18750000000000000        0.0000000000000000        0.0000000000000000     
  0.21875000000000000        0.0000000000000000        0.0000000000000000     
  0.25000000000000000        0.0000000000000000        0.0000000000000000     
  0.12500000000000000        3.1250000000000000E-002   0.0000000000000000     
  0.15625000000000000        3.1250000000000000E-002   0.0000000000000000     
  0.18750000000000000        3.1250000000000000E-002   0.0000000000000000     
  0.21875000000000000        3.1250000000000000E-002   0.0000000000000000     
  0.25000000000000000        3.1250000000000000E-002   0.0000000000000000     
  0.12500000000000000        6.2500000000000000E-002   0.0000000000000000     
  0.15625000000000000        6.2500000000000000E-002   0.0000000000000000     
  0.18750000000000000        6.2500000000000000E-002   0.0000000000000000     
  0.21875000000000000        6.2500000000000000E-002   0.0000000000000000     
  0.25000000000000000        6.2500000000000000E-002   0.0000000000000000     
  0.12500000000000000        9.3750000000000000E-002   0.0000000000000000     
  0.15625000000000000        9.3750000000000000E-002   0.0000000000000000     
  0.18750000000000000        9.3750000000000000E-002   0.0000000000000000     
  0.21875000000000000        9.3750000000000000E-002   0.0000000000000000     
  0.25000000000000000        9.3750000000000000E-002   0.0000000000000000     
  0.12500000000000000       0.12500000000000000        0.0000000000000000     
  0.15625000000000000       0.12500000000000000        0.0000000000000000     
  0.18750000000000000       0.12500000000000000        0.0000000000000000     
  0.21875000000000000       0.12500000000000000        0.0000000000000000     
  0.25000000000000000       0.12500000000000000        0.0000000000000000     
  0.25000000000000000        0.0000000000000000        0.0000000000000000     
  0.28125000000000000        0.0000000000000000        0.0000000000000000     
  0.31250000000000000        0.0000000000000000        0.0000000000000000     
  0.34375000000000000        0.0000000000000000        0.0000000000000000     
  0.37500000000000000        0.0000000000000000        0.0000000000000000     
  0.25000000000000000        3.1250000000000000E-002   0.0000000000000000     
  0.28125000000000000        3.1250000000000000E-002   0.0000000000000000     
  0.31250000000000000        3.1250000000000000E-002   0.0000000000000000     
  0.34375000000000000        3.1250000000000000E-002   0.0000000000000000     
  0.37500000000000000        3.1250000000000000E-002   0.0000000000000000     
  0.25000000000000000        6.2500000000000000E-002   0.0000000000000000     
  0.28125000000000000        6.2500000000000000E-002   0.0000000000000000     
  0.31250000000000000        6.2500000000000000E-002   0.0000000000000000     
  0.34375000000000000        6.2500000000000000E-002   0.0000000000000000     
  0.37500000000000000        6.2500000000000000E-002   0.0000000000000000     
  0.25000000000000000        9.3750000000000000E-002   0.0000000000000000     
  0.28125000000000000        9.3750000000000000E-002   0.0000000000000000     
  0.31250000000000000        9.3750000000000000E-002   0.0000000000000000     
  0.34375000000000000        9.3750000000000000E-002   0.0000000000000000     
  0.37500000000000000        9.3750000000000000E-002   0.0000000000000000     
  0.25000000000000000       0.12500000000000000        0.0000000000000000     
  0.28125000000000000       0.12500000000000000        0.0000000000000000     
  0.31250000000000000       0.12500000000000000        0.0000000000000000     
  0.34375000000000000       0.12500000000000000        0.0000000000000000     
  0.37500000000000000       0.12500000000000000        0.0000000000000000     
  0.37500000000000000        0.0000000000000000        0.0000000000000000     
  0.40625000000000000        0.0000000000000000        0.0000000000000000     
  0.43750000000000000        0.0000000000000000        0.0000000000000000     
  0.46875000000000000        0.0000000000000000        0.0000000000000000     
  0.50000000000000000        0.0000000000000000        0.0000000000000000     
  0.37500000000000000        3.1250000000000000E-002   0.0000000000000000     
  0.40625000000000000        3.1250000000000000E-002   0.0000000000000000     
  0.43750000000000000        3.1250000000000000E-002   0.0000000000000000     
  0.46875000000000000        3.1250000000000000E-002   0.0000000000000000     
  0.50000000000000000        3.1250000000000000E-002   0.0000000000000000     
  0.37500000000000000        6.2500000000000000E-002   0.0000000000000000     
  0.40625000000000000        6.2500000000000000E-002   0.0000000000000000     
  0.43750000000000000        6.2500000000000000E-002   0.0000000000000000     
  0.46875000000000000        6.2500000000000000E-002   0.0000000000000000     
  0.50000000000000000        6.2500000000000000E-002   0.0000000000000000     
  0.37500000000000000        9.3750000000000000E-002   0.0000000000000000     
  0.40625000000000000        9.3750000000000000E-002   0.0000000000000000     
  0.43750000000000000        9.3750000000000000E-002   0.0000000000000000     
  0.46875000000000000        9.3750000000000000E-002   0.0000000000000000     
  0.50000000000000000        9.3750000000000000E-002   0.0000000000000000     
  0.37500000000000000       0.12500000000000000        0.0000000000000000     
  0.40625000000000000       0.12500000000000000        0.0000000000000000     
  0.43750000000000000       0.12500000000000000        0.0000000000000000     
  0.46875000000000000       0.12500000000000000        0.0000000000000000     
  0.50000000000000000       0.12500000000000000        0.0000000000000000     
  0.50000000000000000        0.0000000000000000        0.0000000000000000     
  0.53125000000000000        0.0000000000000000        0.0000000000000000     
  0.56250000000000000        0.0000000000000000        0.0000000000000000     
  0.59375000000000000        0.0000000000000000        0.0000000000000000     
  0.62500000000000000        0.0000000000000000        0.0000000000000000     
  0.50000000000000000        3.1250000000000000E-002   0.0000000000000000     
  0.53125000000000000        3.1250000000000000E-002   0.0000000000000000     
  0.56250000000000000        3.1250000000000000E-002   0.0000000000000000     
  0.59375000000000000        3.1250000000000000E-002   0.0000000000000000     
  0.62500000000000000        3.1250000000000000E-002   0.0000000000000000     
  0.50000000000000000        6.2500000000000000E-002   0.0000000000000000     
  0.53125000000000000        6.2500000000000000E-002   0.0000000000000000     
  0.56250000000000000        6.2500000000000000E-002   0.0000000000000000     
  0.59375000000000000        6.2500000000000000E-002   0.0000000000000000     
  0.62500000000000000        6.2500000000000000E-002   0.0000000000000000     
  0.50000000000000000        9.3750000000000000E-002   0.0000000000000000     
  0.53125000000000000        9.3750000000000000E-002   0.0000000000000000     
  0.56250000000000000        9.3750000000000000E-002   0.0000000000000000     
  0.59375000000000000        9.3750000000000000E-002   0.0000000000000000     
  0.62500000000000000        9.3750000000000000E-002   0.0000000000000000     
  0.50000000000000000       0.12500000000000000        0.0000000000000000     
  0.53125000000000000       0.12500000000000000        0.0000000000000000     
  0.56250000000000000       0.12500000000000000        0.0000000000000000     
  0.59375000000000000       0.12500000000000000        0.0000000000000000     
  0.62500000000000000       0.12500000000000000        0.0000000000000000     
  0.62500000000000000        0.0000000000000000        0.0000000000000000     
  0.65625000000000000        0.0000000000000000        0.0000000000000000     
  0.68750000000000000        0.0000000000000000        0.0000000000000000     
  0.71875000000000000        0.0000000000000000        0.0000000000000000     
  0.75000000000000000        0.0000000000000000        0.0000000000000000     
  0.62500000000000000        3.1250000000000000E-002   0.0000000000000000     
  0.65625000000000000        3.1250000000000000E-002   0.0000000000000000     
  0.68750000000000000        3.1250000000000000E-002   0.0000000000000000     
  0.71875000000000000        3.1250000000000000E-002   0.0000000000000000     
  0.75000000000000000        3.1250000000000000E-002   0.0000000000000000     
  0.62500000000000000        6.2500000000000000E-002   0.0000000000000000     
  0.65625000000000000        6.2500000000000000E-002   0.0000000000000000     
  0.68750000000000000        6.2500000000000000E-002   0.0000000000000000     
  0.71875000000000000        6.2500000000000000E-002   0.0000000000000000     
  0.75000000000000000        6.2500000000000000E-002   0.0000000000000000     
  0.62500000000000000        9.3750000000000000E-002   0.0000000000000000     
  0.65625000000000000        9.3750000000000000E-002   0.0000000000000000     
  0.68750000000000000        9.3750000000000000E-002   0.0000000000000000     
  0.71875000000000000        9.3750000000000000E-002   0.0000000000000000     
  0.75000000000000000        9.3750000000000000E-002   0.0000000000000000     
  0.62500000000000000       0.12500000000000000        0.0000000000000000     
  0.65625000000000000       0.12500000000000000        0.0000000000000000     
  0.68750000000000000       0.12500000000000000        0.0000000000000000     
  0.71875000000000000       0.12500000000000000        0.0000000000000000     
  0.75000000000000000       0.12500000000000000        0.0000000000000000     
  0.75000000000000000        0.0000000000000000        0.0000000000000000     
  0.78125000000000000        0.0000000000000000        0.0000000000000000     
  0.81250000000000000        0.0000000000000000        0.0000000000000000     
  0.84375000000000000        0.0000000000000000        0.0000000000000000     
  0.87500000000000000        0.0000000000000000        0.0000000000000000     
  0.75000000000000000        3.1250000000000000E-002   0.0000000000000000     
  0.78125000000000000        3.1250000000000000E-002   0.0000000000000000     
  0.81250000000000000        3.1250000000000000E-002   0.0000000000000000     
  0.84375000000000000        3.1250000000000000E-002   0.0000000000000000     
  0.87500000000000000        3.1250000000000000E-002   0.0000000000000000     
  0.75000000000000000        6.2500000000000000E-002   0.0000000000000000     
  0.78125000000000000        6.2500000000000000E-002   0.0000000000000000     
  0.81250000000000000        6.2500000000000000E-002   0.0000000000000000     
  0.84375000000000000        6.2500000000000000E-002   0.0000000000000000     
  0.87500000000000000        6.2500000000000000E-002   0.0000000000000000     
  0.75000000000000000        9.3750000000000000E-002   0.0000000000000000     
  0.78125000000000000        9.3750000000000000E-002   0.0000000000000000     
  0.81250000000000000        9.3750000000000000E-002   0.0000000000000000     
  0.84375000000000000        9.3750000000000000E-002   0.0000000000000000     
  0.87500000000000000        9.3750000000000000E-002   0.0000000000000000     
  0.75000000000000000       0.12500000000000000        0.0000000000000000     
  0.78125000000000000       0.12500000000000000        0.0000000000000000     
  0.81250000000000000       0.12500000000000000        0.0000000000000000     
  0.84375000000000000       0.12500000000000000        0.0000000000000000     
  0.87500000000000000       0.12500000000000000        0.0000000000000000     
  0.87500000000000000        0.0000000000000000        0.0000000000000000     
  0.90625000000000000        0.0000000000000000        0.0000000000000000     
  0.93750000000000000        0.0000000000000000        0.0000000000000000     
  0.96875000000000000        0.0000000000000000        0.0000000000000000     
   1.0000000000000000        0.0000000000000000        0.0000000000000000     
  0.87500000000000000        3.1250000000000000E-002   0.0000000000000000     
  0.90625000000000000        3.1250000000000000E-002   0.0000000000000000     
  0.93750000000000000        3.1250000000000000E-002   0.0000000000000000     
  0.96875000000000000        3.1250000000000000E-002   0.0000000000000000     
   1.0000000000000000        3.1250000000000000E-002   0.0000000000000000     
  0.87500000000000000        6.2500000000000000E-002   0.0000000000000000     
  0.90625000000000000        6.2500000000000000E-002   0.0000000000000000     
  0.93750000000000000        6.2500000000000000E-002   0.0000000000000000     
  0.96875000000000000        6.2500000000000000E-002   0.0000000000000000     
   1.0000000000000000        6.2500000000000000E-002   0.0000000000000000     
  0.87500000000000000        9.3750000000000000E-002   0.0000000000000000     
  0.90625000000000000        9.3750000000000000E-002   0.0000000000000000     
  0.93750000000000000        9.3750000000000000E-002   0.0000000000000000     
  0.96875000000000000        9.3750000000000000E-002   0.0000000000000000     
   1.0000000000000000        9.3750000000000000E-002   0.0000000000000000     
  0.87500000000000000       0.12500000000000000        0.0000000000000000     
  0.90625000000000000       0.12500000000000000        0.0000000000000000     
  0.93750000000000000       0.12500000000000000        0.0000000000000000     
  0.96875000000000000       0.12500000000000000        0.0000000000000000     
   1.0000000000000000       0.12500000000000000        0.0000000000000000     
   0.0000000000000000       0.12500000000000000        0.0000000000000000     
   3.1250000000000000E-002  0.12500000000000000        0.0000000000000000     
   6.2500000000000000E-002  0.12500000000000000        0.0000000000000000     
   9.3750000000000000E-002  0.12500000000000000        0.0000000000000000     
  0.12500000000000000       0.12500000000000000        0.0000000000000000     
   0.0000000000000000       0.15625000000000000        0.0000000000000000     
   3.1250000000000000E-002  0.15625000000000000        0.0000000000000000     
   6.2500000000000000E-002  0.15625000000000000        0.0000000000000000     
   9.3750000000000000E-002  0.15625000000000000        0.0000000000000000     
  0.12500000000000000       0.15625000000000000        0.0000000000000000     
   0.0000000000000000       0.18750000000000000        0.0000000000000000     
   3.1250000000000000E-002  0.18750000000000000        0.0000000000000000     
   6.2500000000000000E-002  0.18750000000000000        0.0000000000000000     
   9.3750000000000000E-002  0.18750000000000000        0.0000000000000000     
  0.12500000000000000       0.18750000000000000        0.0000000000000000     
   0.0000000000000000       0.21875000000000000        0.0000000000000000     
   3.1250000000000000E-002  0.21875000000000000        0.0000000000000000     
   6.2500000000000000E-002  0.21875000000000000        0.0000000000000000     
   9.3750000000000000E-002  0.21875000000000000        0.0000000000000000     
  0.12500000000000000       0.21875000000000000        0.0000000000000000     
   0.0000000000000000       0.25000000000000000        0.0000000000000000     
   3.1250000000000000E-002  0.25000000000000000        0.0000000000000000     
   6.2500000000000000E-002  0.25000000000000000        0.0000000000000000     
   9.3750000000000000E-002  0.25000000000000000        0.0000000000000000     
  0.12500000000000000       0.25000000000000000        0.0000000000000000     
  0.12500000000000000       0.12500000000000000        0.0000000000000000     
  0.15625000000000000       0.12500000000000000        0.0000000000000000     
  0.18750000000000000       0.12500000000000000        0.0000000000000000     
  0.21875000000000000       0.12500000000000000        0.0000000000000000     
  0.25000000000000000       0.12500000000000000        0.0000000000000000     
  0.12500000000000000       0.15625000000000000        0.0000000000000000     
  0.15625000000000000       0.15625000000000000        0.0000000000000000     
  0.18750000000000000       0.15625000000000000        0.0000000000000000     
  0.21875000000000000       0.15625000000000000        0.0000000000000000     
  0.25000000000000000       0.15625000000000000        0.0000000000000000     
  0.12500000000000000       0.18750000000000000        0.0000000000000000     
  0.15625000000000000       0.18750000000000000        0.0000000000000000     
  0.18750000000000000       0.18750000000000000        0.0000000000000000     
  0.21875000000000000       0.18750000000000000        0.0000000000000000     
  0.25000000000000000       0.18750000000000000        0.0000000000000000     
  0.12500000000000000       0.21875000000000000        0.0000000000000000     
  0.15625000000000000       0.21875000000000000        0.0000000000000000     
  0.18750000000000000       0.21875000000000000        0.0000000000000000     
  0.21875000000000000       0.21875000000000000        0.0000000000000000     
  0.25000000000000000       0.21875000000000000        0.0000000000000000     
  0.12500000000000000       0.25000000000000000        0.0000000000000000     
  0.15625000000000000       0.25000000000000000        0.0000000000000000     
  0.18750000000000000       0.25000000000000000        0.0000000000000000     
  0.21875000000000000       0.25000000000000000        0.0000000000000000     
  0.25000000000000000       0.25000000000000000        0.0000000000000000     
  0.25000000000000000       0.12500000000000000        0.0000000000000000     
  0.28125000000000000       0.12500000000000000        0.0000000000000000     
  0.31250000000000000       0.12500000000000000        0.0000000000000000     
  0.34375000000000000       0.12500000000000000        0.0000000000000000     
  0.37500000000000000       0.12500000000000000        0.0000000000000000     
  0.25000000000000000       0.15625000000000000        0.0000000000000000     
  0.28125000000000000       0.15625000000000000        0.0000000000000000     
  0.31250000000000000       0.15625000000000000        0.0000000000000000     
  0.34375000000000000       0.15625000000000000        0.0000000000000000     
  0.37500000000000000       0.15625000000000000        0.0000000000000000     
  0.25000000000000000       0.18750000000000000        0.0000000000000000     
  0.28125000000000000       0.18750000000000000        0.0000000000000000     
  0.31250000000000000       0.18750000000000000        0.0000000000000000     
  0.34375000000000000       0.18750000000000000        0.0000000000000000     
  0.37500000000000000       0.18750000000000000        0.0000000000000000     
  0.25000000000000000       0.21875000000000000        0.0000000000000000     
  0.28125000000000000       0.21875000000000000        0.0000000000000000     
  0.31250000000000000       0.21875000000000000        0.0000000000000000     
  0.34375000000000000       0.21875000000000000        0.0000000000000000     
  0.37500000000000000       0.21875000000000000        0.0000000000000000     
  0.25000000000000000       0.25000000000000000        0.0000000000000000     
  0.28125000000000000       0.25000000000000000        0.0000000000000000     
  0.31250000000000000       0.25000000000000000        0.0000000000000000     
  0.34375000000000000       0.25000000000000000        0.0000000000000000     
  0.37500000000000000       0.25000000000000000        0.0000000000000000     
  0.37500000000000000       0.12500000000000000        0.0000000000000000     
  0.40625000000000000       0.12500000000000000        0.0000000000000000     
  0.43750000000000000       0.12500000000000000        0.0000000000000000     
  0.46875000000000000       0.12500000000000000        0.0000000000000000     
  0.50000000000000000       0.12500000000000000        0.0000000000000000     
  0.37500000000000000       0.15625000000000000        0.0000000000000000     
  0.40625000000000000       0.15625000000000000        0.0000000000000000     
  0.43750000000000000       0.15625000000000000        0.0000000000000000     
  0.46875000000000000       0.15625000000000000        0.0000000000000000     
  0.50000000000000000       0.15625000000000000        0.0000000000000000     
  0.37500000000000000       0.18750000000000000        0.0000000000000000     
  0.40625000000000000       0.18750000000000000        0.0000000000000000     
  0.43750000000000000       0.18750000000000000        0.0000000000000000     
  0.46875000000000000       0.18750000000000000        0.0000000000000000     
  0.50000000000000000       0.18750000000000000        0.0000000000000000     
  0.37500000000000000       0.21875000000000000        0.0000000000000000     
  0.40625000000000000       0.21875000000000000        0.0000000000000000     
  0.43750000000000000       0.21875000000000000        0.0000000000000000     
  0.46875000000000000       0.21875000000000000        0.0000000000000000     
  0.50000000000000000       0.21875000000000000        0.0000000000000000     
  0.37500000000000000       0.25000000000000000        0.0000000000000000     
  0.40625000000000000       0.25000000000000000        0.0000000000000000     
  0.43750000000000000       0.25000000000000000        0.0000000000000000     
  0.46875000000000000       0.25000000000000000        0.0000000000000000     
  0.50000000000000000       0.25000000000000000        0.0000000000000000     
  0.50000000000000000       0.12500000000000000        0.0000000000000000     
  0.53125000000000000       0.12500000000000000        0.0000000000000000     
  0.56250000000000000       0.12500000000000000        0.0000000000000000     
  0.59375000000000000       0.12500000000000000        0.0000000000000000     
  0.62500000000000000       0.12500000000000000        0.0000000000000000     
  0.50000000000000000       0.15625000000000000        0.0000000000000000     
  0.53125000000000000       0.15625000000000000        0.0000000000000000     
  0.56250000000000000       0.15625000000000000        0.0000000000000000     
  0.59375000000000000       0.15625000000000000        0.0000000000000000     
  0.62500000000000000       0.15625000000000000        0.0000000000000000     
  0.50000000000000000       0.18750000000000000        0.0000000000000000     
  0.53125000000000000       0.18750000000000000        0.0000000000000000     
  0.56250000000000000       0.18750000000000000        0.0000000000000000     
  0.59375000000000000       0.18750000000000000        0.0000000000000000     
  0.62500000000000000       0.18750000000000000        0.0000000000000000     
  0.50000000000000000       0.21875000000000000        0.0000000000000000     
  0.53125000000000000       0.21875000000000000        0.0000000000000000     
  0.56250000000000000       0.21875000000000000        0.0000000000000000     
  0.59375000000000000       0.21875000000000000        0.0000000000000000     
  0.62500000000000000       0.21875000000000000        0.0000000000000000     
  0.50000000000000000       0.25000000000000000        0.0000000000000000     
  0.53125000000000000       0.25000000000000000        0.0000000000000000     
  0.56250000000000000       0.25000000000000000        0.0000000000000000     
  0.59375000000000000       0.25000000000000000        0.0000000000000000     
  0.62500000000000000       0.25000000000000000        0.0000000000000000     
  0.62500000000000000       0.12500000000000000        0.0000000000000000     
  0.65625000000000000       0.12500000000000000        0.0000000000000000     
  0.68750000000000000       0.12500000000000000        0.0000000000000000     
  0.71875000000000000       0.12500000000000000        0.0000000000000000     
  0.75000000000000000       0.12500000000000000        0.0000000000000000     
  0.62500000000000000       0.15625000000000000        0.0000000000000000     
  0.65625000000000000       0.15625000000000000        0.0000000000000000     
  0.68750000000000000       0.15625000000000000        0.0000000000000000     
  0.71875000000000000       0.15625000000000000        0.0000000000000000     
  0.75000000000000000       0.15625000000000000        0.0000000000000000     
  0.62500000000000000       0.18750000000000000        0.0000000000000000     
  0.65625000000000000       0.18750000000000000        0.0000000000000000     
  0.68750000000000000       0.18750000000000000        0.0000000000000000     
  0.71875000000000000       0.18750000000000000        0.0000000000000000     
  0.75000000000000000       0.18750000000000000        0.0000000000000000     
  0.62500000000000000       0.21875000000000000        0.0000000000000000     
  0.65625000000000000       0.21875000000000000        0.0000000000000000     
  0.68750000000000000       0.21875000000000000        0.0000000000000000     
  0.71875000000000000       0.21875000000000000        0.0000000000000000     
  0.75000000000000000       0.21875000000000000        0.0000000000000000     
  0.62500000000000000       0.25000000000000000        0.0000000000000000     
  0.65625000000000000       0.25000000000000000        0.0000000000000000     
  0.68750000000000000       0.25000000000000000        0.0000000000000000     
  0.71875000000000000       0.25000000000000000        0.0000000000000000     
  0.75000000000000000       0.25000000000000000        0.0000000000000000     
  0.75000000000000000       0.12500000000000000        0.0000000000000000     
  0.78125000000000000       0.12500000000000000        0.0000000000000000     
  0.81250000000000000       0.12500000000000000        0.0000000000000000     
  0.84375000000000000       0.12500000000000000        0.0000000000000000     
  0.87500000000000000       0.12500000000000000        0.0000000000000000     
  0.75000000000000000       0.15625000000000000        0.0000000000000000     
  0.78125000000000000       0.15625000000000000        0.0000000000000000     
  0.81250000000000000       0.15625000000000000        0.0000000000000000     
  0.84375000000000000       0.15625000000000000        0.0000000000000000     
  0.87500000000000000       0.15625000000000000        0.0000000000000000     
  0.75000000000000000       0.18750000000000000        0.0000000000000000     
  0.78125000000000000       0.18750000000000000        0.0000000000000000     
  0.81250000000000000       0.18750000000000000        0.0000000000000000     
  0.84375000000000000       0.18750000000000000        0.0000000000000000     
  0.87500000000000000       0.18750000000000000        0.0000000000000000     
  0.75000000000000000       0.21875000000000000        0.0000000000000000     
  0.78125000000000000       0.21875000000000000        0.0000000000000000     
  0.81250000000000000       0.21875000000000000        0.0000000000000000     
  0.84375000000000000       0.21875000000000000        0.0000000000000000     
  0.87500000000000000       0.21875000000000000        0.0000000000000000     
  0.75000000000000000       0.25000000000000000        0.0000000000000000     
  0.78125000000000000       0.25000000000000000        0.0000000000000000     
  0.81250000000000000       0.25000000000000000        0.0000000000000000     
  0.84375000000000000       0.25000000000000000        0.0000000000000000     
  0.87500000000000000       0.25000000000000000        0.0000000000000000     
  0.87500000000000000       0.12500000000000000        0.0000000000000000     
  0.90625000000000000       0.12500000000000000        0.0000000000000000     
  0.93750000000000000       0.12500000000000000        0.0000000000000000     
  0.96875000000000000       0.12500000000000000        0.0000000000000000     
   1.0000000000000000       0.12500000000000000        0.0000000000000000     
  0.87500000000000000       0.15625000000000000        0.0000000000000000     
  0.90625000000000000       0.15625000000000000        0.0000000000000000     
  0.93750000000000000       0.15625000000000000        0.0000000000000000     
  0.96875000000000000       0.15625000000000000        0.0000000000000000     
   1.0000000000000000       0.15625000000000000        0.0000000000000000     
  0.87500000000000000       0.18750000000000000        0.0000000000000000     
  0.90625000000000000       0.18750000000000000        0.0000000000000000     
  0.93750000000000000       0.18750000000000000        0.0000000000000000     
  0.96875000000000000       0.18750000000000000        0.0000000000000000     
   1.0000000000000000       0.18750000000000000        0.0000000000000000     
  0.87500000000000000       0.21875000000000000        0.0000000000000000     
  0.90625000000000000       0.21875000000000000        0.0000000000000000     
  0.93750000000000000       0.21875000000000000        0.0000000000000000     
  0.96875000000000000       0.21875000000000000        0.0000000000000000     
   1.0000000000000000       0.21875000000000000        0.0000000000000000     
  0.87500000000000000       0.25000000000000000        0.0000000000000000     
  0.90625000000000000       0.25000000000000000        0.0000000000000000     
  0.93750000000000000       0.25000000000000000        0.0000000000000000     
  0.96875000000000000       0.25000000000000000        0.0000000000000000     
   1.0000000000000000       0.25000000000000000        0.0000000000000000     
   0.0000000000000000       0.25000000000000000        0.0000000000000000     
   3.1250000000000000E-002  0.25000000000000000        0.0000000000000000     
   6.2500000000000000E-002  0.25000000000000000        0.0000000000000000     
   9.3750000000000000E-002  0.25000000000000000        0.0000000000000000     
  0.12500000000000000       0.25000000000000000        0.0000000000000000     
   0.0000000000000000       0.28125000000000000        0.0000000000000000     
   3.1250000000000000E-002  0.28125000000000000        0.0000000000000000     
   6.2500000000000000E-002  0.28125000000000000        0.0000000000000000     
   9.3750000000000000E-002  0.28125000000000000        0.0000000000000000     
  0.12500000000000000       0.28125000000000000        0.0000000000000000     
   0.0000000000000000       0.31250000000000000        0.0000000000000000     
   3.1250000000000000E-002  0.31250000000000000        0.0000000000000000     
   6.2500000000000000E-002  0.31250000000000000        0.0000000000000000     
   9.3750000000000000E-002  0.31250000000000000        0.0000000000000000     
  0.12500000000000000       0.31250000000000000        0.0000000000000000     
   0.0000000000000000       0.34375000000000000        0.0000000000000000     
   3.1250000000000000E-002  0.34375000000000000        0.0000000000000000     
   6.2500000000000000E-002  0.34375000000000000        0.0000000000000000     
   9.3750000000000000E-002  0.34375000000000000        0.0000000000000000     
  0.12500000000000000       0.34375000000000000        0.0000000000000000     
   0.0000000000000000       0.37500000000000000        0.0000000000000000     
   3.1250000000000000E-002  0.37500000000000000        0.0000000000000000     
   6.2500000000000000E-002  0.37500000000000000        0.0000000000000000     
   9.3750000000000000E-002  0.37500000000000000        0.0000000000000000     
  0.12500000000000000       0.37500000000000000        0.0000000000000000     
  0.12500000000000000       0.25000000000000000        0.0000000000000000     
  0.15625000000000000       0.25000000000000000        0.0000000000000000     
  0.18750000000000000       0.25000000000000000        0.0000000000000000     
  0.21875000000000000       0.25000000000000000        0.0000000000000000     
  0.25000000000000000       0.25000000000000000        0.0000000000000000     
  0.12500000000000000       0.28125000000000000        0.0000000000000000     
  0.15625000000000000       0.28125000000000000        0.0000000000000000     
  0.18750000000000000       0.28125000000000000        0.0000000000000000     
  0.21875000000000000       0.28125000000000000        0.0000000000000000     
  0.25000000000000000       0.28125000000000000        0.0000000000000000     
  0.12500000000000000       0.31250000000000000        0.0000000000000000     
  0.15625000000000000       0.31250000000000000        0.0000000000000000     
  0.18750000000000000       0.31250000000000000        0.0000000000000000     
  0.21875000000000000       0.31250000000000000        0.0000000000000000     
  0.25000000000000000       0.31250000000000000        0.0000000000000000     
  0.12500000000000000       0.34375000000000000        0.0000000000000000     
  0.15625000000000000       0.34375000000000000        0.0000000000000000     
  0.18750000000000000       0.34375000000000000        0.0000000000000000     
  0.21875000000000000       0.34375000000000000        0.0000000000000000     
  0.25000000000000000       0.34375000000000000        0.0000000000000000     
  0.12500000000000000       0.37500000000000000        0.0000000000000000     
  0.15625000000000000       0.37500000000000000        0.0000000000000000     
  0.18750000000000000       0.37500000000000000        0.0000000000000000     
  0.21875000000000000       0.37500000000000000        0.0000000000000000     
  0.25000000000000000       0.37500000000000000        0.0000000000000000     
  0.25000000000000000       0.25000000000000000        0.0000000000000000     
  0.28125000000000000       0.25000000000000000        0.0000000000000000     
  0.31250000000000000       0.25000000000000000        0.0000000000000000     
  0.34375000000000000       0.25000000000000000        0.0000000000000000     
  0.37500000000000000       0.25000000000000000        0.0000000000000000     
  0.25000000000000000       0.28125000000000000        0.0000000000000000     
  0.28125000000000000       0.28125000000000000        0.0000000000000000     
  0.31250000000000000       0.28125000000000000        0.0000000000000000     
  0.34375000000000000       0.28125000000000000        0.0000000000000000     
  0.37500000000000000       0.28125000000000000        0.0000000000000000     
  0.25000000000000000       0.31250000000000000        0.0000000000000000     
  0.28125000000000000       0.31250000000000000        0.0000000000000000     
  0.31250000000000000       0.31250000000000000        0.0000000000000000     
  0.34375000000000000       0.31250000000000000        0.0000000000000000     
  0.37500000000000000       0.31250000000000000        0.0000000000000000     
  0.25000000000000000       0.34375000000000000        0.0000000000000000     
  0.28125000000000000       0.34375000000000000        0.0000000000000000     
  0.31250000000000000       0.34375000000000000        0.0000000000000000     
  0.34375000000000000       0.34375000000000000        0.0000000000000000     
  0.37500000000000000       0.34375000000000000        0.0000000000000000     
  0.25000000000000000       0.37500000000000000        0.0000000000000000     
  0.28125000000000000       0.37500000000000000        0.0000000000000000     
  0.31250000000000000       0.37500000000000000        0.0000000000000000     
  0.34375000000000000       0.37500000000000000        0.0000000000000000     
  0.37500000000000000       0.37500000000000000        0.0000000000000000     
  0.37500000000000000       0.25000000000000000        0.0000000000000000     
  0.40625000000000000       0.25000000000000000        0.0000000000000000     
  0.43750000000000000       0.25000000000000000        0.0000000000000000     
  0.46875000000000000       0.25000000000000000        0.0000000000000000     
  0.50000000000000000       0.25000000000000000        0.0000000000000000     
  0.37500000000000000       0.28125000000000000        0.0000000000000000     
  0.40625000000000000       0.28125000000000000        0.0000000000000000     
  0.43750000000000000       0.28125000000000000        0.0000000000000000     
  0.46875000000000000       0.28125000000000000        0.0000000000000000     
  0.50000000000000000       0.28125000000000000        0.0000000000000000     
  0.37500000000000000       0.31250000000000000        0.0000000000000000     
  0.40625000000000000       0.31250000000000000        0.0000000000000000     
  0.43750000000000000       0.31250000000000000        0.0000000000000000     
  0.46875000000000000       0.31250000000000000        0.0000000000000000     
  0.50000000000000000       0.31250000000000000        0.0000000000000000     
  0.37500000000000000       0.34375000000000000        0.0000000000000000     
  0.40625000000000000       0.34375000000000000        0.0000000000000000     
  0.43750000000000000       0.34375000000000000        0.0000000000000000     
  0.46875000000000000       0.34375000000000000        0.0000000000000000     
  0.50000000000000000       0.34375000000000000        0.0000000000000000     
  0.37500000000000000       0.37500000000000000        0.0000000000000000     
  0.40625000000000000       0.37500000000000000        0.0000000000000000     
  0.43750000000000000       0.37500000000000000        0.0000000000000000     
  0.46875000000000000       0.37500000000000000        0.0000000000000000     
  0.50000000000000000       0.37500000000000000        0.0000000000000000     
  0.50000000000000000       0.25000000000000000        0.0000000000000000     
  0.53125000000000000       0.25000000000000000        0.0000000000000000     
  0.56250000000000000       0.25000000000000000        0.0000000000000000     
  0.59375000000000000       0.25000000000000000        0.0000000000000000     
  0.62500000000000000       0.25000000000000000        0.0000000000000000     
  0.50000000000000000       0.28125000000000000        0.0000000000000000     
  0.53125000000000000       0.28125000000000000        0.0000000000000000     
  0.56250000000000000       0.28125000000000000        0.0000000000000000     
  0.59375000000000000       0.28125000000000000        0.0000000000000000     
  0.62500000000000000       0.28125000000000000        0.0000000000000000     
  0.50000000000000000       0.31250000000000000        0.0000000000000000     
  0.53125000000000000       0.31250000000000000        0.0000000000000000     
  0.56250000000000000       0.31250000000000000        0.0000000000000000     
  0.59375000000000000       0.31250000000000000        0.0000000000000000     
  0.62500000000000000       0.31250000000000000        0.0000000000000000     
  0.50000000000000000       0.34375000000000000        0.0000000000000000     
  0.53125000000000000       0.34375000000000000        0.0000000000000000     
  0.56250000000000000       0.34375000000000000        0.0000000000000000     
  0.59375000000000000       0.34375000000000000        0.0000000000000000     
  0.62500000000000000       0.34375000000000000        0.0000000000000000     
  0.50000000000000000       0.37500000000000000        0.0000000000000000     
  0.53125000000000000       0.37500000000000000        0.0000000000000000     
  0.56250000000000000       0.37500000000000000        0.0000000000000000     
  0.59375000000000000       0.37500000000000000        0.0000000000000000     
  0.62500000000000000       0.37500000000000000        0.0000000000000000     
  0.62500000000000000       0.25000000000000000        0.0000000000000000     
  0.65625000000000000       0.25000000000000000        0.0000000000000000     
  0.68750000000000000       0.25000000000000000        0.0000000000000000     
  0.71875000000000000       0.25000000000000000        0.0000000000000000     
  0.75000000000000000       0.25000000000000000        0.0000000000000000     
  0.62500000000000000       0.28125000000000000        0.0000000000000000     
  0.65625000000000000       0.28125000000000000        0.0000000000000000     
  0.68750000000000000       0.28125000000000000        0.0000000000000000     
  0.71875000000000000       0.28125000000000000        0.0000000000000000     
  0.75000000000000000       0.28125000000000000        0.0000000000000000     
  0.62500000000000000       0.31250000000000000        0.0000000000000000     
  0.65625000000000000       0.31250000000000000        0.0000000000000000     
  0.68750000000000000       0.31250000000000000        0.0000000000000000     
  0.71875000000000000       0.31250000000000000        0.0000000000000000     
  0.75000000000000000       0.31250000000000000        0.0000000000000000     
  0.62500000000000000       0.34375000000000000        0.0000000000000000     
  0.65625000000000000       0.34375000000000000        0.0000000000000000     
  0.68750000000000000       0.34375000000000000        0.0000000000000000     
  0.71875000000000000       0.34375000000000000        0.0000000000000000     
  0.75000000000000000       0.34375000000000000        0.0000000000000000     
  0.62500000000000000       0.37500000000000000        0.0000000000000000     
  0.65625000000000000       0.37500000000000000        0.0000000000000000     
  0.68750000000000000       0.37500000000000000        0.0000000000000000     
  0.71875000000000000       0.37500000000000000        0.0000000000000000     
  0.75000000000000000       0.37500000000000000        0.0000000000000000     
  0.75000000000000000       0.25000000000000000        0.0000000000000000     
  0.78125000000000000       0.25000000000000000        0.0000000000000000     
  0.81250000000000000       0.25000000000000000        0.0000000000000000     
  0.84375000000000000       0.25000000000000000        0.0000000000000000     
  0.87500000000000000       0.25000000000000000        0.0000000000000000     
  0.75000000000000000       0.28125000000000000        0.0000000000000000     
  0.78125000000000000       0.28125000000000000        0.0000000000000000     
  0.81250000000000000       0.28125000000000000        0.0000000000000000     
  0.84375000000000000       0.28125000000000000        0.0000000000000000     
  0.87500000000000000       0.28125000000000000        0.0000000000000000     
  0.75000000000000000       0.31250000000000000        0.0000000000000000     
  0.78125000000000000       0.31250000000000000        0.0000000000000000     
  0.81250000000000000       0.31250000000000000        0.0000000000000000     
  0.84375000000000000       0.31250000000000000        0.0000000000000000     
  0.87500000000000000       0.31250000000000000        0.0000000000000000     
  0.75000000000000000       0.34375000000000000        0.0000000000000000     
  0.78125000000000000       0.34375000000000000        0.0000000000000000     
  0.81250000000000000       0.34375000000000000        0.0000000000000000     
  0.84375000000000000       0.34375000000000000        0.0000000000000000     
  0.87500000000000000       0.34375000000000000        0.0000000000000000     
  0.75000000000000000       0.37500000000000000        0.0000000000000000     
  0.78125000000000000       0.37500000000000000        0.0000000000000000     
  0.81250000000000000       0.37500000000000000        0.0000000000000000     
  0.84375000000000000       0.37500000000000000        0.0000000000000000     
  0.87500000000000000       0.37500000000000000        0.0000000000000000     
  0.87500000000000000       0.25000000000000000        0.0000000000000000     
  0.90625000000000000       0.25000000000000000        0.0000000000000000     
  0.93750000000000000       0.25000000000000000        0.0000000000000000     
  0.96875000000000000       0.25000000000000000        0.0000000000000000     
   1.0000000000000000       0.25000000000000000        0.0000000000000000     
  0.87500000000000000       0.28125000000000000        0.0000000000000000     
  0.90625000000000000       0.28125000000000000        0.0000000000000000     
  0.93750000000000000       0.28125000000000000        0.0000000000000000     
  0.96875000000000000       0.28125000000000000        0.0000000000000000     
   1.0000000000000000       0.28125000000000000        0.0000000000000000     
  0.87500000000000000       0.31250000000000000        0.0000000000000000     
  0.90625000000000000       0.31250000000000000        0.0000000000000000     
  0.93750000000000000       0.31250000000000000        0.0000000000000000     
  0.96875000000000000       0.31250000000000000        0.0000000000000000     
   1.0000000000000000       0.31250000000000000        0.0000000000000000     
  0.87500000000000000       0.34375000000000000        0.0000000000000000     
  0.90625000000000000       0.34375000000000000        0.0000000000000000     
  0.93750000000000000       0.34375000000000000        0.0000000000000000     
  0.96875000000000000       0.34375000000000000        0.0000000000000000     
   1.0000000000000000       0.34375000000000000        0.0000000000000000     
  0.87500000000000000       0.37500000000000000        0.0000000000000000     
  0.90625000000000000       0.37500000000000000        0.0000000000000000     
  0.93750000000000000       0.37500000000000000        0.0000000000000000     
  0.96875000000000000       0.37500000000000000        0.0000000000000000     
   1.0000000000000000       0.37500000000000000        0.0000000000000000     
   0.0000000000000000       0.37500000000000000        0.0000000000000000     
   3.1250000000000000E-002  0.37500000000000000        0.0000000000000000     
   6.2500000000000000E-002  0.37500000000000000        0.0000000000000000     
   9.3750000000000000E-002  0.37500000000000000        0.0000000000000000     
  0.12500000000000000       0.37500000000000000        0.0000000000000000     
   0.0000000000000000       0.40625000000000000        0.0000000000000000     
   3.1250000000000000E-002  0.40625000000000000        0.0000000000000000     
   6.2500000000000000E-002  0.40625000000000000        0.0000000000000000     
   9.3750000000000000E-002  0.40625000000000000        0.0000000000000000     
  0.12500000000000000       0.40625000000000000        0.0000000000000000     
   0.0000000000000000       0.43750000000000000        0.0000000000000000     
   3.1250000000000000E-002  0.43750000000000000        0.0000000000000000     
   6.2500000000000000E-002  0.43750000000000000        0.0000000000000000     
   9.3750000000000000E-002  0.43750000000000000        0.0000000000000000     
  0.12500000000000000       0.43750000000000000        0.0000000000000000     
   0.0000000000000000       0.46875000000000000        0.0000000000000000     
   3.1250000000000000E-002  0.46875000000000000        0.0000000000000000     
   6.2500000000000000E-002  0.46875000000000000        0.0000000000000000     
   9.3750000000000000E-002  0.46875000000000000        0.0000000000000000     
  0.12500000000000000       0.46875000000000000        0.0000000000000000     
   0.0000000000000000       0.50000000000000000        0.0000000000000000     
   3.1250000000000000E-002  0.50000000000000000        0.0000000000000000     
   6.2500000000000000E-002  0.50000000000000000        0.0000000000000000     
   9.3750000000000000E-002  0.50000000000000000        0.0000000000000000     
  0.12500000000000000       0.50000000000000000        0.0000000000000000     
  0.12500000000000000       0.37500000000000000        0.0000000000000000     
  0.15625000000000000       0.37500000000000000        0.0000000000000000     
  0.18750000000000000       0.37500000000000000        0.0000000000000000     
  0.21875000000000000       0.37500000000000000        0.0000000000000000     
  0.25000000000000000       0.37500000000000000        0.0000000000000000     
  0.12500000000000000       0.40625000000000000        0.0000000000000000     
  0.15625000000000000       0.40625000000000000        0.0000000000000000     
  0.18750000000000000       0.40625000000000000        0.0000000000000000     
  0.21875000000000000       0.40625000000000000        0.0000000000000000     
  0.25000000000000000       0.40625000000000000        0.0000000000000000     
  0.12500000000000000       0.43750000000000000        0.0000000000000000     
  0.15625000000000000       0.43750000000000000        0.0000000000000000     
  0.18750000000000000       0.43750000000000000        0.0000000000000000     
  0.21875000000000000       0.43750000000000000        0.0000000000000000     
  0.25000000000000000       0.43750000000000000        0.0000000000000000     
  0.12500000000000000       0.46875000000000000        0.0000000000000000     
  0.15625000000000000       0.46875000000000000        0.0000000000000000     
  0.18750000000000000       0.46875000000000000        0.0000000000000000     
  0.21875000000000000       0.46875000000000000        0.0000000000000000     
  0.25000000000000000       0.46875000000000000        0.0000000000000000     
  0.12500000000000000       0.50000000000000000        0.0000000000000000     
  0.15625000000000000       0.50000000000000000        0.0000000000000000     
  0.18750000000000000       0.50000000000000000        0.0000000000000000     
  0.21875000000000000       0.50000000000000000        0.0000000000000000     
  0.25000000000000000       0.50000000000000000        0.0000000000000000     
  0.25000000000000000       0.37500000000000000        0.0000000000000000     
  0.28125000000000000       0.37500000000000000        0.0000000000000000     
  0.31250000000000000       0.37500000000000000        0.0000000000000000     
  0.34375000000000000       0.37500000000000000        0.0000000000000000     
  0.37500000000000000       0.37500000000000000        0.0000000000000000     
  0.25000000000000000       0.40625000000000000        0.0000000000000000     
  0.28125000000000000       0.40625000000000000        0.0000000000000000     
  0.31250000000000000       0.40625000000000000        0.0000000000000000     
  0.34375000000000000       0.40625000000000000        0.0000000000000000     
  0.37500000000000000       0.40625000000000000        0.0000000000000000     
  0.25000000000000000       0.43750000000000000        0.0000000000000000     
  0.28125000000000000       0.43750000000000000        0.0000000000000000     
  0.31250000000000000       0.43750000000000000        0.0000000000000000     
  0.34375000000000000       0.43750000000000000        0.0000000000000000     
  0.37500000000000000       0.43750000000000000        0.0000000000000000     
  0.25000000000000000       0.46875000000000000        0.0000000000000000     
  0.28125000000000000       0.46875000000000000        0.0000000000000000     
  0.31250000000000000       0.46875000000000000        0.0000000000000000     
  0.34375000000000000       0.46875000000000000        0.0000000000000000     
  0.37500000000000000       0.46875000000000000        0.0000000000000000     
  0.25000000000000000       0.50000000000000000        0.0000000000000000     
  0.28125000000000000       0.50000000000000000        0.0000000000000000     
  0.31250000000000000       0.50000000000000000        0.0000000000000000     
  0.34375000000000000       0.50000000000000000        0.0000000000000000     
  0.37500000000000000       0.50000000000000000        0.0000000000000000     
  0.37500000000000000       0.37500000000000000        0.0000000000000000     
  0.40625000000000000       0.37500000000000000        0.0000000000000000     
  0.43750000000000000       0.37500000000000000        0.0000000000000000     
  0.46875000000000000       0.37500000000000000        0.0000000000000000     
  0.50000000000000000       0.37500000000000000        0.0000000000000000     
  0.37500000000000000       0.40625000000000000        0.0000000000000000     
  0.40625000000000000       0.40625000000000000        0.0000000000000000     
  0.43750000000000000       0.40625000000000000        0.0000000000000000     
  0.46875000000000000       0.40625000000000000        0.0000000000000000     
  0.50000000000000000       0.40625000000000000        0.0000000000000000     
  0.37500000000000000       0.43750000000000000        0.0000000000000000     
  0.40625000000000000       0.43750000000000000        0.0000000000000000     
  0.43750000000000000       0.43750000000000000        0.0000000000000000     
  0.46875000000000000       0.43750000000000000        0.0000000000000000     
  0.50000000000000000       0.43750000000000000        0.0000000000000000     
  0.37500000000000000       0.46875000000000000        0.0000000000000000     
  0.40625000000000000       0.46875000000000000        0.0000000000000000     
  0.43750000000000000       0.46875000000000000        0.0000000000000000     
  0.46875000000000000       0.46875000000000000        0.0000000000000000     
  0.50000000000000000       0.46875000000000000        0.0000000000000000     
  0.37500000000000000       0.50000000000000000        0.0000000000000000     
  0.40625000000000000       0.50000000000000000        0.0000000000000000     
  0.43750000000000000       0.50000000000000000        0.0000000000000000     
  0.46875000000000000       0.50000000000000000        0.0000000000000000     
  0.50000000000000000       0.50000000000000000        0.0000000000000000     
  0.50000000000000000       0.37500000000000000        0.0000000000000000     
  0.53125000000000000       0.37500000000000000        0.0000000000000000     
  0.56250000000000000       0.37500000000000000        0.0000000000000000     
  0.59375000000000000       0.37500000000000000        0.0000000000000000     
  0.62500000000000000       0.37500000000000000        0.0000000000000000     
  0.50000000000000000       0.40625000000000000        0.0000000000000000     
  0.53125000000000000       0.40625000000000000        0.0000000000000000     
  0.56250000000000000       0.40625000000000000        0.0000000000000000     
  0.59375000000000000       0.40625000000000000        0.0000000000000000     
  0.62500000000000000       0.40625000000000000        0.0000000000000000     
  0.50000000000000000       0.43750000000000000        0.0000000000000000     
  0.53125000000000000       0.43750000000000000        0.0000000000000000     
  0.56250000000000000       0.43750000000000000        0.0000000000000000     
  0.59375000000000000       0.43750000000000000        0.0000000000000000     
  0.62500000000000000       0.43750000000000000        0.0000000000000000     
  0.50000000000000000       0.46875000000000000        0.0000000000000000     
  0.53125000000000000       0.46875000000000000        0.0000000000000000     
  0.56250000000000000       0.46875000000000000        0.0000000000000000     
  0.59375000000000000       0.46875000000000000        0.0000000000000000     
  0.62500000000000000       0.46875000000000000        0.0000000000000000     
  0.50000000000000000       0.50000000000000000        0.0000000000000000     
  0.53125000000000000       0.50000000000000000        0.0000000000000000     
  0.56250000000000000       0.50000000000000000        0.0000000000000000     
  0.59375000000000000       0.50000000000000000        0.0000000000000000     
  0.62500000000000000       0.50000000000000000        0.0000000000000000     
  0.62500000000000000       0.37500000000000000        0.0000000000000000     
  0.65625000000000000       0.37500000000000000        0.0000000000000000     
  0.68750000000000000       0.37500000000000000        0.0000000000000000     
  0.71875000000000000       0.37500000000000000        0.0000000000000000     
  0.75000000000000000       0.37500000000000000        0.0000000000000000     
  0.62500000000000000       0.40625000000000000        0.0000000000000000     
  0.65625000000000000       0.40625000000000000        0.0000000000000000     
  0.68750000000000000       0.40625000000000000        0.0000000000000000     
  0.71875000000000000       0.40625000000000000        0.0000000000000000     
  0.75000000000000000       0.40625000000000000        0.0000000000000000     
  0.62500000000000000       0.43750000000000000        0.0000000000000000     
  0.65625000000000000       0.43750000000000000        0.0000000000000000     
  0.68750000000000000       0.43750000000000000        0.0000000000000000     
  0.71875000000000000       0.43750000000000000        0.0000000000000000     
  0.75000000000000000       0.43750000000000000        0.0000000000000000     
  0.62500000000000000       0.46875000000000000        0.0000000000000000     
  0.65625000000000000       0.46875000000000000        0.0000000000000000     
  0.68750000000000000       0.46875000000000000        0.0000000000000000     
  0.71875000000000000       0.46875000000000000        0.0000000000000000     
  0.75000000000000000       0.46875000000000000        0.0000000000000000     
  0.62500000000000000       0.50000000000000000        0.0000000000000000     
  0.65625000000000000       0.50000000000000000        0.0000000000000000     
  0.68750000000000000       0.50000000000000000        0.0000000000000000     
  0.71875000000000000       0.50000000000000000        0.0000000000000000     
  0.75000000000000000       0.50000000000000000        0.0000000000000000     
  0.75000000000000000       0.37500000000000000        0.0000000000000000     
  0.78125000000000000       0.37500000000000000        0.0000000000000000     
  0.81250000000000000       0.37500000000000000        0.0000000000000000     
  0.84375000000000000       0.37500000000000000        0.0000000000000000     
  0.87500000000000000       0.37500000000000000        0.0000000000000000     
  0.75000000000000000       0.40625000000000000        0.0000000000000000     
  0.78125000000000000       0.40625000000000000        0.0000000000000000     
  0.81250000000000000       0.40625000000000000        0.0000000000000000     
  0.84375000000000000       0.40625000000000000        0.0000000000000000     
  0.87500000000000000       0.40625000000000000        0.0000000000000000     
  0.75000000000000000       0.43750000000000000        0.0000000000000000     
  0.78125000000000000       0.43750000000000000        0.0000000000000000     
  0.81250000000000000       0.43750000000000000        0.0000000000000000     
  0.84375000000000000       0.43750000000000000        0.0000000000000000     
  0.87500000000000000       0.43750000000000000        0.0000000000000000     
  0.75000000000000000       0.46875000000000000        0.0000000000000000     
  0.78125000000000000       0.46875000000000000        0.0000000000000000     
  0.81250000000000000       0.46875000000000000        0.0000000000000000     
  0.84375000000000000       0.46875000000000000        0.0000000000000000     
  0.87500000000000000       0.46875000000000000        0.0000000000000000     
  0.75000000000000000       0.50000000000000000        0.0000000000000000     
  0.78125000000000000       0.50000000000000000        0.0000000000000000     
  0.81250000000000000       0.50000000000000000        0.0000000000000000     
  0.84375000000000000       0.50000000000000000        0.0000000000000000     
  0.87500000000000000       0.50000000000000000        0.0000000000000000     
  0.87500000000000000       0.37500000000000000        0.0000000000000000     
  0.90625000000000000       0.37500000000000000        0.0000000000000000     
  0.93750000000000000       0.37500000000000000        0.0000000000000000     
  0.96875000000000000       0.37500000000000000        0.0000000000000000     
   1.0000000000000000       0.37500000000000000        0.0000000000000000     
  0.87500000000000000       0.40625000000000000        0.0000000000000000     
  0.90625000000000000       0.40625000000000000        0.0000000000000000     
  0.93750000000000000       0.40625000000000000        0.0000000000000000     
  0.96875000000000000       0.40625000000000000        0.0000000000000000     
   1.0000000000000000       0.40625000000000000        0.0000000000000000     
  0.87500000000000000       0.43750000000000000        0.0000000000000000     
  0.90625000000000000       0.43750000000000000        0.0000000000000000     
  0.93750000000000000       0.43750000000000000        0.0000000000000000     
  0.96875000000000000       0.43750000000000000        0.0000000000000000     
   1.0000000000000000       0.43750000000000000        0.0000000000000000     
  0.87500000000000000       0.46875000000000000        0.0000000000000000     
  0.90625000000000000       0.46875000000000000        0.0000000000000000     
  0.93750000000000000       0.46875000000000000        0.0000000000000000     
  0.96875000000000000       0.46875000000000000        0.0000000000000000     
   1.0000000000000000       0.46875000000000000        0.0000000000000000     
  0.87500000000000000       0.50000000000000000        0.0000000000000000     
  0.90625000000000000       0.50000000000000000        0.0000000000000000     
  0.93750000000000000       0.50000000000000000        0.0000000000000000     
  0.96875000000000000       0.50000000000000000        0.0000000000000000     
   1.0000000000000000       0.50000000000000000        0.0000000000000000     
   0.0000000000000000       0.50000000000000000        0.0000000000000000     
   3.1250000000000000E-002  0.50000000000000000        0.0000000000000000     
   6.2500000000000000E-002  0.50000000000000000        0.0000000000000000     
   9.3750000000000000E-002  0.50000000000000000        0.0000000000000000     
  0.12500000000000000       0.50000000000000000        0.0000000000000000     
   0.0000000000000000       0.53125000000000000        0.0000000000000000     
   3.1250000000000000E-002  0.53125000000000000        0.0000000000000000     
   6.2500000000000000E-002  0.53125000000000000        0.0000000000000000     
   9.3750000000000000E-002  0.53125000000000000        0.0000000000000000     
  0.12500000000000000       0.53125000000000000        0.0000000000000000     
   0.0000000000000000       0.56250000000000000        0.0000000000000000     
   3.1250000000000000E-002  0.56250000000000000        0.0000000000000000     
   6.2500000000000000E-002  0.56250000000000000        0.0000000000000000     
   9.3750000000000000E-002  0.56250000000000000        0.0000000000000000     
  0.12500000000000000       0.56250000000000000        0.0000000000000000     
   0.0000000000000000       0.59375000000000000        0.0000000000000000     
   3.1250000000000000E-002  0.59375000000000000        0.0000000000000000     
   6.2500000000000000E-002  0.59375000000000000        0.0000000000000000     
   9.3750000000000000E-002  0.59375000000000000        0.0000000000000000     
  0.12500000000000000       0.59375000000000000        0.0000000000000000     
   0.0000000000000000       0.62500000000000000        0.0000000000000000     
   3.1250000000000000E-002  0.62500000000000000        0.0000000000000000     
   6.2500000000000000E-002  0.62500000000000000        0.0000000000000000     
   9.3750000000000000E-002  0.62500000000000000        0.0000000000000000     
  0.12500000000000000       0.62500000000000000        0.0000000000000000     
  0.12500000000000000       0.50000000000000000        0.0000000000000000     
  0.15625000000000000       0.50000000000000000        0.0000000000000000     
  0.18750000000000000       0.50000000000000000        0.0000000000000000     
  0.21875000000000000       0.50000000000000000        0.0000000000000000     
  0.25000000000000000       0.50000000000000000        0.0000000000000000     
  0.12500000000000000       0.53125000000000000        0.0000000000000000     
  0.15625000000000000       0.53125000000000000        0.0000000000000000     
  0.18750000000000000       0.53125000000000000        0.0000000000000000     
  0.21875000000000000       0.53125000000000000        0.0000000000000000     
  0.25000000000000000       0.53125000000000000        0.0000000000000000     
  0.12500000000000000       0.56250000000000000        0.0000000000000000     
  0.15625000000000000       0.56250000000000000        0.0000000000000000     
  0.18750000000000000       0.56250000000000000        0.0000000000000000     
  0.21875000000000000       0.56250000000000000        0.0000000000000000     
  0.25000000000000000       0.56250000000000000        0.0000000000000000     
  0.12500000000000000       0.59375000000000000        0.0000000000000000     
  0.15625000000000000       0.59375000000000000        0.0000000000000000     
  0.18750000000000000       0.59375000000000000        0.0000000000000000     
  0.21875000000000000       0.59375000000000000        0.0000000000000000     
  0.25000000000000000       0.59375000000000000        0.0000000000000000     
  0.12500000000000000       0.62500000000000000        0.0000000000000000     
  0.15625000000000000       0.62500000000000000        0.0000000000000000     
  0.18750000000000000       0.62500000000000000        0.0000000000000000     
  0.21875000000000000       0.62500000000000000        0.0000000000000000     
  0.25000000000000000       0.62500000000000000        0.0000000000000000     
  0.25000000000000000       0.50000000000000000        0.0000000000000000     
  0.28125000000000000       0.50000000000000000        0.0000000000000000     
  0.31250000000000000       0.50000000000000000        0.0000000000000000     
  0.34375000000000000       0.50000000000000000        0.0000000000000000     
  0.37500000000000000       0.50000000000000000        0.0000000000000000     
  0.25000000000000000       0.53125000000000000        0.0000000000000000     
  0.28125000000000000       0.53125000000000000        0.0000000000000000     
  0.31250000000000000       0.53125000000000000        0.0000000000000000     
  0.34375000000000000       0.53125000000000000        0.0000000000000000     
  0.37500000000000000       0.53125000000000000        0.0000000000000000     
  0.25000000000000000       0.56250000000000000        0.0000000000000000     
  0.28125000000000000       0.56250000000000000        0.0000000000000000     
  0.31250000000000000       0.56250000000000000        0.0000000000000000     
  0.34375000000000000       0.56250000000000000        0.0000000000000000     
  0.37500000000000000       0.56250000000000000        0.0000000000000000     
  0.25000000000000000       0.59375000000000000        0.0000000000000000     
  0.28125000000000000       0.59375000000000000        0.0000000000000000     
  0.31250000000000000       0.59375000000000000        0.0000000000000000     
  0.34375000000000000       0.59375000000000000        0.0000000000000000     
  0.37500000000000000       0.59375000000000000        0.0000000000000000     
  0.25000000000000000       0.62500000000000000        0.0000000000000000     
  0.28125000000000000       0.62500000000000000        0.0000000000000000     
  0.31250000000000000       0.62500000000000000        0.0000000000000000     
  0.34375000000000000       0.62500000000000000        0.0000000000000000     
  0.37500000000000000       0.62500000000000000        0.0000000000000000     
  0.37500000000000000       0.50000000000000000        0.0000000000000000     
  0.40625000000000000       0.50000000000000000        0.0000000000000000     
  0.43750000000000000       0.50000000000000000        0.0000000000000000     
  0.46875000000000000       0.50000000000000000        0.0000000000000000     
  0.50000000000000000       0.50000000000000000        0.0000000000000000     
  0.37500000000000000       0.53125000000000000        0.0000000000000000     
  0.40625000000000000       0.53125000000000000        0.0000000000000000     
  0.43750000000000000       0.53125000000000000        0.0000000000000000     
  0.46875000000000000       0.53125000000000000        0.0000000000000000     
  0.50000000000000000       0.53125000000000000        0.0000000000000000     
  0.37500000000000000       0.56250000000000000        0.0000000000000000     
  0.40625000000000000       0.56250000000000000        0.0000000000000000     
  0.43750000000000000       0.56250000000000000        0.0000000000000000     
  0.46875000000000000       0.56250000000000000        0.0000000000000000     
  0.50000000000000000       0.56250000000000000        0.0000000000000000     
  0.37500000000000000       0.59375000000000000        0.0000000000000000     
  0.40625000000000000       0.59375000000000000        0.0000000000000000     
  0.43750000000000000       0.59375000000000000        0.0000000000000000     
  0.46875000000000000       0.59375000000000000        0.0000000000000000     
  0.50000000000000000       0.59375000000000000        0.0000000000000000     
  0.37500000000000000       0.62500000000000000        0.0000000000000000     
  0.40625000000000000       0.62500000000000000        0.0000000000000000     
  0.43750000000000000       0.62500000000000000        0.0000000000000000     
  0.46875000000000000       0.62500000000000000        0.0000000000000000     
  0.50000000000000000       0.62500000000000000        0.0000000000000000     
  0.50000000000000000       0.50000000000000000        0.0000000000000000     
  0.53125000000000000       0.50000000000000000        0.0000000000000000     
  0.56250000000000000       0.50000000000000000        0.0000000000000000     
  0.59375000000000000       0.50000000000000000        0.0000000000000000     
  0.62500000000000000       0.50000000000000000        0.0000000000000000     
  0.50000000000000000       0.53125000000000000        0.0000000000000000     
  0.53125000000000000       0.53125000000000000        0.0000000000000000     
  0.56250000000000000       0.53125000000000000        0.0000000000000000     
  0.59375000000000000       0.53125000000000000        0.0000000000000000     
  0.62500000000000000       0.53125000000000000        0.0000000000000000     
  0.50000000000000000       0.56250000000000000        0.0000000000000000     
  0.53125000000000000       0.56250000000000000        0.0000000000000000     
  0.56250000000000000       0.56250000000000000        0.0000000000000000     
  0.59375000000000000       0.56250000000000000        0.0000000000000000     
  0.62500000000000000       0.56250000000000000        0.0000000000000000     
  0.50000000000000000       0.59375000000000000        0.0000000000000000     
  0.53125000000000000       0.59375000000000000        0.0000000000000000     
  0.56250000000000000       0.59375000000000000        0.0000000000000000     
  0.59375000000000000       0.59375000000000000        0.0000000000000000     
  0.62500000000000000       0.59375000000000000        0.0000000000000000     
  0.50000000000000000       0.62500000000000000        0.0000000000000000     
  0.53125000000000000       0.62500000000000000        0.0000000000000000     
  0.56250000000000000       0.62500000000000000        0.0000000000000000     
  0.59375000000000000       0.62500000000000000        0.0000000000000000     
  0.62500000000000000       0.62500000000000000        0.0000000000000000     
  0.62500000000000000       0.50000000000000000        0.0000000000000000     
  0.65625000000000000       0.50000000000000000        0.0000000000000000     
  0.68750000000000000       0.50000000000000000        0.0000000000000000     
  0.71875000000000000       0.50000000000000000        0.0000000000000000     
  0.75000000000000000       0.50000000000000000        0.0000000000000000     
  0.62500000000000000       0.53125000000000000        0.0000000000000000     
  0.65625000000000000       0.53125000000000000        0.0000000000000000     
  0.68750000000000000       0.53125000000000000        0.0000000000000000     
  0.71875000000000000       0.53125000000000000        0.0000000000000000     
  0.75000000000000000       0.53125000000000000        0.0000000000000000     
  0.62500000000000000       0.56250000000000000        0.0000000000000000     
  0.65625000000000000       0.56250000000000000        0.0000000000000000     
  0.68750000000000000       0.56250000000000000        0.0000000000000000     
  0.71875000000000000       0.56250000000000000        0.0000000000000000     
  0.75000000000000000       0.56250000000000000        0.0000000000000000     
  0.62500000000000000       0.59375000000000000        0.0000000000000000     
  0.65625000000000000       0.59375000000000000        0.0000000000000000     
  0.68750000000000000       0.59375000000000000        0.0000000000000000     
  0.71875000000000000       0.59375000000000000        0.0000000000000000     
  0.75000000000000000       0.59375000000000000        0.0000000000000000     
  0.62500000000000000       0.62500000000000000        0.0000000000000000     
  0.65625000000000000       0.62500000000000000        0.0000000000000000     
  0.68750000000000000       0.62500000000000000        0.0000000000000000     
  0.71875000000000000       0.62500000000000000        0.0000000000000000     
  0.75000000000000000       0.62500000000000000        0.0000000000000000     
  0.75000000000000000       0.50000000000000000        0.0000000000000000     
  0.78125000000000000       0.50000000000000000        0.0000000000000000     
  0.81250000000000000       0.50000000000000000        0.0000000000000000     
  0.84375000000000000       0.50000000000000000        0.0000000000000000     
  0.87500000000000000       0.50000000000000000        0.0000000000000000     
  0.75000000000000000       0.53125000000000000        0.0000000000000000     
  0.78125000000000000       0.53125000000000000        0.0000000000000000     
  0.81250000000000000       0.53125000000000000        0.0000000000000000     
  0.84375000000000000       0.53125000000000000        0.0000000000000000     
  0.87500000000000000       0.53125000000000000        0.0000000000000000     
  0.75000000000000000       0.56250000000000000        0.0000000000000000     
  0.78125000000000000       0.56250000000000000        0.0000000000000000     
  0.81250000000000000       0.56250000000000000        0.0000000000000000     
  0.84375000000000000       0.56250000000000000        0.0000000000000000     
  0.87500000000000000       0.56250000000000000        0.0000000000000000     
  0.75000000000000000       0.59375000000000000        0.0000000000000000     
  0.78125000000000000       0.59375000000000000        0.0000000000000000     
  0.81250000000000000       0.59375000000000000        0.0000000000000000     
  0.84375000000000000       0.59375000000000000        0.0000000000000000     
  0.87500000000000000       0.59375000000000000        0.0000000000000000     
  0.75000000000000000       0.62500000000000000        0.0000000000000000     
  0.78125000000000000       0.62500000000000000        0.0000000000000000     
  0.81250000000000000       0.62500000000000000        0.0000000000000000     
  0.84375000000000000       0.62500000000000000        0.0000000000000000     
  0.87500000000000000       0.62500000000000000        0.0000000000000000     
  0.87500000000000000       0.50000000000000000        0.0000000000000000     
  0.90625000000000000       0.50000000000000000        0.0000000000000000     
  0.93750000000000000       0.50000000000000000        0.0000000000000000     
  0.96875000000000000       0.50000000000000000        0.0000000000000000     
   1.0000000000000000       0.50000000000000000        0.0000000000000000     
  0.87500000000000000       0.53125000000000000        0.0000000000000000     
  0.90625000000000000       0.53125000000000000        0.0000000000000000     
  0.93750000000000000       0.53125000000000000        0.0000000000000000     
  0.96875000000000000       0.53125000000000000        0.0000000000000000     
   1.0000000000000000       0.53125000000000000        0.0000000000000000     
  0.87500000000000000       0.56250000000000000        0.0000000000000000     
  0.90625000000000000       0.56250000000000000        0.0000000000000000     
  0.93750000000000000       0.56250000000000000        0.0000000000000000     
  0.96875000000000000       0.56250000000000000        0.0000000000000000     
   1.0000000000000000       0.56250000000000000        0.0000000000000000     
  0.87500000000000000       0.59375000000000000        0.0000000000000000     
  0.90625000000000000       0.59375000000000000        0.0000000000000000     
  0.93750000000000000       0.59375000000000000        0.0000000000000000     
  0.96875000000000000       0.59375000000000000        0.0000000000000000     
   1.0000000000000000       0.59375000000000000        0.0000000000000000     
  0.87500000000000000       0.62500000000000000        0.0000000000000000     
  0.90625000000000000       0.62500000000000000        0.0000000000000000     
  0.93750000000000000       0.62500000000000000        0.0000000000000000     
  0.96875000000000000       0.62500000000000000        0.0000000000000000     
   1.0000000000000000       0.62500000000000000        0.0000000000000000     
   0.0000000000000000       0.62500000000000000        0.0000000000000000     
   3.1250000000000000E-002  0.62500000000000000        0.0000000000000000     
   6.2500000000000000E-002  0.62500000000000000        0.0000000000000000     
   9.3750000000000000E-002  0.62500000000000000        0.0000000000000000     
  0.12500000000000000       0.62500000000000000        0.0000000000000000     
   0.0000000000000000       0.65625000000000000        0.0000000000000000     
   3.1250000000000000E-002  0.65625000000000000        0.0000000000000000     
   6.2500000000000000E-002  0.65625000000000000        0.0000000000000000     
   9.3750000000000000E-002  0.65625000000000000        0.0000000000000000     
  0.12500000000000000       0.65625000000000000        0.0000000000000000     
   0.0000000000000000       0.68750000000000000        0.0000000000000000     
   3.1250000000000000E-002  0.68750000000000000        0.0000000000000000     
   6.2500000000000000E-002  0.68750000000000000        0.0000000000000000     
   9.3750000000000000E-002  0.68750000000000000        0.0000000000000000     
  0.12500000000000000       0.68750000000000000        0.0000000000000000     
   0.0000000000000000       0.71875000000000000        0.0000000000000000     
   3.1250000000000000E-002  0.71875000000000000        0.0000000000000000     
   6.2500000000000000E-002  0.71875000000000000        0.0000000000000000     
   9.3750000000000000E-002  0.71875000000000000        0.0000000000000000     
  0.12500000000000000       0.71875000000000000        0.0000000000000000     
   0.0000000000000000       0.75000000000000000        0.0000000000000000     
   3.1250000000000000E-002  0.75000000000000000        0.0000000000000000     
   6.2500000000000000E-002  0.75000000000000000        0.0000000000000000     
   9.3750000000000000E-002  0.75000000000000000        0.0000000000000000     
  0.12500000000000000       0.75000000000000000        0.0000000000000000     
  0.12500000000000000       0.62500000000000000        0.0000000000000000     
  0.15625000000000000       0.62500000000000000        0.0000000000000000     
  0.18750000000000000       0.62500000000000000        0.0000000000000000     
  0.21875000000000000       0.62500000000000000        0.0000000000000000     
  0.25000000000000000       0.62500000000000000        0.0000000000000000     
  0.12500000000000000       0.65625000000000000        0.0000000000000000     
  0.15625000000000000       0.65625000000000000        0.0000000000000000     
  0.18750000000000000       0.65625000000000000        0.0000000000000000     
  0.21875000000000000       0.65625000000000000        0.0000000000000000     
  0.25000000000000000       0.65625000000000000        0.0000000000000000     
  0.12500000000000000       0.68750000000000000        0.0000000000000000     
  0.15625000000000000       0.68750000000000000        0.0000000000000000     
  0.18750000000000000       0.68750000000000000        0.0000000000000000     
  0.21875000000000000       0.68750000000000000        0.0000000000000000     
  0.25000000000000000       0.68750000000000000        0.0000000000000000     
  0.12500000000000000       0.71875000000000000        0.0000000000000000     
  0.15625000000000000       0.71875000000000000        0.0000000000000000     
  0.18750000000000000       0.71875000000000000        0.0000000000000000     
  0.21875000000000000       0.71875000000000000        0.0000000000000000     
  0.25000000000000000       0.71875000000000000        0.0000000000000000     
  0.12500000000000000       0.75000000000000000        0.0000000000000000     
  0.15625000000000000       0.75000000000000000        0.0000000000000000     
  0.18750000000000000       0.75000000000000000        0.0000000000000000     
  0.21875000000000000       0.75000000000000000        0.0000000000000000     
  0.25000000000000000       0.75000000000000000        0.0000000000000000     
  0.25000000000000000       0.62500000000000000        0.0000000000000000     
  0.28125000000000000       0.62500000000000000        0.0000000000000000     
  0.31250000000000000       0.62500000000000000        0.0000000000000000     
  0.34375000000000000       0.62500000000000000        0.0000000000000000     
  0.37500000000000000       0.62500000000000000        0.0000000000000000     
  0.25000000000000000       0.65625000000000000        0.0000000000000000     
  0.28125000000000000       0.65625000000000000        0.0000000000000000     
  0.31250000000000000       0.65625000000000000        0.0000000000000000     
  0.34375000000000000       0.65625000000000000        0.0000000000000000     
  0.37500000000000000       0.65625000000000000        0.0000000000000000     
  0.25000000000000000       0.68750000000000000        0.0000000000000000     
  0.28125000000000000       0.68750000000000000        0.0000000000000000     
  0.31250000000000000       0.68750000000000000        0.0000000000000000     
  0.34375000000000000       0.68750000000000000        0.0000000000000000     
  0.37500000000000000       0.68750000000000000        0.0000000000000000     
  0.25000000000000000       0.71875000000000000        0.0000000000000000     
  0.28125000000000000       0.71875000000000000        0.0000000000000000     
  0.31250000000000000       0.71875000000000000        0.0000000000000000     
  0.34375000000000000       0.71875000000000000        0.0000000000000000     
  0.37500000000000000       0.71875000000000000        0.0000000000000000     
  0.25000000000000000       0.75000000000000000        0.0000000000000000     
  0.28125000000000000       0.75000000000000000        0.0000000000000000     
  0.31250000000000000       0.75000000000000000        0.0000000000000000     
  0.34375000000000000       0.75000000000000000        0.0000000000000000     
  0.37500000000000000       0.75000000000000000        0.0000000000000000     
  0.37500000000000000       0.62500000000000000        0.0000000000000000     
  0.40625000000000000       0.62500000000000000        0.0000000000000000     
  0.43750000000000000       0.62500000000000000        0.0000000000000000     
  0.46875000000000000       0.62500000000000000        0.0000000000000000     
  0.50000000000000000       0.62500000000000000        0.0000000000000000     
  0.37500000000000000       0.65625000000000000        0.0000000000000000     
  0.40625000000000000       0.65625000000000000        0.0000000000000000     
  0.43750000000000000       0.65625000000000000        0.0000000000000000     
  0.46875000000000000       0.65625000000000000        0.0000000000000000     
  0.50000000000000000       0.65625000000000000        0.0000000000000000     
  0.37500000000000000       0.68750000000000000        0.0000000000000000     
  0.40625000000000000       0.68750000000000000        0.0000000000000000     
  0.43750000000000000       0.68750000000000000        0.0000000000000000     
  0.46875000000000000       0.68750000000000000        0.0000000000000000     
  0.50000000000000000       0.68750000000000000        0.0000000000000000     
  0.37500000000000000       0.71875000000000000        0.0000000000000000     
  0.40625000000000000       0.71875000000000000        0.0000000000000000     
  0.43750000000000000       0.71875000000000000        0.0000000000000000     
  0.46875000000000000       0.71875000000000000        0.0000000000000000     
  0.50000000000000000       0.71875000000000000        0.0000000000000000     
  0.37500000000000000       0.75000000000000000        0.0000000000000000     
  0.40625000000000000       0.75000000000000000        0.0000000000000000     
  0.43750000000000000       0.75000000000000000        0.0000000000000000     
  0.46875000000000000       0.75000000000000000        0.0000000000000000     
  0.50000000000000000       0.75000000000000000        0.0000000000000000     
  0.50000000000000000       0.62500000000000000        0.0000000000000000     
  0.53125000000000000       0.62500000000000000        0.0000000000000000     
  0.56250000000000000       0.62500000000000000        0.0000000000000000     
  0.59375000000000000       0.62500000000000000        0.0000000000000000     
  0.62500000000000000       0.62500000000000000        0.0000000000000000     
  0.50000000000000000       0.65625000000000000        0.0000000000000000     
  0.53125000000000000       0.65625000000000000        0.0000000000000000     
  0.56250000000000000       0.65625000000000000        0.0000000000000000     
  0.59375000000000000       0.65625000000000000        0.0000000000000000     
  0.62500000000000000       0.65625000000000000        0.0000000000000000     
  0.50000000000000000       0.68750000000000000        0.0000000000000000     
  0.53125000000000000       0.68750000000000000        0.0000000000000000     
  0.56250000000000000       0.68750000000000000        0.0000000000000000     
  0.59375000000000000       0.68750000000000000        0.0000000000000000     
  0.62500000000000000       0.68750000000000000        0.0000000000000000     
  0.50000000000000000       0.71875000000000000        0.0000000000000000     
  0.53125000000000000       0.71875000000000000        0.0000000000000000     
  0.56250000000000000       0.71875000000000000        0.0000000000000000     
  0.59375000000000000       0.71875000000000000        0.0000000000000000     
  0.62500000000000000       0.71875000000000000        0.0000000000000000     
  0.50000000000000000       0.75000000000000000        0.0000000000000000     
  0.53125000000000000       0.75000000000000000        0.0000000000000000     
  0.56250000000000000       0.75000000000000000        0.0000000000000000     
  0.59375000000000000       0.75000000000000000        0.0000000000000000     
  0.62500000000000000       0.75000000000000000        0.0000000000000000     
  0.62500000000000000       0.62500000000000000        0.0000000000000000     
  0.65625000000000000       0.62500000000000000        0.0000000000000000     
  0.68750000000000000       0.62500000000000000        0.0000000000000000     
  0.71875000000000000       0.62500000000000000        0.0000000000000000     
  0.75000000000000000       0.62500000000000000        0.0000000000000000     
  0.62500000000000000       0.65625000000000000        0.0000000000000000     
  0.65625000000000000       0.65625000000000000        0.0000000000000000     
  0.68750000000000000       0.65625000000000000        0.0000000000000000     
  0.71875000000000000       0.65625000000000000        0.0000000000000000     
  0.75000000000000000       0.65625000000000000        0.0000000000000000     
  0.62500000000000000       0.68750000000000000        0.0000000000000000     
  0.65625000000000000       0.68750000000000000        0.0000000000000000     
  0.68750000000000000       0.68750000000000000        0.0000000000000000     
  0.71875000000000000       0.68750000000000000        0.0000000000000000     
  0.75000000000000000       0.68750000000000000        0.0000000000000000     
  0.62500000000000000       0.71875000000000000        0.0000000000000000     
  0.65625000000000000       0.71875000000000000        0.0000000000000000     
  0.68750000000000000       0.71875000000000000        0.0000000000000000     
  0.71875000000000000       0.71875000000000000        0.0000000000000000     
  0.75000000000000000       0.71875000000000000        0.0000000000000000     
  0.62500000000000000       0.75000000000000000        0.0000000000000000     
  0.65625000000000000       0.75000000000000000        0.0000000000000000     
  0.68750000000000000       0.75000000000000000        0.0000000000000000     
  0.71875000000000000       0.75000000000000000        0.0000000000000000     
  0.75000000000000000       0.75000000000000000        0.0000000000000000     
  0.75000000000000000       0.62500000000000000        0.0000000000000000     
  0.78125000000000000       0.62500000000000000        0.0000000000000000     
  0.81250000000000000       0.62500000000000000        0.0000000000000000     
  0.84375000000000000       0.62500000000000000        0.0000000000000000     
  0.87500000000000000       0.62500000000000000        0.0000000000000000     
  0.75000000000000000       0.65625000000000000        0.0000000000000000     
  0.78125000000000000       0.65625000000000000        0.0000000000000000     
  0.81250000000000000       0.65625000000000000        0.0000000000000000     
  0.84375000000000000       0.65625000000000000        0.0000000000000000     
  0.87500000000000000       0.65625000000000000        0.0000000000000000     
  0.75000000000000000       0.68750000000000000        0.0000000000000000     
  0.78125000000000000       0.68750000000000000        0.0000000000000000     
  0.81250000000000000       0.68750000000000000        0.0000000000000000     
  0.84375000000000000       0.68750000000000000        0.0000000000000000     
  0.87500000000000000       0.68750000000000000        0.0000000000000000     
  0.75000000000000000       0.71875000000000000        0.0000000000000000     
  0.78125000000000000       0.71875000000000000        0.0000000000000000     
  0.81250000000000000       0.71875000000000000        0.0000000000000000     
  0.84375000000000000       0.71875000000000000        0.0000000000000000     
  0.87500000000000000       0.71875000000000000        0.0000000000000000     
  0.75000000000000000       0.75000000000000000        0.0000000000000000     
  0.78125000000000000       0.75000000000000000        0.0000000000000000     
  0.81250000000000000       0.75000000000000000        0.0000000000000000     
  0.84375000000000000       0.75000000000000000        0.0000000000000000     
  0.87500000000000000       0.75000000000000000        0.0000000000000000     
  0.87500000000000000       0.62500000000000000        0.0000000000000000     
  0.90625000000000000       0.62500000000000000        0.0000000000000000     
  0.93750000000000000       0.62500000000000000        0.0000000000000000     
  0.96875000000000000       0.62500000000000000        0.0000000000000000     
   1.0000000000000000       0.62500000000000000        0.0000000000000000     
  0.87500000000000000       0.65625000000000000        0.0000000000000000     
  0.90625000000000000       0.65625000000000000        0.0000000000000000     
  0.93750000000000000       0.65625000000000000        0.0000000000000000     
  0.96875000000000000       0.65625000000000000        0.0000000000000000     
   1.0000000000000000       0.65625000000000000        0.0000000000000000     
  0.87500000000000000       0.68750000000000000        0.0000000000000000     
  0.90625000000000000       0.68750000000000000        0.0000000000000000     
  0.93750000000000000       0.68750000000000000        0.0000000000000000     
  0.96875000000000000       0.68750000000000000        0.0000000000000000     
   1.0000000000000000       0.68750000000000000        0.0000000000000000     
  0.87500000000000000       0.71875000000000000        0.0000000000000000     
  0.90625000000000000       0.71875000000000000        0.0000000000000000     
  0.93750000000000000       0.71875000000000000        0.0000000000000000     
  0.96875000000000000       0.71875000000000000        0.0000000000000000     
   1.0000000000000000       0.71875000000000000        0.0000000000000000     
  0.87500000000000000       0.75000000000000000        0.0000000000000000     
  0.90625000000000000       0.75000000000000000        0.0000000000000000     
  0.93750000000000000       0.75000000000000000        0.0000000000000000     
  0.96875000000000000       0.75000000000000000        0.0000000000000000     
   1.0000000000000000       0.75000000000000000        0.0000000000000000     
   0.0000000000000000       0.75000000000000000        0.0000000000000000     
   3.1250000000000000E-002  0.75000000000000000        0.0000000000000000     
   6.2500000000000000E-002  0.75000000000000000        0.0000000000000000     
   9.3750000000000000E-002  0.75000000000000000        0.0000000000000000     
  0.12500000000000000       0.75000000000000000        0.0000000000000000     
   0.0000000000000000       0.78125000000000000        0.0000000000000000     
   3.1250000000000000E-002  0.78125000000000000        0.0000000000000000     
   6.2500000000000000E-002  0.78125000000000000        0.0000000000000000     
   9.3750000000000000E-002  0.78125000000000000        0.0000000000000000     
  0.12500000000000000       0.78125000000000000        0.0000000000000000     
   0.0000000000000000       0.81250000000000000        0.0000000000000000     
   3.1250000000000000E-002  0.81250000000000000        0.0000000000000000     
   6.2500000000000000E-002  0.81250000000000000        0.0000000000000000     
   9.3750000000000000E-002  0.81250000000000000        0.0000000000000000     
  0.12500000000000000       0.81250000000000000        0.0000000000000000     
   0.0000000000000000       0.84375000000000000        0.0000000000000000     
   3.1250000000000000E-002  0.84375000000000000        0.0000000000000000     
   6.2500000000000000E-002  0.84375000000000000        0.0000000000000000     
   9.3750000000000000E-002  0.84375000000000000        0.0000000000000000     
  0.12500000000000000       0.84375000000000000        0.0000000000000000     
   0.0000000000000000       0.87500000000000000        0.0000000000000000     
   3.1250000000000000E-002  0.87500000000000000        0.0000000000000000     
   6.2500000000000000E-002  0.87500000000000000        0.0000000000000000     
   9.3750000000000000E-002  0.87500000000000000        0.0000000000000000     
  0.12500000000000000       0.87500000000000000        0.0000000000000000     
  0.12500000000000000       0.75000000000000000        0.0000000000000000     
  0.15625000000000000       0.75000000000000000        0.0000000000000000     
  0.18750000000000000       0.75000000000000000        0.0000000000000000     
  0.21875000000000000       0.75000000000000000        0.0000000000000000     
  0.25000000000000000       0.75000000000000000        0.0000000000000000     
  0.12500000000000000       0.78125000000000000        0.0000000000000000     
  0.15625000000000000       0.78125000000000000        0.0000000000000000     
  0.18750000000000000       0.78125000000000000        0.0000000000000000     
  0.21875000000000000       0.78125000000000000        0.0000000000000000     
  0.25000000000000000       0.78125000000000000        0.0000000000000000     
  0.12500000000000000       0.81250000000000000        0.0000000000000000     
  0.15625000000000000       0.81250000000000000        0.0000000000000000     
  0.18750000000000000       0.81250000000000000        0.0000000000000000     
  0.21875000000000000       0.81250000000000000        0.0000000000000000     
  0.25000000000000000       0.81250000000000000        0.0000000000000000     
  0.12500000000000000       0.84375000000000000        0.0000000000000000     
  0.15625000000000000       0.84375000000000000        0.0000000000000000     
  0.18750000000000000       0.84375000000000000        0.0000000000000000     
  0.21875000000000000       0.84375000000000000        0.0000000000000000     
  0.25000000000000000       0.84375000000000000        0.0000000000000000     
  0.12500000000000000       0.87500000000000000        0.0000000000000000     
  0.15625000000000000       0.87500000000000000        0.0000000000000000     
  0.18750000000000000       0.87500000000000000        0.0000000000000000     
  0.21875000000000000       0.87500000000000000        0.0000000000000000     
  0.25000000000000000       0.87500000000000000        0.0000000000000000     
  0.25000000000000000       0.75000000000000000        0.0000000000000000     
  0.28125000000000000       0.75000000000000000        0.0000000000000000     
  0.31250000000000000       0.75000000000000000        0.0000000000000000     
  0.34375000000000000       0.75000000000000000        0.0000000000000000     
  0.37500000000000000       0.75000000000000000        0.0000000000000000     
  0.25000000000000000       0.78125000000000000        0.0000000000000000     
  0.28125000000000000       0.78125000000000000        0.0000000000000000     
  0.31250000000000000       0.78125000000000000        0.0000000000000000     
  0.34375000000000000       0.78125000000000000        0.0000000000000000     
  0.37500000000000000       0.78125000000000000        0.0000000000000000     
  0.25000000000000000       0.81250000000000000        0.0000000000000000     
  0.28125000000000000       0.81250000000000000        0.0000000000000000     
  0.31250000000000000       0.81250000000000000        0.0000000000000000     
  0.34375000000000000       0.81250000000000000        0.0000000000000000     
  0.37500000000000000       0.81250000000000000        0.0000000000000000     
  0.25000000000000000       0.84375000000000000        0.0000000000000000     
  0.28125000000000000       0.84375000000000000        0.0000000000000000     
  0.31250000000000000       0.84375000000000000        0.0000000000000000     
  0.34375000000000000       0.84375000000000000        0.0000000000000000     
  0.37500000000000000       0.84375000000000000        0.0000000000000000     
  0.25000000000000000       0.87500000000000000        0.0000000000000000     
  0.28125000000000000       0.87500000000000000        0.0000000000000000     
  0.31250000000000000       0.87500000000000000        0.0000000000000000     
  0.34375000000000000       0.87500000000000000        0.0000000000000000     
  0.37500000000000000       0.87500000000000000        0.0000000000000000     
  0.37500000000000000       0.75000000000000000        0.0000000000000000     
  0.40625000000000000       0.75000000000000000        0.0000000000000000     
  0.43750000000000000       0.75000000000000000        0.0000000000000000     
  0.46875000000000000       0.75000000000000000        0.0000000000000000     
  0.50000000000000000       0.75000000000000000        0.0000000000000000     
  0.37500000000000000       0.78125000000000000        0.0000000000000000     
  0.40625000000000000       0.78125000000000000        0.0000000000000000     
  0.43750000000000000       0.78125000000000000        0.0000000000000000     
  0.46875000000000000       0.78125000000000000        0.0000000000000000     
  0.50000000000000000       0.78125000000000000        0.0000000000000000     
  0.37500000000000000       0.81250000000000000        0.0000000000000000     
  0.40625000000000000       0.81250000000000000        0.0000000000000000     
  0.43750000000000000       0.81250000000000000        0.0000000000000000     
  0.46875000000000000       0.81250000000000000        0.0000000000000000     
  0.50000000000000000       0.81250000000000000        0.0000000000000000     
  0.37500000000000000       0.84375000000000000        0.0000000000000000     
  0.40625000000000000       0.84375000000000000        0.0000000000000000     
  0.43750000000000000       0.84375000000000000        0.0000000000000000     
  0.46875000000000000       0.84375000000000000        0.0000000000000000     
  0.50000000000000000       0.84375000000000000        0.0000000000000000     
  0.37500000000000000       0.87500000000000000        0.0000000000000000     
  0.40625000000000000       0.87500000000000000        0.0000000000000000     
  0.43750000000000000       0.87500000000000000        0.0000000000000000     
  0.46875000000000000       0.87500000000000000        0.0000000000000000     
  0.50000000000000000       0.87500000000000000        0.0000000000000000     
  0.50000000000000000       0.75000000000000000        0.0000000000000000     
  0.53125000000000000       0.75000000000000000        0.0000000000000000     
  0.56250000000000000       0.75000000000000000        0.0000000000000000     
  0.59375000000000000       0.75000000000000000        0.0000000000000000     
  0.62500000000000000       0.75000000000000000        0.0000000000000000     
  0.50000000000000000       0.78125000000000000        0.0000000000000000     
  0.53125000000000000       0.78125000000000000        0.0000000000000000     
  0.56250000000000000       0.78125000000000000        0.0000000000000000     
  0.59375000000000000       0.78125000000000000        0.0000000000000000     
  0.62500000000000000       0.78125000000000000        0.0000000000000000     
  0.50000000000000000       0.81250000000000000        0.0000000000000000     
  0.53125000000000000       0.81250000000000000        0.0000000000000000     
  0.56250000000000000       0.81250000000000000        0.0000000000000000     
  0.59375000000000000       0.81250000000000000        0.0000000000000000     
  0.62500000000000000       0.81250000000000000        0.0000000000000000     
  0.50000000000000000       0.84375000000000000        0.0000000000000000     
  0.53125000000000000       0.84375000000000000        0.0000000000000000     
  0.56250000000000000       0.84375000000000000        0.0000000000000000     
  0.59375000000000000       0.84375000000000000        0.0000000000000000     
  0.62500000000000000       0.84375000000000000        0.0000000000000000     
  0.50000000000000000       0.87500000000000000        0.0000000000000000     
  0.53125000000000000       0.87500000000000000        0.0000000000000000     
  0.56250000000000000       0.87500000000000000        0.0000000000000000     
  0.59375000000000000       0.87500000000000000        0.0000000000000000     
  0.62500000000000000       0.87500000000000000        0.0000000000000000     
  0.62500000000000000       0.75000000000000000        0.0000000000000000     
  0.65625000000000000       0.75000000000000000        0.0000000000000000     
  0.68750000000000000       0.75000000000000000        0.0000000000000000     
  0.71875000000000000       0.75000000000000000        0.0000000000000000     
  0.75000000000000000       0.75000000000000000        0.0000000000000000     
  0.62500000000000000       0.78125000000000000        0.0000000000000000     
  0.65625000000000000       0.78125000000000000        0.0000000000000000     
  0.68750000000000000       0.78125000000000000        0.0000000000000000     
  0.71875000000000000       0.78125000000000000        0.0000000000000000     
  0.75000000000000000       0.78125000000000000        0.0000000000000000     
  0.62500000000000000       0.81250000000000000        0.0000000000000000     
  0.65625000000000000       0.81250000000000000        0.0000000000000000     
  0.68750000000000000       0.81250000000000000        0.0000000000000000     
  0.71875000000000000       0.81250000000000000        0.0000000000000000     
  0.75000000000000000       0.81250000000000000        0.0000000000000000     
  0.62500000000000000       0.84375000000000000        0.0000000000000000     
  0.65625000000000000       0.84375000000000000        0.0000000000000000     
  0.68750000000000000       0.84375000000000000        0.0000000000000000     
  0.71875000000000000       0.84375000000000000        0.0000000000000000     
  0.75000000000000000       0.84375000000000000        0.0000000000000000     
  0.62500000000000000       0.87500000000000000        0.0000000000000000     
  0.65625000000000000       0.87500000000000000        0.0000000000000000     
  0.68750000000000000       0.87500000000000000        0.0000000000000000     
  0.71875000000000000       0.87500000000000000        0.0000000000000000     
  0.75000000000000000       0.87500000000000000        0.0000000000000000     
  0.75000000000000000       0.75000000000000000        0.0000000000000000     
  0.78125000000000000       0.75000000000000000        0.0000000000000000     
  0.81250000000000000       0.75000000000000000        0.0000000000000000     
  0.84375000000000000       0.75000000000000000        0.0000000000000000     
  0.87500000000000000       0.75000000000000000        0.0000000000000000     
  0.75000000000000000       0.78125000000000000        0.0000000000000000     
  0.78125000000000000       0.78125000000000000        0.0000000000000000     
  0.81250000000000000       0.78125000000000000        0.0000000000000000     
  0.84375000000000000       0.78125000000000000        0.0000000000000000     
  0.87500000000000000       0.78125000000000000        0.0000000000000000     
  0.75000000000000000       0.81250000000000000        0.0000000000000000     
  0.78125000000000000       0.81250000000000000        0.0000000000000000     
  0.81250000000000000       0.81250000000000000        0.0000000000000000     
  0.84375000000000000       0.81250000000000000        0.0000000000000000     
  0.87500000000000000       0.81250000000000000        0.0000000000000000     
  0.75000000000000000       0.84375000000000000        0.0000000000000000     
  0.78125000000000000       0.84375000000000000        0.0000000000000000     
  0.81250000000000000       0.84375000000000000        0.0000000000000000     
  0.84375000000000000       0.84375000000000000        0.0000000000000000     
  0.87500000000000000       0.84375000000000000        0.0000000000000000     
  0.75000000000000000       0.87500000000000000        0.0000000000000000     
  0.78125000000000000       0.87500000000000000        0.0000000000000000     
  0.81250000000000000       0.87500000000000000        0.0000000000000000     
  0.84375000000000000       0.87500000000000000        0.0000000000000000     
  0.87500000000000000       0.87500000000000000        0.0000000000000000     
  0.87500000000000000       0.75000000000000000        0.0000000000000000     
  0.90625000000000000       0.75000000000000000        0.0000000000000000     
  0.93750000000000000       0.75000000000000000        0.0000000000000000     
  0.96875000000000000       0.75000000000000000        0.0000000000000000     
   1.0000000000000000       0.75000000000000000        0.0000000000000000     
  0.87500000000000000       0.78125000000000000        0.0000000000000000     
  0.90625000000000000       0.78125000000000000        0.0000000000000000     
  0.93750000000000000       0.78125000000000000        0.0000000000000000     
  0.96875000000000000       0.78125000000000000        0.0000000000000000     
   1.0000000000000000       0.78125000000000000        0.0000000000000000     
  0.87500000000000000       0.81250000000000000        0.0000000000000000     
  0.90625000000000000       0.81250000000000000        0.0000000000000000     
  0.93750000000000000       0.81250000000000000        0.0000000000000000     
  0.96875000000000000       0.81250000000000000        0.0000000000000000     
   1.0000000000000000       0.81250000000000000        0.0000000000000000     
  0.87500000000000000       0.84375000000000000        0.0000000000000000     
  0.90625000000000000       0.84375000000000000        0.0000000000000000     
  0.93750000000000000       0.84375000000000000        0.0000000000000000     
  0.96875000000000000       0.84375000000000000        0.0000000000000000     
   1.0000000000000000       0.84375000000000000        0.0000000000000000     
  0.87500000000000000       0.87500000000000000        0.0000000000000000     
  0.90625000000000000       0.87500000000000000        0.0000000000000000     
  0.93750000000000000       0.87500000000000000        0.0000000000000000     
  0.96875000000000000       0.87500000000000000        0.0000000000000000     
   1.0000000000000000       0.87500000000000000        0.0000000000000000     
   0.0000000000000000       0.87500000000000000        0.0000000000000000     
   3.1250000000000000E-002  0.87500000000000000        0.0000000000000000     
   6.2500000000000000E-002  0.87500000000000000        0.0000000000000000     
   9.3750000000000000E-002  0.87500000000000000        0.0000000000000000     
  0.12500000000000000       0.87500000000000000        0.0000000000000000     
   0.0000000000000000       0.90625000000000000        0.0000000000000000     
   3.1250000000000000E-002  0.90625000000000000        0.0000000000000000     
   6.2500000000000000E-002  0.90625000000000000        0.0000000000000000     
   9.3750000000000000E-002  0.90625000000000000        0.0000000000000000     
  0.12500000000000000       0.90625000000000000        0.0000000000000000     
   0.0000000000000000       0.93750000000000000        0.0000000000000000     
   3.1250000000000000E-002  0.93750000000000000        0.0000000000000000     
   6.2500000000000000E-002  0.93750000000000000        0.0000000000000000     
   9.3750000000000000E-002  0.93750000000000000        0.0000000000000000     
  0.12500000000000000       0.93750000000000000        0.0000000000000000     
   0.0000000000000000       0.96875000000000000        0.0000000000000000     
   3.1250000000000000E-002  0.96875000000000000        0.0000000000000000     
   6.2500000000000000E-002  0.96875000000000000        0.0000000000000000     
   9.3750000000000000E-002  0.96875000000000000        0.0000000000000000     
  0.12500000000000000       0.96875000000000000        0.0000000000000000     
   0.0000000000000000        1.0000000000000000        0.0000000000000000     
   3.1250000000000000E-002   1.0000000000000000        0.0000000000000000     
   6.2500000000000000E-002   1.0000000000000000        0.0000000000000000     
   9.3750000000000000E-002   1.0000000000000000        0.0000000000000000     
  0.12500000000000000        1.0000000000000000        0.0000000000000000     
  0.12500000000000000       0.87500000000000000        0.0000000000000000     
  0.15625000000000000       0.87500000000000000        0.0000000000000000     
  0.18750000000000000       0.87500000000000000        0.0000000000000000     
  0.21875000000000000       0.87500000000000000        0.0000000000000000     
  0.25000000000000000       0.87500000000000000        0.0000000000000000     
  0.12500000000000000       0.90625000000000000        0.0000000000000000     
  0.15625000000000000       0.90625000000000000        0.0000000000000000     
  0.18750000000000000       0.90625000000000000        0.0000000000000000     
  0.21875000000000000       0.90625000000000000        0.0000000000000000     
  0.25000000000000000       0.90625000000000000        0.0000000000000000     
  0.12500000000000000       0.93750000000000000        0.0000000000000000     
  0.15625000000000000       0.93750000000000000        0.0000000000000000     
  0.18750000000000000       0.93750000000000000        0.0000000000000000     
  0.21875000000000000       0.93750000000000000        0.0000000000000000     
  0.25000000000000000       0.93750000000000000        0.0000000000000000     
  0.12500000000000000       0.96875000000000000        0.0000000000000000     
  0.15625000000000000       0.96875000000000000        0.0000000000000000     
  0.18750000000000000       0.96875000000000000        0.0000000000000000     
  0.21875000000000000       0.96875000000000000        0.0000000000000000     
  0.25000000000000000       0.96875000000000000        0.0000000000000000     
  0.12500000000000000        1.0000000000000000        0.0000000000000000     
  0.15625000000000000        1.0000000000000000        0.0000000000000000     
  0.18750000000000000        1.0000000000000000        0.0000000000000000     
  0.21875000000000000        1.0000000000000000        0.0000000000000000     
  0.25000000000000000        1.0000000000000000        0.0000000000000000     
  0.25000000000000000       0.87500000000000000        0.0000000000000000     
  0.28125000000000000       0.87500000000000000        0.0000000000000000     
  0.31250000000000000       0.87500000000000000        0.0000000000000000     
  0.34375000000000000       0.87500000000000000        0.0000000000000000     
  0.37500000000000000       0.87500000000000000        0.0000000000000000     
  0.25000000000000000       0.90625000000000000        0.0000000000000000     
  0.28125000000000000       0.90625000000000000        0.0000000000000000     
  0.31250000000000000       0.90625000000000000        0.0000000000000000     
  0.34375000000000000       0.90625000000000000        0.0000000000000000     
  0.37500000000000000       0.90625000000000000        0.0000000000000000     
  0.25000000000000000       0.93750000000000000        0.0000000000000000     
  0.28125000000000000       0.93750000000000000        0.0000000000000000     
  0.31250000000000000       0.93750000000000000        0.0000000000000000     
  0.34375000000000000       0.93750000000000000        0.0000000000000000     
  0.37500000000000000       0.93750000000000000        0.0000000000000000     
  0.25000000000000000       0.96875000000000000        0.0000000000000000     
  0.28125000000000000       0.96875000000000000        0.0000000000000000     
  0.31250000000000000       0.96875000000000000        0.0000000000000000     
  0.34375000000000000       0.96875000000000000        0.0000000000000000     
  0.37500000000000000       0.96875000000000000        0.0000000000000000     
  0.25000000000000000        1.0000000000000000        0.0000000000000000     
  0.28125000000000000        1.0000000000000000        0.0000000000000000     
  0.31250000000000000        1.0000000000000000        0.0000000000000000     
  0.34375000000000000        1.0000000000000000        0.0000000000000000     
  0.37500000000000000        1.0000000000000000        0.0000000000000000     
  0.37500000000000000       0.87500000000000000        0.0000000000000000     
  0.40625000000000000       0.87500000000000000        0.0000000000000000     
  0.43750000000000000       0.87500000000000000        0.0000000000000000     
  0.46875000000000000       0.87500000000000000        0.0000000000000000     
  0.50000000000000000       0.87500000000000000        0.0000000000000000     
  0.37500000000000000       0.90625000000000000        0.0000000000000000     
  0.40625000000000000       0.90625000000000000        0.0000000000000000     
  0.43750000000000000       0.90625000000000000        0.0000000000000000     
  0.46875000000000000       0.90625000000000000        0.0000000000000000     
  0.50000000000000000       0.90625000000000000        0.0000000000000000     
  0.37500000000000000       0.93750000000000000        0.0000000000000000     
  0.40625000000000000       0.93750000000000000        0.0000000000000000     
  0.43750000000000000       0.93750000000000000        0.0000000000000000     
  0.46875000000000000       0.93750000000000000        0.0000000000000000     
  0.50000000000000000       0.93750000000000000        0.0000000000000000     
  0.37500000000000000       0.96875000000000000        0.0000000000000000     
  0.40625000000000000       0.96875000000000000        0.0000000000000000     
  0.43750000000000000       0.96875000000000000        0.0000000000000000     
  0.46875000000000000       0.96875000000000000        0.0000000000000000     
  0.50000000000000000       0.96875000000000000        0.0000000000000000     
  0.37500000000000000        1.0000000000000000        0.0000000000000000     
  0.40625000000000000        1.0000000000000000        0.0000000000000000     
  0.43750000000000000        1.0000000000000000        0.0000000000000000     
  0.46875000000000000        1.0000000000000000        0.0000000000000000     
  0.50000000000000000        1.0000000000000000        0.0000000000000000     
  0.50000000000000000       0.87500000000000000        0.0000000000000000     
  0.53125000000000000       0.87500000000000000        0.0000000000000000     
  0.56250000000000000       0.87500000000000000        0.0000000000000000     
  0.59375000000000000       0.87500000000000000        0.0000000000000000     
  0.62500000000000000       0.87500000000000000        0.0000000000000000     
  0.50000000000000000       0.90625000000000000        0.0000000000000000     
  0.53125000000000000       0.90625000000000000        0.0000000000000000     
  0.56250000000000000       0.90625000000000000        0.0000000000000000     
  0.59375000000000000       0.90625000000000000        0.0000000000000000     
  0.62500000000000000       0.90625000000000000        0.0000000000000000     
  0.50000000000000000       0.93750000000000000        0.0000000000000000     
  0.53125000000000000       0.93750000000000000        0.0000000000000000     
  0.56250000000000000       0.93750000000000000        0.0000000000000000     
  0.59375000000000000       0.93750000000000000        0.0000000000000000     
  0.62500000000000000       0.93750000000000000        0.0000000000000000     
  0.50000000000000000       0.96875000000000000        0.0000000000000000     
  0.53125000000000000       0.96875000000000000        0.0000000000000000     
  0.56250000000000000       0.96875000000000000        0.0000000000000000     
  0.59375000000000000       0.96875000000000000        0.0000000000000000     
  0.62500000000000000       0.96875000000000000        0.0000000000000000     
  0.50000000000000000        1.0000000000000000        0.0000000000000000     
  0.53125000000000000        1.0000000000000000        0.0000000000000000     
  0.56250000000000000        1.0000000000000000        0.0000000000000000     
  0.59375000000000000        1.0000000000000000        0.0000000000000000     
  0.62500000000000000        1.0000000000000000        0.0000000000000000     
  0.62500000000000000       0.87500000000000000        0.0000000000000000     
  0.65625000000000000       0.87500000000000000        0.0000000000000000     
  0.68750000000000000       0.87500000000000000        0.0000000000000000     
  0.71875000000000000       0.87500000000000000        0.0000000000000000     
  0.75000000000000000       0.87500000000000000        0.0000000000000000     
  0.62500000000000000       0.90625000000000000        0.0000000000000000     
  0.65625000000000000       0.90625000000000000        0.0000000000000000     
  0.68750000000000000       0.90625000000000000        0.0000000000000000     
  0.71875000000000000       0.90625000000000000        0.0000000000000000     
  0.75000000000000000       0.90625000000000000        0.0000000000000000     
  0.62500000000000000       0.93750000000000000        0.0000000000000000     
  0.65625000000000000       0.93750000000000000        0.0000000000000000     
  0.68750000000000000       0.93750000000000000        0.0000000000000000     
  0.71875000000000000       0.93750000000000000        0.0000000000000000     
  0.75000000000000000       0.93750000000000000        0.0000000000000000     
  0.62500000000000000       0.96875000000000000        0.0000000000000000     
  0.65625000000000000       0.96875000000000000        0.0000000000000000     
  0.68750000000000000       0.96875000000000000        0.0000000000000000     
  0.71875000000000000       0.96875000000000000        0.0000000000000000     
  0.75000000000000000       0.96875000000000000        0.0000000000000000     
  0.62500000000000000        1.0000000000000000        0.0000000000000000     
  0.65625000000000000        1.0000000000000000        0.0000000000000000     
  0.68750000000000000        1.0000000000000000        0.0000000000000000     
  0.71875000000000000        1.0000000000000000        0.0000000000000000     
  0.75000000000000000        1.0000000000000000        0.0000000000000000     
  0.75000000000000000       0.87500000000000000        0.0000000000000000     
  0.78125000000000000       0.87500000000000000        0.0000000000000000     
  0.81250000000000000       0.87500000000000000        0.0000000000000000     
  0.84375000000000000       0.87500000000000000        0.0000000000000000     
  0.87500000000000000       0.87500000000000000        0.0000000000000000     
  0.75000000000000000       0.90625000000000000        0.0000000000000000     
  0.78125000000000000       0.90625000000000000        0.0000000000000000     
  0.81250000000000000       0.90625000000000000        0.0000000000000000     
  0.84375000000000000       0.90625000000000000        0.0000000000000000     
  0.87500000000000000       0.90625000000000000        0.0000000000000000     
  0.75000000000000000       0.93750000000000000        0.0000000000000000     
  0.78125000000000000       0.93750000000000000        0.0000000000000000     
  0.81250000000000000       0.93750000000000000        0.0000000000000000     
  0.84375000000000000       0.93750000000000000        0.0000000000000000     
  0.87500000000000000       0.93750000000000000        0.0000000000000000     
  0.75000000000000000       0.96875000000000000        0.0000000000000000     
  0.78125000000000000       0.96875000000000000        0.0000000000000000     
  0.81250000000000000       0.96875000000000000        0.0000000000000000     
  0.84375000000000000       0.96875000000000000        0.0000000000000000     
  0.87500000000000000       0.96875000000000000        0.0000000000000000     
  0.75000000000000000        1.0000000000000000        0.0000000000000000     
  0.78125000000000000        1.0000000000000000        0.0000000000000000     
  0.81250000000000000        1.0000000000000000        0.0000000000000000     
  0.84375000000000000        1.0000000000000000        0.0000000000000000     
  0.87500000000000000        1.0000000000000000        0.0000000000000000     
  0.87500000000000000       0.87500000000000000        0.0000000000000000     
  0.90625000000000000       0.87500000000000000        0.0000000000000000     
  0.93750000000000000       0.87500000000000000        0.0000000000000000     
  0.96875000000000000       0.87500000000000000        0.0000000000000000     
   1.0000000000000000       0.87500000000000000        0.0000000000000000     
  0.87500000000000000       0.90625000000000000        0.0000000000000000     
  0.90625000000000000       0.90625000000000000        0.0000000000000000     
  0.93750000000000000       0.90625000000000000        0.0000000000000000     
  0.96875000000000000       0.90625000000000000        0.0000000000000000     
   1.0000000000000000       0.90625000000000000        0.0000000000000000     
  0.87500000000000000       0.93750000000000000        0.0000000000000000     
  0.90625000000000000       0.93750000000000000        0.0000000000000000     
  0.93750000000000000       0.93750000000000000        0.0000000000000000     
  0.96875000000000000       0.93750000000000000        0.0000000000000000     
   1.0000000000000000       0.93750000000000000        0.0000000000000000     
  0.87500000000000000       0.96875000000000000        0.0000000000000000     
  0.90625000000000000       0.96875000000000000        0.0000000000000000     
  0.93750000000000000       0.96875000000000000        0.0000000000000000     
  0.96875000000000000       0.96875000000000000        0.0000000000000000     
   1.0000000000000000       0.96875000000000000        0.0000000000000000     
  0.87500000000000000        1.0000000000000000        0.0000000000000000     
  0.90625000000000000        1.0000000000000000        0.0000000000000000     
  0.93750000000000000        1.0000000000000000        0.0000000000000000     
  0.96875000000000000        1.0000000000000000        0.0000000000000000     
   1.0000000000000000        1.0000000000000000        0.0000000000000000     
 </DataArray>
 </Points>
 <Cells>
 <DataArray  type="Int32"  Name="connectivity"  format="ascii">
           0           1           6           5
           1           2           7           6
           2           3           8           7
           3           4           9           8
           5           6          11          10
           6           7          12          11
           7           8          13          12
           8           9          14          13
          10          11          16          15
          11          12          17          16
          12          13          18          17
          13          14          19          18
          15          16          21          20
          16          17          22          21
          17          18          23          22
          18          19          24          23
          25          26          31          30
          26          27          32          31
          27          28          33          32
          28          29          34          33
          30          31          36          35
          31          32          37          36
          32          33          38          37
          33          34          39          38
          35          36          41          40
          36          37          42          41
          37          38          43          42
          38          39          44          43
          40          41          46          45
          41          42          47          46
          42          43          48          47
          43          44          49          48
          50          51          56          55
          51          52          57          56
          52          53          58          57
          53          54          59          58
          55          56          61          60
          56          57          62          61
          57          58          63          62
          58          59          64          63
          60          61          66          65
          61          62          67          66
          62          63          68          67
          63          64          69          68
          65          66          71          70
          66          67          72          71
          67          68          73          72
          68          69          74          73
          75          76          81          80
          76          77          82          81
          77          78          83          82
          78          79          84          83
          80          81          86          85
          81          82          87          86
          82          83          88          87
          83          84          89          88
          85          86          91          90
          86          87          92          91
          87          88          93          92
          88          89          94          93
          90          91          96          95
          91          92          97          96
          92          93          98          97
          93          94          99          98
         100         101         106         105
         101         102         107         106
         102         103         108         107
         103         104         109         108
         105         106         111         110
         106         107         112         111
         107         108         113         112
         108         109         114         113
         110         111         116         115
         111         112         117         116
         112         113         118         117
         113         114         119         118
         115         116         121         120
         116         117         122         121
         117         118         123         122
         118         119         124         123
         125         126         131         130
         126         127         132         131
         127         128         133         132
         128         129         134         133
         130         131         136         135
         131         132         137         136
         132         133         138         137
         133         134         139         138
         135         136         141         140
         136         137         142         141
         137         138         143         142
         138         139         144         143
         140         141         146         145
         141         142         147         146
         142         143         148         147
         143         144         149         148
         150         151         156         155
         151         152         157         156
         152         153         158         157
         153         154         159         158
         155         156         161         160
         156         157         162         161
         157         158         163         162
         158         159         164         163
         160         161         166         165
         161         162         167         166
         162         163         168         167
         163         164         169         168
         165         166         171         170
         166         167         172         171
         167         168         173         172
         168         169         174         173
         175         176         181         180
         176         177         182         181
         177         178         183         182
         178         179         184         183
         180         181         186         185
         181         182         187         186
         182         183         188         187
         183         184         189         188
         185         186         191         190
         186         187         192         191
         187         188         193         192
         188         189         194         193
         190         191         196         195
         191         192         197         196
         192         193         198         197
         193         194         199         198
         200         201         206         205
         201         202         207         206
         202         203         208         207
         203         204         209         208
         205         206         211         210
         206         207         212         211
         207         208         213         212
         208         209         214         213
         210         211         216         215
         211         212         217         216
         212         213         218         217
         213         214         219         218
         215         216         221         220
         216         217         222         221
         217         218         223         222
         218         219         224         223
         225         226         231         230
         226         227         232         231
         227         228         233         232
         228         229         234         233
         230         231         236         235
         231         232         237         236
         232         233         238         237
         233         234         239         238
         235         236         241         240
         236         237         242         241
         237         238         243         242
         238         239         244         243
         240         241         246         245
         241         242         247         246
         242         243         248         247
         243         244         249         248
         250         251         256         255
         251         252         257         256
         252         253         258         257
         253         254         259         258
         255         256         261         260
         256         257         262         261
         257         258         263         262
         258         259         264         263
         260         261         266         265
         261         262         267         266
         262         263         268         267
         263         264         269         268
         265         266         271         270
         266         267         272         271
         267         268         273         272
         268         269         274         273
         275         276         281         280
         276         277         282         281
         277         278         283         282
         278         279         284         283
         280         281         286         285
         281         282         287         286
         282         283         288         287
         283         284         289         288
         285         286         291         290
         286         287         292         291
         287         288         293         292
         288         289         294         293
         290         291         296         295
         291         292         297         296
         292         293         298         297
         293         294         299         298
         300         301         306         305
         301         302         307         306
         302         303         308         307
         303         304         309         308
         305         306         311         310
         306         307         312         311
         307         308         313         312
         308         309         314         313
         310         311         316         315
         311         312         317         316
         312         313         318         317
         313         314         319         318
         315         316         321         320
         316         317         322         321
         317         318         323         322
         318         319         324         323
         325         326         331         330
         326         327         332         331
         327         328         333         332
         328         329         334         333
         330         331         336         335
         331         332         337         336
         332         333         338         337
         333         334         339         338
         335         336         341         340
         336         337         342         341
         337         338         343         342
         338         339         344         343
         340         341         346         345
         341         342         347         346
         342         343         348         347
         343         344         349         348
         350         351         356         355
         351         352         357         356
         352         353         358         357
         353         354         359         358
         355         356         361         360
         356         357         362         361
         357         358         363         362
         358         359         364         363
         360         361         366         365
         361         362         367         366
         362         363         368         367
         363         364         369         368
         365         366         371         370
         366         367         372         371
         367         368         373         372
         368         369         374         373
         375         376         381         380
         376         377         382         381
         377         378         383         382
         378         379         384         383
         380         381         386         385
         381         382         387         386
         382         383         388         387
         383         384         389         388
         385         386         391         390
         386         387         392         391
         387         388         393         392
         388         389         394         393
         390         391         396         395
         391         392         397         396
         392         393         398         397
         393         394         399         398
         400         401         406         405
         401         402         407         406
         402         403         408         407
         403         404         409         408
         405         406         411         410
         406         407         412         411
         407         408         413         412
         408         409         414         413
         410         411         416         415
         411         412         417         416
         412         413         418         417
         413         414         419         418
         415         416         421         420
         416         417         422         421
         417         418         423         422
         418         419         424         423
         425         426         431         430
         426         427         432         431
         427         428         433         432
         428         429         434         433
         430         431         436         435
         431         432         437         436
         432         433         438         437
         433         434         439         438
         435         436         441         440
         436         437         442         441
         437         438         443         442
         438         439         444         443
         440         441         446         445
         441         442         447         446
         442         443         448         447
         443         444         449         448
         450         451         456         455
         451         452         457         456
         452         453         458         457
         453         454         459         458
         455         456         461         460
         456         457         462         461
         457         458         463         462
         458         459         464         463
         460         461         466         465
         461         462         467         466
         462         463         468         467
         463         464         469         468
         465         466         471         470
         466         467         472         471
         467         468         473         472
         468         469         474         473
         475         476         481         480
         476         477         482         481
         477         478         483         482
         478         479         484         483
         480         481         486         485
         481         482         487         486
         482         483         488         487
         483         484         489         488
         485         486         491         490
         486         487         492         491
         487         488         493         492
         488         489         494         493
         490         491         496         495
         491         492         497         496
         492         493         498         497
         493         494         499         498
         500         501         506         505
         501         502         507         506
         502         503         508         507
         503         504         509         508
         505         506         511         510
         506         507         512         511
         507         508         513         512
         508         509         514         513
         510         511         516         515
         511         512         517         516
         512         513         518         517
         513         514         519         518
         515         516         521         520
         516         517         522         521
         517         518         523         522
         518         519         524         523
         525         526         531         530
         526         527         532         531
         527         528         533         532
         528         529         534         533
         530         531         536         535
         531         532         537         536
         532         533         538         537
         533         534         539         538
         535         536         541         540
         536         537         542         541
         537         538         543         542
         538         539         544         543
         540         541         546         545
         541         542         547         546
         542         543         548         547
         543         544         549         548
         550         551         556         555
         551         552         557         556
         552         553         558         557
         553         554         559         558
         555         556         561         560
         556         557         562         561
         557         558         563         562
         558         559         564         563
         560         561         566         565
         561         562         567         566
         562         563         568         567
         563         564         569         568
         565         566         571         570
         566         567         572         571
         567         568         573         572
         568         569         574         573
         575         576         581         580
         576         577         582         581
         577         578         583         582
         578         579         584         583
         580         581         586         585
         581         582         587         586
         582         583         588         587
         583         584         589         588
         585         586         591         590
         586         587         592         591
         587         588         593         592
         588         589         594         593
         590         591         596         595
         591         592         597         596
         592         593         598         597
         593         594         599         598
         600         601         606         605
         601         602         607         606
         602         603         608         607
         603         604         609         608
         605         606         611         610
         606         607         612         611
         607         608         613         612
         608         609         614         613
         610         611         616         615
         611         612         617         616
         612         613         618         617
         613         614         619         618
         615         616         621         620
         616         617         622         621
         617         618         623         622
         618         619         624         623
         625         626         631         630
         626         627         632         631
         627         628         633         632
         628         629         634         633
         630         631         636         635
         631         632         637         636
         632         633         638         637
         633         634         639         638
         635         636         641         640
         636         637         642         641
         637         638         643         642
         638         639         644         643
         640         641         646         645
         641         642         647         646
         642         643         648         647
         643         644         649         648
         650         651         656         655
         651         652         657         656
         652         653         658         657
         653         654         659         658
         655         656         661         660
         656         657         662         661
         657         658         663         662
         658         659         664         663
         660         661         666         665
         661         662         667         666
         662         663         668         667
         663         664         669         668
         665         666         671         670
         666         667         672         671
         667         668         673         672
         668         669         674         673
         675         676         681         680
         676         677         682         681
         677         678         683         682
         678         679         684         683
         680         681         686         685
         681         682         687         686
         682         683         688         687
         683         684         689         688
         685         686         691         690
         686         687         692         691
         687         688         693         692
         688         689         694         693
         690         691         696         695
         691         692         697         696
         692         693         698         697
         693         694         699         698
         700         701         706         705
         701         702         707         706
         702         703         708         707
         703         704         709         708
         705         706         711         710
         706         707         712         711
         707         708         713         712
         708         709         714         713
         710         711         716         715
         711         712         717         716
         712         713         718         717
         713         714         719         718
         715         716         721         720
         716         717         722         721
         717         718         723         722
         718         719         724         723
         725         726         731         730
         726         727         732         731
         727         728         733         732
         728         729         734         733
         730         731         736         735
         731         732         737         736
         732         733         738         737
         733         734         739         738
         735         736         741         740
         736         737         742         741
         737         738         743         742
         738         739         744         743
         740         741         746         745
         741         742         747         746
         742         743         748         747
         743         744         749         748
         750         751         756         755
         751         752         757         756
         752         753         758         757
         753         754         759         758
         755         756         761         760
         756         757         762         761
         757         758         763         762
         758         759         764         763
         760         761         766         765
         761         762         767         766
         762         763         768         767
         763         764         769         768
         765         766         771         770
         766         767         772         771
         767         768         773         772
         768         769         774         773
         775         776         781         780
         776         777         782         781
         777         778         783         782
         778         779         784         783
         780         781         786         785
         781         782         787         786
         782         783         788         787
         783         784         789         788
         785         786         791         790
         786         787         792         791
         787         788         793         792
         788         789         794         793
         790         791         796         795
         791         792         797         796
         792         793         798         797
         793         794         799         798
         800         801         806         805
         801         802         807         806
         802         803         808         807
         803         804         809         808
         805         806         811         810
         806         807         812         811
         807         808         813         812
         808         809         814         813
         810         811         816         815
         811         812         817         816
         812         813         818         817
         813         814         819         818
         815         816         821         820
         816         817         822         821
         817         818         823         822
         818         819         824         823
         825         826         831         830
         826         827         832         831
         827         828         833         832
         828         829         834         833
         830         831         836         835
         831         832         837         836
         832         833         838         837
         833         834         839         838
         835         836         841         840
         836         837         842         841
         837         838         843         842
         838         839         844         843
         840         841         846         845
         841         842         847         846
         842         843         848         847
         843         844         849         848
         850         851         856         855
         851         852         857         856
         852         853         858         857
         853         854         859         858
         855         856         861         860
         856         857         862         861
         857         858         863         862
         858         859         864         863
         860         861         866         865
         861         862         867         866
         862         863         868         867
         863         864         869         868
         865         866         871         870
         866         867         872         871
         867         868         873         872
         868         869         874         873
         875         876         881         880
         876         877         882         881
         877         878         883         882
         878         879         884         883
         880         881         886         885
         881         882         887         886
         882         883         888         887
         883         884         889         888
         885         886         891         890
         886         887         892         891
         887         888         893         892
         888         889         894         893
         890         891         896         895
         891         892         897         896
         892         893         898         897
         893         894         899         898
         900         901         906         905
         901         902         907         906
         902         903         908         907
         903         904         909         908
         905         906         911         910
         906         907         912         911
         907         908         913         912
         908         909         914         913
         910         911         916         915
         911         912         917         916
         912         913         918         917
         913         914         919         918
         915         916         921         920
         916         917         922         921
         917         918         923         922
         918         919         924         923
         925         926         931         930
         926         927         932         931
         927         928         933         932
         928         929         934         933
         930         931         936         935
         931         932         937         936
         932         933         938         937
         933         934         939         938
         935         936         941         940
         936         937         942         941
         937         938         943         942
         938         939         944         943
         940         941         946         945
         941         942         947         946
         942         943         948         947
         943         944         949         948
         950         951         956         955
         951         952         957         956
         952         953         958         957
         953         954         959         958
         955         956         961         960
         956         957         962         961
         957         958         963         962
         958         959         964         963
         960         961         966         965
         961         962         967         966
         962         963         968         967
         963         964         969         968
         965         966         971         970
         966         967         972         971
         967         968         973         972
         968         969         974         973
         975         976         981         980
         976         977         982         981
         977         978         983         982
         978         979         984         983
         980         981         986         985
         981         982         987         986
         982         983         988         987
         983         984         989         988
         985         986         991         990
         986         987         992         991
         987         988         993         992
         988         989         994         993
         990         991         996         995
         991         992         997         996
         992         993         998         997
         993         994         999         998
        1000        1001        1006        1005
        1001        1002        1007        1006
        1002        1003        1008        1007
        1003        1004        1009        1008
        1005        1006        1011        1010
        1006        1007        1012        1011
        1007        1008        1013        1012
        1008        1009        1014        1013
        1010        1011        1016        1015
        1011        1012        1017        1016
        1012        1013        1018        1017
        1013        1014        1019        1018
        1015        1016        1021        1020
        1016        1017        1022        1021
        1017        1018        1023        1022
        1018        1019        1024        1023
        1025        1026        1031        1030
        1026        1027        1032        1031
        1027        1028        1033        1032
        1028        1029        1034        1033
        1030        1031        1036        1035
        1031        1032        1037        1036
        1032        1033        1038        1037
        1033        1034        1039        1038
        1035        1036        1041        1040
        1036        1037        1042        1041
        1037        1038        1043        1042
        1038        1039        1044        1043
        1040        1041        1046        1045
        1041        1042        1047        1046
        1042        1043        1048        1047
        1043        1044        1049        1048
        1050        1051        1056        1055
        1051        1052        1057        1056
        1052        1053        1058        1057
        1053        1054        1059        1058
        1055        1056        1061        1060
        1056        1057        1062        1061
        1057        1058        1063        1062
        1058        1059        1064        1063
        1060        1061        1066        1065
        1061        1062        1067        1066
        1062        1063        1068        1067
        1063        1064        1069        1068
        1065        1066        1071        1070
        1066        1067        1072        1071
        1067        1068        1073        1072
        1068        1069        1074        1073
        1075        1076        1081        1080
        1076        1077        1082        1081
        1077        1078        1083        1082
        1078        1079        1084        1083
        1080        1081        1086        1085
        1081        1082        1087        1086
        1082        1083        1088        1087
        1083        1084        1089        1088
        1085        1086        1091        1090
        1086        1087        1092        1091
        1087        1088        1093        1092
        1088        1089        1094        1093
        1090        1091        1096        1095
        1091        1092        1097        1096
        1092        1093        1098        1097
        1093        1094        1099        1098
        1100        1101        1106        1105
        1101        1102        1107        1106
        1102        1103        1108        1107
        1103        1104        1109        1108
        1105        1106        1111        1110
        1106        1107        1112        1111
        1107        1108        1113        1112
        1108        1109        1114        1113
        1110        1111        1116        1115
        1111        1112        1117        1116
        1112        1113        1118        1117
        1113        1114        1119        1118
        1115        1116        1121        1120
        1116        1117        1122        1121
        1117        1118        1123        1122
        1118        1119        1124        1123
        1125        1126        1131        1130
        1126        1127        1132        1131
        1127        1128        1133        1132
        1128        1129        1134        1133
        1130        1131        1136        1135
        1131        1132        1137        1136
        1132        1133        1138        1137
        1133        1134        1139        1138
        1135        1136        1141        1140
        1136        1137        1142        1141
        1137        1138        1143        1142
        1138        1139        1144        1143
        1140        1141        1146        1145
        1141        1142        1147        1146
        1142        1143        1148        1147
        1143        1144        1149        1148
        1150        1151        1156        1155
        1151        1152        1157        1156
        1152        1153        1158        1157
        1153        1154        1159        1158
        1155        1156        1161        1160
        1156        1157        1162        1161
        1157        1158        1163        1162
        1158        1159        1164        1163
        1160        1161        1166        1165
        1161        1162        1167        1166
        1162        1163        1168        1167
        1163        1164        1169        1168
        1165        1166        1171        1170
        1166        1167        1172        1171
        1167        1168        1173        1172
        1168        1169        1174        1173
        1175        1176        1181        1180
        1176        1177        1182        1181
        1177        1178        1183        1182
        1178        1179        1184        1183
        1180        1181        1186        1185
        1181        1182        1187        1186
        1182        1183        1188        1187
        1183        1184        1189        1188
        1185        1186        1191        1190
        1186        1187        1192        1191
        1187        1188        1193        1192
        1188        1189        1194        1193
        1190        1191        1196        1195
        1191        1192        1197        1196
        1192        1193        1198        1197
        1193        1194        1199        1198
        1200        1201        1206        1205
        1201        1202        1207        1206
        1202        1203        1208        1207
        1203        1204        1209        1208
        1205        1206        1211        1210
        1206        1207        1212        1211
        1207        1208        1213        1212
        1208        1209        1214        1213
        1210        1211        1216        1215
        1211        1212        1217        1216
        1212        1213        1218        1217
        1213        1214        1219        1218
        1215        1216        1221        1220
        1216        1217        1222        1221
        1217        1218        1223        1222
        1218        1219        1224        1223
        1225        1226        1231        1230
        1226        1227        1232        1231
        1227        1228        1233        1232
        1228        1229        1234        1233
        1230        1231        1236        1235
        1231        1232        1237        1236
        1232        1233        1238        1237
        1233        1234        1239        1238
        1235        1236        1241        1240
        1236        1237        1242        1241
        1237        1238        1243        1242
        1238        1239        1244        1243
        1240        1241        1246        1245
        1241        1242        1247        1246
        1242        1243        1248        1247
        1243        1244        1249        1248
        1250        1251        1256        1255
        1251        1252        1257        1256
        1252        1253        1258        1257
        1253        1254        1259        1258
        1255        1256        1261        1260
        1256        1257        1262        1261
        1257        1258        1263        1262
        1258        1259        1264        1263
        1260        1261        1266        1265
        1261        1262        1267        1266
        1262        1263        1268        1267
        1263        1264        1269        1268
        1265        1266        1271        1270
        1266        1267        1272        1271
        1267        1268        1273        1272
        1268        1269        1274        1273
        1275        1276        1281        1280
        1276        1277        1282        1281
        1277        1278        1283        1282
        1278        1279        1284        1283
        1280        1281        1286        1285
        1281        1282        1287        1286
        1282        1283        1288        1287
        1283        1284        1289        1288
        1285        1286        1291        1290
        1286        1287        1292        1291
        1287        1288        1293        1292
        1288        1289        1294        1293
        1290        1291        1296        1295
        1291        1292        1297        1296
        1292        1293        1298        1297
        1293        1294        1299        1298
        1300        1301        1306        1305
        1301        1302        1307        1306
        1302        1303        1308        1307
        1303        1304        1309        1308
        1305        1306        1311        1310
        1306        1307        1312        1311
        1307        1308        1313        1312
        1308        1309        1314        1313
        1310        1311        1316        1315
        1311        1312        1317        1316
        1312        1313        1318        1317
        1313        1314        1319        1318
        1315        1316        1321        1320
        1316        1317        1322        1321
        1317        1318        1323        1322
        1318        1319        1324        1323
        1325        1326        1331        1330
        1326        1327        1332        1331
        1327        1328        1333        1332
        1328        1329        1334        1333
        1330        1331        1336        1335
        1331        1332        1337        1336
        1332        1333        1338        1337
        1333        1334        1339        1338
        1335        1336        1341        1340
        1336        1337        1342        1341
        1337        1338        1343        1342
        1338        1339        1344        1343
        1340        1341        1346        1345
        1341        1342        1347        1346
        1342        1343        1348        1347
        1343        1344        1349        1348
        1350        1351        1356        1355
        1351        1352        1357        1356
        1352        1353        1358        1357
        1353        1354        1359        1358
        1355        1356        1361        1360
        1356        1357        1362        1361
        1357        1358        1363        1362
        1358        1359        1364        1363
        1360        1361        1366        1365
        1361        1362        1367        1366
        1362        1363        1368        1367
        1363        1364        1369        1368
        1365        1366        1371        1370
        1366        1367        1372        1371
        1367        1368        1373        1372
        1368        1369        1374        1373
        1375        1376        1381        1380
        1376        1377        1382        1381
        1377        1378        1383        1382
        1378        1379        1384        1383
        1380        1381        1386        1385
        1381        1382        1387        1386
        1382        1383        1388        1387
        1383        1384        1389        1388
        1385        1386        1391        1390
        1386        1387        1392        1391
        1387        1388        1393        1392
        1388        1389        1394        1393
        1390        1391        1396        1395
        1391        1392        1397        1396
        1392        1393        1398        1397
        1393        1394        1399        1398
        1400        1401        1406        1405
        1401        1402        1407        1406
        1402        1403        1408        1407
        1403        1404        1409        1408
        1405        1406        1411        1410
        1406        1407        1412        1411
        1407        1408        1413        1412
        1408        1409        1414        1413
        1410        1411        1416        1415
        1411        1412        1417        1416
        1412        1413        1418        1417
        1413        1414        1419        1418
        1415        1416        1421        1420
        1416        1417        1422        1421
        1417        1418        1423        1422
        1418        1419        1424        1423
        1425        1426        1431        1430
        1426        1427        1432        1431
        1427        1428        1433        1432
        1428        1429        1434        1433
        1430        1431        1436        1435
        1431        1432        1437        1436
        1432        1433        1438        1437
        1433        1434        1439        1438
        1435        1436        1441        1440
        1436        1437        1442        1441
        1437        1438        1443        1442
        1438        1439        1444        1443
        1440        1441        1446        1445
        1441        1442        1447        1446
        1442        1443        1448        1447
        1443        1444        1449        1448
        1450        1451        1456        1455
        1451        1452        1457        1456
        1452        1453        1458        1457
        1453        1454        1459        1458
        1455        1456        1461        1460
        1456        1457        1462        1461
        1457        1458        1463        1462
        1458        1459        1464        1463
        1460        1461        1466        1465
        1461        1462        1467        1466
        1462        1463        1468        1467
        1463        1464        1469        1468
        1465        1466        1471        1470
        1466        1467        1472        1471
        1467        1468        1473        1472
        1468        1469        1474        1473
        1475        1476        1481        1480
        1476        1477        1482        1481
        1477        1478        1483        1482
        1478        1479        1484        1483
        1480        1481        1486        1485
        1481        1482        1487        1486
        1482        1483        1488        1487
        1483        1484        1489        1488
        1485        1486        1491        1490
        1486        1487        1492        1491
        1487        1488        1493        1492
        1488        1489        1494        1493
        1490        1491        1496        1495
        1491        1492        1497        1496
        1492        1493        1498        1497
        1493        1494        1499        1498
        1500        1501        1506        1505
        1501        1502        1507        1506
        1502        1503        1508        1507
        1503        1504        1509        1508
        1505        1506        1511        1510
        1506        1507        1512        1511
        1507        1508        1513        1512
        1508        1509        1514        1513
        1510        1511        1516        1515
        1511        1512        1517        1516
        1512        1513        1518        1517
        1513        1514        1519        1518
        1515        1516        1521        1520
        1516        1517        1522        1521
        1517        1518        1523        1522
        1518        1519        1524        1523
        1525        1526        1531        1530
        1526        1527        1532        1531
        1527        1528        1533        1532
        1528        1529        1534        1533
        1530        1531        1536        1535
        1531        1532        1537        1536
        1532        1533        1538        1537
        1533        1534        1539        1538
        1535        1536        1541        1540
        1536        1537        1542        1541
        1537        1538        1543        1542
        1538        1539        1544        1543
        1540        1541        1546        1545
        1541        1542        1547        1546
        1542        1543        1548        1547
        1543        1544        1549        1548
        1550        1551        1556        1555
        1551        1552        1557        1556
        1552        1553        1558        1557
        1553        1554        1559        1558
        1555        1556        1561        1560
        1556        1557        1562        1561
        1557        1558        1563        1562
        1558        1559        1564        1563
        1560        1561        1566        1565
        1561        1562        1567        1566
        1562        1563        1568        1567
        1563        1564        1569        1568
        1565        1566        1571        1570
        1566        1567        1572        1571
        1567        1568        1573        1572
        1568        1569        1574        1573
        1575        1576        1581        1580
        1576        1577        1582        1581
        1577        1578        1583        1582
        1578        1579        1584        1583
        1580        1581        1586        1585
        1581        1582        1587        1586
        1582        1583        1588        1587
        1583        1584        1589        1588
        1585        1586        1591        1590
        1586        1587        1592        1591
        1587        1588        1593        1592
        1588        1589        1594        1593
        1590        1591        1596        1595
        1591        1592        1597        1596
        1592        1593        1598        1597
        1593        1594        1599        1598
 </DataArray>
 <DataArray  type="Int32"  Name="offsets"  format="ascii"> 
           4
           8
          12
          16
          20
          24
          28
          32
          36
          40
          44
          48
          52
          56
          60
          64
          68
          72
          76
          80
          84
          88
          92
          96
         100
         104
         108
         112
         116
         120
         124
         128
         132
         136
         140
         144
         148
         152
         156
         160
         164
         168
         172
         176
         180
         184
         188
         192
         196
         200
         204
         208
         212
         216
         220
         224
         228
         232
         236
         240
         244
         248
         252
         256
         260
         264
         268
         272
         276
         280
         284
         288
         292
         296
         300
         304
         308
         312
         316
         320
         324
         328
         332
         336
         340
         344
         348
         352
         356
         360
         364
         368
         372
         376
         380
         384
         388
         392
         396
         400
         404
         408
         412
         416
         420
         424
         428
         432
         436
         440
         444
         448
         452
         456
         460
         464
         468
         472
         476
         480
         484
         488
         492
         496
         500
         504
         508
         512
         516
         520
         524
         528
         532
         536
         540
         544
         548
         552
         556
         560
         564
         568
         572
         576
         580
         584
         588
         592
         596
         600
         604
         608
         612
         616
         620
         624
         628
         632
         636
         640
         644
         648
         652
         656
         660
         664
         668
         672
         676
         680
         684
         688
         692
         696
         700
         704
         708
         712
         716
         720
         724
         728
         732
         736
         740
         744
         748
         752
         756
         760
         764
         768
         772
         776
         780
         784
         788
         792
         796
         800
         804
         808
         812
         816
         820
         824
         828
         832
         836
         840
         844
         848
         852
         856
         860
         864
         868
         872
         876
         880
         884
         888
         892
         896
         900
         904
         908
         912
         916
         920
         924
         928
         932
         936
         940
         944
         948
         952
         956
         960
         964
         968
         972
         976
         980
         984
         988
         992
         996
        1000
        1004
        1008
        1012
        1016
        1020
        1024
        1028
        1032
        1036
        1040
        1044
        1048
        1052
        1056
        1060
        1064
        1068
        1072
        1076
        1080
        1084
        1088
        1092
        1096
        1100
        1104
        1108
        1112
        1116
        1120
        1124
        1128
        1132
        1136
        1140
        1144
        1148
        1152
        1156
        1160
        1164
        1168
        1172
        1176
        1180
        1184
        1188
        1192
        1196
        1200
        1204
        1208
        1212
        1216
        1220
        1224
        1228
        1232
        1236
        1240
        1244
        1248
        1252
        1256
        1260
        1264
        1268
        1272
        1276
        1280
        1284
        1288
        1292
        1296
        1300
        1304
        1308
        1312
        1316
        1320
        1324
        1328
        1332
        1336
        1340
        1344
        1348
        1352
        1356
        1360
        1364
        1368
        1372
        1376
        1380
        1384
        1388
        1392
        1396
        1400
        1404
        1408
        1412
        1416
        1420
        1424
        1428
        1432
        1436
        1440
        1444
        1448
        1452
        1456
        1460
        1464
        1468
        1472
        1476
        1480
        1484
        1488
        1492
        1496
        1500
        1504
        1508
        1512
        1516
        1520
        1524
        1528
        1532
        1536
        1540
        1544
        1548
        1552
        1556
        1560
        1564
        1568
        1572
        1576
        1580
        1584
        1588
        1592
        1596
        1600
        1604
        1608
        1612
        1616
        1620
        1624
        1628
        1632
        1636
        1640
        1644
        1648
        1652
        1656
        1660
        1664
        1668
        1672
        1676
        1680
        1684
        1688
        1692
        1696
        1700
        1704
        1708
        1712
        1716
        1720
        1724
        1728
        1732
        1736
        1740
        1744
        1748
        1752
        1756
        1760
        1764
        1768
        1772
        1776
        1780
        1784
        1788
        1792
        1796
        1800
        1804
        1808
        1812
        1816
        1820
        1824
        1828
        1832
        1836
        1840
        1844
        1848
        1852
        1856
        1860
        1864
        1868
        1872
        1876
        1880
        1884
        1888
        1892
        1896
        1900
        1904
        1908
        1912
        1916
        1920
        1924
        1928
        1932
        1936
        1940
        1944
        1948
        1952
        1956
        1960
        1964
        1968
        1972
        1976
        1980
        1984
        1988
        1992
        1996
        2000
        2004
        2008
        2012
        2016
        2020
        2024
        2028
        2032
        2036
        2040
        2044
        2048
        2052
        2056
        2060
        2064
        2068
        2072
        2076
        2080
        2084
        2088
        2092
        2096
        2100
        2104
        2108
        2112
        2116
        2120
        2124
        2128
        2132
        2136
        2140
        2144
        2148
        2152
        2156
        2160
        2164
        2168
        2172
        2176
        2180
        2184
        2188
        2192
        2196
        2200
        2204
        2208
        2212
        2216
        2220
        2224
        2228
        2232
        2236
        2240
        2244
        2248
        2252
        2256
        2260
        2264
        2268
        2272
        2276
        2280
        2284
        2288
        2292
        2296
        2300
        2304
        2308
        2312
        2316
        2320
        2324
        2328
        2332
        2336
        2340
        2344
        2348
        2352
        2356
        2360
        2364
        2368
        2372
        2376
        2380
        2384
        2388
        2392
        2396
        2400
        2404
        2408
        2412
        2416
        2420
        2424
        2428
        2432
        2436
        2440
        2444
        2448
        2452
        2456
        2460
        2464
        2468
        2472
        2476
        2480
        2484
        2488
        2492
        2496
        2500
        2504
        2508
        2512
        2516
        2520
        2524
        2528
        2532
        2536
        2540
        2544
        2548
        2552
        2556
        2560
        2564
        2568
        2572
        2576
        2580
        2584
        2588
        2592
        2596
        2600
        2604
        2608
        2612
        2616
        2620
        2624
        2628
        2632
        2636
        2640
        2644
        2648
        2652
        2656
        2660
        2664
        2668
        2672
        2676
        2680
        2684
        2688
        2692
        2696
        2700
        2704
        2708
        2712
        2716
        2720
        2724
        2728
        2732
        2736
        2740
        2744
        2748
        2752
        2756
        2760
        2764
        2768
        2772
        2776
        2780
        2784
        2788
        2792
        2796
        2800
        2804
        2808
        2812
        2816
        2820
        2824
        2828
        2832
        2836
        2840
        2844
        2848
        2852
        2856
        2860
        2864
        2868
        2872
        2876
        2880
        2884
        2888
        2892
        2896
        2900
        2904
        2908
        2912
        2916
        2920
        2924
        2928
        2932
        2936
        2940
        2944
        2948
        2952
        2956
        2960
        2964
        2968
        2972
        2976
        2980
        2984
        2988
        2992
        2996
        3000
        3004
        3008
        3012
        3016
        3020
        3024
        3028
        3032
        3036
        3040
        3044
        3048
        3052
        3056
        3060
        3064
        3068
        3072
        3076
        3080
        3084
        3088
        3092
        3096
        3100
        3104
        3108
        3112
        3116
        3120
        3124
        3128
        3132
        3136
        3140
        3144
        3148
        3152
        3156
        3160
        3164
        3168
        3172
        3176
        3180
        3184
        3188
        3192
        3196
        3200
        3204
        3208
        3212
        3216
        3220
        3224
        3228
        3232
        3236
        3240
        3244
        3248
        3252
        3256
        3260
        3264
        3268
        3272
        3276
        3280
        3284
        3288
        3292
        3296
        3300
        3304
        3308
        3312
        3316
        3320
        3324
        3328
        3332
        3336
        3340
        3344
        3348
        3352
        3356
        3360
        3364
        3368
        3372
        3376
        3380
        3384
        3388
        3392
        3396
        3400
        3404
        3408
        3412
        3416
        3420
        3424
        3428
        3432
        3436
        3440
        3444
        3448
        3452
        3456
        3460
        3464
        3468
        3472
        3476
        3480
        3484
        3488
        3492
        3496
        3500
        3504
        3508
        3512
        3516
        3520
        3524
        3528
        3532
        3536
        3540
        3544
        3548
        3552
        3556
        3560
        3564
        3568
        3572
        3576
        3580
        3584
        3588
        3592
        3596
        3600
        3604
        3608
        3612
        3616
        3620
        3624
        3628
        3632
        3636
        3640
        3644
        3648
        3652
        3656
        3660
        3664
        3668
        3672
        3676
        3680
        3684
        3688
        3692
        3696
        3700
        3704
        3708
        3712
        3716
        3720
        3724
        3728
        3732
        3736
        3740
        3744
        3748
        3752
        3756
        3760
        3764
        3768
        3772
        3776
        3780
        3784
        3788
        3792
        3796
        3800
        3804
        3808
        3812
        3816
        3820
        3824
        3828
        3832
        3836
        3840
        3844
        3848
        3852
        3856
        3860
        3864
        3868
        3872
        3876
        3880
        3884
        3888
        3892
        3896
        3900
        3904
        3908
        3912
        3916
        3920
        3924
        3928
        3932
        3936
        3940
        3944
        3948
        3952
        3956
        3960
        3964
        3968
        3972
        3976
        3980
        3984
        3988
        3992
        3996
        4000
        4004
        4008
        4012
        4016
        4020
        4024
        4028
        4032
        4036
        4040
        4044
        4048
        4052
        4056
        4060
        4064
        4068
        4072
        4076
        4080
        4084
        4088
        4092
        4096
 </DataArray>
 <DataArray  type="UInt8"  Name="types"  format="ascii">
 9
 9
 9
 9
 9
 9
 9
 9
 9
 9
 9
 9
 9
 9
 9
 9
 9
 9
 9
 9
 9
 9
 9
 9
 9
 9
 9
 9
 9
 9
 9
 9
 9
 9
 9
 9
 9
 9
 9
 9
 9
 9
 9
 9
 9
 9
 9
 9
 9
 9
 9
 9
 9
 9
 9
 9
 9
 9
 9
 9
 9
 9
 9
 9
 9
 9
 9
 9
 9
 9
 9
 9
 9
 9
 9
 9
 9
 9
 9
 9
 9
 9
 9
 9
 9
 9
 9
 9
 9
 9
 9
 9
 9
 9
 9
 9
 9
 9
 9
 9
 9
 9
 9
 9
 9
 9
 9
 9
 9
 9
 9
 9
 9
 9
 9
 9
 9
 9
 9
 9
 9
 9
 9
 9
 9
 9
 9
 9
 9
 9
 9
 9
 9
 9
 9
 9
 9
 9
 9
 9
 9
 9
 9
 9
 9
 9
 9
 9
 9
 9
 9
 9
 9
 9
 9
 9
 9
 9
 9
 9
 9
 9
 9
 9
 9
 9
 9
 9
 9
 9
 9
 9
 9
 9
 9
 9
 9
 9
 9
 9
 9
 9
 9
 9
 9
 9
 9
 9
 9
 9
 9
 9
 9
 9
 9
 9
 9
 9
 9
 9
 9
 9
 9
 9
 9
 9
 9
 9
 9
 9
 9
 9
 9
 9
 9
 9
 9
 9
 9
 9
 9
 9
 9
 9
 9
 9
 9
 9
 9
 9
 9
 9
 9
 9
 9
 9
 9
 9
 9
 9
 9
 9
 9
 9
 9
 9
 9
 9
 9
 9
 9
 9
 9
 9
 9
 9
 9
 9
 9
 9
 9
 9
 9
 9
 9
 9
 9
 9
 9
 9
 9
 9
 9
 9
 9
 9
 9
 9
 9
 9
 9
 9
 9
 9
 9
 9
 9
 9
 9
 9
 9
 9
 9
 9
 9
 9
 9
 9
 9
 9
 9
 9
 9
 9
 9
 9
 9
 9
 9
 9
 9
 9
 9
 9
 9
 9
 9
 9
 9
 9
 9
 9
 9
 9
 9
 9
 9
 9
 9
 9
 9
 9
 9
 9
 9
 9
 9
 9
 9
 9
 9
 9
 9
 9
 9
 9
 9
 9
 9
 9
 9
 9
 9
 9
 9
 9
 9
 9
 9
 9
 9
 9
 9
 9
 9
 9
 9
 9
 9
 9
 9
 9
 9
 9
 9
 9
 9
 9
 9
 9
 9
 9
 9
 9
 9
 9
 9
 9
 9
 9
 9
 9
 9
 9
 9
 9
 9
 9
 9
 9
 9
 9
 9
 9
 9
 9
 9
 9
 9
 9
 9
 9
 9
 9
 9
 9
 9
 9
 9
 9
 9
 9
 9
 9
 9
 9
 9
 9
 9
 9
 9
 9
 9
 9
 9
 9
 9
 9
 9
 9
 9
 9
 9
 9
 9
 9
 9
 9
 9
 9
 9
 9
 9
 9
 9
 9
 9
 9
 9
 9
 9
 9
 9
 9
 9
 9
 9
 9
 9
 9
 9
 9
 9
 9
 9
 9
 9
 9
 9
 9
 9
 9
 9
 9
 9
 9
 9
 9
 9
 9
 9
 9
 9
 9
 9
 9
 9
 9
 9
 9
 9
 9
 9
 9
 9
 9
 9
 9
 9
 9
 9
 9
 9
 9
 9
 9
 9
 9
 9
 9
 9
 9
 9
 9
 9
 9
 9
 9
 9
 9
 9
 9
 9
 9
 9
 9
 9
 9
 9
 9
 9
 9
 9
 9
 9
 9
 9
 9
 9
 9
 9
 9
 9
 9
 9
 9
 9
 9
 9
 9
 9
 9
 9
 9
 9
 9
 9
 9
 9
 9
 9
 9
 9
 9
 9
 9
 9
 9
 9
 9
 9
 9
 9
 9
 9
 9
 9
 9
 9
 9
 9
 9
 9
 9
 9
 9
 9
 9
 9
 9
 9
 9
 9
 9
 9
 9
 9
 9
 9
 9
 9
 9
 9
 9
 9
 9
 9
 9
 9
 9
 9
 9
 9
 9
 9
 9
 9
 9
 9
 9
 9
 9
 9
 9
 9
 9
 9
 9
 9
 9
 9
 9
 9
 9
 9
 9
 9
 9
 9
 9
 9
 9
 9
 9
 9
 9
 9
 9
 9
 9
 9
 9
 9
 9
 9
 9
 9
 9
 9
 9
 9
 9
 9
 9
 9
 9
 9
 9
 9
 9
 9
 9
 9
 9
 9
 9
 9
 9
 9
 9
 9
 9
 9
 9
 9
 9
 9
 9
 9
 9
 9
 9
 9
 9
 9
 9
 9
 9
 9
 9
 9
 9
 9
 9
 9
 9
 9
 9
 9
 9
 9
 9
 9
 9
 9
 9
 9
 9
 9
 9
 9
 9
 9
 9
 9
 9
 9
 9
 9
 9
 9
 9
 9
 9
 9
 9
 9
 9
 9
 9
 9
 9
 9
 9
 9
 9
 9
 9
 9
 9
 9
 9
 9
 9
 9
 9
 9
 9
 9
 9
 9
 9
 9
 9
 9
 9
 9
 9
 9
 9
 9
 9
 9
 9
 9
 9
 9
 9
 9
 9
 9
 9
 9
 9
 9
 9
 9
 9
 9
 9
 9
 9
 9
 9
 9
 9
 9
 9
 9
 9
 9
 9
 9
 9
 9
 9
 9
 9
 9
 9
 9
 9
 9
 9
 9
 9
 9
 9
 9
 9
 9
 9
 9
 9
 9
 9
 9
 9
 9
 9
 9
 9
 9
 9
 9
 9
 9
 9
 9
 9
 9
 9
 9
 9
 9
 9
 9
 9
 9
 9
 9
 9
 9
 9
 9
 9
 9
 9
 9
 9
 9
 9
 9
 9
 9
 9
 9
 9
 9
 9
 9
 9
 9
 9
 9
 9
 9
 9
 9
 9
 9
 9
 9
 9
 9
 9
 9
 9
 9
 9
 9
 9
 9
 9
 9
 9
 9
 9
 9
 9
 9
 9
 9
 9
 9
 9
 9
 9
 9
 9
 9
 9
 9
 9
 9
 9
 9
 9
 9
 9
 9
 9
 9
 9
 9
 9
 9
 9
 9
 9
 9
 9
 9
 9
 9
 9
 9
 9
 9
 9
 9
 9
 9
 9
 9
 9
 9
 9
 9
 9
 9
 9
 9
 9
 9
 9
 9
 9
 9
 9
 9
 9
 9
 9
 9
 9
 9
 9
 9
 9
 9
 9
 9
 9
 9
 9
 9
 9
 9
 9
 9
 9
 9
 9
 9
 9
 9
 9
 9
 9
 9
 9
 9
 9
 9
 9
 9
 9
 9
 9
 9
 9
 9
 9
 9
 9
 9
 9
 9
 9
 9
 9
 9
 9
 </DataArray>
 </Cells> 
 <PointData>
 <DataArray  type="Float64" Name="disp" NumberOfComponents="3" format="ascii">
   0.0000000000000000        0.0000000000000000        0.0000000000000000     
   6.0968242840002337E-003   3.7895838535691052E-003   0.0000000000000000     
   1.1668152510277315E-002   7.3220145344531197E-003   0.0000000000000000     
   1.6713984678831242E-002   1.0597292042652045E-002   0.0000000000000000     
   2.1234320789662021E-002   1.3615416378165879E-002   0.0000000000000000     
   0.0000000000000000        0.0000000000000000        0.0000000000000000     
   4.8922879709140527E-003   3.0209286213549089E-003   0.0000000000000000     
   9.5762346525465440E-003   6.0580908998373473E-003   0.0000000000000000     
   1.4051840044897472E-002   9.1114868354473175E-003   0.0000000000000000     
   1.8319104147966839E-002   1.2181116428184815E-002   0.0000000000000000     
   0.0000000000000000        0.0000000000000000        0.0000000000000000     
   3.9548269349548148E-003   2.4235912552551305E-003   0.0000000000000000     
   7.9133765000462750E-003   5.0599275395698529E-003   0.0000000000000000     
   1.1875648695274379E-002   7.9090088529441653E-003   0.0000000000000000     
   1.5841643520639125E-002   1.0970835195378071E-002   0.0000000000000000     
   0.0000000000000000        0.0000000000000000        0.0000000000000000     
   3.2844411761225197E-003   1.9975717552697700E-003   0.0000000000000000     
   6.6795780527765065E-003   4.3275244536506337E-003   0.0000000000000000     
   1.0185410629961962E-002   6.9898580951425924E-003   0.0000000000000000     
   1.3801938907678881E-002   9.9845726797456440E-003   0.0000000000000000     
   0.0000000000000000        0.0000000000000000        0.0000000000000000     
   2.8811306944171674E-003   1.7428701213988269E-003   0.0000000000000000     
   5.8748393107372412E-003   3.8608816420796924E-003   0.0000000000000000     
   8.9811258489602228E-003   6.3540345620425962E-003   0.0000000000000000     
   1.2199990309086110E-002   9.2223288812875379E-003   0.0000000000000000     
   2.1234320789662021E-002   1.3615416378165879E-002   0.0000000000000000     
   2.5442046284252631E-002   1.6607319418517563E-002   0.0000000000000000     
   2.9550046604086059E-002   1.9803933041230029E-002   0.0000000000000000     
   3.3558321749162297E-002   2.3205257246303280E-002   0.0000000000000000     
   3.7466871719481362E-002   2.6811292033737312E-002   0.0000000000000000     
   1.8319104147966839E-002   1.2181116428184815E-002   0.0000000000000000     
   2.2416219441500632E-002   1.5335548030378879E-002   0.0000000000000000     
   2.6381378405244856E-002   1.8643349994358533E-002   0.0000000000000000     
   3.0214581039199499E-002   2.2104522320123794E-002   0.0000000000000000     
   3.3915827343364562E-002   2.5719065007674645E-002   0.0000000000000000     
   1.5841643520639125E-002   1.0970835195378071E-002   0.0000000000000000     
   1.9739562607217355E-002   1.4204366441256373E-002   0.0000000000000000     
   2.3497607586085927E-002   1.7568562464963869E-002   0.0000000000000000     
   2.7115778457244812E-002   2.1063423266500566E-002   0.0000000000000000     
   3.0594075220694034E-002   2.4688948845866455E-002   0.0000000000000000     
   1.3801938907678881E-002   9.9845726797456440E-003   0.0000000000000000     
   1.7412075781402803E-002   1.3213774651150038E-002   0.0000000000000000     
   2.0898734146609262E-002   1.6579570453046023E-002   0.0000000000000000     
   2.4261914003298250E-002   2.0081960085433594E-002   0.0000000000000000     
   2.7501615351469774E-002   2.3720943548312754E-002   0.0000000000000000     
   1.2199990309086110E-002   9.2223288812875379E-003   0.0000000000000000     
   1.5433758964056968E-002   1.2363772660059886E-002   0.0000000000000000     
   1.8584758086814871E-002   1.5676373958605001E-002   0.0000000000000000     
   2.1652987677359806E-002   1.9160132776922887E-002   0.0000000000000000     
   2.4638447735691786E-002   2.2815049115013544E-002   0.0000000000000000     
   3.7466871719481362E-002   2.6811292033737312E-002   0.0000000000000000     
   4.1279887686224294E-002   3.0617389467804536E-002   0.0000000000000000     
   4.5001560820572148E-002   3.4618901612777357E-002   0.0000000000000000     
   4.8631891122524917E-002   3.8815828468655764E-002   0.0000000000000000     
   5.2170878592082609E-002   4.3208170035439766E-002   0.0000000000000000     
   3.3915827343364562E-002   2.5719065007674645E-002   0.0000000000000000     
   3.7508278721829540E-002   2.9515948256966674E-002   0.0000000000000000     
   4.1015096578683914E-002   3.3524142267955456E-002   0.0000000000000000     
   4.4436280913927678E-002   3.7743647040641017E-002   0.0000000000000000     
   4.7771831727560839E-002   4.2174462575023323E-002   0.0000000000000000     
   3.0594075220694034E-002   2.4688948845866455E-002   0.0000000000000000     
   3.3961987039016574E-002   2.8489907673601871E-002   0.0000000000000000     
   3.7249003074795430E-002   3.2511068220247116E-002   0.0000000000000000     
   4.0455123328030591E-002   3.6752430485802193E-002   0.0000000000000000     
   4.3580347798722066E-002   4.1213994470267107E-002   0.0000000000000000     
   2.7501615351469774E-002   2.3720943548312754E-002   0.0000000000000000     
   3.0641012637785400E-002   2.7539267717710127E-002   0.0000000000000000     
   3.3703280308906694E-002   3.1579679469652309E-002   0.0000000000000000     
   3.6688418364833650E-002   3.5842178804139299E-002   0.0000000000000000     
   3.9596426805566277E-002   4.0326765721171103E-002   0.0000000000000000     
   2.4638447735691786E-002   2.2815049115013544E-002   0.0000000000000000     
   2.7545355518136021E-002   2.6664028389291439E-002   0.0000000000000000     
   3.0377928281017708E-002   3.0729976016171032E-002   0.0000000000000000     
   3.3136166024336874E-002   3.5012891995652329E-002   0.0000000000000000     
   3.5820068748093487E-002   3.9512776327735324E-002   0.0000000000000000     
   5.2170878592082609E-002   4.3208170035439766E-002   0.0000000000000000     
   5.5615966997737645E-002   4.7800550585056965E-002   0.0000000000000000     
   5.8964600107982448E-002   5.2597594389434961E-002   0.0000000000000000     
   6.2216777922817025E-002   5.7599301448573760E-002   0.0000000000000000     
   6.5372500442241369E-002   6.2805671762473342E-002   0.0000000000000000     
   4.7771831727560839E-002   4.2174462575023323E-002   0.0000000000000000     
   5.1017499729905186E-002   4.6809977618625327E-002   0.0000000000000000     
   5.4169035631282510E-002   5.1643580918969957E-002   0.0000000000000000     
   5.7226439431692817E-002   5.6675272476057199E-002   0.0000000000000000     
   6.0189711131136095E-002   6.1905052289887068E-002   0.0000000000000000     
   4.3580347798722066E-002   4.1213994470267107E-002   0.0000000000000000     
   4.6620264637210272E-002   4.5883054551556841E-002   0.0000000000000000     
   4.9570461993835649E-002   5.0746905107586379E-002   0.0000000000000000     
   5.2430939868598203E-002   5.5805546138355720E-002   0.0000000000000000     
   5.5201698261497900E-002   6.1058977643864878E-002   0.0000000000000000     
   3.9596426805566277E-002   4.0326765721171103E-002   0.0000000000000000     
   4.2424261719652918E-002   4.5019781383851494E-002   0.0000000000000000     
   4.5168879195641859E-002   4.9907566955284234E-002   0.0000000000000000     
   4.7830279233533154E-002   5.4990122435469323E-002   0.0000000000000000     
   5.0408461833326770E-002   6.0267447824406774E-002   0.0000000000000000     
   3.5820068748093487E-002   3.9512776327735324E-002   0.0000000000000000     
   3.8429490977233083E-002   4.4220158115509292E-002   0.0000000000000000     
   4.0964287236701147E-002   4.9125566462063529E-002   0.0000000000000000     
   4.3424457526497692E-002   5.4229001367398014E-002   0.0000000000000000     
   4.5810001846622705E-002   5.9530462831512761E-002   0.0000000000000000     
   6.5372500442241369E-002   6.2805671762473342E-002   0.0000000000000000     
   6.8434527396358746E-002   6.8203189685949656E-002   0.0000000000000000     
   7.1405618515272398E-002   7.3778339573818560E-002   0.0000000000000000     
   7.4285773798982310E-002   7.9531121426080070E-002   0.0000000000000000     
   7.7074993247488524E-002   8.5461535242734199E-002   0.0000000000000000     
   6.0189711131136095E-002   6.1905052289887068E-002   0.0000000000000000     
   6.3063572714555177E-002   6.7324305553443070E-002   0.0000000000000000     
   6.5852746166892850E-002   7.2924417459708735E-002   0.0000000000000000     
   6.8557231488149128E-002   7.8705388008684013E-002   0.0000000000000000     
   7.1177028678324011E-002   8.4667217200368988E-002   0.0000000000000000     
   5.5201698261497900E-002   6.1058977643864878E-002   0.0000000000000000     
   5.7887895255436986E-002   6.6501091058290857E-002   0.0000000000000000     
   6.0494688933317699E-002   7.2125777815810699E-002   0.0000000000000000     
   6.3022079295140018E-002   7.7933037916424364E-002   0.0000000000000000     
   6.5470066340903965E-002   8.3922871360131865E-002   0.0000000000000000     
   5.0408461833326770E-002   6.0267447824406774E-002   0.0000000000000000     
   5.2907495019004200E-002   6.5733546200492987E-002   0.0000000000000000     
   5.5331446814546943E-002   7.1382420642124411E-002   0.0000000000000000     
   5.7680317219954994E-002   7.7214071149301025E-002   0.0000000000000000     
   5.9954106235228365E-002   8.3228497722022884E-002   0.0000000000000000     
   4.5810001846622705E-002   5.9530462831512761E-002   0.0000000000000000     
   4.8122372005256805E-002   6.5021670980049504E-002   0.0000000000000000     
   5.0363019810580591E-002   7.0694345938649941E-002   0.0000000000000000     
   5.2531945262594068E-002   7.6548487707314108E-002   0.0000000000000000     
   5.4629148361297231E-002   8.2584096286041991E-002   0.0000000000000000     
   7.7074993247488524E-002   8.5461535242734199E-002   0.0000000000000000     
   7.9766338050639957E-002   9.1560543123327037E-002   0.0000000000000000     
   8.2352869398285566E-002   9.7819107167404717E-002   0.0000000000000000     
   8.4834587290425340E-002  0.10423722737496721        0.0000000000000000     
   8.7211491727059290E-002  0.11081490374601455        0.0000000000000000     
   7.1177028678324011E-002   8.4667217200368988E-002   0.0000000000000000     
   7.3704307929751176E-002   9.0798118594140761E-002   0.0000000000000000     
   7.6131239434764283E-002   9.7086305749376531E-002   0.0000000000000000     
   7.8457823193363335E-002  0.10353177866607632        0.0000000000000000     
   8.0684059205548359E-002  0.11013453734424011        0.0000000000000000     
   6.5470066340903965E-002   8.3922871360131865E-002   0.0000000000000000     
   6.7831135041985610E-002   9.0082047891919717E-002   0.0000000000000000     
   7.0097770369761100E-002   9.6397337256774324E-002   0.0000000000000000     
   7.2269972324230408E-002  0.10286873945469573        0.0000000000000000     
   7.4347740905393561E-002  0.10949625448568390        0.0000000000000000     
   5.9954106235228365E-002   8.3228497722022884E-002   0.0000000000000000     
   6.2146819387343274E-002   8.9412331016663890E-002   0.0000000000000000     
   6.4252462203276017E-002   9.5752201689598068E-002   0.0000000000000000     
   6.6271034683026558E-002  0.10224810974082539        0.0000000000000000     
   6.8202536826594898E-002  0.10890005517034587        0.0000000000000000     
   5.4629148361297231E-002   8.2584096286041991E-002   0.0000000000000000     
   5.6651360965824182E-002   8.8788967968373309E-002   0.0000000000000000     
   5.8595314935309034E-002   9.5150899047847765E-002   0.0000000000000000     
   6.0461010269751772E-002  0.10166988952446536        0.0000000000000000     
   6.2248446969152410E-002  0.10834593939822608        0.0000000000000000     
   8.7211491727059290E-002  0.11081490374601455        0.0000000000000000     
   8.9494391359336359E-002  0.11753801833135069        0.0000000000000000     
   9.1694094838405515E-002  0.12439245318177955        0.0000000000000000     
   9.3810602164266718E-002  0.13137820829730118        0.0000000000000000     
   9.5843913336920022E-002  0.13849528367791553        0.0000000000000000     
   8.0684059205548359E-002  0.11013453734424011        0.0000000000000000     
   8.2822655939729053E-002  0.11688276180793949        0.0000000000000000     
   8.4886321864315176E-002  0.12376463208124608        0.0000000000000000     
   8.6875056979306697E-002  0.13078014816415981        0.0000000000000000     
   8.8788861284703632E-002  0.13792931005668074        0.0000000000000000     
   7.4347740905393561E-002  0.10949625448568390        0.0000000000000000     
   7.6343669677239115E-002  0.11626920332378243        0.0000000000000000     
   7.8270352203755653E-002  0.12317690694303485        0.0000000000000000     
   8.0127788484943188E-002  0.13021936534344125        0.0000000000000000     
   8.1915978520801708E-002  0.13739657852500151        0.0000000000000000     
   6.8202536826594898E-002  0.10890005517034587        0.0000000000000000     
   7.0057432571866571E-002  0.11569734287887941        0.0000000000000000     
   7.1846185856727002E-002  0.12262927776714592        0.0000000000000000     
   7.3568796681176218E-002  0.12969585983514539        0.0000000000000000     
   7.5225265045214193E-002  0.13689708908287782        0.0000000000000000     
   6.2248446969152410E-002  0.10834593939822608        0.0000000000000000     
   6.3963944623611393E-002  0.11516718047323053        0.0000000000000000     
   6.5613822823229181E-002  0.12212174455357928        0.0000000000000000     
   6.7198081568005760E-002  0.12920963163927235        0.0000000000000000     
   6.8716720857941158E-002  0.13643084173030970        0.0000000000000000     
   9.5843913336920022E-002  0.13849528367791553        0.0000000000000000     
   9.7782637950492676E-002  0.14573498612420507        0.0000000000000000     
   9.9615385599111983E-002  0.15308862243675220        0.0000000000000000     
  0.10134215628277796       0.16055619261555693        0.0000000000000000     
  0.10296295000149058       0.16813769666061928        0.0000000000000000     
   8.8788861284703632E-002  0.13792931005668074        0.0000000000000000     
   9.0611732975696094E-002  0.14519945542801915        0.0000000000000000     
   9.2327670247474153E-002  0.15257792194738543        0.0000000000000000     
   9.3936673100037810E-002  0.16006470961477942        0.0000000000000000     
   9.5438741533387092E-002  0.16765981843020128        0.0000000000000000     
   8.1915978520801708E-002  0.13739657852500151        0.0000000000000000     
   8.3618684689642078E-002  0.14469442852949610        0.0000000000000000     
   8.5219669369775222E-002  0.15209879739870530        0.0000000000000000     
   8.6718932561201126E-002  0.15960968513262919        0.0000000000000000     
   8.8116474263919803E-002  0.16722709173126774        0.0000000000000000     
   7.5225265045214193E-002  0.13689708908287782        0.0000000000000000     
   7.6803493092330644E-002  0.14421990542863580        0.0000000000000000     
   7.8291382966015205E-002  0.15165124879071193        0.0000000000000000     
   7.9688934666267877E-002  0.15919111916910614        0.0000000000000000     
   8.0996148193088702E-002  0.16683951656381854        0.0000000000000000     
   6.8716720857941158E-002  0.13643084173030970        0.0000000000000000     
   7.0166158183761790E-002  0.14377588612543835        0.0000000000000000     
   7.1542811036194101E-002  0.15123527612340526        0.0000000000000000     
   7.2846679415238105E-002  0.15880901172421039        0.0000000000000000     
   7.4077763320893789E-002  0.16649709292785375        0.0000000000000000     
   0.0000000000000000        0.0000000000000000        0.0000000000000000     
   2.8811306944171674E-003   1.7428701213988269E-003   0.0000000000000000     
   5.8748393107372412E-003   3.8608816420796924E-003   0.0000000000000000     
   8.9811258489602228E-003   6.3540345620425962E-003   0.0000000000000000     
   1.2199990309086110E-002   9.2223288812875379E-003   0.0000000000000000     
   0.0000000000000000        0.0000000000000000        0.0000000000000000     
   2.6111080153377467E-003   1.5868320529471309E-003   0.0000000000000000     
   5.2912983516496676E-003   3.5527117997224134E-003   0.0000000000000000     
   8.0405710089357617E-003   5.8976392403258457E-003   0.0000000000000000     
   1.0858925987196030E-002   8.6216143747574314E-003   0.0000000000000000     
   0.0000000000000000        0.0000000000000000        0.0000000000000000     
   2.3405856643832464E-003   1.4568032492195122E-003   0.0000000000000000     
   4.7210932532349729E-003   3.2957276214441835E-003   0.0000000000000000     
   7.1415227665551787E-003   5.5167731166740133E-003   0.0000000000000000     
   9.6018742043438628E-003   8.1199397349090031E-003   0.0000000000000000     
   0.0000000000000000        0.0000000000000000        0.0000000000000000     
   2.0695636415536674E-003   1.3527837102159702E-003   0.0000000000000000     
   4.1642240154931573E-003   3.0899291072450032E-003   0.0000000000000000     
   6.2839811218184721E-003   5.2114361910870974E-003   0.0000000000000000     
   8.4288349605296121E-003   7.7173049617422565E-003   0.0000000000000000     
   0.0000000000000000        0.0000000000000000        0.0000000000000000     
   1.7980419468490076E-003   1.2747734359365051E-003   0.0000000000000000     
   3.6206906384242225E-003   2.9353162571248716E-003   0.0000000000000000     
   5.4679460747256445E-003   4.9816284635650996E-003   0.0000000000000000     
   7.3398082557532733E-003   7.4137100552571890E-003   0.0000000000000000     
   1.2199990309086110E-002   9.2223288812875379E-003   0.0000000000000000     
   1.5433758964056968E-002   1.2363772660059886E-002   0.0000000000000000     
   1.8584758086814871E-002   1.5676373958605001E-002   0.0000000000000000     
   2.1652987677359806E-002   1.9160132776922887E-002   0.0000000000000000     
   2.4638447735691786E-002   2.2815049115013544E-002   0.0000000000000000     
   1.0858925987196030E-002   8.6216143747574314E-003   0.0000000000000000     
   1.3693137934679524E-002   1.1642447926326110E-002   0.0000000000000000     
   1.6489981499635296E-002   1.4877950618340827E-002   0.0000000000000000     
   1.9249456682063341E-002   1.8328122450801586E-002   0.0000000000000000     
   2.1971563481963670E-002   2.1992963423708382E-002   0.0000000000000000     
   9.6018742043438628E-003   8.1199397349090031E-003   0.0000000000000000     
   1.2078738472770129E-002   1.1037887908288918E-002   0.0000000000000000     
   1.4548706478003076E-002   1.4203278068953528E-002   0.0000000000000000     
   1.7011778220042705E-002   1.7616110216902826E-002   0.0000000000000000     
   1.9467953698889016E-002   2.1276384352136829E-002   0.0000000000000000     
   8.4288349605296121E-003   7.7173049617422565E-003   0.0000000000000000     
   1.0590560578328788E-002   1.0550092605948313E-002   0.0000000000000000     
   1.2760933021918219E-002   1.3652356310443104E-002   0.0000000000000000     
   1.4939952291297900E-002   1.7024096075226633E-002   0.0000000000000000     
   1.7127618386467831E-002   2.0665311900298890E-002   0.0000000000000000     
   7.3398082557532733E-003   7.4137100552571890E-003   0.0000000000000000     
   9.2286042513555003E-003   1.0179062019304290E-002   0.0000000000000000     
   1.1126661131380718E-002   1.3225185342809550E-002   0.0000000000000000     
   1.3033978895828921E-002   1.6552080025772978E-002   0.0000000000000000     
   1.4950557544700118E-002   2.0159746068194564E-002   0.0000000000000000     
   2.4638447735691786E-002   2.2815049115013544E-002   0.0000000000000000     
   2.7545355518136021E-002   2.6664028389291439E-002   0.0000000000000000     
   3.0377928281017708E-002   3.0729976016171032E-002   0.0000000000000000     
   3.3136166024336874E-002   3.5012891995652329E-002   0.0000000000000000     
   3.5820068748093487E-002   3.9512776327735324E-002   0.0000000000000000     
   2.1971563481963670E-002   2.1992963423708382E-002   0.0000000000000000     
   2.4639735393637039E-002   2.5870608929045344E-002   0.0000000000000000     
   2.7237405911384224E-002   2.9959194358796595E-002   0.0000000000000000     
   2.9764575035205229E-002   3.4258719712962141E-002   0.0000000000000000     
   3.2221242765100050E-002   3.8769184991541979E-002   0.0000000000000000     
   1.9467953698889016E-002   2.1276384352136829E-002   0.0000000000000000     
   2.1888871977857088E-002   2.5165428577671362E-002   0.0000000000000000     
   2.4246172120262002E-002   2.9264570996522285E-002   0.0000000000000000     
   2.6539854126103751E-002   3.3573811608689594E-002   0.0000000000000000     
   2.8769917995382345E-002   3.8093150414173292E-002   0.0000000000000000     
   1.7127618386467831E-002   2.0665311900298890E-002   0.0000000000000000     
   1.9292765270796156E-002   2.4548487335169504E-002   0.0000000000000000     
   2.1404226907651022E-002   2.8646105929348107E-002   0.0000000000000000     
   2.3462003297032425E-002   3.2958167682834688E-002   0.0000000000000000     
   2.5466094438940358E-002   3.7484672595629251E-002   0.0000000000000000     
   1.4950557544700118E-002   2.0159746068194564E-002   0.0000000000000000     
   1.6851415272454259E-002   2.4019785201539766E-002   0.0000000000000000     
   1.8711570273551303E-002   2.8103799157274057E-002   0.0000000000000000     
   2.0531022547991246E-002   3.2411787935397424E-002   0.0000000000000000     
   2.2309772095774092E-002   3.6943751535909876E-002   0.0000000000000000     
   3.5820068748093487E-002   3.9512776327735324E-002   0.0000000000000000     
   3.8429490977233083E-002   4.4220158115509292E-002   0.0000000000000000     
   4.0964287236701147E-002   4.9125566462063529E-002   0.0000000000000000     
   4.3424457526497692E-002   5.4229001367398014E-002   0.0000000000000000     
   4.5810001846622705E-002   5.9530462831512761E-002   0.0000000000000000     
   3.2221242765100050E-002   3.8769184991541979E-002   0.0000000000000000     
   3.4609836234482341E-002   4.3486259936401837E-002   0.0000000000000000     
   3.6932782576765751E-002   4.8405614289407442E-002   0.0000000000000000     
   3.9190081791950264E-002   5.3527248050558807E-002   0.0000000000000000     
   4.1381733880035895E-002   5.8851161219855924E-002   0.0000000000000000     
   2.8769917995382345E-002   3.8093150414173292E-002   0.0000000000000000     
   3.0939181315932242E-002   4.2820162036400697E-002   0.0000000000000000     
   3.3050461675587901E-002   4.7752421098799187E-002   0.0000000000000000     
   3.5103759074349331E-002   5.2889927601368736E-002   0.0000000000000000     
   3.7099073512216529E-002   5.8232681544109349E-002   0.0000000000000000     
   2.5466094438940358E-002   3.7484672595629251E-002   0.0000000000000000     
   2.7417526221582771E-002   4.2221864415505905E-002   0.0000000000000000     
   2.9317324533167616E-002   4.7165986890238751E-002   0.0000000000000000     
   3.1165489373694889E-002   5.2317040019827794E-002   0.0000000000000000     
   3.2962020743164587E-002   5.7675023804273022E-002   0.0000000000000000     
   2.2309772095774092E-002   3.6943751535909876E-002   0.0000000000000000     
   2.4044870951433938E-002   4.1691367073717442E-002   0.0000000000000000     
   2.5733371149504886E-002   4.6646311663726139E-002   0.0000000000000000     
   2.7375272689986935E-002   5.1808585305935989E-002   0.0000000000000000     
   2.8970575572880082E-002   5.7178188000346970E-002   0.0000000000000000     
   4.5810001846622705E-002   5.9530462831512761E-002   0.0000000000000000     
   4.8122372005256805E-002   6.5021670980049504E-002   0.0000000000000000     
   5.0363019810580591E-002   7.0694345938649941E-002   0.0000000000000000     
   5.2531945262594068E-002   7.6548487707314108E-002   0.0000000000000000     
   5.4629148361297231E-002   8.2584096286041991E-002   0.0000000000000000     
   4.1381733880035895E-002   5.8851161219855924E-002   0.0000000000000000     
   4.3506544418728005E-002   6.4366190244787333E-002   0.0000000000000000     
   4.5563318985731925E-002   7.0061171572841585E-002   0.0000000000000000     
   4.7552057581047677E-002   7.5936105204018681E-002   0.0000000000000000     
   4.9472760204675240E-002   8.1990991138318634E-002   0.0000000000000000     
   3.7099073512216529E-002   5.8232681544109349E-002   0.0000000000000000     
   3.9034030463951000E-002   6.3767828842533500E-002   0.0000000000000000     
   4.0906255404314244E-002   6.9482515412153695E-002   0.0000000000000000     
   4.2715748333306269E-002   7.5376741252969920E-002   0.0000000000000000     
   4.4462509250927089E-002   8.1450506364982175E-002   0.0000000000000000     
   3.2962020743164587E-002   5.7675023804273022E-002   0.0000000000000000     
   3.4704830140925784E-002   6.3226586773287990E-002   0.0000000000000000     
   3.6391829066327534E-002   6.8958377456586256E-002   0.0000000000000000     
   3.8023017519369866E-002   7.4870395854167784E-002   0.0000000000000000     
   3.9598395500052744E-002   8.0962641966032631E-002   0.0000000000000000     
   2.8970575572880082E-002   5.7178188000346970E-002   0.0000000000000000     
   3.0518943449652364E-002   6.2742464037050832E-002   0.0000000000000000     
   3.2020039971771823E-002   6.8488757706139269E-002   0.0000000000000000     
   3.3473865139238439E-002   7.4417069007612344E-002   0.0000000000000000     
   3.4880418952052232E-002   8.0527397941470000E-002   0.0000000000000000     
   5.4629148361297231E-002   8.2584096286041991E-002   0.0000000000000000     
   5.6651360965824182E-002   8.8788967968373309E-002   0.0000000000000000     
   5.8595314935309034E-002   9.5150899047847765E-002   0.0000000000000000     
   6.0461010269751772E-002  0.10166988952446536        0.0000000000000000     
   6.2248446969152410E-002  0.10834593939822608        0.0000000000000000     
   4.9472760204675240E-002   8.1990991138318634E-002   0.0000000000000000     
   5.1324640873433462E-002   8.8214967349111689E-002   0.0000000000000000     
   5.3106913604141159E-002   9.4597171809768149E-002   0.0000000000000000     
   5.4819578396798331E-002  0.10113760452028801        0.0000000000000000     
   5.6462635251404977E-002  0.10783626548067127        0.0000000000000000     
   4.4462509250927089E-002   8.1450506364982175E-002   0.0000000000000000     
   4.6146540206176263E-002   8.7693337760942736E-002   0.0000000000000000     
   4.7767843248053388E-002   9.4094762453603945E-002   0.0000000000000000     
   4.9326418376558497E-002  0.10065478044296576        0.0000000000000000     
   5.0822265591691555E-002  0.10737339172902821        0.0000000000000000     
   3.9598395500052744E-002   8.0962641966032631E-002   0.0000000000000000     
   4.1117058964052579E-002   8.7224079203866503E-002   0.0000000000000000     
   4.2578103867045754E-002   9.3643670979355165E-002   0.0000000000000000     
   4.3981530209032262E-002  0.10022141729249866        0.0000000000000000     
   4.5327337990012116E-002  0.10695731814329691        0.0000000000000000     
   3.4880418952052232E-002   8.0527397941470000E-002   0.0000000000000000     
   3.6236197147062416E-002   8.6807191677882922E-002   0.0000000000000000     
   3.7537695461118216E-002   9.3243897387021796E-002   0.0000000000000000     
   3.8784913894219633E-002   9.9837515068886620E-002   0.0000000000000000     
   3.9977852446366674E-002  0.10658804472347737        0.0000000000000000     
   6.2248446969152410E-002  0.10834593939822608        0.0000000000000000     
   6.3963944623611393E-002  0.11516718047323053        0.0000000000000000     
   6.5613822823229181E-002  0.12212174455357928        0.0000000000000000     
   6.7198081568005760E-002  0.12920963163927235        0.0000000000000000     
   6.8716720857941158E-002  0.13643084173030970        0.0000000000000000     
   5.6462635251404977E-002  0.10783626548067127        0.0000000000000000     
   5.8038494616043629E-002  0.11468007151674378        0.0000000000000000     
   5.9549566938796782E-002  0.12165593945433144        0.0000000000000000     
   6.0995852219664456E-002  0.12876386929343420        0.0000000000000000     
   6.2377350458646633E-002  0.13600386103405213        0.0000000000000000     
   5.0822265591691555E-002  0.10737339172902821        0.0000000000000000     
   5.2256371332733274E-002  0.11423737141932727        0.0000000000000000     
   5.3629722038964378E-002  0.12123349462139893        0.0000000000000000     
   5.4942317710384860E-002  0.12836176133524319        0.0000000000000000     
   5.6194158346994719E-002  0.13562217156086007        0.0000000000000000     
   4.5327337990012116E-002  0.10695731814329691        0.0000000000000000     
   4.6617574773680344E-002  0.11383908018098095        0.0000000000000000     
   4.7854288123731964E-002  0.12085441005478176        0.0000000000000000     
   4.9037478040166983E-002  0.12800330776469929        0.0000000000000000     
   5.0167144522985409E-002  0.13528577331073358        0.0000000000000000     
   3.9977852446366674E-002  0.10658804472347737        0.0000000000000000     
   4.1122104938884824E-002  0.11348519780170487        0.0000000000000000     
   4.2223265193099532E-002  0.12051868575447990        0.0000000000000000     
   4.3281333209010835E-002  0.12768850858180245        0.0000000000000000     
   4.4296308986618710E-002  0.13499466628367257        0.0000000000000000     
   6.8716720857941158E-002  0.13643084173030970        0.0000000000000000     
   7.0166158183761790E-002  0.14377588612543835        0.0000000000000000     
   7.1542811036194101E-002  0.15123527612340526        0.0000000000000000     
   7.2846679415238105E-002  0.15880901172421039        0.0000000000000000     
   7.4077763320893789E-002  0.16649709292785375        0.0000000000000000     
   6.2377350458646633E-002  0.13600386103405213        0.0000000000000000     
   6.3698226282460219E-002  0.14336982558009484        0.0000000000000000     
   6.4962644317822116E-002  0.15085567383547199        0.0000000000000000     
   6.6170604564732297E-002  0.15846140580018364        0.0000000000000000     
   6.7322107023190803E-002  0.16618702147422976        0.0000000000000000     
   5.6194158346994719E-002  0.13562217156086007        0.0000000000000000     
   5.7391243706950680E-002  0.14300917875279637        0.0000000000000000     
   5.8539573548409447E-002  0.15051723636559897        0.0000000000000000     
   5.9639147871371048E-002  0.15814634439926775        0.0000000000000000     
   6.0689966675835441E-002  0.16589650285380286        0.0000000000000000     
   5.0167144522985409E-002  0.13528577331073358        0.0000000000000000     
   5.1245210457233153E-002  0.14269394564354304        0.0000000000000000     
   5.2273598727956117E-002  0.15021996371378610        0.0000000000000000     
   5.3252309335154319E-002  0.15786382752146277        0.0000000000000000     
   5.4181342278827739E-002  0.16562553706657310        0.0000000000000000     
   4.4296308986618710E-002  0.13499466628367257        0.0000000000000000     
   4.5260126533307646E-002  0.14242412625233469        0.0000000000000000     
   4.6164719856462123E-002  0.14996385588003341        0.0000000000000000     
   4.7010088956082122E-002  0.15761385516676871        0.0000000000000000     
   4.7796233832167662E-002  0.16537412411254049        0.0000000000000000     
   0.0000000000000000        0.0000000000000000        0.0000000000000000     
   1.7980419468490076E-003   1.2747734359365051E-003   0.0000000000000000     
   3.6206906384242225E-003   2.9353162571248716E-003   0.0000000000000000     
   5.4679460747256445E-003   4.9816284635650996E-003   0.0000000000000000     
   7.3398082557532733E-003   7.4137100552571890E-003   0.0000000000000000     
   0.0000000000000000        0.0000000000000000        0.0000000000000000     
   1.5343584056003207E-003   1.2156823529993722E-003   0.0000000000000000     
   3.0979467102075576E-003   2.8174073120570135E-003   0.0000000000000000     
   4.6907649138217102E-003   4.8051748771729243E-003   0.0000000000000000     
   6.3128130164427781E-003   7.1789850483471047E-003   0.0000000000000000     
   0.0000000000000000        0.0000000000000000        0.0000000000000000     
   1.2868508431386580E-003   1.1684203880228260E-003   0.0000000000000000     
   2.6034458190225523E-003   2.7217205130146524E-003   0.0000000000000000     
   3.9497849276516842E-003   4.6599003749754802E-003   0.0000000000000000     
   5.3258681690260537E-003   6.9829599739053075E-003   0.0000000000000000     
   0.0000000000000000        0.0000000000000000        0.0000000000000000     
   1.0555192594640197E-003   1.1329875410068669E-003   0.0000000000000000     
   2.1371879648692097E-003   2.6482558599977882E-003   0.0000000000000000     
   3.2450061162155701E-003   4.5458049569727646E-003   0.0000000000000000     
   4.3789737135031008E-003   6.8256348319317948E-003   0.0000000000000000     
   0.0000000000000000        0.0000000000000000        0.0000000000000000     
   8.4036365457640567E-004   1.1093838119514946E-003   0.0000000000000000     
   1.6991731477475273E-003   2.5970133530064210E-003   0.0000000000000000     
   2.5764284795133647E-003   4.4628886231647801E-003   0.0000000000000000     
   3.4721296498739181E-003   6.7070096224265702E-003   0.0000000000000000     
   7.3398082557532733E-003   7.4137100552571890E-003   0.0000000000000000     
   9.2286042513555003E-003   1.0179062019304290E-002   0.0000000000000000     
   1.1126661131380718E-002   1.3225185342809550E-002   0.0000000000000000     
   1.3033978895828921E-002   1.6552080025772978E-002   0.0000000000000000     
   1.4950557544700118E-002   2.0159746068194564E-002   0.0000000000000000     
   6.3128130164427781E-003   7.1789850483471047E-003   0.0000000000000000     
   7.9513063747232889E-003   9.8891354047832333E-003   0.0000000000000000     
   9.5934603453157706E-003   1.2885923525684984E-002   0.0000000000000000     
   1.1239274928220218E-002   1.6169349411052362E-002   0.0000000000000000     
   1.2888750123436637E-002   1.9739413060885364E-002   0.0000000000000000     
   5.3258681690260537E-003   6.9829599739053075E-003   0.0000000000000000     
   6.7171038313051743E-003   9.6446520188115219E-003   0.0000000000000000     
   8.1089002026485668E-003   1.2598729218701513E-002   0.0000000000000000     
   9.5012572830562286E-003   1.5845191573575276E-002   0.0000000000000000     
   1.0894175072528158E-002   1.9384039083432815E-002   0.0000000000000000     
   4.3789737135031008E-003   6.8256348319317948E-003   0.0000000000000000     
   5.5259966211011601E-003   9.4456118613891592E-003   0.0000000000000000     
   6.6729807033791095E-003   1.2363602421859136E-002   0.0000000000000000     
   7.8199259603369490E-003   1.5579606513341721E-002   0.0000000000000000     
   8.9668323919746794E-003   1.9093624135836918E-002   0.0000000000000000     
   3.4721296498739181E-003   6.7070096224265702E-003   0.0000000000000000     
   4.3779847441112437E-003   9.2920149325161419E-003   0.0000000000000000     
   5.2857018475073987E-003   1.2180543135157854E-002   0.0000000000000000     
   6.1952809600623829E-003   1.5372594230351691E-002   0.0000000000000000     
   7.1067220817761980E-003   1.8868168218097666E-002   0.0000000000000000     
   1.4950557544700118E-002   2.0159746068194564E-002   0.0000000000000000     
   1.6851415272454259E-002   2.4019785201539766E-002   0.0000000000000000     
   1.8711570273551303E-002   2.8103799157274057E-002   0.0000000000000000     
   2.0531022547991246E-002   3.2411787935397424E-002   0.0000000000000000     
   2.2309772095774092E-002   3.6943751535909876E-002   0.0000000000000000     
   1.2888750123436637E-002   1.9739413060885364E-002   0.0000000000000000     
   1.4526059530372771E-002   2.3570180851082350E-002   0.0000000000000000     
   1.6135376748436354E-002   2.7635719157541670E-002   0.0000000000000000     
   1.7716701777627394E-002   3.1936027980263348E-002   0.0000000000000000     
   1.9270034617945887E-002   3.6471107319247353E-002   0.0000000000000000     
   1.0894175072528158E-002   1.9384039083432815E-002   0.0000000000000000     
   1.2277935592093080E-002   2.3190532958097452E-002   0.0000000000000000     
   1.3642820862779705E-002   2.7239934407392509E-002   0.0000000000000000     
   1.4988830884588036E-002   3.1532243431317983E-002   0.0000000000000000     
   1.6315965657518076E-002   3.6067460029873877E-002   0.0000000000000000     
   8.9668323919746794E-003   1.9093624135836918E-002   0.0000000000000000     
   1.0107043457615181E-002   2.2880841522585078E-002   0.0000000000000000     
   1.1233902616581347E-002   2.6916444906826556E-002   0.0000000000000000     
   1.2347409868873173E-002   3.1200434288561341E-002   0.0000000000000000     
   1.3447565214490661E-002   3.5732809667789446E-002   0.0000000000000000     
   7.1067220817761980E-003   1.8868168218097666E-002   0.0000000000000000     
   8.0133831269390832E-003   2.2641106544545223E-002   0.0000000000000000     
   8.9086220098412855E-003   2.6665250655843808E-002   0.0000000000000000     
   9.7924387304828032E-003   3.0940600551993429E-002   0.0000000000000000     
   1.0664833288863636E-002   3.5467156232994075E-002   0.0000000000000000     
   2.2309772095774092E-002   3.6943751535909876E-002   0.0000000000000000     
   2.4044870951433938E-002   4.1691367073717442E-002   0.0000000000000000     
   2.5733371149504886E-002   4.6646311663726139E-002   0.0000000000000000     
   2.7375272689986935E-002   5.1808585305935989E-002   0.0000000000000000     
   2.8970575572880082E-002   5.7178188000346970E-002   0.0000000000000000     
   1.9270034617945887E-002   3.6471107319247353E-002   0.0000000000000000     
   2.0788486780897588E-002   4.1227321511469031E-002   0.0000000000000000     
   2.2265169777988252E-002   4.6191034893903714E-002   0.0000000000000000     
   2.3700083609217871E-002   5.1362247466551395E-002   0.0000000000000000     
   2.5093228274586460E-002   5.6740959229412087E-002   0.0000000000000000     
   1.6315965657518076E-002   3.6067460029873877E-002   0.0000000000000000     
   1.7615644985385565E-002   4.0828379229194418E-002   0.0000000000000000     
   1.8879288672006236E-002   4.5797796055413835E-002   0.0000000000000000     
   2.0106896717380099E-002   5.0975710508532120E-002   0.0000000000000000     
   2.1298469121507155E-002   5.6362122588549286E-002   0.0000000000000000     
   1.3447565214490661E-002   3.5732809667789446E-002   0.0000000000000000     
   1.4526345564897868E-002   4.0494540226893590E-002   0.0000000000000000     
   1.5575727831558856E-002   4.5466595148256489E-002   0.0000000000000000     
   1.6595712014473622E-002   5.0648974431878144E-002   0.0000000000000000     
   1.7586298113642169E-002   5.6041678077758575E-002   0.0000000000000000     
   1.0664833288863636E-002   3.5467156232994075E-002   0.0000000000000000     
   1.1520588519434501E-002   4.0225804504566573E-002   0.0000000000000000     
   1.2354487256646098E-002   4.5197432172431710E-002   0.0000000000000000     
   1.3166529500498436E-002   5.0382039236589501E-002   0.0000000000000000     
   1.3956715250991512E-002   5.5779625697039953E-002   0.0000000000000000     
   2.8970575572880082E-002   5.7178188000346970E-002   0.0000000000000000     
   3.0518943449652364E-002   6.2742464037050832E-002   0.0000000000000000     
   3.2020039971771823E-002   6.8488757706139269E-002   0.0000000000000000     
   3.3473865139238439E-002   7.4417069007612344E-002   0.0000000000000000     
   3.4880418952052232E-002   8.0527397941470000E-002   0.0000000000000000     
   2.5093228274586460E-002   5.6740959229412087E-002   0.0000000000000000     
   2.6446131132546589E-002   6.2315337209185827E-002   0.0000000000000000     
   2.7760319541550851E-002   6.8073548432572684E-002   0.0000000000000000     
   2.9035793501599245E-002   7.4015592899572658E-002   0.0000000000000000     
   3.0272553012691772E-002   8.0141470610185728E-002   0.0000000000000000     
   2.1298469121507155E-002   5.6362122588549286E-002   0.0000000000000000     
   2.2456153932024291E-002   6.1945082865056858E-002   0.0000000000000000     
   2.3582099196568406E-002   6.7712641907646379E-002   0.0000000000000000     
   2.4676304915139509E-002   7.3664799716317869E-002   0.0000000000000000     
   2.5738771087737589E-002   7.9801556291071274E-002   0.0000000000000000     
   1.7586298113642169E-002   5.6041678077758575E-002   0.0000000000000000     
   1.8549011848085467E-002   6.1631701004663926E-002   0.0000000000000000     
   1.9485378936824487E-002   6.7406038131360382E-002   0.0000000000000000     
   2.0395399379859229E-002   7.3364689457847951E-002   0.0000000000000000     
   2.1279073177189682E-002   7.9507654984126638E-002   0.0000000000000000     
   1.3956715250991512E-002   5.5779625697039953E-002   0.0000000000000000     
   1.4724704880730129E-002   6.1375191628007017E-002   0.0000000000000000     
   1.5470158762319094E-002   6.7153737103714681E-002   0.0000000000000000     
   1.6193076895758406E-002   7.3115262124162958E-002   0.0000000000000000     
   1.6893459281048059E-002   7.9259766689351793E-002   0.0000000000000000     
   3.4880418952052232E-002   8.0527397941470000E-002   0.0000000000000000     
   3.6236197147062416E-002   8.6807191677882922E-002   0.0000000000000000     
   3.7537695461118216E-002   9.3243897387021796E-002   0.0000000000000000     
   3.8784913894219633E-002   9.9837515068886620E-002   0.0000000000000000     
   3.9977852446366674E-002  0.10658804472347737        0.0000000000000000     
   3.0272553012691772E-002   8.0141470610185728E-002   0.0000000000000000     
   3.1464552039549953E-002   8.6437185900951549E-002   0.0000000000000000     
   3.2605744546895347E-002   9.2888743108409694E-002   0.0000000000000000     
   3.3696130534727926E-002   9.9496142232560175E-002   0.0000000000000000     
   3.4735710003047704E-002  0.10625938327340302        0.0000000000000000     
   2.5738771087737589E-002   7.9801556291071274E-002   0.0000000000000000     
   2.6762720925859393E-002   8.6108572591031829E-002   0.0000000000000000     
   2.7741377641001673E-002   9.2571509575324673E-002   0.0000000000000000     
   2.8674741233164432E-002   9.9190367243949820E-002   0.0000000000000000     
   2.9562811702347664E-002  0.10596514559690730        0.0000000000000000     
   2.1279073177189682E-002   7.9507654984126638E-002   0.0000000000000000     
   2.2130703805990727E-002   8.5821351748123775E-002   0.0000000000000000     
   2.2944594743437224E-002   9.2292196787766748E-002   0.0000000000000000     
   2.3720745989529161E-002   9.8920190103055541E-002   0.0000000000000000     
   2.4459157544266554E-002  0.10570533169399018        0.0000000000000000     
   1.6893459281048059E-002   7.9259766689351793E-002   0.0000000000000000     
   1.7568500679943953E-002   8.5575523372227402E-002   0.0000000000000000     
   1.8215395854201972E-002   9.2050804745735904E-002   0.0000000000000000     
   1.8834144803822110E-002   9.8685610809877339E-002   0.0000000000000000     
   1.9424747528804378E-002  0.10547994156465168        0.0000000000000000     
   3.9977852446366674E-002  0.10658804472347737        0.0000000000000000     
   4.1122104938884824E-002  0.11348519780170487        0.0000000000000000     
   4.2223265193099532E-002  0.12051868575447990        0.0000000000000000     
   4.3281333209010835E-002  0.12768850858180245        0.0000000000000000     
   4.4296308986618710E-002  0.13499466628367257        0.0000000000000000     
   3.4735710003047704E-002  0.10625938327340302        0.0000000000000000     
   3.5733549858775748E-002  0.11316996218164929        0.0000000000000000     
   3.6698717008833093E-002  0.12021937490801005        0.0000000000000000     
   3.7631211453219758E-002  0.12740762145248527        0.0000000000000000     
   3.8531033191935751E-002  0.13473470181507502        0.0000000000000000     
   2.9562811702347664E-002  0.10596514559690730        0.0000000000000000     
   3.0415497563782139E-002  0.11288761122096445        0.0000000000000000     
   3.1242707332698627E-002  0.11994953070288879        0.0000000000000000     
   3.2044441009097133E-002  0.12715090404268026        0.0000000000000000     
   3.2820698592977662E-002  0.13449173124033881        0.0000000000000000     
   2.4459157544266554E-002  0.10570533169399018        0.0000000000000000     
   2.5167948053904009E-002  0.11263814491965043        0.0000000000000000     
   2.5855236164696139E-002  0.11970915313911618        0.0000000000000000     
   2.6521021876642955E-002  0.12691835635238735        0.0000000000000000     
   2.7165305189744447E-002  0.13426575455946399        0.0000000000000000     
   1.9424747528804378E-002  0.10547994156465168        0.0000000000000000     
   1.9990901329141355E-002  0.11242156327770718        0.0000000000000000     
   2.0536303504825638E-002  0.11949824221669217        0.0000000000000000     
   2.1060954055857218E-002  0.12670997838160661        0.0000000000000000     
   2.1564852982236100E-002  0.13405677177245051        0.0000000000000000     
   4.4296308986618710E-002  0.13499466628367257        0.0000000000000000     
   4.5260126533307646E-002  0.14242412625233469        0.0000000000000000     
   4.6164719856462123E-002  0.14996385588003341        0.0000000000000000     
   4.7010088956082122E-002  0.15761385516676871        0.0000000000000000     
   4.7796233832167662E-002  0.16537412411254049        0.0000000000000000     
   3.8531033191935751E-002  0.13473470181507502        0.0000000000000000     
   3.9381779141750943E-002  0.14218387813245059        0.0000000000000000     
   4.0167046219435239E-002  0.14973841254128337        0.0000000000000000     
   4.0886834424988625E-002  0.15739830504157329        0.0000000000000000     
   4.1541143758411121E-002  0.16516355563332041        0.0000000000000000     
   3.2820698592977662E-002  0.13449173124033881        0.0000000000000000     
   3.3555955489139831E-002  0.14195735883716981        0.0000000000000000     
   3.4234687102383275E-002  0.14953313337447838        0.0000000000000000     
   3.4856893432708001E-002  0.15721905485226451        0.0000000000000000     
   3.5422574480113996E-002  0.16501512327052828        0.0000000000000000     
   2.7165305189744447E-002  0.13426575455946399        0.0000000000000000     
   2.7782655575474307E-002  0.14174456836649227        0.0000000000000000     
   2.8367642505306233E-002  0.14934801837961839        0.0000000000000000     
   2.8920265979240228E-002  0.15707610459884236        0.0000000000000000     
   2.9440525997276288E-002  0.16492882702416412        0.0000000000000000     
   2.1564852982236100E-002  0.13405677177245051        0.0000000000000000     
   2.2061879400754367E-002  0.14154550672041807        0.0000000000000000     
   2.2565912428204108E-002  0.14918306755670349        0.0000000000000000     
   2.3076952064585318E-002  0.15696945428130676        0.0000000000000000     
   2.3594998309897999E-002  0.16490466689422789        0.0000000000000000     
   0.0000000000000000        0.0000000000000000        0.0000000000000000     
   8.4036365457640567E-004   1.1093838119514946E-003   0.0000000000000000     
   1.6991731477475273E-003   2.5970133530064210E-003   0.0000000000000000     
   2.5764284795133647E-003   4.4628886231647801E-003   0.0000000000000000     
   3.4721296498739181E-003   6.7070096224265702E-003   0.0000000000000000     
   0.0000000000000000        0.0000000000000000        0.0000000000000000     
   6.3246384589289478E-004   1.0939505490174968E-003   0.0000000000000000     
   1.2748814283580802E-003   2.5619997772664072E-003   0.0000000000000000     
   1.9272527473955564E-003   4.4041476847467322E-003   0.0000000000000000     
   2.5895778030053229E-003   6.6203942714584685E-003   0.0000000000000000     
   0.0000000000000000        0.0000000000000000        0.0000000000000000     
   4.2289965083056584E-004   1.0830291003656623E-003   0.0000000000000000     
   8.4979286740144303E-004   2.5372219180036042E-003   0.0000000000000000     
   1.2806796497126316E-003   4.3625784529138260E-003   0.0000000000000000     
   1.7155599977641317E-003   6.5590987050963287E-003   0.0000000000000000     
   0.0000000000000000        0.0000000000000000        0.0000000000000000     
   2.1167106938941899E-004   1.0766194659959903E-003   0.0000000000000000     
   4.2390746487761595E-004   2.5226797752180116E-003   0.0000000000000000     
   6.3670918646459090E-004   4.3381809276660651E-003   0.0000000000000000     
   8.5007623415034382E-004   6.5231229233401484E-003   0.0000000000000000     
   0.0000000000000000        0.0000000000000000        0.0000000000000000     
  -1.2218984305457329E-006   1.0747216459084808E-003   0.0000000000000000     
  -2.7747792134011438E-006   2.5183733489096295E-003   0.0000000000000000     
  -4.6586423485660972E-006   4.3309551090034461E-003   0.0000000000000000     
  -6.8734878360408641E-006   6.5124669261899300E-003   0.0000000000000000     
   3.4721296498739181E-003   6.7070096224265702E-003   0.0000000000000000     
   4.3779847441112437E-003   9.2920149325161419E-003   0.0000000000000000     
   5.2857018475073987E-003   1.2180543135157854E-002   0.0000000000000000     
   6.1952809600623829E-003   1.5372594230351691E-002   0.0000000000000000     
   7.1067220817761980E-003   1.8868168218097666E-002   0.0000000000000000     
   2.5895778030053229E-003   6.6203942714584685E-003   0.0000000000000000     
   3.2589172710183229E-003   9.1778256224949988E-003   0.0000000000000000     
   3.9323318272654981E-003   1.2043527822949696E-002   0.0000000000000000     
   4.6098214717468482E-003   1.5217500872822563E-002   0.0000000000000000     
   5.2913862044623727E-003   1.8699744772113600E-002   0.0000000000000000     
   1.7155599977641317E-003   6.5590987050963287E-003   0.0000000000000000     
   2.1546432725052947E-003   9.0970083216282416E-003   0.0000000000000000     
   2.5981388348854701E-003   1.1946532949586702E-002   0.0000000000000000     
   3.0460466849046601E-003   1.5107672588971707E-002   0.0000000000000000     
   3.4983668225628626E-003   1.8580427239783252E-002   0.0000000000000000     
   8.5007623415034382E-004   6.5231229233401484E-003   0.0000000000000000     
   1.0651627485721577E-003   9.0495630299158789E-003   0.0000000000000000     
   1.2831228703673156E-003   1.1889558515068869E-002   0.0000000000000000     
   1.5039565995358180E-003   1.5043109378799123E-002   0.0000000000000000     
   1.7276639360776648E-003   1.8510215621106635E-002   0.0000000000000000     
  -6.8734878360408641E-006   6.5124669261899300E-003   0.0000000000000000     
  -9.5243007810867495E-006   9.0354897473579072E-003   0.0000000000000000     
  -1.2716066288964970E-005   1.1872604519396200E-002   0.0000000000000000     
  -1.6448784359676055E-005   1.5023811242304808E-002   0.0000000000000000     
  -2.0722454993219461E-005   1.8489109916083733E-002   0.0000000000000000     
   7.1067220817761980E-003   1.8868168218097666E-002   0.0000000000000000     
   8.0133831269390832E-003   2.2641106544545223E-002   0.0000000000000000     
   8.9086220098412855E-003   2.6665250655843808E-002   0.0000000000000000     
   9.7924387304828032E-003   3.0940600551993429E-002   0.0000000000000000     
   1.0664833288863636E-002   3.5467156232994075E-002   0.0000000000000000     
   5.2913862044623727E-003   1.8699744772113600E-002   0.0000000000000000     
   5.9696304117863837E-003   2.2462450993753016E-002   0.0000000000000000     
   6.6371584800931915E-003   2.6477811010671030E-002   0.0000000000000000     
   7.2939704093827936E-003   3.0745824822867637E-002   0.0000000000000000     
   7.9400661996551943E-003   3.5266492430342834E-002   0.0000000000000000     
   3.4983668225628626E-003   1.8580427239783252E-002   0.0000000000000000     
   3.9484611238786854E-003   2.2335997839983593E-002   0.0000000000000000     
   4.3896914648707324E-003   2.6345585327534966E-002   0.0000000000000000     
   4.8220578455390080E-003   3.0609189702437367E-002   0.0000000000000000     
   5.2455602658835086E-003   3.5126810964690808E-002   0.0000000000000000     
   1.7276639360776648E-003   1.8510215621106635E-002   0.0000000000000000     
   1.9498752632159861E-003   2.2261747083236954E-002   0.0000000000000000     
   2.1662209641739130E-003   2.6268573606435617E-002   0.0000000000000000     
   2.3767010389514468E-003   3.0530695190702638E-002   0.0000000000000000     
   2.5813154875485842E-003   3.5048111836037996E-002   0.0000000000000000     
  -2.0722454993219461E-005   1.8489109916083733E-002   0.0000000000000000     
  -2.6127170201711912E-005   2.2239698723513088E-002   0.0000000000000000     
  -3.3253021997269473E-005   2.6246775847372984E-002   0.0000000000000000     
  -4.2100010379891926E-005   3.0510341287663421E-002   0.0000000000000000     
  -5.2668135349579707E-005   3.5030395044384398E-002   0.0000000000000000     
   1.0664833288863636E-002   3.5467156232994075E-002   0.0000000000000000     
   1.1520588519434501E-002   4.0225804504566573E-002   0.0000000000000000     
   1.2354487256646098E-002   4.5197432172431710E-002   0.0000000000000000     
   1.3166529500498436E-002   5.0382039236589501E-002   0.0000000000000000     
   1.3956715250991512E-002   5.5779625697039953E-002   0.0000000000000000     
   7.9400661996551943E-003   3.5266492430342834E-002   0.0000000000000000     
   8.5733880956461554E-003   4.0021078379967101E-002   0.0000000000000000     
   9.1918783420914443E-003   4.4990847218610922E-002   0.0000000000000000     
   9.7955369389910608E-003   5.0175798946274282E-002   0.0000000000000000     
   1.0384363886345005E-002   5.5575933562957196E-002   0.0000000000000000     
   5.2455602658835086E-003   3.5126810964690808E-002   0.0000000000000000     
   5.6597585401835307E-003   3.9879268170848990E-002   0.0000000000000000     
   6.0642124827183664E-003   4.4847380377465586E-002   0.0000000000000000     
   6.4589220934880174E-003   5.0031147584540629E-002   0.0000000000000000     
   6.8438873724924829E-003   5.5430569792074100E-002   0.0000000000000000     
   2.5813154875485842E-003   3.5048111836037996E-002   0.0000000000000000     
   2.7796998530466260E-003   3.9800373877212185E-002   0.0000000000000000     
   2.9714896785268665E-003   4.4767031648995703E-002   0.0000000000000000     
   3.1566849639893067E-003   4.9948085151388537E-002   0.0000000000000000     
   3.3352857094339459E-003   5.5343534384390686E-002   0.0000000000000000     
  -5.2668135349579707E-005   3.5030395044384398E-002   0.0000000000000000     
  -6.6787965764558721E-005   3.9784395499056734E-002   0.0000000000000000     
  -8.6290070483056446E-005   4.4749801033201281E-002   0.0000000000000000     
  -1.1117444950507235E-004   4.9926611646817998E-002   0.0000000000000000     
  -1.4144110283060619E-004   5.5314827339906905E-002   0.0000000000000000     
   1.3956715250991512E-002   5.5779625697039953E-002   0.0000000000000000     
   1.4724704880730129E-002   6.1375191628007017E-002   0.0000000000000000     
   1.5470158762319094E-002   6.7153737103714681E-002   0.0000000000000000     
   1.6193076895758406E-002   7.3115262124162958E-002   0.0000000000000000     
   1.6893459281048059E-002   7.9259766689351793E-002   0.0000000000000000     
   1.0384363886345005E-002   5.5575933562957196E-002   0.0000000000000000     
   1.0956426149633405E-002   6.1174586538089493E-002   0.0000000000000000     
   1.1509790694336382E-002   6.6955093341101002E-002   0.0000000000000000     
   1.2044457520453942E-002   7.2917453971991758E-002   0.0000000000000000     
   1.2560426627986083E-002   7.9061668430761720E-002   0.0000000000000000     
   6.8438873724924829E-003   5.5430569792074100E-002   0.0000000000000000     
   7.2173687744704271E-003   6.1028917537914708E-002   0.0000000000000000     
   7.5776267541605132E-003   6.6809461359911129E-002   0.0000000000000000     
   7.9246613115627404E-003   7.2772201258063343E-002   0.0000000000000000     
   8.2584724466771113E-003   7.8917137232371370E-002   0.0000000000000000     
   3.3352857094339459E-003   5.5343534384390686E-002   0.0000000000000000     
   3.5075327552412019E-003   6.0938184627482662E-002   0.0000000000000000     
   3.6736669417914863E-003   6.6716841160144993E-002   0.0000000000000000     
   3.8336882690848013E-003   7.2679503982377686E-002   0.0000000000000000     
   3.9875967371211475E-003   7.8826173094180760E-002   0.0000000000000000     
  -1.4144110283060619E-004   5.5314827339906905E-002   0.0000000000000000     
  -1.7308190805427550E-004   6.0902387806793350E-002   0.0000000000000000     
  -2.0208874277069961E-004   6.6677232741802650E-002   0.0000000000000000     
  -2.2846160697987674E-004   7.2639362144934813E-002   0.0000000000000000     
  -2.5220050068180738E-004   7.8788776016189846E-002   0.0000000000000000     
   1.6893459281048059E-002   7.9259766689351793E-002   0.0000000000000000     
   1.7568500679943953E-002   8.5575523372227402E-002   0.0000000000000000     
   1.8215395854201972E-002   9.2050804745735904E-002   0.0000000000000000     
   1.8834144803822110E-002   9.8685610809877339E-002   0.0000000000000000     
   1.9424747528804378E-002  0.10547994156465168        0.0000000000000000     
   1.2560426627986083E-002   7.9061668430761720E-002   0.0000000000000000     
   1.3057706195654311E-002   8.5377692923928508E-002   0.0000000000000000     
   1.3536304402180141E-002   9.1855483658009690E-002   0.0000000000000000     
   1.3996221247563570E-002   9.8495040633005307E-002   0.0000000000000000     
   1.4437456731804599E-002  0.10529636384891532        0.0000000000000000     
   8.2584724466771113E-003   7.8917137232371370E-002   0.0000000000000000     
   8.5799150010570386E-003   8.5234465863812919E-002   0.0000000000000000     
   8.8898438162559445E-003   9.1714383733365629E-002   0.0000000000000000     
   9.1882588922738255E-003   9.8356890841029554E-002   0.0000000000000000     
   9.4751602291106851E-003  0.10516198718680465        0.0000000000000000     
   3.9875967371211475E-003   7.8826173094180760E-002   0.0000000000000000     
   4.1351270961521363E-003   8.5145842191880608E-002   0.0000000000000000     
   4.2760140964293808E-003   9.1627504971803719E-002   0.0000000000000000     
   4.4102577379528827E-003   9.8271161433950052E-002   0.0000000000000000     
   4.5378580207226394E-003  0.10507681157831965        0.0000000000000000     
  -2.5220050068180738E-004   7.8788776016189846E-002   0.0000000000000000     
  -2.7665751906039713E-004   8.5111821908131602E-002   0.0000000000000000     
  -3.0518475729954947E-004   9.1594847373323934E-002   0.0000000000000000     
  -3.3778221539926484E-004   9.8237852411766843E-002   0.0000000000000000     
  -3.7444989335954325E-004  0.10504083702346034        0.0000000000000000     
   1.9424747528804378E-002  0.10547994156465168        0.0000000000000000     
   1.9990901329141355E-002  0.11242156327770718        0.0000000000000000     
   2.0536303504825638E-002  0.11949824221669217        0.0000000000000000     
   2.1060954055857218E-002  0.12670997838160661        0.0000000000000000     
   2.1564852982236100E-002  0.13405677177245051        0.0000000000000000     
   1.4437456731804599E-002  0.10529636384891532        0.0000000000000000     
   1.4858720122209405E-002  0.11224418070299852        0.0000000000000000     
   1.5258720686084165E-002  0.11932321859251374        0.0000000000000000     
   1.5637458423428882E-002  0.12653347751746097        0.0000000000000000     
   1.5994933334243549E-002  0.13387495747784017        0.0000000000000000     
   9.4751602291106851E-003  0.10516198718680465        0.0000000000000000     
   9.7457671658233852E-003  0.11211231160338830        0.0000000000000000     
   9.9952990414687928E-003  0.11919050292347784        0.0000000000000000     
   1.0223755856046905E-002  0.12639656114707334        0.0000000000000000     
   1.0431137609557720E-002  0.13373048627417469        0.0000000000000000     
   4.5378580207226394E-003  0.10507681157831965        0.0000000000000000     
   4.6520424599833000E-003  0.11202595597887646        0.0000000000000000     
   4.7460385709795156E-003  0.11910009520958451        0.0000000000000000     
   4.8198463537112860E-003  0.12629922927044374        0.0000000000000000     
   4.8734658081786104E-003  0.13362335816145418        0.0000000000000000     
  -3.7444989335954325E-004  0.10504083702346034        0.0000000000000000     
  -4.2245399531085364E-004  0.11198511382946308        0.0000000000000000     
  -4.8906072538366355E-004  0.11905199545083368        0.0000000000000000     
  -5.7427008357797233E-004  0.12624148188757217        0.0000000000000000     
  -6.7808206989377999E-004  0.13355357313967853        0.0000000000000000     
   2.1564852982236100E-002  0.13405677177245051        0.0000000000000000     
   2.2061879400754367E-002  0.14154550672041807        0.0000000000000000     
   2.2565912428204108E-002  0.14918306755670349        0.0000000000000000     
   2.3076952064585318E-002  0.15696945428130676        0.0000000000000000     
   2.3594998309897999E-002  0.16490466689422789        0.0000000000000000     
   1.5994933334243549E-002  0.13387495747784017        0.0000000000000000     
   1.6362767977847498E-002  0.14136622175653585        0.0000000000000000     
   1.6772584913560044E-002  0.14902583363643249        0.0000000000000000     
   1.7224384141381194E-002  0.15685379311753003        0.0000000000000000     
   1.7718165661310938E-002  0.16485010019982857        0.0000000000000000     
   1.0431137609557720E-002  0.13373048627417469        0.0000000000000000     
   1.0654462319621173E-002  0.14121276133243424        0.0000000000000000     
   1.0930748003857189E-002  0.14886386934950413        0.0000000000000000     
   1.1259994662265772E-002  0.15668381032538434        0.0000000000000000     
   1.1642202294846922E-002  0.16467258426007494        0.0000000000000000     
   4.8734658081786104E-003  0.13362335816145418        0.0000000000000000     
   4.9369624260753942E-003  0.14108512544811327        0.0000000000000000     
   5.0404016990955453E-003  0.14869717469591842        0.0000000000000000     
   5.1837836272390593E-003  0.15645950590486973        0.0000000000000000     
   5.3671082105059414E-003  0.16437211907496713        0.0000000000000000     
  -6.7808206989377999E-004  0.13355357313967853        0.0000000000000000     
  -7.8973170278983751E-004  0.14098331410357290        0.0000000000000000     
  -8.9845400072489240E-004  0.14852574967567547        0.0000000000000000     
  -1.0042489636989459E-003  0.15618087985598619        0.0000000000000000     
  -1.1071165917119962E-003  0.16394870464450506        0.0000000000000000     
   0.0000000000000000        0.0000000000000000        0.0000000000000000     
  -1.2218984305457329E-006   1.0747216459084808E-003   0.0000000000000000     
  -2.7747792134011438E-006   2.5183733489096295E-003   0.0000000000000000     
  -4.6586423485660972E-006   4.3309551090034461E-003   0.0000000000000000     
  -6.8734878360408641E-006   6.5124669261899300E-003   0.0000000000000000     
   0.0000000000000000        0.0000000000000000        0.0000000000000000     
  -2.1405815126780095E-004   1.0773286205596863E-003   0.0000000000000000     
  -4.2931444737317657E-004   2.5242330732879212E-003   0.0000000000000000     
  -6.4576888831612716E-004   4.3407133581847045E-003   0.0000000000000000     
  -8.6342147409665241E-004   6.5267694752500355E-003   0.0000000000000000     
   0.0000000000000000        0.0000000000000000        0.0000000000000000     
  -4.2511658776081903E-004   1.0844333704061583E-003   0.0000000000000000     
  -8.5477212210327883E-004   2.5401893825623490E-003   0.0000000000000000     
  -1.2889666030273799E-003   4.3672680364685726E-003   0.0000000000000000     
  -1.7277000305331214E-003   6.5656693321248299E-003   0.0000000000000000     
   0.0000000000000000        0.0000000000000000        0.0000000000000000     
  -6.3439720790960000E-004   1.0960358954478966E-003   0.0000000000000000     
  -1.2791478034037079E-003   2.5662422767329138E-003   0.0000000000000000     
  -1.9342517864823240E-003   4.4106191438550522E-003   0.0000000000000000     
  -2.5997091571454477E-003   6.6291664968143116E-003   0.0000000000000000     
   0.0000000000000000        0.0000000000000000        0.0000000000000000     
  -8.4190001171414390E-004   1.1121361956849016E-003   0.0000000000000000     
  -1.7024414912744637E-003   2.6023917557996155E-003   0.0000000000000000     
  -2.5816244386809599E-003   4.4707666803441414E-003   0.0000000000000000     
  -3.4794488539336313E-003   6.7172609693184806E-003   0.0000000000000000     
  -6.8734878360408641E-006   6.5124669261899300E-003   0.0000000000000000     
  -9.5243007810867495E-006   9.0354897473579072E-003   0.0000000000000000     
  -1.2716066288964970E-005   1.1872604519396200E-002   0.0000000000000000     
  -1.6448784359676055E-005   1.5023811242304808E-002   0.0000000000000000     
  -2.0722454993219461E-005   1.8489109916083733E-002   0.0000000000000000     
  -8.6342147409665241E-004   6.5267694752500355E-003   0.0000000000000000     
  -1.0836292296477240E-003   9.0542683376995461E-003   0.0000000000000000     
  -1.3077491799023135E-003   1.1895076858748872E-002   0.0000000000000000     
  -1.5357813248604204E-003   1.5049195038398010E-002   0.0000000000000000     
  -1.7677256645220458E-003   1.8516622876646963E-002   0.0000000000000000     
  -1.7277000305331214E-003   6.5656693321248299E-003   0.0000000000000000     
  -2.1713633921210396E-003   9.1053786646860275E-003   0.0000000000000000     
  -2.6203476752916710E-003   1.1956381429307076E-002   0.0000000000000000     
  -3.0746528800450141E-003   1.5118677625987974E-002   0.0000000000000000     
  -3.5342790063810710E-003   1.8592267254728723E-002   0.0000000000000000     
  -2.5997091571454477E-003   6.6291664968143116E-003   0.0000000000000000     
  -3.2727267882010341E-003   9.1888207283173443E-003   0.0000000000000000     
  -3.9505115524570370E-003   1.2056518231070807E-002   0.0000000000000000     
  -4.6330634499134561E-003   1.5232259005074697E-002   0.0000000000000000     
  -5.3203824805702930E-003   1.8716043050329020E-002   0.0000000000000000     
  -3.4794488539336313E-003   6.7172609693184806E-003   0.0000000000000000     
  -4.3877194178877062E-003   9.3045945285934999E-003   0.0000000000000000     
  -5.2982408113984129E-003   1.2195487264040069E-002   0.0000000000000000     
  -6.2110130344657476E-003   1.5389939175658184E-002   0.0000000000000000     
  -7.1260360870897136E-003   1.8887950263447847E-002   0.0000000000000000     
  -2.0722454993219461E-005   1.8489109916083733E-002   0.0000000000000000     
  -2.6127170201711912E-005   2.2239698723513088E-002   0.0000000000000000     
  -3.3253021997269473E-005   2.6246775847372984E-002   0.0000000000000000     
  -4.2100010379891926E-005   3.0510341287663421E-002   0.0000000000000000     
  -5.2668135349579707E-005   3.5030395044384398E-002   0.0000000000000000     
  -1.7677256645220458E-003   1.8516622876646963E-002   0.0000000000000000     
  -2.0002880446702573E-003   2.2269261615175766E-002   0.0000000000000000     
  -2.2301743110881237E-003   2.6279012495664455E-002   0.0000000000000000     
  -2.4573844637756454E-003   3.0545875518113035E-002   0.0000000000000000     
  -2.6819185027328225E-003   3.5069850682521504E-002   0.0000000000000000     
  -3.5342790063810710E-003   1.8592267254728723E-002   0.0000000000000000     
  -3.9933492284854998E-003   2.2349844612588737E-002   0.0000000000000000     
  -4.4459867205439620E-003   2.6364103996627426E-002   0.0000000000000000     
  -4.8921914825564563E-003   3.0635045406844780E-002   0.0000000000000000     
  -5.3319635145229827E-003   3.5162668843240825E-002   0.0000000000000000     
  -5.3203824805702930E-003   1.8716043050329020E-002   0.0000000000000000     
  -6.0053107216474378E-003   2.2481447715752004E-002   0.0000000000000000     
  -6.6806902503647797E-003   2.6502050350261881E-002   0.0000000000000000     
  -7.3465210667223212E-003   3.0777850953858661E-002   0.0000000000000000     
  -8.0028031707200607E-003   3.5308849526542334E-002   0.0000000000000000     
  -7.1260360870897136E-003   1.8887950263447847E-002   0.0000000000000000     
  -8.0361725241560721E-003   2.2664070924665564E-002   0.0000000000000000     
  -8.9342849005505810E-003   2.6692851556567841E-002   0.0000000000000000     
  -9.8203732162732427E-003   3.0974292159154666E-002   0.0000000000000000     
  -1.0694437471324054E-002   3.5508392732426050E-002   0.0000000000000000     
  -5.2668135349579707E-005   3.5030395044384398E-002   0.0000000000000000     
  -6.6787965764558721E-005   3.9784395499056734E-002   0.0000000000000000     
  -8.6290070483056446E-005   4.4749801033201281E-002   0.0000000000000000     
  -1.1117444950507235E-004   4.9926611646817998E-002   0.0000000000000000     
  -1.4144110283060619E-004   5.5314827339906905E-002   0.0000000000000000     
  -2.6819185027328225E-003   3.5069850682521504E-002   0.0000000000000000     
  -2.9068128469577673E-003   3.9826554316805957E-002   0.0000000000000000     
  -3.1351039154485947E-003   4.4791602748882497E-002   0.0000000000000000     
  -3.3667917082053044E-003   4.9964995978751113E-002   0.0000000000000000     
  -3.6018762252278966E-003   5.5346734006411817E-002   0.0000000000000000     
  -5.3319635145229827E-003   3.5162668843240825E-002   0.0000000000000000     
  -5.7674827212407442E-003   3.9922071610883202E-002   0.0000000000000000     
  -6.2009290075069412E-003   4.4888351014839588E-002   0.0000000000000000     
  -6.6323023733215764E-003   5.0061507055109991E-002   0.0000000000000000     
  -7.0616028186846489E-003   5.5441539731694404E-002   0.0000000000000000     
  -8.0028031707200607E-003   3.5308849526542334E-002   0.0000000000000000     
  -8.6487975886134875E-003   4.0070947381288448E-002   0.0000000000000000     
  -9.2837653466580974E-003   4.5040045831072538E-002   0.0000000000000000     
  -9.9077064448538886E-003   5.0216144875894618E-002   0.0000000000000000     
  -1.0520620883200858E-002   5.5599244515754681E-002   0.0000000000000000     
  -1.0694437471324054E-002   3.5508392732426050E-002   0.0000000000000000     
  -1.1550757449076002E-002   4.0273181628021702E-002   0.0000000000000000     
  -1.2383612932902063E-002   4.5246687197581355E-002   0.0000000000000000     
  -1.3193003922802239E-002   5.0428909441105001E-002   0.0000000000000000     
  -1.3978930418776531E-002   5.5819848358592640E-002   0.0000000000000000     
  -1.4144110283060619E-004   5.5314827339906905E-002   0.0000000000000000     
  -1.7308190805427550E-004   6.0902387806793350E-002   0.0000000000000000     
  -2.0208874277069961E-004   6.6677232741802650E-002   0.0000000000000000     
  -2.2846160697987674E-004   7.2639362144934813E-002   0.0000000000000000     
  -2.5220050068180738E-004   7.8788776016189846E-002   0.0000000000000000     
  -3.6018762252278966E-003   5.5346734006411817E-002   0.0000000000000000     
  -3.8331000115493824E-003   6.0927853611449020E-002   0.0000000000000000     
  -4.0532056122027735E-003   6.6699391573447189E-002   0.0000000000000000     
  -4.2621930271880704E-003   7.2661347892406289E-002   0.0000000000000000     
  -4.4600622565052744E-003   7.8813722568326347E-002   0.0000000000000000     
  -7.0616028186846489E-003   5.5441539731694404E-002   0.0000000000000000     
  -7.4811463513774976E-003   6.1020908577051933E-002   0.0000000000000000     
  -7.8832489791814658E-003   6.6792073123641701E-002   0.0000000000000000     
  -8.2679107020965596E-003   7.2755033371463690E-002   0.0000000000000000     
  -8.6351315201227703E-003   7.8909789320517926E-002   0.0000000000000000     
  -1.0520620883200858E-002   5.5599244515754681E-002   0.0000000000000000     
  -1.1117220927538621E-002   6.1181552703602086E-002   0.0000000000000000     
  -1.1692218843706781E-002   6.6955277392386200E-002   0.0000000000000000     
  -1.2245614631705339E-002   7.2920418582107044E-002   0.0000000000000000     
  -1.2777408291534297E-002   7.9076976272764582E-002   0.0000000000000000     
  -1.3978930418776531E-002   5.5819848358592640E-002   0.0000000000000000     
  -1.4741323740032751E-002   6.1409785991099482E-002   0.0000000000000000     
  -1.5480115205778711E-002   6.7189004379680700E-002   0.0000000000000000     
  -1.6195304816014413E-002   7.3157503524336309E-002   0.0000000000000000     
  -1.6886892570739855E-002   7.9315283425066330E-002   0.0000000000000000     
  -2.5220050068180738E-004   7.8788776016189846E-002   0.0000000000000000     
  -2.7665751906039713E-004   8.5111821908131602E-002   0.0000000000000000     
  -3.0518475729954947E-004   9.1594847373323934E-002   0.0000000000000000     
  -3.3778221539926484E-004   9.8237852411766843E-002   0.0000000000000000     
  -3.7444989335954325E-004  0.10504083702346034        0.0000000000000000     
  -4.4600622565052744E-003   7.8813722568326347E-002   0.0000000000000000     
  -4.6528838053922850E-003   8.5140164873068330E-002   0.0000000000000000     
  -4.8467281790870046E-003   9.1624324078493274E-002   0.0000000000000000     
  -5.0415953775894331E-003   9.8266200184601110E-002   0.0000000000000000     
  -5.2374854008995697E-003  0.10506579319139188        0.0000000000000000     
  -8.6351315201227703E-003   7.8909789320517926E-002   0.0000000000000000     
  -8.9909967236552497E-003   8.5238630947193292E-002   0.0000000000000000     
  -9.3415916030891374E-003   9.1723848227878643E-002   0.0000000000000000     
  -9.6869161584244370E-003   9.8365441162574022E-002   0.0000000000000000     
  -1.0026970389661148E-002  0.10516340975127941        0.0000000000000000     
  -1.2777408291534297E-002   7.9076976272764582E-002   0.0000000000000000     
  -1.3290996273849290E-002   8.5407220130506417E-002   0.0000000000000000     
  -1.3789775029305951E-002   9.1893419821480096E-002   0.0000000000000000     
  -1.4273744557904283E-002   9.8535575345685619E-002   0.0000000000000000     
  -1.4742904859644277E-002  0.10533368670312294        0.0000000000000000     
  -1.6886892570739855E-002   7.9315283425066330E-002   0.0000000000000000     
  -1.7552882455974410E-002   8.5645932423007748E-002   0.0000000000000000     
  -1.8191278457737447E-002   9.2133038859297578E-002   0.0000000000000000     
  -1.8802080576028963E-002   9.8776602733935820E-002   0.0000000000000000     
  -1.9385288810848958E-002  0.10557662404692247        0.0000000000000000     
  -3.7444989335954325E-004  0.10504083702346034        0.0000000000000000     
  -4.2245399531085364E-004  0.11198511382946308        0.0000000000000000     
  -4.8906072538366355E-004  0.11905199545083368        0.0000000000000000     
  -5.7427008357797233E-004  0.12624148188757217        0.0000000000000000     
  -6.7808206989377999E-004  0.13355357313967853        0.0000000000000000     
  -5.2374854008995697E-003  0.10506579319139188        0.0000000000000000     
  -5.4411847235251365E-003  0.11200519399892747        0.0000000000000000     
  -5.6594798199738538E-003  0.11906649350726979        0.0000000000000000     
  -5.8923706902457252E-003  0.12624969171641884        0.0000000000000000     
  -6.1398573343407429E-003  0.13355478862637460        0.0000000000000000     
  -1.0026970389661148E-002  0.10516340975127941        0.0000000000000000     
  -1.0367612248125610E-002  0.11210160533104908        0.0000000000000000     
  -1.0714699685144168E-002  0.11916387923893727        0.0000000000000000     
  -1.1068232700716822E-002  0.12635023147494398        0.0000000000000000     
  -1.1428211294843570E-002  0.13366066203906923        0.0000000000000000     
  -1.4742904859644277E-002  0.10533368670312294        0.0000000000000000     
  -1.5201736569112275E-002  0.11227434782582787        0.0000000000000000     
  -1.5654720320894606E-002  0.11934415264583609        0.0000000000000000     
  -1.6101856114991261E-002  0.12654310116314760        0.0000000000000000     
  -1.6543143951402266E-002  0.13387119337776240        0.0000000000000000     
  -1.9385288810848958E-002  0.10557662404692247        0.0000000000000000     
  -1.9943557686485126E-002  0.11252342148326386        0.0000000000000000     
  -2.0479541727225166E-002  0.11960731372796626        0.0000000000000000     
  -2.0993240933069056E-002  0.12682830078102969        0.0000000000000000     
  -2.1484655304016817E-002  0.13418638264245411        0.0000000000000000     
  -6.7808206989377999E-004  0.13355357313967853        0.0000000000000000     
  -7.8973170278983751E-004  0.14098331410357290        0.0000000000000000     
  -8.9845400072489240E-004  0.14852574967567547        0.0000000000000000     
  -1.0042489636989459E-003  0.15618087985598619        0.0000000000000000     
  -1.1071165917119962E-003  0.16394870464450506        0.0000000000000000     
  -6.1398573343407429E-003  0.13355478862637460        0.0000000000000000     
  -6.4109532764305699E-003  0.14095929243908795        0.0000000000000000     
  -6.7146720406868598E-003  0.14844071135650957        0.0000000000000000     
  -7.0510136271096100E-003  0.15599904537863962        0.0000000000000000     
  -7.4199780356988265E-003  0.16363429450547795        0.0000000000000000     
  -1.1428211294843570E-002  0.13366066203906923        0.0000000000000000     
  -1.1812035504302848E-002  0.14106502559493300        0.0000000000000000     
  -1.2237105365873092E-002  0.14853317680615521        0.0000000000000000     
  -1.2703420879554304E-002  0.15606511567273582        0.0000000000000000     
  -1.3210982045346485E-002  0.16366084219467492        0.0000000000000000     
  -1.6543143951402266E-002  0.13387119337776240        0.0000000000000000     
  -1.6992978386406673E-002  0.14130051357110809        0.0000000000000000     
  -1.7465753976283600E-002  0.14880314602461225        0.0000000000000000     
  -1.7961470721033032E-002  0.15637909073827491        0.0000000000000000     
  -1.8480128620654967E-002  0.16402834771209601        0.0000000000000000     
  -2.1484655304016817E-002  0.13418638264245411        0.0000000000000000     
  -2.1953781922742052E-002  0.14166575636761325        0.0000000000000000     
  -2.2400617871918372E-002  0.14925061901188083        0.0000000000000000     
  -2.2825163151545782E-002  0.15694097057525680        0.0000000000000000     
  -2.3227417761624278E-002  0.16473681105774118        0.0000000000000000     
   0.0000000000000000        0.0000000000000000        0.0000000000000000     
  -8.4190001171414390E-004   1.1121361956849016E-003   0.0000000000000000     
  -1.7024414912744637E-003   2.6023917557996155E-003   0.0000000000000000     
  -2.5816244386809599E-003   4.4707666803441414E-003   0.0000000000000000     
  -3.4794488539336313E-003   6.7172609693184806E-003   0.0000000000000000     
   0.0000000000000000        0.0000000000000000        0.0000000000000000     
  -1.0565945167554784E-003   1.1362817196662713E-003   0.0000000000000000     
  -2.1393390395061098E-003   2.6545058536145308E-003   0.0000000000000000     
  -3.2482335682518949E-003   4.5546724018447797E-003   0.0000000000000000     
  -4.3832781029928313E-003   6.8367813643570160E-003   0.0000000000000000     
   0.0000000000000000        0.0000000000000000        0.0000000000000000     
  -1.2874502406146314E-003   1.1720199159411043E-003   0.0000000000000000     
  -2.6045263018892100E-003   2.7284526040297378E-003   0.0000000000000000     
  -3.9512281838237351E-003   4.6692980642659013E-003   0.0000000000000000     
  -5.3275558864182074E-003   6.9945562966495936E-003   0.0000000000000000     
   0.0000000000000000        0.0000000000000000        0.0000000000000000     
  -1.5344671832916029E-003   1.2193507845094001E-003   0.0000000000000000     
  -3.0980032784237634E-003   2.8242320070452354E-003   0.0000000000000000     
  -4.6906082853964822E-003   4.8146436676075070E-003   0.0000000000000000     
  -6.3122822042097583E-003   7.1905857661962143E-003   0.0000000000000000     
   0.0000000000000000        0.0000000000000000        0.0000000000000000     
  -1.7976453447863929E-003   1.2782743253711591E-003   0.0000000000000000     
  -3.6197699691097713E-003   2.9418440626610247E-003   0.0000000000000000     
  -5.4663738729701355E-003   4.9907092118695968E-003   0.0000000000000000     
  -7.3374570563674848E-003   7.4248697729968763E-003   0.0000000000000000     
  -3.4794488539336313E-003   6.7172609693184806E-003   0.0000000000000000     
  -4.3877194178877062E-003   9.3045945285934999E-003   0.0000000000000000     
  -5.2982408113984129E-003   1.2195487264040069E-002   0.0000000000000000     
  -6.2110130344657476E-003   1.5389939175658184E-002   0.0000000000000000     
  -7.1260360870897136E-003   1.8887950263447847E-002   0.0000000000000000     
  -4.3832781029928313E-003   6.8367813643570160E-003   0.0000000000000000     
  -5.5314145851482425E-003   9.4590183427665439E-003   0.0000000000000000     
  -6.6795849561374476E-003   1.2379568938688664E-002   0.0000000000000000     
  -7.8277892159604456E-003   1.5598433152123375E-002   0.0000000000000000     
  -8.9760273646172367E-003   1.9115610983070679E-002   0.0000000000000000     
  -5.3275558864182074E-003   6.9945562966495936E-003   0.0000000000000000     
  -6.7188855939498268E-003   9.6584104480885238E-003   0.0000000000000000     
  -8.1105934906957923E-003   1.2615043665490400E-002   0.0000000000000000     
  -9.5026795766561048E-003   1.5864455948855220E-002   0.0000000000000000     
  -1.0895143851830763E-002   1.9406647298182984E-002   0.0000000000000000     
  -6.3122822042097583E-003   7.1905857661962143E-003   0.0000000000000000     
  -7.9501324442924591E-003   9.9027708445594415E-003   0.0000000000000000     
  -9.5912664150734472E-003   1.2901911444445276E-002   0.0000000000000000     
  -1.1235684116552727E-002   1.6188007565853715E-002   0.0000000000000000     
  -1.2883385548730295E-002   1.9761059208784761E-002   0.0000000000000000     
  -7.3374570563674848E-003   7.4248697729968763E-003   0.0000000000000000     
  -9.2251551361761386E-003   1.0192099532179297E-002   0.0000000000000000     
  -1.1121603729270414E-002   1.3240172275553292E-002   0.0000000000000000     
  -1.3026802835650310E-002   1.6569088003118862E-002   0.0000000000000000     
  -1.4940752455315828E-002   2.0178846714876006E-002   0.0000000000000000     
  -7.1260360870897136E-003   1.8887950263447847E-002   0.0000000000000000     
  -8.0361725241560721E-003   2.2664070924665564E-002   0.0000000000000000     
  -8.9342849005505810E-003   2.6692851556567841E-002   0.0000000000000000     
  -9.8203732162732427E-003   3.0974292159154666E-002   0.0000000000000000     
  -1.0694437471324054E-002   3.5508392732426050E-002   0.0000000000000000     
  -8.9760273646172367E-003   1.9115610983070679E-002   0.0000000000000000     
  -1.0116513463223334E-002   2.2906180162370476E-002   0.0000000000000000     
  -1.1241461572894247E-002   2.6945218420862668E-002   0.0000000000000000     
  -1.2350871693629977E-002   3.1232725758547235E-002   0.0000000000000000     
  -1.3444743825430528E-002   3.5768702175424209E-002   0.0000000000000000     
  -1.0895143851830763E-002   1.9406647298182984E-002   0.0000000000000000     
  -1.2276912366061155E-002   2.3216241351907790E-002   0.0000000000000000     
  -1.3636911169188661E-002   2.7267861748463743E-002   0.0000000000000000     
  -1.4975140261213292E-002   3.1561508487850824E-002   0.0000000000000000     
  -1.6291599642135043E-002   3.6097181570069053E-002   0.0000000000000000     
  -1.2883385548730295E-002   1.9761059208784761E-002   0.0000000000000000     
  -1.4517369232669533E-002   2.3594254493277511E-002   0.0000000000000000     
  -1.6120633689433832E-002   2.7660781539371061E-002   0.0000000000000000     
  -1.7693178919023181E-002   3.1960640347065417E-002   0.0000000000000000     
  -1.9235004921437586E-002   3.6493830916360576E-002   0.0000000000000000     
  -1.4940752455315828E-002   2.0178846714876006E-002   0.0000000000000000     
  -1.6837884063048477E-002   2.4040219586479627E-002   0.0000000000000000     
  -1.8692629133629745E-002   2.8123977793584637E-002   0.0000000000000000     
  -2.0504987667059642E-002   3.2430121336191019E-002   0.0000000000000000     
  -2.2274959663338176E-002   3.6958650214298783E-002   0.0000000000000000     
  -1.0694437471324054E-002   3.5508392732426050E-002   0.0000000000000000     
  -1.1550757449076002E-002   4.0273181628021702E-002   0.0000000000000000     
  -1.2383612932902063E-002   4.5246687197581355E-002   0.0000000000000000     
  -1.3193003922802239E-002   5.0428909441105001E-002   0.0000000000000000     
  -1.3978930418776531E-002   5.5819848358592640E-002   0.0000000000000000     
  -1.3444743825430528E-002   3.5768702175424209E-002   0.0000000000000000     
  -1.4512913295787586E-002   4.0534290383846684E-002   0.0000000000000000     
  -1.5545215432192842E-002   4.5510633096167791E-002   0.0000000000000000     
  -1.6541650234646300E-002   5.0697730312387543E-002   0.0000000000000000     
  -1.7502217703147957E-002   5.6095582032505913E-002   0.0000000000000000     
  -1.6291599642135043E-002   3.6097181570069053E-002   0.0000000000000000     
  -1.7574816121907543E-002   4.0859789681527092E-002   0.0000000000000000     
  -1.8813316510484440E-002   4.5834241508633612E-002   0.0000000000000000     
  -2.0007100807865739E-002   5.1020537051388620E-002   0.0000000000000000     
  -2.1156169014051433E-002   5.6418676309792117E-002   0.0000000000000000     
  -1.9235004921437586E-002   3.6493830916360576E-002   0.0000000000000000     
  -2.0736465927435874E-002   4.1249679521062912E-002   0.0000000000000000     
  -2.2187916167776867E-002   4.6217512434978812E-002   0.0000000000000000     
  -2.3589355642460560E-002   5.1397329658108247E-002   0.0000000000000000     
  -2.4940784351486948E-002   5.6789131190451238E-002   0.0000000000000000     
  -2.2274959663338176E-002   3.6958650214298783E-002   0.0000000000000000     
  -2.3997862712372579E-002   4.1703959902454166E-002   0.0000000000000000     
  -2.5669014404070108E-002   4.6660445875203377E-002   0.0000000000000000     
  -2.7288414738430758E-002   5.1828108132546416E-002   0.0000000000000000     
  -2.8856063715454527E-002   5.7206946674483297E-002   0.0000000000000000     
  -1.3978930418776531E-002   5.5819848358592640E-002   0.0000000000000000     
  -1.4741323740032751E-002   6.1409785991099482E-002   0.0000000000000000     
  -1.5480115205778711E-002   6.7189004379680700E-002   0.0000000000000000     
  -1.6195304816014413E-002   7.3157503524336309E-002   0.0000000000000000     
  -1.6886892570739855E-002   7.9315283425066330E-002   0.0000000000000000     
  -1.7502217703147957E-002   5.6095582032505913E-002   0.0000000000000000     
  -1.8431946501173423E-002   6.1692060079641953E-002   0.0000000000000000     
  -1.9335865292198308E-002   6.7475036276914660E-002   0.0000000000000000     
  -2.0213974076222604E-002   7.3444510624324083E-002   0.0000000000000000     
  -2.1066272853246321E-002   7.9600483121870208E-002   0.0000000000000000     
  -2.1156169014051433E-002   5.6418676309792117E-002   0.0000000000000000     
  -2.2267580923274171E-002   6.2014826609327355E-002   0.0000000000000000     
  -2.3348396329766607E-002   6.7795155275477637E-002   0.0000000000000000     
  -2.4398615233528743E-002   7.3759662308242935E-002   0.0000000000000000     
  -2.5418237634560571E-002   7.9908347707623284E-002   0.0000000000000000     
  -2.4940784351486948E-002   5.6789131190451238E-002   0.0000000000000000     
  -2.6248227006334994E-002   6.2378085580155708E-002   0.0000000000000000     
  -2.7517708318483616E-002   6.8149361375369574E-002   0.0000000000000000     
  -2.8749228287932822E-002   7.4102958576092878E-002   0.0000000000000000     
  -2.9942786914682603E-002   8.0238877182325571E-002   0.0000000000000000     
  -2.8856063715454527E-002   5.7206946674483297E-002   0.0000000000000000     
  -3.0373884750355892E-002   6.2781836992126999E-002   0.0000000000000000     
  -3.1843801258349333E-002   6.8537654576590543E-002   0.0000000000000000     
  -3.3265813239434838E-002   7.4474399427873886E-002   0.0000000000000000     
  -3.4639920693612422E-002   8.0592071545977056E-002   0.0000000000000000     
  -1.6886892570739855E-002   7.9315283425066330E-002   0.0000000000000000     
  -1.7552882455974410E-002   8.5645932423007748E-002   0.0000000000000000     
  -1.8191278457737447E-002   9.2133038859297578E-002   0.0000000000000000     
  -1.8802080576028963E-002   9.8776602733935820E-002   0.0000000000000000     
  -1.9385288810848958E-002  0.10557662404692247        0.0000000000000000     
  -2.1066272853246321E-002   7.9600483121870208E-002   0.0000000000000000     
  -2.1885534897332037E-002   8.5928367988506144E-002   0.0000000000000000     
  -2.2664533482542350E-002   9.2413579443185054E-002   0.0000000000000000     
  -2.3403268608877249E-002   9.9056117485906939E-002   0.0000000000000000     
  -2.4101740276336738E-002  0.10585598211667177        0.0000000000000000     
  -2.5418237634560571E-002   7.9908347707623284E-002   0.0000000000000000     
  -2.6397833225223620E-002   8.6228126990810519E-002   0.0000000000000000     
  -2.7327971697879403E-002   9.2705915674996475E-002   0.0000000000000000     
  -2.8208653052527909E-002   9.9341713760181152E-002   0.0000000000000000     
  -2.9039877289169170E-002  0.10613552124636459        0.0000000000000000     
  -2.9942786914682603E-002   8.0238877182325571E-002   0.0000000000000000     
  -3.1089777439649142E-002   8.6545209429920833E-002   0.0000000000000000     
  -3.2181593103748594E-002   9.3010047554731787E-002   0.0000000000000000     
  -3.3218233906980955E-002   9.9633391556758502E-002   0.0000000000000000     
  -3.4199699849346232E-002  0.10641524143600090        0.0000000000000000     
  -3.4639920693612422E-002   8.0592071545977056E-002   0.0000000000000000     
  -3.5961367540608608E-002   8.6879615305837113E-002   0.0000000000000000     
  -3.7225397700149938E-002   9.3325975082391086E-002   0.0000000000000000     
  -3.8432011172236373E-002   9.9931150875638947E-002   0.0000000000000000     
  -3.9581207956867953E-002  0.10669514268558075        0.0000000000000000     
  -1.9385288810848958E-002  0.10557662404692247        0.0000000000000000     
  -1.9943557686485126E-002  0.11252342148326386        0.0000000000000000     
  -2.0479541727225166E-002  0.11960731372796626        0.0000000000000000     
  -2.0993240933069056E-002  0.12682830078102969        0.0000000000000000     
  -2.1484655304016817E-002  0.13418638264245411        0.0000000000000000     
  -2.4101740276336738E-002  0.10585598211667177        0.0000000000000000     
  -2.4761087880435313E-002  0.11280681067206530        0.0000000000000000     
  -2.5382450816687451E-002  0.11990224048867322        0.0000000000000000     
  -2.5965829085093151E-002  0.12714227156649552        0.0000000000000000     
  -2.6511222685652421E-002  0.13452690390553224        0.0000000000000000     
  -2.9039877289169170E-002  0.10613552124636459        0.0000000000000000     
  -2.9822339431153949E-002  0.11308249976094045        0.0000000000000000     
  -3.0556734501833060E-002  0.12017781093130241        0.0000000000000000     
  -3.1243062501206488E-002  0.12742145475745048        0.0000000000000000     
  -3.1881323429274251E-002  0.13481343123938461        0.0000000000000000     
  -3.4199699849346232E-002  0.10641524143600090        0.0000000000000000     
  -3.5127312338641040E-002  0.11335048874988927        0.0000000000000000     
  -3.6002392782661999E-002  0.12043402505585378        0.0000000000000000     
  -3.6824941181409089E-002  0.12766585035389444        0.0000000000000000     
  -3.7594957534882310E-002  0.13504596464401128        0.0000000000000000     
  -3.9581207956867953E-002  0.10669514268558075        0.0000000000000000     
  -4.0676006602896601E-002  0.11361077763891178        0.0000000000000000     
  -4.1719425659174254E-002  0.12067088286232737        0.0000000000000000     
  -4.2711465125700919E-002  0.12787545835582753        0.0000000000000000     
  -4.3652125002476602E-002  0.13522450411941223        0.0000000000000000     
  -2.1484655304016817E-002  0.13418638264245411        0.0000000000000000     
  -2.1953781922742052E-002  0.14166575636761325        0.0000000000000000     
  -2.2400617871918372E-002  0.14925061901188083        0.0000000000000000     
  -2.2825163151545782E-002  0.15694097057525680        0.0000000000000000     
  -2.3227417761624278E-002  0.16473681105774118        0.0000000000000000     
  -2.6511222685652421E-002  0.13452690390553224        0.0000000000000000     
  -2.7004406345072701E-002  0.14205204597324672        0.0000000000000000     
  -2.7431154790061436E-002  0.14971360623710228        0.0000000000000000     
  -2.7791468020618632E-002  0.15751158469709906        0.0000000000000000     
  -2.8085346036744271E-002  0.16544598135323696        0.0000000000000000     
  -3.1881323429274251E-002  0.13481343123938461        0.0000000000000000     
  -3.2454811885162360E-002  0.14235067437680660        0.0000000000000000     
  -3.2946822467996822E-002  0.15003011816941811        0.0000000000000000     
  -3.3357355177777638E-002  0.15785176261721917        0.0000000000000000     
  -3.3686410014504807E-002  0.16581560772020973        0.0000000000000000     
  -3.7594957534882310E-002  0.13504596464401128        0.0000000000000000     
  -3.8304998543011018E-002  0.14256164157829301        0.0000000000000000     
  -3.8947620905724498E-002  0.15020015480882831        0.0000000000000000     
  -3.9522824623022798E-002  0.15796150433561715        0.0000000000000000     
  -4.0030609694905891E-002  0.16584569015865958        0.0000000000000000     
  -4.3652125002476602E-002  0.13522450411941223        0.0000000000000000     
  -4.4554966318618675E-002  0.14268494757770589        0.0000000000000000     
  -4.5433550103244527E-002  0.15022371615533278        0.0000000000000000     
  -4.6287876356354125E-002  0.15784080985229298        0.0000000000000000     
  -4.7117945077947518E-002  0.16553622866858647        0.0000000000000000     
   0.0000000000000000        0.0000000000000000        0.0000000000000000     
  -1.7976453447863929E-003   1.2782743253711591E-003   0.0000000000000000     
  -3.6197699691097713E-003   2.9418440626610247E-003   0.0000000000000000     
  -5.4663738729701355E-003   4.9907092118695968E-003   0.0000000000000000     
  -7.3374570563674848E-003   7.4248697729968763E-003   0.0000000000000000     
   0.0000000000000000        0.0000000000000000        0.0000000000000000     
  -2.0687048560822530E-003   1.3559959129174927E-003   0.0000000000000000     
  -4.1624331665646502E-003   3.0959541985762385E-003   0.0000000000000000     
  -6.2811849314471889E-003   5.2198748569762376E-003   0.0000000000000000     
  -8.4249601507298717E-003   7.7277578881174893E-003   0.0000000000000000     
   0.0000000000000000        0.0000000000000000        0.0000000000000000     
  -2.3393658481624352E-003   1.4597209215395136E-003   0.0000000000000000     
  -4.7185996634058142E-003   3.3012278424900112E-003   0.0000000000000000     
  -7.1377014457301366E-003   5.5245207628514918E-003   0.0000000000000000     
  -9.5966711951354037E-003   8.1295996826239586E-003   0.0000000000000000     
   0.0000000000000000        0.0000000000000000        0.0000000000000000     
  -2.6096283210269395E-003   1.5894493512372215E-003   0.0000000000000000     
  -5.2882694596332663E-003   3.5576649944023429E-003   0.0000000000000000     
  -8.0359234158189786E-003   5.9046469294953639E-003   0.0000000000000000     
  -1.0852590189584078E-002   8.6303951565162833E-003   0.0000000000000000     
   0.0000000000000000        0.0000000000000000        0.0000000000000000     
  -2.8794922746757652E-003   1.7451812020106163E-003   0.0000000000000000     
  -5.8714425552470030E-003   3.8652656543132326E-003   0.0000000000000000     
  -8.9758508417137131E-003   6.3602533569078494E-003   0.0000000000000000     
  -1.2192717134075898E-002   9.2301443097944670E-003   0.0000000000000000     
  -7.3374570563674848E-003   7.4248697729968763E-003   0.0000000000000000     
  -9.2251551361761386E-003   1.0192099532179297E-002   0.0000000000000000     
  -1.1121603729270414E-002   1.3240172275553292E-002   0.0000000000000000     
  -1.3026802835650310E-002   1.6569088003118862E-002   0.0000000000000000     
  -1.4940752455315828E-002   2.0178846714876006E-002   0.0000000000000000     
  -8.4249601507298717E-003   7.7277578881174893E-003   0.0000000000000000     
  -1.0585281802943939E-002   1.0562256455936872E-002   0.0000000000000000     
  -1.2753672866620623E-002   1.3666023724371257E-002   0.0000000000000000     
  -1.4930133341759933E-002   1.7039059693420653E-002   0.0000000000000000     
  -1.7114663228361859E-002   2.0681364363085052E-002   0.0000000000000000     
  -9.5966711951354037E-003   8.1295996826239586E-003   0.0000000000000000     
  -1.2071840577938926E-002   1.1049101560820942E-002   0.0000000000000000     
  -1.4539541260458007E-002   1.4215663356455986E-002   0.0000000000000000     
  -1.6999773242692664E-002   1.7629285069529085E-002   0.0000000000000000     
  -1.9452536524642874E-002   2.1289966700040241E-002   0.0000000000000000     
  -1.0852590189584078E-002   8.6303951565162833E-003   0.0000000000000000     
  -1.3684831461161100E-002   1.1652634846831518E-002   0.0000000000000000     
  -1.6479208910782573E-002   1.4889091171807473E-002   0.0000000000000000     
  -1.9235722538448498E-002   1.8339764131444152E-002   0.0000000000000000     
  -2.1954372344158882E-002   2.2004653725741556E-002   0.0000000000000000     
  -1.2192717134075898E-002   9.2301443097944670E-003   0.0000000000000000     
  -1.5424254452610465E-002   1.2372856313968590E-002   0.0000000000000000     
  -1.8572675817594309E-002   1.5686307170425722E-002   0.0000000000000000     
  -2.1637981229027447E-002   1.9170496879165860E-002   0.0000000000000000     
  -2.4620170686909863E-002   2.2825425440189014E-002   0.0000000000000000     
  -1.4940752455315828E-002   2.0178846714876006E-002   0.0000000000000000     
  -1.6837884063048477E-002   2.4040219586479627E-002   0.0000000000000000     
  -1.8692629133629745E-002   2.8123977793584637E-002   0.0000000000000000     
  -2.0504987667059642E-002   3.2430121336191019E-002   0.0000000000000000     
  -2.2274959663338176E-002   3.6958650214298783E-002   0.0000000000000000     
  -1.7114663228361859E-002   2.0681364363085052E-002   0.0000000000000000     
  -1.9276172537526261E-002   2.4564770813893338E-002   0.0000000000000000     
  -2.1383571280352977E-002   2.8661112126374379E-002   0.0000000000000000     
  -2.3436859456842013E-002   3.2970388300528161E-002   0.0000000000000000     
  -2.5436037066993371E-002   3.7492599336354709E-002   0.0000000000000000     
  -1.9452536524642874E-002   2.1289966700040241E-002   0.0000000000000000     
  -2.1869950336431184E-002   2.5178542357897821E-002   0.0000000000000000     
  -2.4224133908180085E-002   2.9275846153010213E-002   0.0000000000000000     
  -2.6515087239889611E-002   3.3581878085377395E-002   0.0000000000000000     
  -2.8742810331559749E-002   3.8096638154999390E-002   0.0000000000000000     
  -2.1954372344158882E-002   2.2004653725741556E-002   0.0000000000000000     
  -2.4619217459763233E-002   2.5881534218493089E-002   0.0000000000000000     
  -2.7214317017111089E-002   2.9968179873492141E-002   0.0000000000000000     
  -2.9739671016202448E-002   3.4264590690738721E-002   0.0000000000000000     
  -3.2195279457037304E-002   3.8770766670232812E-002   0.0000000000000000     
  -2.4620170686909863E-002   2.2825425440189014E-002   0.0000000000000000     
  -2.7523973907522425E-002   2.6673746395679130E-002   0.0000000000000000     
  -3.0354120607145971E-002   3.0738113287820164E-002   0.0000000000000000     
  -3.3110610785780502E-002   3.5018526116612110E-002   0.0000000000000000     
  -3.5793444443426033E-002   3.9514984882054988E-002   0.0000000000000000     
  -2.2274959663338176E-002   3.6958650214298783E-002   0.0000000000000000     
  -2.3997862712372579E-002   4.1703959902454166E-002   0.0000000000000000     
  -2.5669014404070108E-002   4.6660445875203377E-002   0.0000000000000000     
  -2.7288414738430758E-002   5.1828108132546416E-002   0.0000000000000000     
  -2.8856063715454527E-002   5.7206946674483297E-002   0.0000000000000000     
  -2.5436037066993371E-002   3.7492599336354709E-002   0.0000000000000000     
  -2.7381598420247902E-002   4.2226001826493678E-002   0.0000000000000000     
  -2.9274037826046463E-002   4.7168852363584694E-002   0.0000000000000000     
  -3.1113355284389049E-002   5.2321150947627786E-002   0.0000000000000000     
  -3.2899550795275664E-002   5.7682897578622931E-002   0.0000000000000000     
  -2.8742810331559749E-002   3.8096638154999390E-002   0.0000000000000000     
  -3.0910264994592089E-002   4.2819176293974276E-002   0.0000000000000000     
  -3.3020413040388219E-002   4.7748542434400139E-002   0.0000000000000000     
  -3.5073254468948163E-002   5.2884736576276979E-002   0.0000000000000000     
  -3.7068789280271887E-002   5.8227758719604797E-002   0.0000000000000000     
  -3.2195279457037304E-002   3.8770766670232812E-002   0.0000000000000000     
  -3.4583862435405129E-002   4.3483483304895966E-002   0.0000000000000000     
  -3.6908140047095382E-002   4.8399516087649704E-002   0.0000000000000000     
  -3.9168112292108065E-002   5.3518865018494011E-002   0.0000000000000000     
  -4.1363779170443191E-002   5.8841530097428901E-002   0.0000000000000000     
  -3.5793444443426033E-002   3.9514984882054988E-002   0.0000000000000000     
  -3.8402390742687025E-002   4.4218922859258755E-002   0.0000000000000000     
  -4.0937218846167946E-002   4.9121773323333381E-002   0.0000000000000000     
  -4.3397928753868796E-002   5.4223536274278873E-002   0.0000000000000000     
  -4.5784520465789583E-002   5.9524211712095230E-002   0.0000000000000000     
  -2.8856063715454527E-002   5.7206946674483297E-002   0.0000000000000000     
  -3.0373884750355892E-002   6.2781836992126999E-002   0.0000000000000000     
  -3.1843801258349333E-002   6.8537654576590543E-002   0.0000000000000000     
  -3.3265813239434838E-002   7.4474399427873886E-002   0.0000000000000000     
  -3.4639920693612422E-002   8.0592071545977056E-002   0.0000000000000000     
  -3.2899550795275664E-002   5.7682897578622931E-002   0.0000000000000000     
  -3.4630234898186306E-002   6.3239395550906158E-002   0.0000000000000000     
  -3.6303018132600999E-002   6.8975948158813472E-002   0.0000000000000000     
  -3.7917900498519730E-002   7.4892555402344879E-002   0.0000000000000000     
  -3.9474881995942498E-002   8.0989217281500367E-002   0.0000000000000000     
  -3.7068789280271887E-002   5.8227758719604797E-002   0.0000000000000000     
  -3.9002958192675692E-002   6.3764075962158120E-002   0.0000000000000000     
  -4.0871701924475867E-002   6.9480155401711430E-002   0.0000000000000000     
  -4.2675020475672405E-002   7.5375997038264780E-002   0.0000000000000000     
  -4.4412913846265306E-002   8.1451600871818117E-002   0.0000000000000000     
  -4.1363779170443191E-002   5.8841530097428901E-002   0.0000000000000000     
  -4.3492054633824051E-002   6.4355878225882859E-002   0.0000000000000000     
  -4.5549852633973952E-002   7.0050276305284404E-002   0.0000000000000000     
  -4.7537173170892864E-002   7.5924724335633548E-002   0.0000000000000000     
  -4.9454016244580817E-002   8.1979222316930250E-002   0.0000000000000000     
  -4.5784520465789583E-002   5.9524211712095230E-002   0.0000000000000000     
  -4.8097524221631369E-002   6.5014802342080416E-002   0.0000000000000000     
  -5.0337470261095217E-002   7.0686310869532407E-002   0.0000000000000000     
  -5.2504358584181100E-002   7.6538737294451223E-002   0.0000000000000000     
  -5.4598189190889067E-002   8.2572081616836837E-002   0.0000000000000000     
  -3.4639920693612422E-002   8.0592071545977056E-002   0.0000000000000000     
  -3.5961367540608608E-002   8.6879615305837113E-002   0.0000000000000000     
  -3.7225397700149938E-002   9.3325975082391086E-002   0.0000000000000000     
  -3.8432011172236373E-002   9.9931150875638947E-002   0.0000000000000000     
  -3.9581207956867953E-002  0.10669514268558075        0.0000000000000000     
  -3.9474881995942498E-002   8.0989217281500367E-002   0.0000000000000000     
  -4.0973453546830137E-002   8.7255322485939091E-002   0.0000000000000000     
  -4.2413106073143469E-002   9.3680259705320151E-002   0.0000000000000000     
  -4.3793839574882476E-002  0.10026402893964360        0.0000000000000000     
  -4.5115654052047184E-002  0.10700663018890939        0.0000000000000000     
  -4.4412913846265306E-002   8.1451600871818117E-002   0.0000000000000000     
  -4.6086885477041831E-002   8.7696308837606471E-002   0.0000000000000000     
  -4.7698438808789254E-002   9.4099462870864958E-002   0.0000000000000000     
  -4.9247573841507582E-002  0.10066106297159350        0.0000000000000000     
  -5.0734290575196829E-002  0.10738110913979215        0.0000000000000000     
  -4.9454016244580817E-002   8.1979222316930250E-002   0.0000000000000000     
  -5.1301663331243676E-002   8.8202574360839309E-002   0.0000000000000000     
  -5.3081395907087311E-002   9.4583584579025437E-002   0.0000000000000000     
  -5.4793213972111711E-002  0.10112225297148869        0.0000000000000000     
  -5.6437117526316867E-002  0.10781857953822901        0.0000000000000000     
  -5.4598189190889067E-002   8.2572081616836837E-002   0.0000000000000000     
  -5.6617787109435713E-002   8.8774119055637549E-002   0.0000000000000000     
  -5.8561977368037615E-002   9.5132624829801643E-002   0.0000000000000000     
  -6.0430759966694829E-002  0.10164759893932912        0.0000000000000000     
  -6.2224134905407312E-002  0.10831904138421999        0.0000000000000000     
  -3.9581207956867953E-002  0.10669514268558075        0.0000000000000000     
  -4.0676006602896601E-002  0.11361077763891178        0.0000000000000000     
  -4.1719425659174254E-002  0.12067088286232737        0.0000000000000000     
  -4.2711465125700919E-002  0.12787545835582753        0.0000000000000000     
  -4.3652125002476602E-002  0.13522450411941223        0.0000000000000000     
  -4.5115654052047184E-002  0.10700663018890939        0.0000000000000000     
  -4.6383495052792871E-002  0.11389847980465582        0.0000000000000000     
  -4.7602308125274814E-002  0.12092999413842118        0.0000000000000000     
  -4.8772093269493048E-002  0.12810117319020542        0.0000000000000000     
  -4.9892850485447518E-002  0.13541201696000860        0.0000000000000000     
  -5.0734290575196829E-002  0.10738110913979215        0.0000000000000000     
  -5.2164850517202127E-002  0.11424870862376925        0.0000000000000000     
  -5.3545515174868670E-002  0.12125296867183318        0.0000000000000000     
  -5.4876284548196444E-002  0.12839388928398393        0.0000000000000000     
  -5.6157158637185456E-002  0.13567147046022149        0.0000000000000000     
  -5.6437117526316867E-002  0.10781857953822901        0.0000000000000000     
  -5.8020072996124383E-002  0.11466146409625205        0.0000000000000000     
  -5.9549046807955815E-002  0.12163980646256338        0.0000000000000000     
  -6.1024038961811161E-002  0.12875360663716304        0.0000000000000000     
  -6.2445049457690416E-002  0.13600286462005090        0.0000000000000000     
  -6.2224134905407312E-002  0.10831904138421999        0.0000000000000000     
  -6.3949162489559619E-002  0.11513674622210421        0.0000000000000000     
  -6.5612903024536220E-002  0.12209050751061178        0.0000000000000000     
  -6.7215356510337165E-002  0.12918032524974263        0.0000000000000000     
  -6.8756522946962412E-002  0.13640619943949686        0.0000000000000000     
  -4.3652125002476602E-002  0.13522450411941223        0.0000000000000000     
  -4.4554966318618675E-002  0.14268494757770589        0.0000000000000000     
  -4.5433550103244527E-002  0.15022371615533278        0.0000000000000000     
  -4.6287876356354125E-002  0.15784080985229298        0.0000000000000000     
  -4.7117945077947518E-002  0.16553622866858647        0.0000000000000000     
  -4.9892850485447518E-002  0.13541201696000860        0.0000000000000000     
  -5.0998682765178320E-002  0.14280960539001761        0.0000000000000000     
  -5.2123693100725510E-002  0.15024101842241938        0.0000000000000000     
  -5.3267881492089074E-002  0.15770625605721394        0.0000000000000000     
  -5.4431247939269026E-002  0.16520531829440130        0.0000000000000000     
  -5.6157158637185456E-002  0.13567147046022149        0.0000000000000000     
  -5.7430115435882959E-002  0.14302462803020055        0.0000000000000000     
  -5.8737132938336170E-002  0.15039227782357587        0.0000000000000000     
  -6.0078211144545125E-002  0.15777441984034735        0.0000000000000000     
  -6.1453350054509810E-002  0.16517105408051508        0.0000000000000000     
  -6.2445049457690416E-002  0.13600286462005090        0.0000000000000000     
  -6.3849264330732555E-002  0.14333001549825478        0.0000000000000000     
  -6.5273869616076494E-002  0.15067749435880218        0.0000000000000000     
  -6.6718865313722259E-002  0.15804530120169322        0.0000000000000000     
  -6.8184251423669823E-002  0.16543343602692775        0.0000000000000000     
  -6.8756522946962412E-002  0.13640619943949686        0.0000000000000000     
  -7.0256129449727131E-002  0.14372576779418023        0.0000000000000000     
  -7.1733903133946494E-002  0.15109666802809837        0.0000000000000000     
  -7.3189843999620474E-002  0.15851890014125145        0.0000000000000000     
  -7.4623952046749098E-002  0.16599246413363936        0.0000000000000000     
   0.0000000000000000        0.0000000000000000        0.0000000000000000     
  -2.8794922746757652E-003   1.7451812020106163E-003   0.0000000000000000     
  -5.8714425552470030E-003   3.8652656543132326E-003   0.0000000000000000     
  -8.9758508417137131E-003   6.3602533569078494E-003   0.0000000000000000     
  -1.2192717134075898E-002   9.2301443097944670E-003   0.0000000000000000     
   0.0000000000000000        0.0000000000000000        0.0000000000000000     
  -3.2827483680170208E-003   1.9995654419021351E-003   0.0000000000000000     
  -6.6760041286880777E-003   4.3313199815312739E-003   0.0000000000000000     
  -1.0179767282013171E-002   6.9952636188874160E-003   0.0000000000000000     
  -1.3794037827992302E-002   9.9913963539705643E-003   0.0000000000000000     
   0.0000000000000000        0.0000000000000000        0.0000000000000000     
  -3.9531872599588135E-003   2.4252510389542146E-003   0.0000000000000000     
  -7.9098393583975392E-003   5.0631181353650578E-003   0.0000000000000000     
  -1.1869956295316179E-002   7.9136012892325296E-003   0.0000000000000000     
  -1.5833538070714730E-002   1.0976700500556630E-002   0.0000000000000000     
   0.0000000000000000        0.0000000000000000        0.0000000000000000     
  -4.8908089505011448E-003   3.0222379931668557E-003   0.0000000000000000     
  -9.5729482443753875E-003   6.0606601158145852E-003   0.0000000000000000     
  -1.4046417881622732E-002   9.1152663679431884E-003   0.0000000000000000     
  -1.8311217862243174E-002   1.2186056749552662E-002   0.0000000000000000     
   0.0000000000000000        0.0000000000000000        0.0000000000000000     
  -6.0956134396440128E-003   3.7905263045400579E-003   0.0000000000000000     
  -1.1665330786621625E-002   7.3239459228798542E-003   0.0000000000000000     
  -1.6709152040932838E-002   1.0600258855019390E-002   0.0000000000000000     
  -2.1227077202577650E-002   1.3619465100958662E-002   0.0000000000000000     
  -1.2192717134075898E-002   9.2301443097944670E-003   0.0000000000000000     
  -1.5424254452610465E-002   1.2372856313968590E-002   0.0000000000000000     
  -1.8572675817594309E-002   1.5686307170425722E-002   0.0000000000000000     
  -2.1637981229027447E-002   1.9170496879165860E-002   0.0000000000000000     
  -2.4620170686909863E-002   2.2825425440189014E-002   0.0000000000000000     
  -1.3794037827992302E-002   9.9913963539705643E-003   0.0000000000000000     
  -1.7401721405644593E-002   1.3221749435632354E-002   0.0000000000000000     
  -2.0885723653989160E-002   1.6588354112724427E-002   0.0000000000000000     
  -2.4246044573026010E-002   2.0091210385246784E-002   0.0000000000000000     
  -2.7482684162755136E-002   2.3730318253199423E-002   0.0000000000000000     
  -1.5833538070714730E-002   1.0976700500556630E-002   0.0000000000000000     
  -1.9728844173621061E-002   1.4211297685222998E-002   0.0000000000000000     
  -2.3484134093063047E-002   1.7576274759117286E-002   0.0000000000000000     
  -2.7099407829040696E-002   2.1071631722239484E-002   0.0000000000000000     
  -3.0574665381553991E-002   2.4697368574589599E-002   0.0000000000000000     
  -1.8311217862243174E-002   1.2186056749552662E-002   0.0000000000000000     
  -2.2405622756539876E-002   1.5341501062740527E-002   0.0000000000000000     
  -2.6367907134815981E-002   1.8650069109604289E-002   0.0000000000000000     
  -3.0198070997071499E-002   2.2111760890143960E-002   0.0000000000000000     
  -3.3896114343306423E-002   2.5726576404359547E-002   0.0000000000000000     
  -2.1227077202577650E-002   1.3619465100958662E-002   0.0000000000000000     
  -2.5432057154401035E-002   1.6612359568184930E-002   0.0000000000000000     
  -2.9537042779247957E-002   1.9809737164185454E-002   0.0000000000000000     
  -3.3542034077118435E-002   2.3211597888960236E-002   0.0000000000000000     
  -3.7447031048012447E-002   2.6817941742509267E-002   0.0000000000000000     
  -2.4620170686909863E-002   2.2825425440189014E-002   0.0000000000000000     
  -2.7523973907522425E-002   2.6673746395679130E-002   0.0000000000000000     
  -3.0354120607145971E-002   3.0738113287820164E-002   0.0000000000000000     
  -3.3110610785780502E-002   3.5018526116612110E-002   0.0000000000000000     
  -3.5793444443426033E-002   3.9514984882054988E-002   0.0000000000000000     
  -2.7482684162755136E-002   2.3730318253199423E-002   0.0000000000000000     
  -3.0619128648354081E-002   2.7548244205254358E-002   0.0000000000000000     
  -3.3678864255000392E-002   3.1587554730083595E-002   0.0000000000000000     
  -3.6661890982694061E-002   3.5848249827687140E-002   0.0000000000000000     
  -3.9568208831435088E-002   4.0330329498064990E-002   0.0000000000000000     
  -3.0574665381553991E-002   2.4697368574589599E-002   0.0000000000000000     
  -3.3939590650903559E-002   2.8498092963017169E-002   0.0000000000000000     
  -3.7223867537390022E-002   3.2518412534371745E-002   0.0000000000000000     
  -4.0427496041013367E-002   3.6758327288653324E-002   0.0000000000000000     
  -4.3550476161773613E-002   4.1217837225861899E-002   0.0000000000000000     
  -3.3896114343306423E-002   2.5726576404359547E-002   0.0000000000000000     
  -3.7485359915170845E-002   2.9523292668967579E-002   0.0000000000000000     
  -4.0989130454314848E-002   3.3530686700684625E-002   0.0000000000000000     
  -4.4407425960738434E-002   3.7748758499510676E-002   0.0000000000000000     
  -4.7740246434441587E-002   4.2177508065445707E-002   0.0000000000000000     
  -3.7447031048012447E-002   2.6817941742509267E-002   0.0000000000000000     
  -4.1256436441155953E-002   3.0623843323105582E-002   0.0000000000000000     
  -4.4974653005774891E-002   3.4624377229022216E-002   0.0000000000000000     
  -4.8601680741869248E-002   3.8819543460259169E-002   0.0000000000000000     
  -5.2137519649439044E-002   4.3209342016816435E-002   0.0000000000000000     
  -3.5793444443426033E-002   3.9514984882054988E-002   0.0000000000000000     
  -3.8402390742687025E-002   4.4218922859258755E-002   0.0000000000000000     
  -4.0937218846167946E-002   4.9121773323333381E-002   0.0000000000000000     
  -4.3397928753868796E-002   5.4223536274278873E-002   0.0000000000000000     
  -4.5784520465789583E-002   5.9524211712095230E-002   0.0000000000000000     
  -3.9568208831435088E-002   4.0330329498064990E-002   0.0000000000000000     
  -4.2394214744829406E-002   4.5020944437205813E-002   0.0000000000000000     
  -4.5136305666482940E-002   4.9907245341098264E-002   0.0000000000000000     
  -4.7794481596395676E-002   5.4989232209742341E-002   0.0000000000000000     
  -5.0368742534567655E-002   6.0266905043138058E-002   0.0000000000000000     
  -4.3550476161773613E-002   4.1217837225861899E-002   0.0000000000000000     
  -4.6587699270223895E-002   4.5884997518880324E-002   0.0000000000000000     
  -4.9534056736917388E-002   5.0747863340591406E-002   0.0000000000000000     
  -5.2389548561854085E-002   5.5806434690995187E-002   0.0000000000000000     
  -5.5154174745033993E-002   6.1060711570091637E-002   0.0000000000000000     
  -4.7740246434441587E-002   4.2177508065445707E-002   0.0000000000000000     
  -5.0982844318870492E-002   4.6811082104282267E-002   0.0000000000000000     
  -5.4130472057471304E-002   5.1643627321812831E-002   0.0000000000000000     
  -5.7183129650243997E-002   5.6675143718037405E-002   0.0000000000000000     
  -6.0140817097188604E-002   6.1905631292955982E-002   0.0000000000000000     
  -5.2137519649439044E-002   4.3209342016816435E-002   0.0000000000000000     
  -5.5579649890769203E-002   4.7799198193411677E-002   0.0000000000000000     
  -5.8925551628144661E-002   5.2594537284762523E-002   0.0000000000000000     
  -6.2175224861565417E-002   5.7595359290868994E-002   0.0000000000000000     
  -6.5328669591031480E-002   6.2801664211731084E-002   0.0000000000000000     
  -4.5784520465789583E-002   5.9524211712095230E-002   0.0000000000000000     
  -4.8097524221631369E-002   6.5014802342080416E-002   0.0000000000000000     
  -5.0337470261095217E-002   7.0686310869532407E-002   0.0000000000000000     
  -5.2504358584181100E-002   7.6538737294451223E-002   0.0000000000000000     
  -5.4598189190889067E-002   8.2572081616836837E-002   0.0000000000000000     
  -5.0368742534567655E-002   6.0266905043138058E-002   0.0000000000000000     
  -5.2863449295752207E-002   6.5733189252440483E-002   0.0000000000000000     
  -5.5282962694702703E-002   7.1381010248804708E-002   0.0000000000000000     
  -5.7627282731419142E-002   7.7210368032230761E-002   0.0000000000000000     
  -5.9896409405901518E-002   8.3221262602718601E-002   0.0000000000000000     
  -5.5154174745033993E-002   6.1060711570091637E-002   0.0000000000000000     
  -5.7833912195841108E-002   6.6503379898652765E-002   0.0000000000000000     
  -6.0434737823659428E-002   7.2127125597450589E-002   0.0000000000000000     
  -6.2956651628488958E-002   7.7931948666485104E-002   0.0000000000000000     
  -6.5399653610329692E-002   8.3917849105756281E-002   0.0000000000000000     
  -6.0140817097188604E-002   6.1905631292955982E-002   0.0000000000000000     
  -6.3008912921898072E-002   6.7325374280717276E-002   0.0000000000000000     
  -6.5792795647965405E-002   7.2924656915470051E-002   0.0000000000000000     
  -6.8492465275390546E-002   7.8703479197214266E-002   0.0000000000000000     
  -7.1107921804173552E-002   8.4661841125949946E-002   0.0000000000000000     
  -6.5328669591031480E-002   6.2801664211731084E-002   0.0000000000000000     
  -6.8388451473923112E-002   6.8199172398634031E-002   0.0000000000000000     
  -7.1357136167620600E-002   7.3773604202863094E-002   0.0000000000000000     
  -7.4234723672123928E-002   7.9524959624418259E-002   0.0000000000000000     
  -7.7021213987433126E-002   8.5453238663299527E-002   0.0000000000000000     
  -5.4598189190889067E-002   8.2572081616836837E-002   0.0000000000000000     
  -5.6617787109435713E-002   8.8774119055637549E-002   0.0000000000000000     
  -5.8561977368037615E-002   9.5132624829801643E-002   0.0000000000000000     
  -6.0430759966694829E-002  0.10164759893932912        0.0000000000000000     
  -6.2224134905407312E-002  0.10831904138421999        0.0000000000000000     
  -5.9896409405901518E-002   8.3221262602718601E-002   0.0000000000000000     
  -6.2086130008473336E-002   8.9400729710753857E-002   0.0000000000000000     
  -6.4192231829458046E-002   9.5735805106822155E-002   0.0000000000000000     
  -6.6214714868855662E-002  0.10222648879092346        0.0000000000000000     
  -6.8153579126666169E-002  0.10887278076305780        0.0000000000000000     
  -6.5399653610329692E-002   8.3917849105756281E-002   0.0000000000000000     
  -6.7757565225212049E-002   9.0072193114940885E-002   0.0000000000000000     
  -7.0024207929166471E-002   9.6382346893715568E-002   0.0000000000000000     
  -7.2199581722192915E-002  0.10284831044208036        0.0000000000000000     
  -7.4283686604291410E-002  0.10947008376003523        0.0000000000000000     
  -7.1107921804173552E-002   8.4661841125949946E-002   0.0000000000000000     
  -7.3632092759651865E-002   9.0788509268198619E-002   0.0000000000000000     
  -7.6057905667162862E-002   9.7072250190481907E-002   0.0000000000000000     
  -7.8385360526706610E-002  0.10351306389279979        0.0000000000000000     
  -8.0614457338283069E-002  0.11011095037515224        0.0000000000000000     
  -7.7021213987433126E-002   8.5453238663299527E-002   0.0000000000000000     
  -7.9709712611792716E-002   9.1549678170527102E-002   0.0000000000000000     
  -8.2293325043447246E-002   9.7805514997121187E-002   0.0000000000000000     
  -8.4772051282396704E-002  0.10422074914308176        0.0000000000000000     
  -8.7145891328641117E-002  0.11079538060840885        0.0000000000000000     
  -6.2224134905407312E-002  0.10831904138421999        0.0000000000000000     
  -6.3949162489559619E-002  0.11513674622210421        0.0000000000000000     
  -6.5612903024536220E-002  0.12209050751061178        0.0000000000000000     
  -6.7215356510337165E-002  0.12918032524974263        0.0000000000000000     
  -6.8756522946962412E-002  0.13640619943949686        0.0000000000000000     
  -6.8153579126666169E-002  0.10887278076305780        0.0000000000000000     
  -7.0016150196794455E-002  0.11566529957449383        0.0000000000000000     
  -7.1809753673145432E-002  0.12259466377650016        0.0000000000000000     
  -7.3534389555719032E-002  0.12966087336907683        0.0000000000000000     
  -7.5190057844515337E-002  0.13686392835222377        0.0000000000000000     
  -7.4283686604291410E-002  0.10947008376003523        0.0000000000000000     
  -7.6285067317115540E-002  0.11623786872658898        0.0000000000000000     
  -7.8212268602318863E-002  0.12314186722075035        0.0000000000000000     
  -8.0065290459901420E-002  0.13018207924251934        0.0000000000000000     
  -8.1844132889863155E-002  0.13735850479189599        0.0000000000000000     
  -8.0614457338283069E-002  0.11011095037515224        0.0000000000000000     
  -8.2755913850522833E-002  0.11685445367838962        0.0000000000000000     
  -8.4820447812056568E-002  0.12373211784336231        0.0000000000000000     
  -8.6808059222884232E-002  0.13074394287007030        0.0000000000000000     
  -8.8718748083005824E-002  0.13788992875851350        0.0000000000000000     
  -8.7145891328641117E-002  0.11079538060840885        0.0000000000000000     
  -8.9428689797016403E-002  0.11751505442989582        0.0000000000000000     
  -9.1634291302358534E-002  0.12436541564433606        0.0000000000000000     
  -9.3762695844667523E-002  0.13134646425172958        0.0000000000000000     
  -9.5813903423943358E-002  0.13845820025207636        0.0000000000000000     
  -6.8756522946962412E-002  0.13640619943949686        0.0000000000000000     
  -7.0256129449727131E-002  0.14372576779418023        0.0000000000000000     
  -7.1733903133946494E-002  0.15109666802809837        0.0000000000000000     
  -7.3189843999620474E-002  0.15851890014125145        0.0000000000000000     
  -7.4623952046749098E-002  0.16599246413363936        0.0000000000000000     
  -7.5190057844515337E-002  0.13686392835222377        0.0000000000000000     
  -7.6776973472297588E-002  0.14417873758832378        0.0000000000000000     
  -7.8295351371828997E-002  0.15158020993975957        0.0000000000000000     
  -7.9745191543109648E-002  0.15906834540653114        0.0000000000000000     
  -8.1126493986139497E-002  0.16664314398863850        0.0000000000000000     
  -8.1844132889863155E-002  0.13735850479189599        0.0000000000000000     
  -8.3538059077874760E-002  0.14465577755103246        0.0000000000000000     
  -8.5136332209606938E-002  0.15205853120208090        0.0000000000000000     
  -8.6638952285059634E-002  0.15956676574504136        0.0000000000000000     
  -8.8045919304232931E-002  0.16718048117991385        0.0000000000000000     
  -8.8718748083005824E-002  0.13788992875851350        0.0000000000000000     
  -9.0539386266458702E-002  0.14515688768230614        0.0000000000000000     
  -9.2256845647280247E-002  0.15253163181506238        0.0000000000000000     
  -9.3871126225470503E-002  0.16001416115678205        0.0000000000000000     
  -9.5382228001029384E-002  0.16760447570746528        0.0000000000000000     
  -9.5813903423943358E-002  0.13845820025207636        0.0000000000000000     
  -9.7780955038049400E-002  0.14568206798214497        0.0000000000000000     
  -9.9656891684848994E-002  0.15299951177870397        0.0000000000000000     
 -0.10144171336434214       0.16041053164175328        0.0000000000000000     
 -0.10313542007652886       0.16791512757129298        0.0000000000000000     
 </DataArray>
 <DataArray  type="Float64" Name="stress" NumberOfComponents="3" format="ascii">
   13417998726.038103        4025399617.8114309        2893410786.3962955     
   11768507088.648235        1890268929.2733734        1715396909.9644859     
   10316390117.018440        413053793.26890421        810392406.79048455     
   9061647811.1487274       -406245790.20197296        178397276.87429062     
   8004280171.0390892       -567629821.13926220       -180588479.78409505     
   10541978617.434374        3162593585.2303119        2224845631.5996141     
   9670087250.6925907        1589673280.8263617        1445942234.1385589     
   8946910919.2282448        512469760.68053722        862442659.88727427     
   8372449623.0413322       -69016975.207163811        474346908.84576017     
   7946703362.1318636       -154786926.83673763        281654981.01401705     
   8340323066.1341391        2502096919.8402414        1711176916.2279396     
   8024301827.0460482        1424867956.6720810        1274614428.8412259     
   7808335992.7527542        681157009.48658085        955850214.61624563     
   7692425563.2542601        270964078.28374290        754884273.55299914     
   7676570538.5505629        194289163.06356430        671716605.65148675     
   6813032072.1373949        2043909621.6412184        1352404640.2812722     
   6831150817.7086048        1395852956.8105297        1201413494.0724869     
   6900665337.5919743        919115539.68703794        1090615070.9773991     
   7021575631.7875023        613697370.27074385        1020009370.9960089     
   7193881700.2951918        479598448.56164575        989596394.12831342     
   5960105635.4441442        1788031690.6332433        1148528803.7596116     
   6090634222.6802645        1502628281.2417095        1226339429.8323433     
   6223898953.7459059        1226345351.2819088        1266737228.9707346     
   6359899828.6410656        959182900.75384057        1269722201.1747861     
   6498636847.3657455        701140929.65750504        1235294346.4444973     
   8004280171.0390892       -567629821.13926220       -180588479.78409505     
   7923150110.0687189       -199822239.26118946       -78390288.335471720     
   7800460991.5186586        29455150.684582233       -8970812.1522334963     
   7636212815.3889112        120202348.69805193        27669948.765621446     
   7430405581.6794643        72419354.779210091        31531994.418086149     
   7946703362.1318636       -154786926.83673763        281654981.01401705     
   7744761351.1381035        16593547.170688629        280523035.98958057     
   7519385063.5453348        109859765.84808826        264566869.56730258     
   7270574499.3535585        125011729.19546318        233786481.74718240     
   6998329658.5627756        62049437.212811470        188181872.52921852     
   7676570538.5505629        194289163.06356430        671716605.65148675     
   7405115131.4406796        184632095.37251902        588400101.96478736     
   7128350228.7124767        157276708.95373106        508213870.74779075     
   6846275830.3659487        112223003.80719662        431157912.00049758     
   6558891936.4010963        49470979.932920694        357232225.72290432     
   7193881700.2951918        479598448.56164575        989596394.12831342     
   6904211450.9764547        304293405.34431005        845240909.59015048     
   6627356487.0200815        171705980.00151324        721970191.38923216     
   6363316808.4260693        81836172.533250809        619784239.52556276     
   6112092415.1944160        34683982.939528465        538683053.99913847     
   6498636847.3657455        701140929.65750504        1235294346.4444973     
   6242050309.7454271        375577477.08606124        1051045458.8656678     
   6016403838.4681549        153147578.99143481        905835831.49162853     
   5821697433.5339289        33851235.373628616        799665464.32238102     
   5657931094.9427452        17688446.232637644        732534357.35792410     
   7430405581.6794643        72419354.779210091        31531994.418086149     
   7227643976.8047237       -18858534.141411781        14427459.200765742     
   7037161044.6840534       -69207513.881809711        1897764.5815398104     
   6858956785.3174534       -78627584.441968441       -6057089.4395879647     
   6693031198.7049217       -47118745.821894169       -9437102.8626190238     
   6998329658.5627756        62049437.212811470        188181872.52921852     
   6816026054.0397854        2425293.7773761749        179880595.59622371     
   6641567128.9730787       -31049918.137104034        175436690.91604736     
   6474952883.3626614       -38376198.530627489        174850158.48869270     
   6316183317.2085323       -19553547.403193235        178120998.31415313     
   6558891936.4010963        49470979.932920694        357232225.72290432     
   6394996422.6719246        20885609.115291119        352561214.89348370     
   6234511595.1012573        3669192.1593441963        351030107.97160709     
   6077437453.6890965       -2178270.9349184036        352638904.95728028     
   5923773998.4354401        3343219.8325018883        357387605.85049856     
   6112092415.1944160        34683982.939528465        538683053.99913847     
   5964555082.7011385        36522411.872328043        532469317.09254813     
   5815994443.0685825        34949817.007534742        528678015.74822694     
   5666410496.2967501        29966198.345154524        527309149.96618068     
   5515803242.3856373        21571555.885180950        528362719.74640751     
   5657931094.9427452        17688446.232637644        732534357.35792410     
   5524702034.1274328        49335702.048487663        719604902.19341826     
   5386015672.8750591        62791956.407472849        708380414.24590921     
   5241872011.1856289        58057209.309597731        698860893.51539636     
   5092271049.0591345        35131460.754852057        691046340.00188291     
   6693031198.7049217       -47118745.821894169       -9437102.8626190238     
   6519858742.3985014       -7046376.2178144455       -3227947.1288363477     
   6341487344.2559433        15696187.265782356        3925318.4728061683     
   6157917004.2772360        21108944.628898382        12022693.942300519     
   5969147722.4623833        9191895.8715279102        21064179.279645100     
   6316183317.2085323       -19553547.403193235        178120998.31415313     
   6141842736.1810684        1756628.6942040920        174799747.72403434     
   5964377583.0150928        12651564.329886198        173965566.75141531     
   5783787857.7106018        13131259.503870487        175618455.39629379     
   5600073560.2676077        3195714.2161476612        179758413.65866882     
   5923773998.4354401        3343219.8325018883        357387605.85049856     
   5752673749.1144829        7213739.3514616489        346956046.91704321     
   5580523297.3526535        7583584.0675132275        340554517.35073054     
   5407322643.1499434        4452753.9806263447        338183017.15156865     
   5233071786.5063591       -2178750.9091746807        339841546.31954741     
   5515803242.3856373        21571555.885180950        528362719.74640751     
   5352351781.1987534        9324955.7539837360        513240950.45019162     
   5189924487.2686291        492246.47865486145        503692170.27076578     
   5028521360.5952635       -4926571.9408168793        499716379.20813638     
   4868142401.1786537       -6931499.5044305325        501313577.26229870     
   5092271049.0591345        35131460.754852057        691046340.00188291     
   4940876832.4338827        8090277.9017665386        673654458.32348239     
   4792581152.7630234       -8622448.4366714954        663378525.51151741     
   4647384010.0465546       -15006718.260475159        660218541.56599247     
   4505285404.2844801       -11062531.569631577        664174506.48690522     
   5969147722.4623833        9191895.8715279102        21064179.279645100     
   5790684872.7779541       -3694924.4394152164        13100760.019449161     
   5614742920.1872311       -8178754.4380059242        10106558.240099769     
   5441321864.6902122       -4259594.1242477894        12081573.941599166     
   5270421706.2869005        8062556.5018682480        19025807.123952154     
   5600073560.2676077        3195714.2161476612        179758413.65866882     
   5435504647.8689508       -3363288.1917600632        174547579.90150449     
   5272499600.3779449       -4709407.5741720200        173594907.05954051     
   5111058417.7945814       -842643.93111109734        176900395.13278323     
   4951181100.1188555        8237002.7374191284        184464044.12122247     
   5233071786.5063591       -2178750.9091746807        339841546.31954741     
   5080365221.2059202       -3019412.4702935219        336266760.51502019     
   4928265488.6270638       -1837298.2928140163        336239079.06003779     
   4776772588.7697868        1367591.6232762337        339758501.95460987     
   4625886521.6340923        6595257.2779710293        346825029.19873375     
   4868142401.1786537       -6931499.5044305325        501313577.26229870     
   4725266592.7888594       -2663297.2750492096        498258301.85998785     
   4582040584.9345856        437573.40606713295        498039074.24158287     
   4438464377.6158352        2371112.5389196873        500655894.40708160     
   4294537970.8325968        3137320.1234953403        506108762.35648382     
   4505285404.2844801       -11062531.569631577        664174506.48690522     
   4370208762.6177673       -2294942.6060078144        660522203.93641365     
   4233824889.3005123        2115207.5224719048        658994892.60417306     
   4096133784.3327141        2167918.8158047199        659592572.49019372     
   3957135447.7143745       -2136808.7260017395        662315243.59447157     
   5270421706.2869005        8062556.5018682480        19025807.123952154     
   5070609531.6350231        12828089.566228390        16487796.838049036     
   4869012935.0407286        11645549.489203215        16712649.629364755     
   4665631916.5040293        4514936.2708263397        19700365.497885861     
   4460466476.0249128       -8563750.0889375210        25450944.443624526     
   4951181100.1188555        8237002.7374191284        184464044.12122247     
   4758500768.7223654        8194808.4656805992        178665430.28426790     
   4564730680.0067387        4520089.7968461514        176699462.18256447     
   4369870833.9720049       -2787153.2690308094        178566139.81612051     
   4173921230.6181407       -13726920.731989384        184265463.18492898     
   4625886521.6340923        6595257.2779710293        346825029.19873375     
   4443394555.3731022        2662292.2341444492        338576253.87121713     
   4260507496.4162769       -2587648.4624526501        335229906.93701088     
   4077225344.7636251       -9154564.8118009567        336785988.39610726     
   3893548100.4151478       -17038456.813923836        343244498.24850059     
   4294537970.8325968        3137320.1234953403        506108762.35648382     
   4125290891.5872335       -3769459.1283771992        496220267.59892488     
   3956343384.2693372       -9677665.2886946201        492303983.89271438     
   3787695448.8789015       -14587298.357484579        494359911.23784864     
   3619347085.4159284       -18498358.334717989        502388049.63433087     
   3957135447.7143745       -2136808.7260017395        662315243.59447157     
   3804189777.3647699       -11100445.621867180        651597471.46737337     
   3652238343.5659223       -16749960.681887627        647921693.04966807     
   3501281146.3178272       -19085353.906060696        651287908.34134769     
   3351318185.6204886       -18106625.294378519        661696117.34242344     
   4460466476.0249128       -8563750.0889375210        25450944.443624526     
   4300947466.0465393       -7838402.8194437027        15260100.713719262     
   4143285474.3703814       -922994.54256844521        12125798.488233235     
   3987480500.9964242        12182474.741645813        16048037.767158121     
   3833532545.9246855        31478005.033257484        27026818.550495841     
   4173921230.6181407       -13726920.731989384        184265463.18492898     
   4031597176.0840387       -8583254.4403293133        176999281.81244338     
   3890360089.2704010        183637.58622097969        174883835.65678483     
   3750209970.1772165        12573755.347617149        177919124.71796009     
   3611146818.8044949        28587098.843875885        186105148.99596310     
   3893548100.4151478       -17038456.813923836        343244498.24850059     
   3762973840.5036392       -9110019.7465810776        338004586.88805789     
   3632716497.7308407       -125192.21687626839        336009604.45685363     
   3502776072.0967526        9916025.7751848698        337259550.95489180     
   3373152563.6013637        21013634.229605436        341754426.38218093     
   3619347085.4159284       -18498358.334717989        502388049.63433087     
   3495077459.3053365       -9418698.7382090092        498276015.94055146     
   3370354699.7517061       -1849483.9518427849        495503104.88842672     
   3245178806.7550259        4209286.0243737698        494069316.47796142     
   3119549780.3153162        8757611.1904631853        493974650.70915198     
   3351318185.6204886       -18106625.294378519        661696117.34242344     
   3227908032.4891386       -9509291.4151952267        657813568.96994019     
   3103274695.3329959       -4989237.6186711788        653364336.95151722     
   2977418174.1520600       -4546463.9047814608        648348421.28716302     
   2850338468.9463186       -8180970.2735670805        642765821.97687745     
   3833532545.9246855        31478005.033257484        27026818.550495841     
   3630068787.8838639        31518053.931918621        27202013.723418657     
   3421846424.3965034        15696084.675448895        24391869.835307732     
   3208865455.4625983       -15987902.736169934        18596386.886163700     
   2991125881.0821600       -63533908.302897573        9815564.8759795222     
   3611146818.8044949        28587098.843875885        186105148.99596310     
   3403929688.9928589        22243615.777219057        178950878.71535042     
   3194365833.4181876        8077713.5004235506        173367861.20252842     
   2982455252.0804639       -13910607.986525774        169356096.45749775     
   2768197944.9797173       -43721348.683572292        166915584.48026416     
   3373152563.6013637        21013634.229605436        341754426.38218093     
   3175200895.8155785        12192269.336644292        330084550.27878040     
   2977314381.9502501        3588084.1785385609        324542518.77199298     
   2779493022.0053682       -4798921.2447367907        325128331.86183894     
   2581736815.9809442       -12968746.933172703        331841989.54830253     
   3119549780.3153162        8757611.1904631853        493974650.70915198     
   2943882408.3520184        1364014.6101816893        480603028.41370690     
   2770692069.9926758        2227196.7097355127        477915842.54371804     
   2599978765.2372913        11347157.489121437        485913093.09917390     
   2431742494.0858426        28723896.948355198        504594780.08008116     
   2850338468.9463186       -8180970.2735670805        642765821.97687745     
   2709974226.6021791       -10241148.402161002        630506313.12014258     
   2574498897.5454793        3995051.0940552950        633487832.51768243     
   2443912481.7762265        34527628.215105414        651710380.16949749     
   2318214979.2944298        81356582.960976124        685173956.07559431     
   5960105635.4441442        1788031690.6332433        1148528803.7596116     
   6090634222.6802645        1502628281.2417095        1226339429.8323433     
   6223898953.7459059        1226345351.2819088        1266737228.9707346     
   6359899828.6410656        959182900.75384057        1269722201.1747861     
   6498636847.3657455        701140929.65750504        1235294346.4444973     
   5436272924.5200729        1630881877.3560219        1031858367.5321025     
   5491493580.6549873        1372823876.9043541        1112184653.4234431     
   5548923204.2978764        1122129101.4792747        1165684109.4928412     
   5608561795.4487429        878797551.08078408        1192356735.7402976     
   5670409354.1075869        642829225.70888329        1192202532.1658113     
   4896263107.8308716        1468878932.3492615        934702292.46788859     
   4906421538.8999996        1247240052.6480856        1016929199.1360379     
   4918261761.1555605        1031207143.5683546        1082915273.0946434     
   4931783774.5975561        820780205.11006856        1132660514.3437037     
   4946987579.2259836        615959237.27322793        1166164922.8832195     
   4340076185.3765364        1302022855.6129611        857060578.56697023     
   4335418097.4153013        1125876808.4729040        940573066.97012830     
   4331914624.3189583        953579477.54914832        1018430719.7761396     
   4329565766.0875034        785130862.84169376        1090633536.9850042     
   4328371522.7209406        620530964.35054064        1157181518.5967214     
   3767712157.1570721        1130313647.1471217        798933225.82934737     
   3778483256.2008967        1008734144.3788102        883116256.92571342     
   3789881793.7880678        889246103.42165613        972230449.53733051     
   3801907769.9185867        771849524.27565908        1066275803.6641985     
   3814561184.5924530        656544406.94081986        1165252319.3063180     
   6498636847.3657455        701140929.65750504        1235294346.4444973     
   6242050309.7454271        375577477.08606124        1051045458.8656678     
   6016403838.4681549        153147578.99143481        905835831.49162853     
   5821697433.5339289        33851235.373628616        799665464.32238102     
   5657931094.9427452        17688446.232637644        732534357.35792410     
   5670409354.1075869        642829225.70888329        1192202532.1658113     
   5520833498.2765436        383400687.78283739        1071255047.0018048     
   5395400418.9767485        204448071.62761068        978322307.32197452     
   5294110116.2081995        105971377.24320602        913404313.12631893     
   5216962589.9708967        87970604.629620075        876501064.41483951     
   4946987579.2259836        615959237.27322793        1166164922.8832195     
   4872923791.6967449        413216029.94633842        1100588668.6869383     
   4816205490.8869534        268291111.68427038        1052002645.2542166     
   4776832676.7966080        181184482.48702455        1020406852.5850552     
   4754805349.4257097        151896142.35460067        1005801290.6794534     
   4328371522.7209406        620530964.35054064        1157181518.5967214     
   4298321190.0060329        465023503.57656574        1139046323.9210653     
   4278819054.1987700        344676699.16141367        1126876845.2883539     
   4269865115.2991548        259490551.10508561        1120673082.6985862     
   4271459373.3071895        209465059.40758109        1120435036.1517625     
   3814561184.5924530        656544406.94081986        1165252319.3063180     
   3797025693.2044020        538823108.67351699        1186628012.7041876     
   3783241108.9121971        433604834.05903971        1202944907.4243855     
   3773207431.7158399        340889583.09738648        1214203003.4669123     
   3766924661.6153321        260677355.78856134        1220402300.8317683     
   5657931094.9427452        17688446.232637644        732534357.35792410     
   5524702034.1274328        49335702.048487663        719604902.19341826     
   5386015672.8750591        62791956.407472849        708380414.24590921     
   5241872011.1856289        58057209.309597731        698860893.51539636     
   5092271049.0591345        35131460.754852057        691046340.00188291     
   5216962589.9708967        87970604.629620075        876501064.41483951     
   5080892292.8540182        85611868.700935364        852829807.31419826     
   4942647703.5677233        76005492.207520723        833115553.16717017     
   4802228822.1120090        59151475.149380445        817358301.97375691     
   4659635648.4868774        35049817.526510715        805558053.73396468     
   4754805349.4257097        151896142.35460067        1005801290.6794534     
   4622328203.8261805        117461731.02705121        975218407.95492208     
   4490959774.3248720        86723040.026913166        950844563.92062497     
   4360700060.9217873        59680069.354184628        932679758.57656360     
   4231549063.6169271        36332819.008863688        920723991.92273533     
   4271459373.3071895        209465059.40758109        1120435036.1517625     
   4149009767.0439148        144885289.02684236        1086770704.1155908     
   4030951885.1465054        94944599.865648270        1061567446.5062722     
   3917285727.6149631        59642991.924005270        1044825263.3238069     
   3808011294.4492798        38980465.201906443        1036544154.5681952     
   3766924661.6153321        260677355.78856134        1220402300.8317683     
   3660936982.5072274        167882542.70030451        1187486695.7962036     
   3562624036.0326281        100670171.72373569        1165284200.9241114     
   3471985822.1915321        59040242.858848810        1153794816.2154903     
   3389022340.9839439        42992756.105643392        1153018541.6703429     
   5092271049.0591345        35131460.754852057        691046340.00188291     
   4940876832.4338827        8090277.9017665386        673654458.32348239     
   4792581152.7630234       -8622448.4366714954        663378525.51151741     
   4647384010.0465546       -15006718.260475159        660218541.56599247     
   4505285404.2844801       -11062531.569631577        664174506.48690522     
   4659635648.4868774        35049817.526510715        805558053.73396468     
   4527339943.3140535        14205747.049971581        792413404.27001762     
   4397329528.0759087        979309.68900990486        785413865.73922300     
   4269604402.7724352       -4629494.5563709736        784559438.14158189     
   4144164567.4036317       -2620665.6861870289        789850121.47709465     
   4231549063.6169271        36332819.008863688        920723991.92273533     
   4115578047.2300119        20853714.108910561        910877786.48356915     
   4001079073.7580481        10281418.925467491        906205854.04426968     
   3888052143.2010388        4615933.4585363865        906708194.60484040     
   3776497255.5589819        3857257.7081141472        912384808.16528094     
   3808011294.4492798        38980465.201906443        1036544154.5681952     
   3705591144.1817451        28034179.078583717        1029047604.9641356     
   3603829789.8094430        19283879.272705317        1025754490.4266608     
   3502727231.3323731        12729565.784270048        1026664810.9557707     
   3402283468.7505369        8371238.6132769585        1031778566.5514649     
   3389022340.9839439        42992756.105643392        1153018541.6703429     
   3297379234.1692605        35747141.958990097        1146922859.7117183     
   3205581676.2300892        27986690.730712175        1144059774.8863914     
   3113629667.1664348        19711402.420820355        1144429287.1943672     
   3021523206.9782925        10921277.029301167        1148031396.6356437     
   4505285404.2844801       -11062531.569631577        664174506.48690522     
   4370208762.6177673       -2294942.6060078144        660522203.93641365     
   4233824889.3005123        2115207.5224719048        658994892.60417306     
   4096133784.3327141        2167918.8158047199        659592572.49019372     
   3957135447.7143745       -2136808.7260017395        662315243.59447157     
   4144164567.4036317       -2620665.6861870289        789850121.47709465     
   4014522160.2896490        668196.07155060768        783385407.38948512     
   3884269718.8966670        1923610.2326002121        780240204.17169249     
   3753407243.2246757        1145576.7969741821        780414511.82371783     
   3621934733.2736864       -1665904.2353291512        783908330.34556723     
   3776497255.5589819        3857257.7081141472        912384808.16528094     
   3655701996.2879109        2691266.2470128536        903921079.47401774     
   3534993900.1093740        1815818.4276940823        899971381.30413067     
   3414372967.0233736        1230914.2501609325        900535713.65562809     
   3293839197.0299096        936553.71441531181        905614076.52850676     
   3402283468.7505369        8371238.6132769585        1031778566.5514649     
   3293748270.6125507        3774267.9203877449        1022129220.1900079     
   3185997432.9386406        1791832.1077508926        1018188424.0014907     
   3079030955.7288065        2423931.1753700972        1019956177.9859223     
   2972848838.9830446        5670565.1232272387        1027432482.1432911     
   3021523206.9782925        10921277.029301167        1148031396.6356437     
   2928660983.2635717        3917201.0916863680        1138009829.5374560     
   2837280317.3844666        1851651.2727869749        1134891332.2637753     
   2747381209.3409743        4724627.5725950003        1138675904.8145969     
   2658963659.1330957        12536129.991124153        1149363547.1899266     
   3957135447.7143745       -2136808.7260017395        662315243.59447157     
   3804189777.3647699       -11100445.621867180        651597471.46737337     
   3652238343.5659223       -16749960.681887627        647921693.04966807     
   3501281146.3178272       -19085353.906060696        651287908.34134769     
   3351318185.6204886       -18106625.294378519        661696117.34242344     
   3621934733.2736864       -1665904.2353291512        783908330.34556723     
   3487083256.8651409       -5680022.0737986565        775886736.66520202     
   3352717234.3824811       -8075960.1593139172        773599563.29378855     
   3218836665.8257055       -8853718.4918854237        777046810.23132360     
   3085441551.1948171       -8013297.0715080500        786228477.47780848     
   3293839197.0299096        936553.71441531181        905614076.52850676     
   3173345990.5611525        751177.73296189308        899695081.56587148     
   3052829455.3934131        488039.42156147957        898202933.51173413     
   2932289591.5266886        147138.78021156788        901137632.36610103     
   2811726398.9609785       -271524.19108450413        908499178.12897217     
   2972848838.9830446        5670565.1232272387        1027432482.1432911     
   2862977978.4528122        8193153.7984172106        1023022506.1693635     
   2752575006.5987244        8942038.0607507229        1021731803.7034945     
   2641639923.4207850        7917217.9102499485        1023560374.7456838     
   2530172728.9189897        5118693.3468924761        1028508219.2959301     
   2658963659.1330957        12536129.991124153        1149363547.1899266     
   2555979220.5401168        16645906.122568846        1145869010.4756901     
   2451953887.9984112        17286035.758259535        1144186173.8690710     
   2346887661.5079861        14456518.898217082        1144315037.3700621     
   2240780541.0688348        8157355.5424194336        1146255600.9786744     
   3351318185.6204886       -18106625.294378519        661696117.34242344     
   3227908032.4891386       -9509291.4151952267        657813568.96994019     
   3103274695.3329959       -4989237.6186711788        653364336.95151722     
   2977418174.1520600       -4546463.9047814608        648348421.28716302     
   2850338468.9463186       -8180970.2735670805        642765821.97687745     
   3085441551.1948171       -8013297.0715080500        786228477.47780848     
   2962274079.5296583       -3934467.8882375956        779852559.79644930     
   2838733317.5912657       -1099939.6157572269        775272735.66484451     
   2714819265.3796287        490287.74590742588        772489005.08299410     
   2590531922.8947506        836214.19678139687        771501368.05089629     
   2811726398.9609785       -271524.19108450413        908499178.12897217     
   2695552400.7496905        1314037.8925887346        900621433.84889650     
   2579855006.0167141        4488278.2373100519        896902560.31425488     
   2464634214.7620564        9251196.8430771828        897342557.52504957     
   2349890026.9857054        15602793.709888577        901941425.48128080     
   2530172728.9189897        5118693.3468924761        1028508219.2959301     
   2427742996.1492314        6236225.9272583723        1020120191.1272781     
   2326639760.6093411        11775415.940527439        1018253810.8997467     
   2226863022.2993193        21736263.386684418        1022909078.6133324     
   2128412781.2191641        36118768.265732765        1034085994.2680439     
   2240780541.0688348        8157355.5424194336        1146255600.9786744     
   2158845865.7282801        10832096.215787172        1138348831.6315916     
   2079087581.3691478        20761473.493904829        1139326487.4213173     
   2001505687.9914377        37945487.376756430        1149188568.3478451     
   1926100185.5951529        62384137.864359140        1167935074.4111772     
   2850338468.9463186       -8180970.2735670805        642765821.97687745     
   2709974226.6021791       -10241148.402161002        630506313.12014258     
   2574498897.5454793        3995051.0940552950        633487832.51768243     
   2443912481.7762265        34527628.215105414        651710380.16949749     
   2318214979.2944298        81356582.960976124        685173956.07559431     
   2590531922.8947506        836214.19678139687        771501368.05089629     
   2484692726.9094205        9368740.3365436792        766854766.00939238     
   2380975495.3109770        24974481.099267840        771080393.46614695     
   2279380228.0994143        47653436.484928131        784178250.42117321     
   2179906925.2747464        77405606.493564367        806148336.87445533     
   2349890026.9857054        15602793.709888577        901941425.48128080     
   2260379309.4848557        29269053.755711675        901679623.20436084     
   2170223607.4703350        40785365.422625899        903921251.66968727     
   2079422920.9421411        50151728.710627556        908666310.87726128     
   1987977249.9002686        57368143.619707465        915914800.82709157     
   2128412781.2191641        36118768.265732765        1034085994.2680439     
   2037033974.3284867        49459791.855349064        1034980884.7050506     
   1942243234.0235612        51427704.064150453        1032010407.1282876     
   1844040560.3044012        42022504.892179489        1025174561.5377570     
   1742425953.1710138        21244194.339421034        1014473347.9334667     
   1926100185.5951529        62384137.864359140        1167935074.4111772     
   1814656721.4402940        69940954.635412931        1166758550.5114563     
   1697034374.9706454        56901497.023836911        1155347859.8419485     
   1573233146.1861968        23265765.029593170        1133703002.4026661     
   1443253035.0869546       -30966241.347306848        1101823978.1935971     
   3767712157.1570721        1130313647.1471217        798933225.82934737     
   3778483256.2008967        1008734144.3788102        883116256.92571342     
   3789881793.7880678        889246103.42165613        972230449.53733051     
   3801907769.9185867        771849524.27565908        1066275803.6641985     
   3814561184.5924530        656544406.94081986        1165252319.3063180     
   3206491687.5889854        961947506.27669561        755195852.28571379     
   3234504575.8243027        868252446.75015891        851525984.62030673     
   3262235905.0426269        773618857.16697776        949752998.68500304     
   3289685675.2439570        678046737.52715194        1049876894.4798021     
   3316853886.4282951        581536087.83068228        1151897672.0047057     
   2683735441.0887866        805120632.32663596        720724075.96676362     
   2720320747.7008886        736709204.79746139        828140812.38585281     
   2755715497.7356582        664329255.34384108        934420150.74989772     
   2789919691.1930928        587980783.96577430        1039562091.0588979     
   2822933328.0731936        507663790.66326112        1143566633.3128531     
   2199443417.6564775        659833025.29694319        695517896.87249672     
   2235931771.8306570        614104418.52071881        812960740.22235155     
   2270320571.8671627        561377297.95224643        926231905.73201430     
   2302609817.7659926        501651663.59152567        1035331393.4014845     
   2332799509.5271492        434927515.43855745        1140259203.2307625     
   1753615617.2920566        526084685.18761700        679577315.00291324     
   1781337648.2136052        500438087.91992998        805985768.12980330     
   1806051127.4371386        464762984.99219352        925188263.63135290     
   1827756054.9626570        419059376.40440667        1037184801.5075629     
   1846452430.7901607        363327262.15657061        1141975381.7584321     
   3814561184.5924530        656544406.94081986        1165252319.3063180     
   3797025693.2044020        538823108.67351699        1186628012.7041876     
   3783241108.9121971        433604834.05903971        1202944907.4243855     
   3773207431.7158399        340889583.09738648        1214203003.4669123     
   3766924661.6153321        260677355.78856134        1220402300.8317683     
   3316853886.4282951        581536087.83068228        1151897672.0047057     
   3291770720.4133573        474497615.65094995        1179854051.9215584     
   3270363129.2460852        379711059.63010836        1204598059.3982697     
   3252631112.9264812        297176419.76815414        1226129694.4348373     
   3238574671.4545431        226893696.06508827        1244448957.0312629     
   2822933328.0731936        507663790.66326112        1143566633.3128531     
   2795577990.9671640        412890795.63183892        1178015812.1258130     
   2771822896.4606218        330118609.26537085        1211099044.7361588     
   2751668044.5535641        259347231.56385267        1242816331.1438892     
   2735113435.2459922        200576662.52728760        1273167671.3490067     
   2332799509.5271492        434927515.43855745        1140259203.2307625     
   2308447504.8658247        354002648.61618465        1181113293.3169498     
   2287620410.5558052        284827482.96482694        1222447863.4380531     
   2270318226.5970907        227402018.48448491        1264262913.5940697     
   2256540952.9896803        181726255.17515779        1306558443.7850008     
   1846452430.7901607        363327262.15657061        1141975381.7584321     
   1830379262.1093378        297833174.60398489        1189146495.4949710     
   1817755671.5316374        243837680.72847831        1238644515.5039525     
   1808581659.0570607        201340780.53004986        1290469441.7853763     
   1802857224.6856091        170342474.00870156        1344621274.3392439     
   3766924661.6153321        260677355.78856134        1220402300.8317683     
   3660936982.5072274        167882542.70030451        1187486695.7962036     
   3562624036.0326281        100670171.72373569        1165284200.9241114     
   3471985822.1915321        59040242.858848810        1153794816.2154903     
   3389022340.9839439        42992756.105643392        1153018541.6703429     
   3238574671.4545431        226893696.06508827        1244448957.0312629     
   3162568037.2399359        152688257.46735883        1226889753.7089720     
   3092553307.0313768        98455832.223127604        1217389926.7973146     
   3028530480.8288693        64196420.332395315        1215949476.2962949     
   2970499558.6324115        49910021.795162559        1222568402.2059088     
   2735113435.2459922        200576662.52728760        1273167671.3490067     
   2681505749.4882064        142685969.48907948        1269001569.6746223     
   2632207139.1090159        99158861.046185255        1270241110.6580386     
   2587217604.1084194        69995337.198605537        1276886294.2992542     
   2546537144.4864173        55195397.946341276        1288937120.5982687     
   2256540952.9896803        181726255.17515779        1306558443.7850008     
   2217750119.2520442        137875678.76547194        1313822143.6931608     
   2181585532.2655439        102779258.19291103        1323837752.5062838     
   2148047192.0301847        76436993.457481980        1336605270.2243693     
   2117135098.5459638        58848884.559182167        1352124696.8474195     
   1802857224.6856091        170342474.00870156        1344621274.3392439     
   1771301146.5314448        138257385.29653156        1361351475.7645824     
   1740688486.5009623        109317023.66330218        1378179852.3420475     
   1711019244.5941634        83521389.109020352        1395106404.0716400     
   1682293420.8110497        60870481.633685112        1412131130.9533594     
   3389022340.9839439        42992756.105643392        1153018541.6703429     
   3297379234.1692605        35747141.958990097        1146922859.7117183     
   3205581676.2300892        27986690.730712175        1144059774.8863914     
   3113629667.1664348        19711402.420820355        1144429287.1943672     
   3021523206.9782925        10921277.029301167        1148031396.6356437     
   2970499558.6324115        49910021.795162559        1222568402.2059088     
   2886581598.2615781        37506148.736371756        1215028286.2552552     
   2803033472.5203595        26335057.776286125        1211388360.9539888     
   2719855181.4087539        16396748.914914608        1211648626.3021057     
   2637046724.9267626        7691222.1522520781        1215809082.2996092     
   2546537144.4864173        55195397.946341276        1288937120.5982687     
   2472251740.6053958        38205488.989201784        1280564237.3687007     
   2398860457.1080871        24195981.311098933        1276759138.3046060     
   2326363293.9944901        13166874.912037253        1277521823.4059834     
   2254760251.2646031        5118169.7920117378        1282852292.6728311     
   2117135098.5459638        58848884.559182167        1352124696.8474195     
   2054389661.2007122        37845162.717482090        1343530713.0520546     
   1993062629.9932687        21569461.335144520        1340172106.9382470     
   1933154004.9236391        10021780.412182808        1342048878.5059969     
   1874663785.9918175        3202119.9485846758        1349161027.7553055     
   1682293420.8110497        60870481.633685112        1412131130.9533594     
   1632995360.0475259        36425169.921210408        1403927713.3053129     
   1585639991.1759088        18455497.848431528        1401627266.8549101     
   1540227314.1962030        6961465.4153527617        1405229791.6021488     
   1496757329.1084056        1943072.6219698787        1414735287.5470300     
   3021523206.9782925        10921277.029301167        1148031396.6356437     
   2928660983.2635717        3917201.0916863680        1138009829.5374560     
   2837280317.3844666        1851651.2727869749        1134891332.2637753     
   2747381209.3409743        4724627.5725950003        1138675904.8145969     
   2658963659.1330957        12536129.991124153        1149363547.1899266     
   2637046724.9267626        7691222.1522520781        1215809082.2996092     
   2561276745.8808308        2897098.6500430107        1207310653.1197019     
   2486323653.1039495        825929.37800228596        1204547045.6061838     
   2412187446.5961204        1477714.3361310959        1207518259.7590592     
   2338868126.3573399        4852453.5244252682        1216224295.5783274     
   2254760251.2646031        5118169.7920117378        1282852292.6728311     
   2192744665.0071383        1532643.1611121893        1275101551.2502093     
   2130881293.4521594       -1545501.1281607151        1271917383.3358648     
   2069170136.5996690       -4116263.0758100748        1273299788.9297998     
   2007611194.4496634       -6179642.6818418503        1279248768.0320148     
   1874663785.9918175        3202119.9485846758        1349161027.7553055     
   1823064740.6424918       -176165.37510704994        1341382523.9289787     
   1770953238.4290948       -5262640.2457046509        1337002345.4528186     
   1718329279.3516157       -12057304.663241148        1336020492.3268228     
   1665192863.4100637       -20560158.627686501        1338436964.5509951     
   1496757329.1084056        1943072.6219698787        1414735287.5470300     
   1452236972.7868984       -2229326.9586030245        1406153571.1560116     
   1406539488.0347528       -10325487.974637508        1399801931.9570434     
   1359664874.8519685       -22345410.426134348        1395680369.9501271     
   1311613133.2385387       -38289094.313112080        1393788885.1352639     
   2658963659.1330957        12536129.991124153        1149363547.1899266     
   2555979220.5401168        16645906.122568846        1145869010.4756901     
   2451953887.9984112        17286035.758259535        1144186173.8690710     
   2346887661.5079861        14456518.898217082        1144315037.3700621     
   2240780541.0688348        8157355.5424194336        1146255600.9786744     
   2338868126.3573399        4852453.5244252682        1216224295.5783274     
   2240287445.9585843        1411910.4105125666        1208786317.6692715     
   2141393039.1231606       -3074387.4922955036        1204666527.3201602     
   2042184905.8510699       -8606440.1839885712        1203864924.5309994     
   1942663046.1423087       -15184247.664591312        1206381509.3017828     
   2007611194.4496634       -6179642.6818418503        1279248768.0320148     
   1917738522.1089342       -15879230.081974387        1268715711.0255382     
   1828279290.8435915       -24200680.564149141        1263007329.0313404     
   1739233500.6536372       -31143994.128362656        1262123622.0494213     
   1650601151.5390716       -36709170.774615407        1266064590.0797784     
   1665192863.4100637       -20560158.627686501        1338436964.5509951     
   1588332448.9911637       -35227515.354896247        1325657190.5444963     
   1512612643.1597104       -46092843.457291543        1319208579.0026071     
   1438033445.9156961       -53156142.934882641        1319091129.9253268     
   1364594857.2591290       -56417413.787656009        1325304843.3126583     
   1311613133.2385387       -38289094.313112080        1393788885.1352639     
   1252069226.6052735       -56632945.408260942        1379610756.2261441     
   1194393096.0715094       -68750876.171739817        1373270277.2339623     
   1138584741.6372435       -74642886.603556871        1374767448.1587236     
   1084644163.3024805       -74308976.703698575        1384102269.0004256     
   2240780541.0688348        8157355.5424194336        1146255600.9786744     
   2158845865.7282801        10832096.215787172        1138348831.6315916     
   2079087581.3691478        20761473.493904829        1139326487.4213173     
   2001505687.9914377        37945487.376756430        1149188568.3478451     
   1926100185.5951529        62384137.864359140        1167935074.4111772     
   1942663046.1423087       -15184247.664591312        1206381509.3017828     
   1881738231.0997117       -9161648.1808747053        1201249572.7400575     
   1821800522.8659585        151307.33231794834        1202622059.2375739     
   1762849921.4410436        12754618.874970794        1210498968.7943280     
   1704886426.8249717        28648286.447105467        1224880301.4103198     
   1650601151.5390716       -36709170.774615407        1266064590.0797784     
   1603886190.8585293       -29378714.261328936        1262319988.1020670     
   1556969052.8142495       -22722182.293834448        1262699807.1060278     
   1509849737.4062285       -16739574.872144341        1267204047.0916586     
   1462528244.6344690       -11430891.996249437        1275832708.0589612     
   1364594857.2591290       -56417413.787656009        1325304843.3126583     
   1325289745.0047374       -49819102.025563657        1321560077.7176132     
   1284593171.2140265       -47858995.384539604        1319559731.0266783     
   1242505135.8869917       -50537093.864587605        1319303803.2398429     
   1199025639.0236411       -57853397.465692759        1320792294.3571186     
   1084644163.3024805       -74308976.703698575        1384102269.0004256     
   1045948893.5383339       -70482811.473581851        1378969841.5867066     
   1004672878.0652882       -75259131.939795136        1373201830.9995244     
   960816116.88334155       -88637938.102347255        1366798237.2388852     
   914378609.99248970       -110619229.96124321        1359759060.3047817     
   1926100185.5951529        62384137.864359140        1167935074.4111772     
   1814656721.4402940        69940954.635412931        1166758550.5114563     
   1697034374.9706454        56901497.023836911        1155347859.8419485     
   1573233146.1861968        23265765.029593170        1133703002.4026661     
   1443253035.0869546       -30966241.347306848        1101823978.1935971     
   1704886426.8249717        28648286.447105467        1224880301.4103198     
   1578179660.2549579        25357179.518157780        1218291574.9072709     
   1451434055.2838678        21936611.252298474        1212699380.3238845     
   1324649611.9116981        18386581.649512947        1208103717.6601567     
   1197826330.1384611        14707090.709825099        1204504586.9160852     
   1462528244.6344690       -11430891.996249437        1275832708.0589612     
   1352645886.1905427       -15943609.462827682        1270995163.5186038     
   1248864733.2592647       -118975.22058147192        1278384849.5873439     
   1151184785.8406277        36043010.730469406        1298001766.2651703     
   1059606043.9346403        92542348.390352368        1329845913.5521035     
   1199025639.0236411       -57853397.465692759        1320792294.3571186     
   1138055399.2470593       -53961412.307533562        1324869316.3454592     
   1089326408.8968375       -9265262.3948250413        1352404267.6323278     
   1052838667.9729885        76235052.272461176        1403397148.2177341     
   1028592176.4755046        202539531.69428506        1477847958.1016731     
   914378609.99248970       -110619229.96124321        1359759060.3047817     
   934408199.42449629       -88696229.015969992        1379914033.3878267     
   972819082.19659686       -5502250.2703852057        1434757634.4588418     
   1029611258.3087770        138962706.27546471        1524289863.5178320     
   1104784727.7610490        344698640.62162846        1648510720.5647879     
   1753615617.2920566        526084685.18761700        679577315.00291324     
   1781337648.2136052        500438087.91992998        805985768.12980330     
   1806051127.4371386        464762984.99219352        925188263.63135290     
   1827756054.9626570        419059376.40440667        1037184801.5075629     
   1846452430.7901607        363327262.15657061        1141975381.7584321     
   1323928568.1373174        397178570.44119519        669711662.32747579     
   1336589026.6890519        375676184.88431656        791828593.29990184     
   1347008145.2326853        346702665.96710157        908609300.44916332     
   1355185923.7682183        310258013.68955004        1020053783.7752597     
   1361122362.2956502        266342228.05166295        1126162043.2781918     
   888058798.33405221        266417639.50021565        662730270.81564724     
   890999781.09361684        250662094.62743855        781450759.93850911     
   892466635.53499472        229992788.69403854        896704759.04038155     
   892459361.65818560        204409721.70001531        1008492268.1212647     
   890977959.46318960        173912893.64536917        1116813287.1811585     
   446006307.88226122        133801892.36467837        658633140.46742737     
   444569911.42730016        125395817.14929599        774852268.04562473     
   442426598.34406626        114633353.17300412        889474639.40500796     
   439576368.63255930        101514500.43580252        1002500254.5455775     
   436019222.29277962        86039258.937691361        1113929113.4673328     
  -2228903.2180555696       -668670.96541667089        657420271.28281629     
  -2700582.3098984184       -122647.55011106748        772033117.62124872     
  -3111966.3401001086        624359.40399835329        886918941.54304278     
  -3463055.3086607479        1572349.8969112996        1002077743.0481981     
  -3753849.2155802269        2721323.9286281159        1117509522.1367152     
   1846452430.7901607        363327262.15657061        1141975381.7584321     
   1830379262.1093378        297833174.60398489        1189146495.4949710     
   1817755671.5316374        243837680.72847831        1238644515.5039525     
   1808581659.0570607        201340780.53004986        1290469441.7853763     
   1802857224.6856091        170342474.00870156        1344621274.3392439     
   1361122362.2956502        266342228.05166295        1126162043.2781918     
   1354815339.9495075        219238255.53246680        1181461691.0345635     
   1351069339.8405418        180671023.80385971        1237702980.0759270     
   1349884361.9687519        150640532.86583930        1294885910.4022813     
   1351260406.3341389        129146782.71840829        1353010482.0136275     
   890977959.46318960        173912893.64536917        1116813287.1811585     
   890479183.48758078        144011666.17032009        1179204820.4470921     
   891652873.88320053        119685326.59936696        1241152730.0105655     
   894499030.65004945        100933874.93251079        1302657015.8715777     
   899017653.78812742        87757311.169750690        1363717678.0301292     
   436019222.29277962        86039258.937691361        1113929113.4673328     
   437370792.72355640        72153406.517544329        1182375883.7325566     
   439506273.65961432        60880589.115001380        1248993765.3078671     
   442425665.10095394        52220806.730063468        1313782758.1932657     
   446128967.04757547        46174059.362732366        1376742862.3887517     
  -3753849.2155802269        2721323.9286281159        1117509522.1367152     
  -4509832.3425657246        3663476.5741382521        1190974880.8909559     
  -5370460.8302172935        4256811.3507616166        1261226085.9678328     
  -6335734.6785345394        4501328.2584995851        1328263137.3673456     
  -7405653.8875176404        4397027.2973508546        1392086035.0894940     
   1802857224.6856091        170342474.00870156        1344621274.3392439     
   1771301146.5314448        138257385.29653156        1361351475.7645824     
   1740688486.5009623        109317023.66330218        1378179852.3420475     
   1711019244.5941634        83521389.109020352        1395106404.0716400     
   1682293420.8110497        60870481.633685112        1412131130.9533594     
   1351260406.3341389        129146782.71840829        1353010482.0136275     
   1323153931.5294902        104041823.07968348        1371007102.3373654     
   1295937124.3292372        81902422.122279525        1389948289.5301161     
   1269609984.7333825        62728579.846199512        1409834043.5918806     
   1244172512.7419229        46520296.251440227        1430664364.5226586     
   899017653.78812742        87757311.169750690        1363717678.0301292     
   876779044.38124073        70357959.218948394        1382918008.3130991     
   855376352.05946338        55744997.551843792        1403909297.1819694     
   834809576.82279503        43918426.168435037        1426691544.6367371     
   815078718.67123616        34878245.068724930        1451264750.6774042     
   446128967.04757547        46174059.362732366        1376742862.3887517     
   432176485.08669573        37205793.714323446        1397084193.6917853     
   419006169.69163847        30844749.951989427        1420062875.2976043     
   406618020.86240309        27090928.075728402        1445678907.2062078     
   395012038.59899038        25944328.085543156        1473932289.4175966     
  -7405653.8875176404        4397027.2973508546        1392086035.0894940     
  -10653746.354144353        4585326.5658116676        1413505658.4734230     
  -13173422.774235671        7201679.3227236345        1438409023.8770232     
  -14964683.147792801        12246085.568083063        1466796131.3002939     
  -16027527.474814534        19718545.301893644        1498666980.7432356     
   1682293420.8110497        60870481.633685112        1412131130.9533594     
   1632995360.0475259        36425169.921210408        1403927713.3053129     
   1585639991.1759088        18455497.848431528        1401627266.8549101     
   1540227314.1962030        6961465.4153527617        1405229791.6021488     
   1496757329.1084056        1943072.6219698787        1414735287.5470300     
   1244172512.7419229        46520296.251440227        1430664364.5226586     
   1210919991.8990502        30601117.200832188        1426532237.1755517     
   1178514255.6712832        17504553.533911109        1426872292.5708737     
   1146955304.0586205        7230605.2506706715        1431684530.7086220     
   1116243137.0610631       -220727.64888679981        1440968951.5888023     
   815078718.67123616        34878245.068724930        1451264750.6774042     
   793783770.73411894        26258808.575518817        1449925355.1416314     
   772239700.13530242        16808963.209982216        1451627353.8930726     
   750446506.87478662        6528708.9721131921        1456370746.9317288     
   728404190.95257139       -4581954.1380864978        1464155534.2575977     
   395012038.59899038        25944328.085543156        1473932289.4175966     
   381586696.55273169        23398244.045270398        1474107067.2035515     
   366816324.56796783        16368726.876647264        1475892450.8215082     
   350700922.64470088        4855776.5796809942        1479288440.2714646     
   333240490.78293002       -11140606.845632777        1484295035.5534210     
  -16027527.474814534        19718545.301893644        1498666980.7432356     
  -25671230.645112701        22019423.610082719        1499077373.3613141     
  -37755871.030720741        16183844.533906564        1499667583.3561802     
  -52281448.631635509        2211808.0733741373        1500437610.7278304     
  -69247963.447858796       -19896685.771519989        1501387455.4762697     
   1496757329.1084056        1943072.6219698787        1414735287.5470300     
   1452236972.7868984       -2229326.9586030245        1406153571.1560116     
   1406539488.0347528       -10325487.974637508        1399801931.9570434     
   1359664874.8519685       -22345410.426134348        1395680369.9501271     
   1311613133.2385387       -38289094.313112080        1393788885.1352639     
   1116243137.0610631       -220727.64888679981        1440968951.5888023     
   1077673404.0935590       -9121105.2605474591        1429596432.6956730     
   1038855716.2332873       -18847999.181431592        1421662311.0438204     
   999790073.48025048       -29401409.411532998        1417166586.6332490     
   960476475.83444405       -40781335.950869322        1416109259.4639499     
   728404190.95257139       -4581954.1380864978        1464155534.2575977     
   699237424.33685803       -17174606.881504178        1451076248.6565449     
   670751876.36625171       -27496530.807898790        1442643680.3459933     
   642947547.04075229       -35547725.917270839        1438857829.3259516     
   615824436.36035776       -41328192.209625691        1439718695.5964108     
   333240490.78293002       -11140606.845632777        1484295035.5534210     
   316929033.51679760       -26389831.821468472        1470593019.0386283     
   302227968.43364745       -36271082.854030579        1462746039.8635662     
   289137295.53347254       -40784359.943340555        1460754098.0282331     
   277657014.81628031       -39929663.089376956        1464617193.5326331     
  -69247963.447858796       -19896685.771519989        1501387455.4762697     
  -69251768.366620868       -36766780.080436043        1488146743.8419209     
  -66716007.564530335       -45171655.319844835        1481969389.5965326     
  -61640681.041586414       -45111311.489742480        1482855392.7401016     
  -54025788.797790855       -36585748.590132952        1490804753.2726245     
   1311613133.2385387       -38289094.313112080        1393788885.1352639     
   1252069226.6052735       -56632945.408260942        1379610756.2261441     
   1194393096.0715094       -68750876.171739817        1373270277.2339623     
   1138584741.6372435       -74642886.603556871        1374767448.1587236     
   1084644163.3024805       -74308976.703698575        1384102269.0004256     
   960476475.83444405       -40781335.950869322        1416109259.4639499     
   921558352.53068507       -50947702.318705499        1405007833.2410078     
   883610107.98928022       -57881139.478692353        1400047632.4175148     
   846631742.21023583       -61581647.430811703        1401228656.9934790     
   810623255.19354689       -62049226.175078273        1408550906.9688892     
   615824436.36035776       -41328192.209625691        1439718695.5964108     
   592685169.19328177       -44771152.007996291        1430646425.1663065     
   569617883.45142066       -47974173.722317368        1426018955.6181700     
   546622579.13477004       -50937257.352603883        1425836286.9519980     
   523699256.24333733       -53660402.898830771        1430098419.1677916     
   277657014.81628031       -39929663.089376956        1464617193.5326331     
   265449676.59306642       -38103294.476126522        1456526532.0020413     
   252416422.45792252       -39029978.902643964        1451184246.8359227     
   238557252.41084602       -42709716.368935227        1448590338.0342841     
   223872166.45184731       -49142506.874969125        1448744805.5971241     
  -54025788.797790855       -36585748.590132952        1490804753.2726245     
  -60148125.269964397       -30944129.723108046        1482648153.7482061     
  -67994274.991210252       -31048555.019656803        1475543506.0707757     
  -77564237.961533010       -36899024.479794547        1469490810.2403369     
  -88858014.180923998       -48495538.103495158        1464490066.2568879     
   1084644163.3024805       -74308976.703698575        1384102269.0004256     
   1045948893.5383339       -70482811.473581851        1378969841.5867066     
   1004672878.0652882       -75259131.939795136        1373201830.9995244     
   960816116.88334155       -88637938.102347255        1366798237.2388852     
   914378609.99248970       -110619229.96124321        1359759060.3047817     
   810623255.19354689       -62049226.175078273        1408550906.9688892     
   768515290.00499630       -66327020.344626099        1396327598.8727863     
   724131706.29118371       -78190209.598377585        1383984868.1005201     
   677472504.05211437       -97638793.936316788        1371522714.6520991     
   628537683.28779316       -124672773.35843164        1358941138.5275140     
   523699256.24333733       -53660402.898830771        1430098419.1677916     
   479653339.90838444       -65599733.184657693        1411140212.1035492     
   433636932.23181891       -84107367.942525059        1392578742.8604488     
   385650033.21364009       -109183307.17243728        1374414011.4384952     
   335692642.85384810       -140827550.87439620        1356646017.8376839     
   223872166.45184731       -49142506.874969125        1448744805.5971241     
   179363043.24850154       -68300949.993669719        1423407681.2789938     
   133188555.88718762       -93010606.972262383        1398983455.2793112     
   85348704.367907837       -123271477.81074342        1375472127.5980766     
   35843488.690656528       -159083562.50912723        1352873698.2352884     
  -88858014.180923998       -48495538.103495158        1464490066.2568879     
  -132355599.97465169       -74430670.771657869        1433130006.3991210     
  -177213422.74270427       -104899926.68756953        1403199005.3571067     
  -223431482.48508027       -139903305.85122758        1374697063.1308432     
  -271009779.20178652       -179440808.26265037        1347624179.7203300     
   914378609.99248970       -110619229.96124321        1359759060.3047817     
   934408199.42449629       -88696229.015969992        1379914033.3878267     
   972819082.19659686       -5502250.2703852057        1434757634.4588418     
   1029611258.3087770        138962706.27546471        1524289863.5178320     
   1104784727.7610490        344698640.62162846        1648510720.5647879     
   628537683.28779316       -124672773.35843164        1358941138.5275140     
   715071257.58734751       -104914195.18828893        1382200274.7541320     
   807936739.91090512       -64049256.938138068        1422427176.6082263     
   907134130.25846398       -2077958.6079826951        1479621844.0898075     
   1012663428.6300251        80999699.802185148        1553784277.1988664     
   335692642.85384810       -140827550.87439620        1356646017.8376839     
   438099166.70526189       -138422706.07409883        1368951701.0057707     
   534788213.26459473       -155076118.91407022        1380504287.4408438     
   625759782.53184414       -190787789.39432558        1391303777.1429136     
   711013874.50700879       -245557717.51485595        1401350170.1119654     
   35843488.690656528       -159083562.50912723        1352873698.2352884     
   103491926.77824375       -189221761.67337692        1340168312.1427433     
   153373502.25766319       -278582836.19818527        1308988966.9567032     
   185488215.12891364       -427166786.08355999        1259335662.6771550     
   199836065.39199340       -634973611.32949674        1191208399.3041184     
  -271009779.20178652       -179440808.26265037        1347624179.7203300     
  -288750462.19371337       -257311361.98615330        1295850108.1650555     
  -336307393.10989338       -434569408.79049861        1207881215.1557934     
  -413680571.95032883       -711214948.67569733        1083717500.6925337     
  -520869998.71501702       -1087247981.6417360        923358964.77529442     
  -2228903.2180555696       -668670.96541667089        657420271.28281629     
  -2700582.3098984184       -122647.55011106748        772033117.62124872     
  -3111966.3401001086        624359.40399835329        886918941.54304278     
  -3463055.3086607479        1572349.8969112996        1002077743.0481981     
  -3753849.2155802269        2721323.9286281159        1117509522.1367152     
  -450375199.32978678       -135112559.79893604        659106981.76645815     
  -449829552.55265760       -125625610.24802712        775509557.15359294     
  -448526692.16968125       -113614615.34429352        890358422.67143631     
  -446466618.18085742       -99079575.087735593        1003653578.3199881     
  -443649330.58618599       -82020489.478352278        1115395024.0992484     
  -892160944.81582105       -267648283.44474632        663708590.42299700     
  -895817079.17730010       -250786139.86050811        782713966.49374151     
  -898019081.38872552       -229076889.10942435        898338945.24254167     
  -898766951.45009732       -202520531.19149506        1010583526.6693966     
  -898060689.36141539       -171117066.10671997        1119447710.7743080     
  -1327586139.6761587       -398275841.90284759        671225097.25243282     
  -1340663162.1838257       -375604236.38755411        793646345.64169455     
  -1351589133.9972329       -345762461.89139402        910860509.25635827     
  -1360364055.1163802       -308750518.41436762        1022867588.0964249     
  -1366987925.5412674       -264568405.95647448        1129667582.1618934     
  -1756650783.9107990       -526995235.17323977        681656502.25476575     
  -1784367801.5722346       -500079899.82916498        808306694.59745169     
  -1809236849.9952037       -463671333.69020277        927923114.71288693     
  -1831257929.1797071       -417769536.75635338        1040505762.6010717     
  -1850431039.1257439       -362374509.02761602        1146054638.2620058     
  -3753849.2155802269        2721323.9286281159        1117509522.1367152     
  -4509832.3425657246        3663476.5741382521        1190974880.8909559     
  -5370460.8302172935        4256811.3507616166        1261226085.9678328     
  -6335734.6785345394        4501328.2584995851        1328263137.3673456     
  -7405653.8875176404        4397027.2973508546        1392086035.0894940     
  -443649330.58618599       -82020489.478352278        1115395024.0992484     
  -446622625.69553363       -66893427.073663682        1183926754.0278955     
  -450481605.87896276       -54718648.249246344        1250693572.3184330     
  -455226271.13647419       -45496153.005102143        1315695478.9708617     
  -460856621.46806657       -39225941.341229498        1378932473.9851799     
  -898060689.36141539       -171117066.10671997        1119447710.7743080     
  -899110604.91239786       -140562886.48063403        1182134598.8783767     
  -901827245.25087726       -115564456.14620581        1244505817.3835902     
  -906210610.37685466       -96121775.103435785        1306561366.2899489     
  -912260700.29032898       -82234843.352323055        1368301245.5974531     
  -1366987925.5412674       -264568405.95647448        1129667582.1618934     
  -1361973769.9931571       -217344901.64677262        1185598415.4423983     
  -1359407378.9459605       -178280612.34011513        1242662821.1633031     
  -1359288752.3996768       -147375538.03650177        1300860799.3246071     
  -1361617890.3543062       -124629678.73593098        1360192349.9263110     
  -1850431039.1257439       -362374509.02761602        1146054638.2620058     
  -1835212120.9378140       -297239472.57208133        1194318203.7199621     
  -1823222006.9642119       -242867116.83097535        1245164583.6575723     
  -1814460697.2049403       -199257441.80430084        1298593778.0748372     
  -1808928191.6599965       -166410447.49205381        1354605786.9717555     
  -7405653.8875176404        4397027.2973508546        1392086035.0894940     
  -10653746.354144353        4585326.5658116676        1413505658.4734230     
  -13173422.774235671        7201679.3227236345        1438409023.8770232     
  -14964683.147792801        12246085.568083063        1466796131.3002939     
  -16027527.474814534        19718545.301893644        1498666980.7432356     
  -460856621.46806657       -39225941.341229498        1378932473.9851799     
  -452998554.56005359       -30159512.855395034        1401292637.8093681     
  -445079181.70977348       -20888731.228669375        1426663460.0826759     
  -437098502.91722798       -11413596.461059794        1455044940.8051031     
  -429056518.18241584       -1734108.5525608659        1486437079.9766507     
  -912260700.29032898       -82234843.352323055        1368301245.5974531     
  -894648141.35210764       -64695785.852442622        1390823654.7402534     
  -877641386.57588804       -49176075.559235394        1415883638.7616217     
  -861240435.96167195       -35675712.472704470        1443481197.6615591     
  -845445289.50945592       -24194696.592843711        1473616331.4400649     
  -1361617890.3543062       -124629678.73593098        1360192349.9263110     
  -1335602506.7303078       -99023492.425335407        1382098709.2660768     
  -1310860037.3725805       -77660353.668975294        1406069559.9138596     
  -1287390482.2811239       -60540262.466849387        1432104901.8696606     
  -1265193841.4559371       -47663218.818958879        1460204735.1334786     
  -1808928191.6599965       -166410447.49205381        1354605786.9717555     
  -1775861650.6946533       -133142632.57407099        1375117801.3868399     
  -1744735134.0998497       -106341565.55788654        1397221223.5393903     
  -1715548641.8755858       -86007246.443499684        1420916053.4294078     
  -1688302174.0218601       -72139675.230909050        1446202291.0568910     
  -16027527.474814534        19718545.301893644        1498666980.7432356     
  -25671230.645112701        22019423.610082719        1499077373.3613141     
  -37755871.030720741        16183844.533906564        1499667583.3561802     
  -52281448.631635509        2211808.0733741373        1500437610.7278304     
  -69247963.447858796       -19896685.771519989        1501387455.4762697     
  -429056518.18241584       -1734108.5525608659        1486437079.9766507     
  -434513490.11112273        1815020.3200624585        1484698084.0190048     
  -441403639.65472645        586890.47636350989        1485711775.3555443     
  -449726966.81322688       -5418498.0836572945        1489478153.9862685     
  -459483471.58662105       -16201145.359991938        1495997219.9111760     
  -845445289.50945592       -24194696.592843711        1473616331.4400649     
  -839364473.28972030       -17192000.083731323        1470903666.4405100     
  -833709075.08446980       -11607363.622902751        1473516558.6525364     
  -828479094.89370143       -7440787.2103478909        1481455008.0761466     
  -823674532.71741760       -4692270.8460750878        1494719014.7113371     
  -1265193841.4559371       -47663218.818958879        1460204735.1334786     
  -1240224180.1809070       -35001637.601303220        1457694120.6258278     
  -1214672177.3199494       -20398917.763888121        1463081933.2471585     
  -1188537832.8730621       -3855059.3067056537        1476368172.9974668     
  -1161821146.8402457        14629937.770237029        1497552839.8767593     
  -1688302174.0218601       -72139675.230909050        1446202291.0568910     
  -1637092610.7846828       -51613892.232651055        1445069446.5749590     
  -1584292946.3611677       -25787771.946597695        1454407899.1394053     
  -1529903180.7513084        5338685.6272674203        1474217648.7502306     
  -1473923313.9551101        41765480.488931417        1504498695.4074333     
  -69247963.447858796       -19896685.771519989        1501387455.4762697     
  -69251768.366620868       -36766780.080436043        1488146743.8419209     
  -66716007.564530335       -45171655.319844835        1481969389.5965326     
  -61640681.041586414       -45111311.489742480        1482855392.7401016     
  -54025788.797790855       -36585748.590132952        1490804753.2726245     
  -459483471.58662105       -16201145.359991938        1495997219.9111760     
  -438617834.79275578       -17805410.989577860        1493388230.2937174     
  -416324467.08076388       -14650573.558741882        1496246416.4479389     
  -392603368.45063865       -6736633.0674604625        1504571778.3738415     
  -367454538.90238595        5936410.4842441231        1518364316.0714216     
  -823674532.71741760       -4692270.8460750878        1494719014.7113371     
  -786499973.11743402        7601136.5317102373        1501444606.5075932     
  -749009517.40204549        20947530.960846871        1512041192.4582503     
  -711203165.57124925        35346912.441340744        1526508772.5633094     
  -673080917.62504578        50799280.973193496        1544847346.8227720     
  -1161821146.8402457        14629937.770237029        1497552839.8767593     
  -1112898183.3406541        39452862.483432710        1512315872.4835479     
  -1064771158.5283744        61622658.238921285        1529353717.6274629     
  -1017440072.4034121        81139325.036684692        1548666375.3085039     
  -970904924.96576774        98002862.876725018        1570253845.5266666     
  -1473923313.9551101        41765480.488931417        1504498695.4074333     
  -1417812465.4624109        77749766.865606546        1526002028.2215829     
  -1363609390.4597511        107374808.27548277        1548183991.9555800     
  -1311314088.9471312        130640604.71855867        1571044586.6094239     
  -1260926560.9245496        147547156.19484186        1594583812.1831145     
  -54025788.797790855       -36585748.590132952        1490804753.2726245     
  -60148125.269964397       -30944129.723108046        1482648153.7482061     
  -67994274.991210252       -31048555.019656803        1475543506.0707757     
  -77564237.961533010       -36899024.479794547        1469490810.2403369     
  -88858014.180923998       -48495538.103495158        1464490066.2568879     
  -367454538.90238595        5936410.4842441231        1518364316.0714216     
  -367778332.33922827        11403177.797440544        1512466082.0573773     
  -369242706.81044608        13068008.329385877        1510016664.2744029     
  -371847662.31604058        10930902.080074579        1511016062.7225008     
  -375593198.85601521        4991859.0494962037        1515464277.4016728     
  -673080917.62504578        50799280.973193496        1544847346.8227720     
  -660757984.07203078        58145651.918937534        1541887915.9029081     
  -648992399.33870101        63634193.465732396        1544774165.5982006     
  -637784163.42505324        67264905.613585353        1553506095.9086430     
  -627133276.33108890        69037788.362497866        1568083706.8342426     
  -970904924.96576774        98002862.876725018        1570253845.5266666     
  -939087080.46837568        109283292.64137173        1570913655.2847993     
  -907243352.57598042        120650000.38936841        1579816010.0421677     
  -875373741.28856719        132102986.12075251        1596960909.7987709     
  -843478246.60614371        143642249.83550924        1622348354.5546112     
  -1260926560.9245496        147547156.19484186        1594583812.1831145     
  -1202765621.5282664        164816099.96473229        1599543300.2030525     
  -1143995566.5222819        184115429.10029536        1615142197.6063054     
  -1084616395.9065850        205445143.60156703        1641380504.3928771     
  -1024628109.6811845        228805243.46851498        1678258220.5627658     
  -88858014.180923998       -48495538.103495158        1464490066.2568879     
  -132355599.97465169       -74430670.771657869        1433130006.3991210     
  -177213422.74270427       -104899926.68756953        1403199005.3571067     
  -223431482.48508027       -139903305.85122758        1374697063.1308432     
  -271009779.20178652       -179440808.26265037        1347624179.7203300     
  -375593198.85601521        4991859.0494962037        1515464277.4016728     
  -408313285.55444461       -10662144.143770084        1497430915.5925498     
  -440567029.75596768       -24761672.347347766        1483886310.5467796     
  -472354431.46058255       -37306725.561232135        1474830462.2643621     
  -503675490.66828334       -48297303.785403937        1470263370.7452877     
  -627133276.33108890        69037788.362497866        1568083706.8342426     
  -640333869.79822719        66287512.884910017        1565508052.4568794     
  -651241541.29722190        71180310.634469241        1570480852.7904608     
  -659856290.82807016        83716181.611184180        1583002107.8349936     
  -666178118.39077342        103895125.81504619        1603071817.5904715     
  -843478246.60614371        143642249.83550924        1622348354.5546112     
  -828417352.70599294        156418300.31440550        1637361416.9921050     
  -809236957.36646140        182926022.25790441        1662982632.0881472     
  -785937060.58755207        223165415.66599393        1699211999.8427382     
  -758517662.36925983        277136480.53869659        1746049520.2558756     
  -1024628109.6811845        228805243.46851498        1678258220.5627658     
  -972563734.27774632        259730218.14469486        1712991009.1982307     
  -914553277.96369600        310475462.52291948        1761391648.4398429     
  -850596740.73902774        381040976.60320193        1823460138.2876010     
  -780694122.60374081        471426760.38554531        1899196478.7415054     
  -271009779.20178652       -179440808.26265037        1347624179.7203300     
  -288750462.19371337       -257311361.98615330        1295850108.1650555     
  -336307393.10989338       -434569408.79049861        1207881215.1557934     
  -413680571.95032883       -711214948.67569733        1083717500.6925337     
  -520869998.71501702       -1087247981.6417360        923358964.77529442     
  -503675490.66828334       -48297303.785403937        1470263370.7452877     
  -580537591.84678245       -95718245.848370269        1426566989.0296474     
  -672877937.44365144       -194733335.97257102        1366560581.3181996     
  -780696527.45889759       -345342574.15802717        1290244147.6109467     
  -903993361.89250445       -547545960.40469074        1197617687.9078984     
  -666178118.39077342        103895125.81504619        1603071817.5904715     
  -745347936.44674265        103967905.80533710        1584180796.4713244     
  -825657995.41519654        100239882.75400758        1568864544.8145592     
  -907108295.29613841        92711056.661051452        1557123062.6201737     
  -989698836.08956981        81381427.526467979        1548956349.8881822     
  -758517662.36925983        277136480.53869659        1746049520.2558756     
  -783181495.99358904        341747092.97498280        1768691530.4900854     
  -794647567.02452266        450350247.38925165        1814793105.6448708     
  -792915875.46205616        602945943.78152204        1884354245.7202203     
  -777986421.30619907        799534182.15176058        1977374950.7161438     
  -780694122.60374081        471426760.38554531        1899196478.7415054     
  -694038270.48732853        617619315.66054714        1980099191.0859370     
  -579846652.27162910        855597757.93317080        2104346263.8091311     
  -438119267.95665467        1185362087.2033823        2271937696.9110780     
  -268856117.54239964        1606912303.4711888        2482873490.3917880     
  -1756650783.9107990       -526995235.17323977        681656502.25476575     
  -1784367801.5722346       -500079899.82916498        808306694.59745169     
  -1809236849.9952037       -463671333.69020277        927923114.71288693     
  -1831257929.1797071       -417769536.75635338        1040505762.6010717     
  -1850431039.1257439       -362374509.02761602        1146054638.2620058     
  -2201711501.5551338       -660513450.46654022        698075455.40328145     
  -2237932930.2110758       -613891507.61736834        815614384.50980067     
  -2272162599.0618501       -560630365.41763759        929097552.57738888     
  -2304400508.1074576       -500730023.86734843        1038524959.6060464     
  -2334646657.3478975       -434190482.96650106        1143896605.5957732     
  -2685124916.6445532       -805537474.99336588        723554606.67126584     
  -2721342152.8998027       -736656343.62053728        830983361.53610325     
  -2756423838.7831831       -663990044.34147859        937334366.55032980     
  -2790369974.2946944       -587538577.15618992        1042607621.7139454     
  -2823180559.4343376       -507301942.06467134        1146803127.0269494     
  -3206891029.1790571       -962067308.75371718        758093956.05871916     
  -3234595469.6384139       -868374407.83867168        854413625.67635977     
  -3262020569.1592011       -773750370.46172512        952633556.63170922     
  -3289166327.7414184       -678195196.62287736        1052753748.9247673     
  -3316032745.3850646       -581708886.32212806        1154774202.5555346     
  -3767009839.1586461       -1130102951.7475939        801693503.56564093     
  -3777692880.4269118       -1009045700.2717719        885905176.93056965     
  -3788952790.1899056       -889911343.77837729        974995122.82152700     
  -3800789568.4476285       -772699882.26741004        1068963341.2385129     
  -3813203215.2000790       -657411315.73887086        1167809832.1815271     
  -1850431039.1257439       -362374509.02761602        1146054638.2620058     
  -1835212120.9378140       -297239472.57208133        1194318203.7199621     
  -1823222006.9642119       -242867116.83097535        1245164583.6575723     
  -1814460697.2049403       -199257441.80430084        1298593778.0748372     
  -1808928191.6599965       -166410447.49205381        1354605786.9717555     
  -2334646657.3478975       -434190482.96650106        1143896605.5957732     
  -2310500652.9717178       -353486913.17629260        1185829439.3610561     
  -2289766375.7824392       -284155767.34241408        1228453709.5604131     
  -2272443825.7800565       -226197045.46486336        1271769416.1938443     
  -2258533002.9645748       -179610747.54364264        1315776559.2613499     
  -2823180559.4343376       -507301942.06467134        1146803127.0269494     
  -2795511406.1429958       -412651020.12171626        1182191818.9648943     
  -2771436903.0111232       -329982265.37698948        1216380569.2913332     
  -2750957050.0387187       -259295677.83049011        1249369378.0062659     
  -2734071847.2257824       -200591257.48221934        1281158245.1096926     
  -3316032745.3850646       -581708886.32212806        1154774202.5555346     
  -3290244380.4516468       -474731793.40835238        1183405342.5314765     
  -3268233588.6502681       -380346610.93470395        1208945162.8503325     
  -3250000369.9809265       -298553338.90118122        1231393663.5121024     
  -3235544724.4436240       -229351977.30778694        1250750844.5167863     
  -3813203215.2000790       -657411315.73887086        1167809832.1815271     
  -3794699575.8976707       -539729233.03619885        1189470010.0608022     
  -3780156432.6998711       -435248804.01555455        1206147490.2374110     
  -3769573785.6066785       -343970028.67693412        1217842272.7113533     
  -3762951634.6180954       -265892907.02034318        1224554357.4826293     
  -1808928191.6599965       -166410447.49205381        1354605786.9717555     
  -1775861650.6946533       -133142632.57407099        1375117801.3868399     
  -1744735134.0998497       -106341565.55788654        1397221223.5393903     
  -1715548641.8755858       -86007246.443499684        1420916053.4294078     
  -1688302174.0218601       -72139675.230909050        1446202291.0568910     
  -2258533002.9645748       -179610747.54364264        1315776559.2613499     
  -2215155776.8133736       -134463122.89147568        1325120343.0967016     
  -2175143918.5981979       -100533391.35939503        1338062520.9373589     
  -2138497428.3190506       -77821552.947401285        1354603092.7833195     
  -2105216305.9759266       -66327607.655496478        1374742058.6345861     
  -2734071847.2257824       -200591257.48221934        1281158245.1096926     
  -2674649689.4091873       -141843549.15200579        1277670897.5389116     
  -2620018243.0941033       -99064879.160168648        1279788930.2412739     
  -2570177508.2805324       -72255247.506708860        1287512343.2167788     
  -2525127484.9684768       -61414654.191627622        1300841136.4654264     
  -3235544724.4436240       -229351977.30778694        1250750844.5167863     
  -3154343388.4820938       -155283911.35566592        1232769464.7134707     
  -3079358107.5875649       -101936028.96021020        1222400451.4511368     
  -3010588881.7600360       -69308330.121424437        1219643804.7297823     
  -2948035710.9995055       -57400814.839303136        1224499524.5494094     
  -3762951634.6180954       -265892907.02034318        1224554357.4826293     
  -3654236874.0320945       -174784209.50245237        1190416044.6203783     
  -3553163512.0785823       -109146840.75951707        1165897084.5669456     
  -3459731548.7575569       -68980800.791543126        1150997477.3223321     
  -3373940984.0690179       -54286089.598521829        1145717222.8865373     
  -1688302174.0218601       -72139675.230909050        1446202291.0568910     
  -1637092610.7846828       -51613892.232651055        1445069446.5749590     
  -1584292946.3611677       -25787771.946597695        1454407899.1394053     
  -1529903180.7513084        5338685.6272674203        1474217648.7502306     
  -1473923313.9551101        41765480.488931417        1504498695.4074333     
  -2105216305.9759266       -66327607.655496478        1374742058.6345861     
  -2030230355.0354657       -45925375.145475388        1372752829.9982941     
  -1954254746.9465027       -22224285.473789454        1378610344.9692819     
  -1877289481.7090433        4775661.3595583439        1392314603.5475514     
  -1799334559.3230844        35074465.354565501        1413865605.7331014     
  -2525127484.9684768       -61414654.191627622        1300841136.4654264     
  -2433863870.4364333       -43385589.403348684        1297295005.6306231     
  -2342211042.7937341       -24059147.579551697        1298971064.9640033     
  -2250169002.0403776       -3435328.7202322483        1305869314.4655657     
  -2157737748.1763663        18485867.174606323        1317989754.1353140     
  -2948035710.9995055       -57400814.839303136        1224499524.5494094     
  -2847993156.9875908       -43994535.006283998        1218695973.4719465     
  -2748161833.9028597       -31292358.263880730        1215490059.1235700     
  -2648541741.7453179       -19294284.612105608        1214881781.5042770     
  -2549132880.5149584       -8000314.0509461164        1216871140.6140735     
  -3373940984.0690179       -54286089.598521829        1145717222.8865373     
  -3272618214.6889362       -47752211.954272270        1136955733.5222652     
  -3172107120.2738829       -43923917.526784778        1128167327.4479811     
  -3072407700.8238559       -42801206.316053510        1119352004.6636848     
  -2973519956.3388605       -44384078.322091818        1110509765.1693790     
  -1473923313.9551101        41765480.488931417        1504498695.4074333     
  -1417812465.4624109        77749766.865606546        1526002028.2215829     
  -1363609390.4597511        107374808.27548277        1548183991.9555800     
  -1311314088.9471312        130640604.71855867        1571044586.6094239     
  -1260926560.9245496        147547156.19484186        1594583812.1831145     
  -1799334559.3230844        35074465.354565501        1413865605.7331014     
  -1742912074.1084635        57965371.266234636        1422718914.8925576     
  -1688104411.0524116        75473536.649342895        1434154863.0255692     
  -1634911570.1549284        87598961.503888845        1448173450.1321368     
  -1583333551.4160137        94341645.829875290        1464774676.2122567     
  -2157737748.1763663        18485867.174606323        1317989754.1353140     
  -2095563603.2292340        29915399.524444461        1314534816.1934614     
  -2034711329.1091969        36938695.783965945        1315566525.2788715     
  -1975180925.8162594        39555755.953155756        1321084881.3915446     
  -1916972393.3504171        37766580.032028675        1331089884.5314767     
  -2549132880.5149584       -8000314.0509461164        1216871140.6140735     
  -2475767052.8247228       -6400148.3597605228        1201449732.1242957     
  -2403430144.6301103       -8229714.3206579685        1192418978.7154868     
  -2332122155.9311228       -13489011.933638692        1189778880.3876462     
  -2261843086.7277617       -22178041.198701024        1193529437.1407750     
  -2973519956.3388605       -44384078.322091818        1110509765.1693790     
  -2883522422.8949270       -50981272.386378646        1083463662.6850579     
  -2794260857.6151433       -60031693.664503217        1064712223.3354130     
  -2705735260.4995189       -71535342.156488657        1054255447.1204449     
  -2617945631.5480442       -85492217.862312317        1052093334.0401542     
  -1260926560.9245496        147547156.19484186        1594583812.1831145     
  -1202765621.5282664        164816099.96473229        1599543300.2030525     
  -1143995566.5222819        184115429.10029536        1615142197.6063054     
  -1084616395.9065850        205445143.60156703        1641380504.3928771     
  -1024628109.6811845        228805243.46851498        1678258220.5627658     
  -1583333551.4160137        94341645.829875290        1464774676.2122567     
  -1501822163.2933989        108360136.10262913        1465161434.6088514     
  -1419819604.5737591        124015861.69880956        1473620771.9109528     
  -1337325875.2570963        141308822.61839753        1490152688.1185620     
  -1254340975.3434095        160239018.86139733        1514757183.2316768     
  -1916972393.3504171        37766580.032028675        1331089884.5314767     
  -1819444357.8666434        46334476.398105502        1326766310.7899370     
  -1721543096.7985306        56146458.045318127        1327948485.4760892     
  -1623268610.1460729        67202524.973681569        1334636408.5899405     
  -1524620897.9092705        79502677.183187187        1346830080.1314847     
  -2261843086.7277617       -22178041.198701024        1193529437.1407750     
  -2155632205.2480044       -21260879.148864508        1184357928.7463033     
  -2049166043.1965880       -19492781.860155463        1178125338.3017128     
  -1942444600.5735109       -16873749.332571149        1174831665.8070104     
  -1835467877.3787692       -13403781.566116691        1174476911.2621896     
  -2617945631.5480442       -85492217.862312317        1052093334.0401542     
  -2510385705.4374776       -94425930.538256764        1037936288.4779526     
  -2402688443.7679329       -102901858.01760685        1024151330.3878250     
  -2294853846.5394077       -110920000.30036020        1010738459.7697731     
  -2186881913.7519021       -118480357.38650417        997697676.62379324     
  -1024628109.6811845        228805243.46851498        1678258220.5627658     
  -972563734.27774632        259730218.14469486        1712991009.1982307     
  -914553277.96369600        310475462.52291948        1761391648.4398429     
  -850596740.73902774        381040976.60320193        1823460138.2876010     
  -780694122.60374081        471426760.38554531        1899196478.7415054     
  -1254340975.3434095        160239018.86139733        1514757183.2316768     
  -1174140192.0503552        184473088.95440584        1538760600.8612769     
  -1090382815.2865038        220562470.61674076        1572283613.4728622     
  -1003068845.0518621        268507163.84837735        1615326221.0664291     
  -912198281.34641898        328307168.64935398        1667888423.6419756     
  -1524620897.9092705        79502677.183187187        1346830080.1314847     
  -1428135865.6527848        93490195.015164137        1357316391.4087648     
  -1330483727.3653216        111368066.28373349        1373174042.0438662     
  -1231664483.0468779        133136290.98890513        1394403032.0367842     
  -1131678132.6974576        158794869.13066292        1421003361.3875232     
  -1835467877.3787692       -13403781.566116691        1174476911.2621896     
  -1734550755.0850329       -13218463.673023224        1168658380.8406963     
  -1634856014.2001348       -17107750.476056218        1164062934.1528592     
  -1536383654.7240798       -25071641.975239515        1160690571.1986766     
  -1439133676.6568642       -37110138.170546174        1158541291.9781504     
  -2186881913.7519021       -118480357.38650417        997697676.62379324     
  -2093384860.3470950       -135652887.11014807        972786569.15707004     
  -2003499675.7909505       -164864979.66265678        944950289.79983962     
  -1917226360.0834591       -206116635.04401010        914188838.55209756     
  -1834564913.2246335       -259407853.25425732        880502215.41384840     
  -780694122.60374081        471426760.38554531        1899196478.7415054     
  -694038270.48732853        617619315.66054714        1980099191.0859370     
  -579846652.27162910        855597757.93317080        2104346263.8091311     
  -438119267.95665467        1185362087.2033823        2271937696.9110780     
  -268856117.54239964        1606912303.4711888        2482873490.3917880     
  -912198281.34641898        328307168.64935398        1667888423.6419756     
  -753712564.37909234        431407519.51187885        1730094413.2245324     
  -583608188.08060384        573236734.81161380        1814154139.4857564     
  -401885152.45094126        753794814.54859316        1920067602.4256482     
  -208543457.49011666        973081758.72278190        2047834802.0442128     
  -1131678132.6974576        158794869.13066292        1421003361.3875232     
  -962764332.87947953        200382480.98060358        1445942670.3120682     
  -798148980.49844801        227641934.70739990        1471245092.2151978     
  -637832075.55435538        240573230.31105924        1496910627.0969098     
  -481813618.04720950        239176367.79156193        1522939274.9571989     
  -1439133676.6568642       -37110138.170546174        1158541291.9781504     
  -1321193575.9884818       -75455799.933246315        1127643962.3485558     
  -1223469029.5251591       -181186642.37947604        1075619121.9974597     
  -1145960037.2668858       -354302665.50920624        1002466770.9248568     
  -1088666599.2136714       -594803869.32246852        908186909.13074362     
  -1834564913.2246335       -259407853.25425732        880502215.41384840     
  -1829000293.7061026       -396107323.22968179        775198289.33399141     
  -1859568335.1607428       -653248996.44901359        627276228.83253634     
  -1926269037.5885417       -1030832872.9122077        436736033.90948588     
  -2029102400.9895132       -1528858952.6193130        203577704.56484500     
  -3767009839.1586461       -1130102951.7475939        801693503.56564093     
  -3777692880.4269118       -1009045700.2717719        885905176.93056965     
  -3788952790.1899056       -889911343.77837729        974995122.82152700     
  -3800789568.4476285       -772699882.26741004        1068963341.2385129     
  -3813203215.2000790       -657411315.73887086        1167809832.1815271     
  -4338341546.6525145       -1301502463.9957545        859580105.75768590     
  -4333713428.7973385       -1125925296.3175809        943101672.07391870     
  -4330195982.1533957       -954050366.01019168        1020941261.4508438     
  -4327789206.7206898       -785877673.07358706        1093098873.8884611     
  -4326493102.4992189       -621407217.50776696        1159574509.3867712     
  -4893746351.7298565       -1468123905.5189569        936980619.20050824     
  -4903979216.0807686       -1247078464.0372913        1019189308.6321203     
  -4915856554.3594246       -1031514602.3147672        1085155771.6590881     
  -4929378366.5658207       -821432320.35138512        1134880008.2814121     
  -4944544652.6999588       -616831618.14714420        1168362018.4990923     
  -5433224254.3906727       -1629967276.3172019        1033895043.8941083     
  -5488490242.2772064       -1372505203.4309037        1114168086.6051741     
  -5545934506.8079882       -1122304052.6921041        1167638653.4462597     
  -5605557047.9830217       -879363824.10080361        1194306744.4173656     
  -5667357865.8023052       -643684517.65700245        1194172359.5184908     
  -5956775254.6349611       -1787032576.3904884        1150323379.8384855     
  -6087246507.3866482       -1502205514.4984171        1228038005.9930804     
  -6220429839.4990921       -1226418717.1422021        1268389906.8123586     
  -6356325250.9722919       -959672184.32184362        1271379082.2963209     
  -6494932741.8062496       -701965916.03734016        1237005532.4449670     
  -3813203215.2000790       -657411315.73887086        1167809832.1815271     
  -3794699575.8976707       -539729233.03619885        1189470010.0608022     
  -3780156432.6998711       -435248804.01555455        1206147490.2374110     
  -3769573785.6066785       -343970028.67693412        1217842272.7113533     
  -3762951634.6180954       -265892907.02034318        1224554357.4826293     
  -4326493102.4992189       -621407217.50776696        1159574509.3867712     
  -4295327058.2487116       -465876169.97863257        1141506607.1966712     
  -4274852797.7619538       -345984401.66199863        1129427337.7093616     
  -4265070321.0389476       -261731912.55787015        1123336700.9248421     
  -4265979628.0796905       -213118702.66624260        1123234696.8431125     
  -4944544652.6999588       -616831618.14714420        1168362018.4990923     
  -4869369545.2000484       -414047608.30115366        1102712867.3039508     
  -4811617509.1230297       -269340503.19814229        1054023679.2170562     
  -4771288544.4689035       -182710302.83811045        1022294454.2384076     
  -4748382651.2376728       -154157007.22105837        1007525192.3680056     
  -5667357865.8023052       -643684517.65700245        1194172359.5184908     
  -5516827036.7516823       -384243548.00376415        1073088790.3826410     
  -5390450566.7830973       -205317108.62398267        979936514.76049340     
  -5288228455.8965502       -106905199.51765585        914715532.65204966     
  -5210160704.0920391       -89007820.684788942        877425844.05730879     
  -6494932741.8062496       -701965916.03734016        1237005532.4449670     
  -6237699532.9036150       -376463989.08646512        1052634376.4327410     
  -6011351970.7421608       -153914217.93952084        907165844.33967590     
  -5815890055.3218842       -34316602.596512556        800599936.16576838     
  -5651313786.6427898       -17671143.057434797        732936651.91102111     
  -3762951634.6180954       -265892907.02034318        1224554357.4826293     
  -3654236874.0320945       -174784209.50245237        1190416044.6203783     
  -3553163512.0785823       -109146840.75951707        1165897084.5669456     
  -3459731548.7575569       -68980800.791543126        1150997477.3223321     
  -3373940984.0690179       -54286089.598521829        1145717222.8865373     
  -4265979628.0796905       -213118702.66624260        1123234696.8431125     
  -4143203045.8714647       -150171053.19997025        1088374703.9655187     
  -4024748741.7896247       -101630997.48833179        1061210847.5388864     
  -3910616715.8341780       -67498535.531326771        1041743127.5632147     
  -3800806968.0051212       -47773667.328955412        1029971544.0385032     
  -4748382651.2376728       -154157007.22105837        1007525192.3680056     
  -4617039151.2868128       -121018876.97028399        975815826.73218346     
  -4486698808.9562426       -91224605.453817606        949879381.18946373     
  -4357361624.2459688       -64774192.671664476        929715855.73984647     
  -4229027597.1559858       -41667638.623818159        915325250.38333106     
  -5210160704.0920391       -89007820.684788942        877425844.05730879     
  -5075745190.2781372       -87327680.813388586        852739412.92037034     
  -4939013713.5784369       -77927664.655977249        831902685.51867664     
  -4799966273.9929276       -60807772.212549925        814915661.85222793     
  -4658602871.5216198       -35968003.483113050        801778341.92102242     
  -5651313786.6427898       -17671143.057434797        732936651.91102111     
  -5519321162.8454475       -49097464.729290485        719145462.53008127     
  -5381693455.6562023       -61740175.094807625        707280760.52652693     
  -5238430665.0750580       -55599274.153988361        697342545.90035772     
  -5089532791.1020107       -30674761.906831741        689330818.65157795     
  -3373940984.0690179       -54286089.598521829        1145717222.8865373     
  -3272618214.6889362       -47752211.954272270        1136955733.5222652     
  -3172107120.2738829       -43923917.526784778        1128167327.4479811     
  -3072407700.8238559       -42801206.316053510        1119352004.6636848     
  -2973519956.3388605       -44384078.322091818        1110509765.1693790     
  -3800806968.0051212       -47773667.328955412        1029971544.0385032     
  -3695932316.4100823       -38171959.063720226        1020498736.6192532     
  -3592433824.7547607       -33157450.597537279        1013077102.0859072     
  -3490311493.0391555       -32730141.930409431        1007706640.4384650     
  -3389565321.2632632       -36890033.062330961        1004387351.6769266     
  -4229027597.1559858       -41667638.623818159        915325250.38333106     
  -4114663664.5005202       -27216880.083953381        904482559.10530186     
  -4002240376.7594566       -19234937.925435305        897769130.30909169     
  -3891757733.9327984       -17721812.148260832        895184963.99470007     
  -3783215736.0205421       -22677502.752435446        896730060.16212797     
  -4658602871.5216198       -35968003.483113050        801778341.92102242     
  -4528812258.9602461       -14886975.014975548        788907200.98041105     
  -4401526776.2879715       -2156379.5104789734        782243412.11753249     
  -4276746423.5047851        2223783.0303823948        781786975.33239138     
  -4154471200.6106887       -1746487.3923971653        787537890.62498188     
  -5089532791.1020107       -30674761.906831741        689330818.65157795     
  -4938378099.7892675       -1182243.8567841053        673772662.24458170     
  -4790293023.3403034        18078224.647333622        666499947.51123405     
  -4645277561.7551193        27106643.605521679        667512674.45153701     
  -4503331715.0337152        25903013.017775059        676810843.06548953     
  -2973519956.3388605       -44384078.322091818        1110509765.1693790     
  -2883522422.8949270       -50981272.386378646        1083463662.6850579     
  -2794260857.6151433       -60031693.664503217        1064712223.3354130     
  -2705735260.4995189       -71535342.156488657        1054255447.1204449     
  -2617945631.5480442       -85492217.862312317        1052093334.0401542     
  -3389565321.2632632       -36890033.062330961        1004387351.6769266     
  -3279608593.9157791       -40933166.944859147        983622327.82919645     
  -3170020591.9618258       -46205385.472476006        969326468.42295814     
  -3060801315.4013910       -52706688.645170212        961499773.45821357     
  -2951950764.2344866       -60437076.462949753        960142242.93496394     
  -3783215736.0205421       -22677502.752435446        896730060.16212797     
  -3658515525.3214655       -25731289.618799448        882674564.85005498     
  -3533816797.2452841       -28790018.561481476        873262735.28629255     
  -3409119551.7919965       -31853689.580478191        868494571.47084129     
  -3284423788.9616032       -34922302.675789595        868370073.40369904     
  -4154471200.6106887       -1746487.3923971653        787537890.62498188     
  -4020243217.1119719       -5375640.4081809521        780620373.74763548     
  -3885649473.4655170       -7785592.9315152168        776521023.92541671     
  -3750689969.6713276       -8976344.9624042511        775239841.15832269     
  -3615364705.7294044       -8947896.5008347034        776776825.44635844     
  -4503331715.0337152        25903013.017775059        676810843.06548953     
  -4364791669.2873020        20133780.686992884        677459754.52193737     
  -4225518620.6225290        16807891.417412519        679101334.34032905     
  -4085512569.0393867        15925345.209056616        681735582.52066636     
  -3944773514.5378819        17486142.061917067        685362499.06294656     
  -2617945631.5480442       -85492217.862312317        1052093334.0401542     
  -2510385705.4374776       -94425930.538256764        1037936288.4779526     
  -2402688443.7679329       -102901858.01760685        1024151330.3878250     
  -2294853846.5394077       -110920000.30036020        1010738459.7697731     
  -2186881913.7519021       -118480357.38650417        997697676.62379324     
  -2951950764.2344866       -60437076.462949753        960142242.93496394     
  -2841194919.7399411       -68332685.423391223        947270579.95811844     
  -2730556158.0766721       -76618570.488076687        936245665.87022150     
  -2620034479.2446823       -85294731.657030821        927067500.67127049     
  -2509629883.2439690       -94361168.930242419        919736084.36126459     
  -3284423788.9616032       -34922302.675789595        868370073.40369904     
  -3166258707.7491617       -40515812.420541763        856486971.55691218     
  -3048465127.7582521       -47347659.570402265        847925280.01594377     
  -2931043048.9888806       -55417844.125385404        842684998.78079200     
  -2813992471.4410391       -64726366.085475445        840766127.85145700     
  -3615364705.7294044       -8947896.5008347034        776776825.44635844     
  -3485577069.4651456       -10975311.529723644        765585463.27433109     
  -3356415352.8126788       -15089125.264581680        759190172.82499111     
  -3227879555.7720008       -21289337.705407977        757590954.09834218     
  -3099969678.3431134       -29575948.852209568        760787807.09438145     
  -3944773514.5378819        17486142.061917067        685362499.06294656     
  -3799150004.8878880        20288817.249062061        674566055.11037683     
  -3654406833.2399430        20157032.429390669        670040344.29736614     
  -3510543999.5940461        17090787.602876902        671785366.62391675     
  -3367561503.9501963        11090082.769550562        679801122.09002817     
  -2186881913.7519021       -118480357.38650417        997697676.62379324     
  -2093384860.3470950       -135652887.11014807        972786569.15707004     
  -2003499675.7909505       -164864979.66265678        944950289.79983962     
  -1917226360.0834591       -206116635.04401010        914188838.55209756     
  -1834564913.2246335       -259407853.25425732        880502215.41384840     
  -2509629883.2439690       -94361168.930242419        919736084.36126459     
  -2421388776.5489879       -114002887.50152695        898899705.30692124     
  -2335619313.0708699       -141883416.79569829        877515275.02345133     
  -2252321492.8096142       -178002756.81274533        855582793.51085198     
  -2171495315.7652278       -222360907.55268931        833102260.76912177     
  -2813992471.4410391       -64726366.085475445        840766127.85145700     
  -2724215538.1376472       -84799741.508925557        825334740.44658971     
  -2635770022.4193273       -109311175.54928482        811732422.47397363     
  -2548655924.2860847       -138260668.20656538        799959173.93360865     
  -2462873243.7379127       -171648219.48074853        790014994.82549417     
  -3099969678.3431134       -29575948.852209568        760787807.09438145     
  -3001865145.1130857       -48043449.132358313        752091674.57607818     
  -2903951803.8363385       -67148255.923448801        747601732.15140617     
  -2806229654.5128727       -86890369.225472212        747317979.82036352     
  -2708698697.1426849       -107269789.03842735        751240417.58295417     
  -3367561503.9501963        11090082.769550562        679801122.09002817     
  -3254337597.4753036       -3734010.3718378544        679170507.69538260     
  -3140164657.3218956       -15394657.918173432        685123204.05574799     
  -3025042683.4899826       -23891859.869498253        697659211.17112505     
  -2908971675.9795494       -29225616.225743651        716778529.04151440     
  -1834564913.2246335       -259407853.25425732        880502215.41384840     
  -1829000293.7061026       -396107323.22968179        775198289.33399141     
  -1859568335.1607428       -653248996.44901359        627276228.83253634     
  -1926269037.5885417       -1030832872.9122077        436736033.90948588     
  -2029102400.9895132       -1528858952.6193130        203577704.56484500     
  -2171495315.7652278       -222360907.55268931        833102260.76912177     
  -2245913121.2619815       -347680701.98368746        721422404.36178994     
  -2340532986.1322236       -540340694.32632196        588209661.08480954     
  -2455354910.3759518       -800340884.58057714        433464030.93818849     
  -2590378893.9931746       -1127681272.7464831        257185513.92191437     
  -2462873243.7379127       -171648219.48074853        790014994.82549417     
  -2557029909.8158040       -267515269.03705978        690544909.95697403     
  -2655458033.6675200       -377620511.17277139        590627185.77075958     
  -2758157615.2930417       -501963945.88785064        490261822.26684582     
  -2865128654.6923828       -640545573.18232358        389448819.44523638     
  -2708698697.1426849       -107269789.03842735        751240417.58295417     
  -2762350659.3675838       -155611024.38983417        682565806.11953998     
  -2804343477.7666221       -165088446.98836792        634528802.89037597     
  -2834677152.3397994       -135702056.83403099        607129407.89546227     
  -2853351683.0871220       -67451853.926826954        600367621.13480461     
  -2908971675.9795494       -29225616.225743651        716778529.04151440     
  -2861875369.9173126       -11967968.041983366        697485092.84948993     
  -2787189318.4295435        97255498.226890922        719914512.44366813     
  -2684913521.5162258        298444782.58090317        784066787.82403934     
  -2555047979.1773849        591599885.02002597        889941918.99062300     
  -5956775254.6349611       -1787032576.3904884        1150323379.8384855     
  -6087246507.3866482       -1502205514.4984171        1228038005.9930804     
  -6220429839.4990921       -1226418717.1422021        1268389906.8123586     
  -6356325250.9722919       -959672184.32184362        1271379082.2963209     
  -6494932741.8062496       -701965916.03734016        1237005532.4449670     
  -6809659087.5217638       -2042897726.2565291        1353947736.3977597     
  -6827586648.9019756       -1395408951.2047381        1202815383.2301137     
  -6896875431.7509661       -919124247.71553802        1091926661.1082137     
  -7017525436.0687332       -614043615.78892779        1021281570.0320592     
  -7189536661.8552761       -480167055.42490888        990880110.00165021     
  -8337135488.1101189       -2501140646.4330354        1712450222.9360495     
  -8020786911.3158226       -1424470424.1806145        1275713557.9868064     
  -7804448698.0983257       -681168080.51751947        956826880.46437073     
  -7688120848.4576244       -271233615.44374800        755790190.36874211     
  -7671803362.3937225       -194667028.95930386        672603487.69992101     
  -10539204456.400024       -3161761336.9200072        2225830839.4533558     
  -9666847294.6281853       -1589389933.4260464        1446732530.2631581     
  -8943149638.5411682       -512550215.54814577        863090564.88082933     
  -8368111488.1389685        68757816.713695526        474904943.30636942     
  -7941732843.4215832        154534163.35947752        282175665.53977937     
  -13415865992.391481       -4024759797.7174444        2894089585.9496779     
  -11765767798.839069       -1890167478.9410343        1715872300.0591681     
  -10312978253.079496       -413270652.80741835        810717714.35758972     
  -9057497355.1127605        405930680.68340588        178625828.84494203     
  -7999325104.9388638        567436521.53143358       -180403356.47877446     
  -6494932741.8062496       -701965916.03734016        1237005532.4449670     
  -6237699532.9036150       -376463989.08646512        1052634376.4327410     
  -6011351970.7421608       -153914217.93952084        907165844.33967590     
  -5815890055.3218842       -34316602.596512556        800599936.16576838     
  -5651313786.6427898       -17671143.057434797        732936651.91102111     
  -7189536661.8552761       -480167055.42490888        990880110.00165021     
  -6899502503.3359480       -304947034.59655285        846412813.93597424     
  -6622241291.3659229       -172303502.26587844        722954833.53071678     
  -6357753025.9452019       -82236458.432883024        620506168.78587532     
  -6106037707.0737896       -34745903.097575426        539066819.70145285     
  -7671803362.3937225       -194667028.95930386        672603487.69992101     
  -7400091992.1398201       -185066035.61810350        589171535.13798273     
  -7123040868.2433443       -157665863.46833086        508855589.97772098     
  -6840649990.7042999       -112466512.50999212        431655652.21913481     
  -6552919359.5226851       -49467982.743085623        357571721.86222273     
  -7941732843.4215832        154534163.35947752        282175665.53977937     
  -7739467999.3152266       -16820992.151113033        280910540.03876758     
  -7513750701.3744249       -110001301.54688406        264868113.68068823     
  -7264580949.5991755       -125006764.82783175        234048386.46554396     
  -6991958743.9894791       -61837381.993962288        188451358.39333245     
  -7999325104.9388638        567436521.53143358       -180403356.47877446     
  -7917630524.8621731        199788095.80441427       -78370171.361672595     
  -7794370790.7591619       -29309816.501533031       -9007595.3603802174     
  -7629545902.6298285       -119857215.38640499        27684371.525107246     
  -7423155860.4741735       -71854100.850212097        31705729.294782076     
  -5651313786.6427898       -17671143.057434797        732936651.91102111     
  -5519321162.8454475       -49097464.729290485        719145462.53008127     
  -5381693455.6562023       -61740175.094807625        707280760.52652693     
  -5238430665.0750580       -55599274.153988361        697342545.90035772     
  -5089532791.1020107       -30674761.906831741        689330818.65157795     
  -6106037707.0737896       -34745903.097575426        539066819.70145285     
  -5959253930.9473515       -36403474.639685392        532290363.13958132     
  -5811346876.8785925       -34316786.374058962        528095517.11583954     
  -5662316544.8675184       -28485838.300700665        526482281.63022757     
  -5512162934.9141178       -18910630.419601917        527450656.68274528     
  -6552919359.5226851       -49467982.743085623        357571721.86222273     
  -6389472650.6078892       -20795270.017668962        352546225.09491098     
  -6229414469.2003536       -3417648.9831202030        350757462.02647108     
  -6072744815.3000755        2664880.3605642319        352205432.65690517     
  -5919463688.9070587       -2547681.9866261482        356890136.98620957     
  -6991958743.9894791       -61837381.993962288        188451358.39333245     
  -6809977321.8270597       -2272850.8632445335        179913048.39607042     
  -6635896232.6214809        30957237.078002930        175266595.25842038     
  -6469715476.3727379        37852881.829789162        174511998.98038751     
  -6311435053.0808392        18414083.392104149        177649259.56196776     
  -7423155860.4741735       -71854100.850212097        31705729.294782076     
  -7220767944.6048622        19163782.823591709        14390833.043054858     
  -7030792167.1419697        68807871.809325695        1622916.8116833572     
  -6853228528.0854988        77078166.106989384       -6598019.3993232204     
  -6688077027.4354506        43974665.716578960       -10271975.589975202     
  -5089532791.1020107       -30674761.906831741        689330818.65157795     
  -4938378099.7892675       -1182243.8567841053        673772662.24458170     
  -4790293023.3403034        18078224.647333622        666499947.51123405     
  -4645277561.7551193        27106643.605521679        667512674.45153701     
  -4503331715.0337152        25903013.017775059        676810843.06548953     
  -5512162934.9141178       -18910630.419601917        527450656.68274528     
  -5346751054.5878315       -4593643.1396517754        513824239.56790274     
  -5182354123.6629896        6340179.4688098431        506381494.81369275     
  -5018972142.1395969        13890837.405776262        505122422.42012215     
  -4856605110.0176506        18058330.671253681        510047022.38719159     
  -5919463688.9070587       -2547681.9866261482        356890136.98620957     
  -5745799674.7472620       -5207742.0307767391        347592568.86956787     
  -5571095944.5265799       -4402081.8719873428        342376903.80055660     
  -5395352498.2450161       -130701.51024508476        341243141.77916795     
  -5218569335.9025640        7606399.0544412136        344191282.80540168     
  -6311435053.0808392        18414083.392104149        177649259.56196776     
  -6135523960.2675734       -3024540.5301756859        175077650.14959201     
  -5956518485.9310827       -14148559.375058651        174486174.47182259     
  -5774418630.0713787       -14957973.142562628        175874832.52866933     
  -5589224392.6884623       -5452781.8326759338        179243624.32012698     
  -6688077027.4354506        43974665.716578960       -10271975.589975202     
  -6515923911.1487389        1955961.3621869087       -3720516.5920415851     
  -6338621747.8764877       -22899253.040396452        2709306.8274953468     
  -6156170537.6186857       -30590977.491150618        9017494.6686282270     
  -5968570280.3753338       -21119211.990072012        15204046.931359939     
  -4503331715.0337152        25903013.017775059        676810843.06548953     
  -4364791669.2873020        20133780.686992884        677459754.52193737     
  -4225518620.6225290        16807891.417412519        679101334.34032905     
  -4085512569.0393867        15925345.209056616        681735582.52066636     
  -3944773514.5378819        17486142.061917067        685362499.06294656     
  -4856605110.0176506        18058330.671253681        510047022.38719159     
  -4713121997.1833076        15097855.154461384        508695593.15332562     
  -4569588413.8459625        12305614.647662163        509505680.20654416     
  -4426004360.0056238        9681609.1508407593        512477283.54684329     
  -4282369835.6622934        7225838.6640017033        517610403.17422706     
  -5218569335.9025640        7606399.0544412136        344191282.80540168     
  -5066803590.4798851        8456550.0017709732        340043225.06329310     
  -4915669906.9695816        7199827.9078454971        339225531.53340495     
  -4765168285.3716526        3836232.7726776600        341738202.21574038     
  -4615298725.6860962       -1634235.4037375450        347581237.11029464     
  -5589224392.6884623       -5452781.8326759338        179243624.32012698     
  -5425836449.1770525        209865.22889375687        171502650.25184157     
  -5263763099.9933834        1490531.1979811192        168260888.32091397     
  -5103004345.1374636       -1610783.9254152775        169518338.52735054     
  -4943560184.6092834       -9094080.1412792206        175275000.87115246     
  -5968570280.3753338       -21119211.990072012        15204046.931359939     
  -5790220573.2747974       -9642199.1641550064        3073868.7189670792     
  -5613867992.9173708       -4822275.4819345474       -3388249.4309254889     
  -5439512539.3030577       -6659440.9434309006       -4182307.5183157637     
  -5267154212.4318628       -15153695.548651695        691694.45679217158     
  -3944773514.5378819        17486142.061917067        685362499.06294656     
  -3799150004.8878880        20288817.249062061        674566055.11037683     
  -3654406833.2399430        20157032.429390669        670040344.29736614     
  -3510543999.5940461        17090787.602876902        671785366.62391675     
  -3367561503.9501963        11090082.769550562        679801122.09002817     
  -4282369835.6622934        7225838.6640017033        517610403.17422706     
  -4121037579.7086749        9839823.0186085701        507605312.61311966     
  -3959913748.9668283        11759056.667323828        503456683.95351207     
  -3798998343.4367480        12983539.610154152        505164517.19541287     
  -3638291363.1184282        13513271.847100019        512728812.33881450     
  -4615298725.6860962       -1634235.4037375450        347581237.11029464     
  -4439441355.5375881        435968.48571348190        339151398.19597375     
  -4263120497.8105655        4051130.9702115059        336163749.94510227     
  -4086336152.5050259        9211252.0497584343        338618292.35768002     
  -3909088319.6209683        15916331.724365473        346515025.43370688     
  -4943560184.6092834       -9094080.1412792206        175275000.87115246     
  -4754361332.3746166       -7922746.3496179581        169204311.85894436     
  -4564027079.7711468       -2966744.6619524956        168161542.27213538     
  -4372557426.7988844        5773924.9216883183        172146692.11071652     
  -4179952373.4578285        18299262.401322365        181159761.37469703     
  -5267154212.4318628       -15153695.548651695        691694.45679217158     
  -5065797510.2197676       -15236321.487386227       -2235946.3979659821     
  -4862633494.8485870       -9294570.2291822433       -549939.06538977404     
  -4657662166.3183355        2671558.2259254456        5749716.4545324054     
  -4450883524.6289978        20662063.877996445        16663020.161785584     
  -3367561503.9501963        11090082.769550562        679801122.09002817     
  -3254337597.4753036       -3734010.3718378544        679170507.69538260     
  -3140164657.3218956       -15394657.918173432        685123204.05574799     
  -3025042683.4899826       -23891859.869498253        697659211.17112505     
  -2908971675.9795494       -29225616.225743651        716778529.04151440     
  -3638291363.1184282        13513271.847100019        512728812.33881450     
  -3508576135.5257964        4504763.6476247311        511745791.71191031     
  -3378811195.6568098       -4338036.9640188217        515523033.89550859     
  -3248996543.5114708       -13015129.987820745        524060538.88960963     
  -3119132179.0897851       -21526515.423796177        537358306.69421124     
  -3909088319.6209683        15916331.724365473        346515025.43370688     
  -3768090479.3234758        11160795.942926407        344130390.27202153     
  -3627942248.1517944        3573229.7421181202        344682969.97632456     
  -3488643626.1059237       -6846366.8780522346        348172764.54662907     
  -3350194613.1858587       -20097993.917601585        354599773.98292708     
  -4179952373.4578285        18299262.401322365        181159761.37469703     
  -4032880628.8683572        16234086.514058590        176324303.37570533     
  -3887557814.8068581        8339142.2002129555        172603012.29820135     
  -3743983931.2733312       -5385570.5401940346        169995888.14217952     
  -3602158978.2677660       -24940051.707156181        168502930.90765107     
  -4450883524.6289978        20662063.877996445        16663020.161785584     
  -4302946584.1604204        19724635.361062288        8327531.0229711756     
  -4157657895.6219869        9959700.4103183746       -716839.13886903925     
  -4015017459.0136814       -8632740.9741759300       -10470090.323721770     
  -3875025274.3355107       -36052688.792475462       -20932222.531605110     
  -2908971675.9795494       -29225616.225743651        716778529.04151440     
  -2861875369.9173126       -11967968.041983366        697485092.84948993     
  -2787189318.4295435        97255498.226890922        719914512.44366813     
  -2684913521.5162258        298444782.58090317        784066787.82403934     
  -2555047979.1773849        591599885.02002597        889941918.99062300     
  -3119132179.0897851       -21526515.423796177        537358306.69421124     
  -2981581292.5798612       -1665021.1958034039        529606877.31255317     
  -2826893136.1237698        75320706.186083794        549112151.09424806     
  -2655067709.7215033        209430666.72188151        595874128.03928971     
  -2466105013.3730726        400664860.41156924        669892808.14769590     
  -3350194613.1858587       -20097993.917601585        354599773.98292708     
  -3163521010.8649588       -10032213.036396384        346195796.68570405     
  -2970162614.0772424        22316216.067508936        350582369.92898667     
  -2770119422.8227358        76947293.394062996        367759493.71277058     
  -2563391437.1014128        153861018.94331694        397727168.03706831     
  -3602158978.2677660       -24940051.707156181        168502930.90765107     
  -3407694524.7725897       -37069543.563748837        147251850.96893996     
  -3216997752.2899671       -61757972.128851295        124325168.94787933     
  -3030068660.8199110       -99005337.402526498        99722884.844482884     
  -2846907250.3624263       -148811639.38475072        73444998.658741459     
  -3875025274.3355107       -36052688.792475462       -20932222.531605110     
  -3714101834.3027582       -82777012.777848959       -67224959.837742105     
  -3567398550.7619286       -176901858.40297258       -129659451.84906897     
  -3434915423.7130418       -318427225.66790354       -208235698.56558523     
  -3316652453.1560802       -507353114.57258391       -302953699.98728591     
 </DataArray>
 <DataArray  type="Float64" Name="VM" NumberOfComponents="1" format="ascii">
   12936351993.044708     
   11342530233.730127     
   10213104423.774601     
   9276595805.3649158     
   8308550378.3309755     
   10131393371.989563     
   9324034324.4483929     
   8829283152.0679455     
   8447220380.1654749     
   8040030329.2546730     
   7983580681.9628572     
   7736925990.6046019     
   7671788054.4073114     
   7672809939.9624910     
   7670046847.4460363     
   6492822628.5477285     
   6588469325.6642542     
   6759420864.9784613     
   6963568314.1305637     
   7174237043.5414572     
   5658658321.1802387     
   5891814910.8621883     
   6117357368.9998589     
   6332821954.3719883     
   6537987118.6463404     
   8308550378.3309755     
   8026075834.6091986     
   7785790708.6309309     
   7576978350.8446512     
   7394663568.6312904     
   8040030329.2546730     
   7751720466.4672222     
   7479112908.9642773     
   7220245338.6170502     
   6975131753.3993616     
   7670046847.4460363     
   7385204210.9421215     
   7105760585.4253502     
   6831798338.9955301     
   6563526536.0292225     
   7174237043.5414572     
   6913980098.9321623     
   6661614149.8105450     
   6413278879.1699505     
   6165827053.9720583     
   6537987118.6463404     
   6330400198.5115671     
   6144980659.6303864     
   5967799412.5259466     
   5789839108.3361406     
   7394663568.6312904     
   7237134814.6339703     
   7072019547.0612335     
   6898614625.3219795     
   6716734416.0392675     
   6975131753.3993616     
   6821932077.6331339     
   6664077748.5926304     
   6501283672.1280699     
   6333501330.0559912     
   6563526536.0292225     
   6413715794.2817144     
   6262263095.8359394     
   6109136734.8914232     
   5954366698.9353685     
   6165827053.9720583     
   6017473058.0796432     
   5870455369.3063583     
   5724811780.6319466     
   5580597438.7778492     
   5789839108.3361406     
   5639653816.4774284     
   5493661586.8440371     
   5351773912.0904551     
   5214038249.5909529     
   6716734416.0392675     
   6523387180.6571398     
   6333657486.7235508     
   6147424983.3199530     
   5964668669.6049690     
   6333501330.0559912     
   6148423472.7246971     
   5965676270.4172211     
   5785235649.4207869     
   5607127350.0922823     
   5954366698.9353685     
   5780393110.1840391     
   5607843574.2574711     
   5436743857.8606501     
   5267155158.0916615     
   5580597438.7778492     
   5421078759.8612604     
   5262497421.4701538     
   5104897070.0945091     
   4948388416.3152237     
   5214038249.5909529     
   5072848040.9808187     
   4932590135.0744886     
   4793308970.7214708     
   4655205918.2038307     
   5964668669.6049690     
   5792577662.9306135     
   5618864029.5839090     
   5443493133.5703516     
   5266498157.0424967     
   5607127350.0922823     
   5445585719.6686640     
   5283418414.1831093     
   5120654929.9781332     
   4957374324.4618702     
   5267155158.0916615     
   5115142775.9618502     
   4963469446.9380779     
   4812206674.6869755     
   4661461519.6675987     
   4948388416.3152237     
   4804739354.2039776     
   4662319153.8940058     
   4521218478.3323345     
   4381555787.9942083     
   4655205918.2038307     
   4518586949.4332199     
   4383964536.1868334     
   4251426075.8683577     
   4121087915.1938310     
   5266498157.0424967     
   5064288191.9670010     
   4863286767.9472847     
   4663500921.7739725     
   4464972126.8399506     
   4957374324.4618702     
   4764469091.7634935     
   4572725852.2069006     
   4382193055.1345139     
   4192965923.5915775     
   4661461519.6675987     
   4480606464.1695175     
   4301173420.1414413     
   4123281453.8484440     
   3947125223.1405654     
   4381555787.9942083     
   4215719740.0172443     
   4051928483.5948434     
   3890408334.8472147     
   3731507570.7466760     
   4121087915.1938310     
   3973405224.5305343     
   3828799797.4593358     
   3687639478.6843567     
   3550474299.1461773     
   4464972126.8399506     
   4304953160.8388519     
   4143800273.7699122     
   3981500269.5692310     
   3818177842.3027635     
   4192965923.5915775     
   4047522689.7591553     
   3902043094.2644048     
   3756600104.0693903     
   3611353172.6461825     
   3947125223.1405654     
   3812751917.5838661     
   3679101971.8475189     
   3546270849.0942993     
   3414396851.5445380     
   3731507570.7466760     
   3604637458.0907354     
   3478806924.8696060     
   3354080617.4804358     
   3230538746.1201410     
   3550474299.1461773     
   3427583972.0620151     
   3305522133.1035476     
   3184280673.0123391     
   3063863338.3065157     
   3818177842.3027635     
   3614719897.4901237     
   3414286838.8505020     
   3217050454.9829707     
   3023441341.8117394     
   3611353172.6461825     
   3406990850.1336236     
   3204435114.1879582     
   3003791781.0240960     
   2805252787.8117170     
   3414396851.5445380     
   3220280097.5533361     
   3028153643.4203711     
   2838321397.1769180     
   2651296359.3089852     
   3230538746.1201410     
   3058654574.9538255     
   2890636485.0195746     
   2727425630.7525625     
   2570641004.7390656     
   3063863338.3065157     
   2926505265.8149114     
   2796729479.4281955     
   2676508384.6296434     
   2569149194.7305546     
   5658658321.1802387     
   5891814910.8621883     
   6117357368.9998589     
   6332821954.3719883     
   6537987118.6463404     
   5151806972.9693260     
   5311605947.9139977     
   5468050161.3955746     
   5618238508.1111488     
   5760703727.4217310     
   4643273106.2589483     
   4755158209.3539743     
   4868167697.2197304     
   4979660668.0246382     
   5087707841.1587162     
   4133316456.4245453     
   4223308544.1710763     
   4319210187.1866589     
   4419359571.8151894     
   4522297796.7293797     
   3623458329.8779254     
   3717886252.5193205     
   3823548243.0335340     
   3940378908.6811795     
   4068284365.8664260     
   6537987118.6463404     
   6330400198.5115671     
   6144980659.6303864     
   5967799412.5259466     
   5789839108.3361406     
   5760703727.4217310     
   5652669225.2325830     
   5560612294.9527330     
   5475466193.1888809     
   5391684383.0871572     
   5087707841.1587162     
   5053360248.0507030     
   5029492919.0400572     
   5010904181.5565634     
   4994388698.1053181     
   4522297796.7293797     
   4537099416.6068020     
   4556516165.9924097     
   4578080195.0057163     
   4600069924.2781963     
   4068284365.8664260     
   4109266040.4471521     
   4147496131.1545715     
   4182095135.5949082     
   4212347024.8174610     
   5789839108.3361406     
   5639653816.4774284     
   5493661586.8440371     
   5351773912.0904551     
   5214038249.5909529     
   5391684383.0871572     
   5250692072.5288334     
   5112936471.3145103     
   4978460145.4183722     
   4847358540.5812349     
   4994388698.1053181     
   4867229339.1198092     
   4743320255.9198751     
   4622628521.3185902     
   4505194940.6418934     
   4600069924.2781963     
   4491921081.7533884     
   4388125658.4152689     
   4288359314.4563298     
   4192529403.1977134     
   4212347024.8174610     
   4128729912.0701399     
   4051843572.8527107     
   3980817987.2242823     
   3915350899.4891076     
   5214038249.5909529     
   5072848040.9808187     
   4932590135.0744886     
   4793308970.7214708     
   4655205918.2038307     
   4847358540.5812349     
   4724029162.6251192     
   4602480462.9253387     
   4482846175.6639843     
   4365381649.1441174     
   4505194940.6418934     
   4397918539.2605343     
   4293160821.7769766     
   4191107614.4148645     
   4092030986.0807829     
   4192529403.1977134     
   4099405488.2572975     
   4009361797.9951735     
   3922600388.0603685     
   3839377890.2065854     
   3915350899.4891076     
   3834372429.3422956     
   3756786102.5609083     
   3682778762.8976655     
   3612568495.6260724     
   4655205918.2038307     
   4518586949.4332199     
   4383964536.1868334     
   4251426075.8683577     
   4121087915.1938310     
   4365381649.1441174     
   4237308606.1246910     
   4111740198.1465373     
   3988847936.4830871     
   3868847967.4056749     
   4092030986.0807829     
   3975618922.2482209     
   3862591322.6020732     
   3753216645.4199209     
   3647835418.7803721     
   3839377890.2065854     
   3737727231.2361960     
   3640741281.8230133     
   3548789365.0779023     
   3462348503.2414145     
   3612568495.6260724     
   3528568755.4198990     
   3450919353.2247515     
   3380073065.3563566     
   3316628027.3645520     
   4121087915.1938310     
   3973405224.5305343     
   3828799797.4593358     
   3687639478.6843567     
   3550474299.1461773     
   3868847967.4056749     
   3739731179.8083901     
   3614308141.0766768     
   3492977494.7997708     
   3376270722.9881835     
   3647835418.7803721     
   3534981656.6161833     
   3426161635.1371746     
   3321752235.5092945     
   3222216804.9432273     
   3462348503.2414145     
   3363477123.2109051     
   3268630161.4927559     
   3178118507.9673233     
   3092302787.9479713     
   3316628027.3645520     
   3229521270.9274368     
   3146025765.1101093     
   3066355096.0546360     
   2990750882.3773837     
   3550474299.1461773     
   3427583972.0620151     
   3305522133.1035476     
   3184280673.0123391     
   3063863338.3065157     
   3376270722.9881835     
   3257491092.7884579     
   3140807847.9111409     
   3026405562.7695761     
   2914503934.7945695     
   3222216804.9432273     
   3113811059.6519961     
   3009550713.5994425     
   2909875869.7904367     
   2815325334.9771256     
   3092302787.9479713     
   3000128431.4316978     
   2914878480.3794980     
   2837255126.5933132     
   2768135006.6937556     
   2990750882.3773837     
   2919736660.6560464     
   2859032322.8134971     
   2809523067.5543957     
   2772329818.0785694     
   3063863338.3065157     
   2926505265.8149114     
   2796729479.4281955     
   2676508384.6296434     
   2569149194.7305546     
   2914503934.7945695     
   2813308723.8928318     
   2719172544.3663535     
   2633254898.1508536     
   2557122256.8081045     
   2815325334.9771256     
   2735523819.2059765     
   2659744626.3194156     
   2588291254.7463303     
   2521507059.8276758     
   2768135006.6937556     
   2695321632.4440522     
   2621107575.0260482     
   2545134361.9484630     
   2467174822.2426071     
   2772329818.0785694     
   2693497443.0924249     
   2605971159.7565570     
   2508953735.7902503     
   2402223676.0900750     
   3623458329.8779254     
   3717886252.5193205     
   3823548243.0335340     
   3940378908.6811795     
   4068284365.8664260     
   3135828055.0063124     
   3253122370.5515141     
   3379797967.2132673     
   3515386616.1882100     
   3659431435.7088280     
   2692258151.8237987     
   2827764435.6257424     
   2970525524.8521872     
   3119458629.6168361     
   3273653616.2913108     
   2296279817.2507253     
   2446657932.7656341     
   2601674493.6996050     
   2759400587.3123918     
   2918405378.3355899     
   1953166273.1155484     
   2116835389.3148372     
   2281744850.6752911     
   2444917500.0862346     
   2604390540.9601493     
   4068284365.8664260     
   4109266040.4471521     
   4147496131.1545715     
   4182095135.5949082     
   4212347024.8174610     
   3659431435.7088280     
   3697990245.5834742     
   3735081242.8747292     
   3769814291.8454461     
   3801446316.1644769     
   3273653616.2913108     
   3315815201.8186302     
   3358159143.6826921     
   3399864383.0707798     
   3440253527.6986914     
   2918405378.3355899     
   2970208252.2921915     
   3024217751.8820958     
   3079750594.5721617     
   3136273850.9863920     
   2604390540.9601493     
   2671339240.8930769     
   2742840840.4818587     
   2818385819.0533004     
   2897624317.4939313     
   4212347024.8174610     
   4128729912.0701399     
   4051843572.8527107     
   3980817987.2242823     
   3915350899.4891076     
   3801446316.1644769     
   3749405112.1051369     
   3703405770.3408642     
   3662962820.5418596     
   3627963813.8512359     
   3440253527.6986914     
   3414573776.3857212     
   3393799887.8198552     
   3377694026.3055449     
   3366217095.1524935     
   3136273850.9863920     
   3132097917.8481779     
   3131021630.8254800     
   3132937922.9676232     
   3137810823.6751213     
   2897624317.4939313     
   2910594597.8269935     
   2924003907.3905139     
   2937791961.6192393     
   2951907409.0301938     
   3915350899.4891076     
   3834372429.3422956     
   3756786102.5609083     
   3682778762.8976655     
   3612568495.6260724     
   3627963813.8512359     
   3557299071.6346126     
   3490882040.1231422     
   3428930075.0490484     
   3371701001.8630853     
   3366217095.1524935     
   3307350758.4990320     
   3253830949.3784809     
   3205884376.5150838     
   3163788829.0760498     
   3137810823.6751213     
   3091831941.7650633     
   3052533116.9452872     
   3020115357.8617272     
   2994841916.0644493     
   2951907409.0301938     
   2919170700.3925471     
   2894651619.3050127     
   2878478539.7560072     
   2870854536.7321124     
   3612568495.6260724     
   3528568755.4198990     
   3450919353.2247515     
   3380073065.3563566     
   3316628027.3645520     
   3371701001.8630853     
   3305378001.1031375     
   3245389532.4954357     
   3192081919.3966403     
   3145883504.1014452     
   3163788829.0760498     
   3111659158.3590112     
   3065497063.2667313     
   3025537357.8778486     
   2992052714.6798949     
   2994841916.0644493     
   2953270638.9693151     
   2916907398.7889442     
   2885891816.7972465     
   2860378846.6078148     
   2870854536.7321124     
   2836201386.2005763     
   2805587193.4061413     
   2779090002.8851652     
   2756802117.3032765     
   3316628027.3645520     
   3229521270.9274368     
   3146025765.1101093     
   3066355096.0546360     
   2990750882.3773837     
   3145883504.1014452     
   3065814709.6973205     
   2990956602.4895763     
   2921650470.5873909     
   2858275211.9068713     
   2992052714.6798949     
   2921873383.0485020     
   2858845742.7653751     
   2803379729.5592752     
   2755935877.8816547     
   2860378846.6078148     
   2802158973.4736400     
   2753320904.1046228     
   2714260544.9077926     
   2685439953.6900868     
   2756802117.3032765     
   2711414856.2991724     
   2677878056.5531344     
   2656480874.3370948     
   2647600962.3853660     
   2990750882.3773837     
   2919736660.6560464     
   2859032322.8134971     
   2809523067.5543957     
   2772329818.0785694     
   2858275211.9068713     
   2808427342.4544935     
   2767233450.2759113     
   2735185790.2712898     
   2712860415.9303918     
   2755935877.8816547     
   2720439191.2471161     
   2691334069.2359614     
   2668823519.1810627     
   2653127368.0150523     
   2685439953.6900868     
   2657905700.5868607     
   2633944397.4508400     
   2613590095.0552144     
   2596893155.2914896     
   2647600962.3853660     
   2622474366.9478545     
   2597632026.1977654     
   2573052917.8366761     
   2548785361.7796545     
   2772329818.0785694     
   2693497443.0924249     
   2605971159.7565570     
   2508953735.7902503     
   2402223676.0900750     
   2712860415.9303918     
   2627542373.7988882     
   2547002522.2279816     
   2471684174.8793535     
   2402057779.2600713     
   2653127368.0150523     
   2588002563.1604137     
   2542167419.9498196     
   2517828250.6690459     
   2517685660.3412156     
   2596893155.2914896     
   2573971468.0979362     
   2585305141.4774556     
   2634879219.2363844     
   2728149063.2796545     
   2548785361.7796545     
   2583863852.1535764     
   2669709411.9802094     
   2811887475.3757381     
   3018494896.6583982     
   1953166273.1155484     
   2116835389.3148372     
   2281744850.6752911     
   2444917500.0862346     
   2604390540.9601493     
   1652344620.9132929     
   1818366222.5613248     
   1986034981.9347279     
   2152640424.1146293     
   2316417654.0774302     
   1393078064.8305302     
   1570149067.6925528     
   1748247912.2619710     
   1925359613.5197210     
   2100226325.6596799     
   1207700677.4179864     
   1399574014.3586359     
   1591119309.9560099     
   1781552548.5614066     
   1970409844.4255302     
   1138687035.1454189     
   1337203193.6393902     
   1536192580.2932751     
   1735655299.7380092     
   1935591462.2218816     
   2604390540.9601493     
   2671339240.8930769     
   2742840840.4818587     
   2818385819.0533004     
   2897624317.4939313     
   2316417654.0774302     
   2402939418.3996844     
   2491918397.4815445     
   2582967600.2828002     
   2675814779.9196119     
   2100226325.6596799     
   2203865960.3094749     
   2307386390.9457021     
   2410555291.3497372     
   2513208393.9879580     
   1970409844.4255302     
   2087816975.4771290     
   2202287694.0106583     
   2313750000.2860332     
   2422153224.0971465     
   1935591462.2218816     
   2062841191.6706502     
   2184523642.1490712     
   2300638565.4809809     
   2411185875.8076735     
   2897624317.4939313     
   2910594597.8269935     
   2924003907.3905139     
   2937791961.6192393     
   2951907409.0301938     
   2675814779.9196119     
   2694972931.9974275     
   2715858867.8844433     
   2738448401.5908055     
   2762725407.5080075     
   2513208393.9879580     
   2539564924.1539268     
   2569042078.2667346     
   2601637681.4540586     
   2637356521.9715643     
   2422153224.0971465     
   2455119966.3123927     
   2492655037.8466487     
   2534762115.4537144     
   2581450847.5340343     
   2411185875.8076735     
   2448301067.6888642     
   2491461786.5686021     
   2540675075.5530133     
   2595952599.6640434     
   2951907409.0301938     
   2919170700.3925471     
   2894651619.3050127     
   2878478539.7560072     
   2870854536.7321124     
   2762725407.5080075     
   2745030204.1444016     
   2734312804.3907795     
   2730645959.5721641     
   2734121382.4204378     
   2637356521.9715643     
   2629978895.3659644     
   2627797950.8920021     
   2630847847.0702810     
   2639163780.4026833     
   2581450847.5340343     
   2579961697.9518180     
   2581393696.0746846     
   2585767711.7145948     
   2593121882.3681602     
   2595952599.6640434     
   2596807279.4823823     
   2597942847.6154528     
   2599383186.3648090     
   2601212453.4458637     
   2870854536.7321124     
   2836201386.2005763     
   2805587193.4061413     
   2779090002.8851652     
   2756802117.3032765     
   2734121382.4204378     
   2702319487.7985067     
   2676289965.2018795     
   2656110553.7967000     
   2641863735.3288703     
   2639163780.4026833     
   2611149920.7896991     
   2590901359.3371272     
   2578456141.0430784     
   2573862551.4802933     
   2593121882.3681602     
   2568547375.9186821     
   2553918049.4777884     
   2549208430.8540387     
   2554424615.7797170     
   2601212453.4458637     
   2578244292.6580105     
   2567523640.9262180     
   2568975332.5705352     
   2582591172.8474441     
   2756802117.3032765     
   2711414856.2991724     
   2677878056.5531344     
   2656480874.3370948     
   2647600962.3853660     
   2641863735.3288703     
   2611696341.5585761     
   2591459343.3560085     
   2581286468.2576408     
   2581337964.4289961     
   2573862551.4802933     
   2553441392.5445843     
   2540606854.1069202     
   2535401675.2305474     
   2537870510.5729046     
   2554424615.7797170     
   2538983756.2156234     
   2528417756.6250882     
   2522729533.1599050     
   2521927815.7010603     
   2582591172.8474441     
   2568550320.3530488     
   2556396296.5735998     
   2546119680.6994796     
   2537741478.0041966     
   2647600962.3853660     
   2622474366.9478545     
   2597632026.1977654     
   2573052917.8366761     
   2548785361.7796545     
   2581337964.4289961     
   2548564428.0645723     
   2516613357.7128215     
   2485532859.6638260     
   2455428172.3994308     
   2537870510.5729046     
   2497956340.1399226     
   2459555603.0613937     
   2422766004.6392398     
   2387731554.3074937     
   2521927815.7010603     
   2475349484.1482797     
   2431098977.2712283     
   2389303672.8078599     
   2350126842.4377131     
   2537741478.0041966     
   2484912766.9264979     
   2435307221.4139633     
   2389060862.6538534     
   2346334988.7785802     
   2548785361.7796545     
   2583863852.1535764     
   2669709411.9802094     
   2811887475.3757381     
   3018494896.6583982     
   2455428172.3994308     
   2515708213.5778003     
   2603556999.3986025     
   2718938035.3162684     
   2862299683.3917108     
   2387731554.3074937     
   2427719274.6832676     
   2471913465.1491966     
   2520821535.2328720     
   2575224488.1439776     
   2350126842.4377131     
   2335433941.1162090     
   2298742134.2809911     
   2248086003.6193428     
   2197031843.1807146     
   2346334988.7785802     
   2261187674.7004471     
   2129022174.2621574     
   1976378854.3705266     
   1856037232.3413894     
   1138687035.1454189     
   1337203193.6393902     
   1536192580.2932751     
   1735655299.7380092     
   1935591462.2218816     
   1209755313.3486264     
   1402092553.2797663     
   1594157975.0049570     
   1785182062.5226858     
   1974710594.8286462     
   1396541688.8346102     
   1574371900.1611376     
   1753350408.7190661     
   1931480010.5811651     
   2107512769.4069812     
   1656500078.6508305     
   1823326920.6029074     
   1991988123.1383646     
   2159786666.8166471     
   2324959602.2611361     
   1957489750.3496666     
   2121744806.4330029     
   2287479342.4910483     
   2451723870.7261620     
   2612505498.1197462     
   1935591462.2218816     
   2062841191.6706502     
   2184523642.1490712     
   2300638565.4809809     
   2411185875.8076735     
   1974710594.8286462     
   2092634239.1914804     
   2207709514.1079130     
   2319860684.1663165     
   2429035666.4028854     
   2107512769.4069812     
   2212261931.2879500     
   2317069817.0686831     
   2421705660.3076291     
   2526006222.2966022     
   2324959602.2611361     
   2413115022.0068560     
   2504006605.4296970     
   2597263176.5068240     
   2692620939.2175794     
   2612505498.1197462     
   2681425976.0838418     
   2755290687.4098825     
   2833630842.9999075     
   2916120642.9182224     
   2411185875.8076735     
   2448301067.6888642     
   2491461786.5686021     
   2540675075.5530133     
   2595952599.6640434     
   2429035666.4028854     
   2466438371.6719246     
   2509051725.7894053     
   2556885575.2258849     
   2609949051.3299513     
   2526006222.2966022     
   2559271809.0739703     
   2596862176.9814119     
   2638786915.0122747     
   2685059236.8683491     
   2692620939.2175794     
   2718818531.9717073     
   2748395556.6745877     
   2781343878.3131952     
   2817672378.6649146     
   2916120642.9182224     
   2933907900.8770537     
   2954073931.6426101     
   2976568841.2893405     
   3001379348.3993964     
   2595952599.6640434     
   2596807279.4823823     
   2597942847.6154528     
   2599383186.3648090     
   2601212453.4458637     
   2609949051.3299513     
   2608175438.9362531     
   2610960553.4024425     
   2618297609.8411136     
   2630202734.6203718     
   2685059236.8683491     
   2679751988.0834374     
   2683147691.4713249     
   2695254211.0529308     
   2716091244.4311061     
   2817672378.6649146     
   2805456772.4993424     
   2805867574.6600409     
   2819050213.1992078     
   2845177201.5239406     
   3001379348.3993964     
   2977065099.1946211     
   2969124580.5980673     
   2978045154.7650113     
   3004380531.7635889     
   2601212453.4458637     
   2578244292.6580105     
   2567523640.9262180     
   2568975332.5705352     
   2582591172.8474441     
   2630202734.6203718     
   2622120913.6846366     
   2623680873.3468919     
   2634909233.9484191     
   2655848269.2096200     
   2716091244.4311061     
   2718018763.3458996     
   2726893774.8543949     
   2742787866.5870934     
   2765767613.2000985     
   2845177201.5239406     
   2853997864.1063294     
   2867039829.1809216     
   2884341331.7035308     
   2905942844.3891368     
   3004380531.7635889     
   3018694812.7504148     
   3034468361.1644430     
   3051633292.5783896     
   3070153853.7686443     
   2582591172.8474441     
   2568550320.3530488     
   2556396296.5735998     
   2546119680.6994796     
   2537741478.0041966     
   2655848269.2096200     
   2646175678.9823675     
   2642307172.7756691     
   2644232104.8636966     
   2651955129.0008707     
   2765767613.2000985     
   2758741972.2980189     
   2761434449.8781061     
   2773866844.0055962     
   2796071850.2619410     
   2905942844.3891368     
   2898234470.8571219     
   2904231690.3073463     
   2924076317.9765730     
   2957919929.9581389     
   3070153853.7686443     
   3057394468.1253066     
   3062565025.8468118     
   3086068613.1568022     
   3128307346.0495076     
   2537741478.0041966     
   2484912766.9264979     
   2435307221.4139633     
   2389060862.6538534     
   2346334988.7785802     
   2651955129.0008707     
   2624762459.0215087     
   2605678226.4070849     
   2594660513.5969439     
   2591663288.1870847     
   2796071850.2619410     
   2794514989.3572102     
   2806201718.3169794     
   2831138709.5865293     
   2869375872.7421350     
   2957919929.9581389     
   2980466215.0009460     
   3022067269.9896054     
   3082994988.3184013     
   3163610812.0159593     
   3128307346.0495076     
   3173162269.2663012     
   3244110152.3563399     
   3341831815.3020191     
   3467074905.3256912     
   2346334988.7785802     
   2261187674.7004471     
   2129022174.2621574     
   1976378854.3705266     
   1856037232.3413894     
   2591663288.1870847     
   2529011261.4937644     
   2441744764.0191412     
   2335236753.3970685     
   2219210905.4197378     
   2869375872.7421350     
   2858798965.2259955     
   2856314215.9208407     
   2861719144.9225187     
   2874798627.4837251     
   3163610812.0159593     
   3222207864.3118758     
   3327547426.9177260     
   3481769317.1207700     
   3687354011.2673144     
   3467074905.3256912     
   3613055853.6031799     
   3853466589.0833793     
   4195409924.7367940     
   4645477507.6412039     
   1957489750.3496666     
   2121744806.4330029     
   2287479342.4910483     
   2451723870.7261620     
   2612505498.1197462     
   2300321611.8214478     
   2450926158.7065263     
   2606310173.7167363     
   2764545534.4988890     
   2924194481.1067166     
   2695628220.4180365     
   2831125529.3786654     
   2973937510.3065276     
   3122980647.9105287     
   3277342061.4068756     
   3138247583.6573629     
   3255443129.6021552     
   3382012756.5148263     
   3517490358.1286230     
   3661420907.0017881     
   3624710235.6394386     
   3719106870.4273906     
   3824672514.8200431     
   3941350615.5059476     
   4069054542.2750111     
   2612505498.1197462     
   2681425976.0838418     
   2755290687.4098825     
   2833630842.9999075     
   2916120642.9182224     
   2924194481.1067166     
   2977450066.6215930     
   3033219376.1465235     
   3090847506.6273828     
   3149821964.3027163     
   3277342061.4068756     
   3320290159.4979401     
   3363624658.5014119     
   3406531842.6261978     
   3448340782.9747319     
   3661420907.0017881     
   3700059372.1559267     
   3737324977.2508254     
   3772310843.8688602     
   3804261615.3899560     
   4069054542.2750111     
   4109435355.2662077     
   4147058103.6890330     
   4181004772.3285832     
   4210529897.3718562     
   2916120642.9182224     
   2933907900.8770537     
   2954073931.6426101     
   2976568841.2893405     
   3001379348.3993964     
   3149821964.3027163     
   3145627195.7420721     
   3145459801.7417459     
   3149230838.0172658     
   3156968208.3682890     
   3448340782.9747319     
   3419329980.5754714     
   3395340450.0408626     
   3376149957.3734984     
   3361773896.4385419     
   3804261615.3899560     
   3747444220.5127001     
   3696177533.9741693     
   3649984000.3446136     
   3608765302.9465675     
   4210529897.3718562     
   4122689028.5266142     
   4040670172.1093407     
   3963613410.2604232     
   3891178554.8082647     
   3001379348.3993964     
   2977065099.1946211     
   2969124580.5980673     
   2978045154.7650113     
   3004380531.7635889     
   3156968208.3682890     
   3111921647.5849657     
   3078615446.7896895     
   3057584630.0095534     
   3049425130.3125391     
   3361773896.4385419     
   3296802090.7448730     
   3239159967.2241087     
   3189267356.0579739     
   3147594724.0103564     
   3608765302.9465675     
   3527515277.6403422     
   3449583230.4522085     
   3375182534.0426784     
   3304553631.3583837     
   3891178554.8082647     
   3799215776.2088933     
   3707174945.6492462     
   3615088518.7623940     
   3522997267.9707203     
   3004380531.7635889     
   3018694812.7504148     
   3034468361.1644430     
   3051633292.5783896     
   3070153853.7686443     
   3049425130.3125391     
   3035542514.9680195     
   3025425669.3735046     
   3019179524.4705353     
   3016937906.3106270     
   3147594724.0103564     
   3104670146.3571968     
   3067363703.5977097     
   3035923239.1030989     
   3010649067.0374818     
   3304553631.3583837     
   3231727488.7858014     
   3165810118.6327014     
   3107127134.9407573     
   3056108688.7235966     
   3522997267.9707203     
   3419353087.4238319     
   3323340140.3378491     
   3235263289.2536774     
   3155603812.4846554     
   3070153853.7686443     
   3057394468.1253066     
   3062565025.8468118     
   3086068613.1568022     
   3128307346.0495076     
   3016937906.3106270     
   2978261820.5367818     
   2953307016.4521093     
   2942626331.4584446     
   2946779626.1773100     
   3010649067.0374818     
   2945802808.5862274     
   2890305026.5288668     
   2844708761.6770720     
   2809600468.9875627     
   3056108688.7235966     
   2968077273.8646951     
   2885039936.0675950     
   2807363132.0831771     
   2735453860.8818660     
   3155603812.4846554     
   3050547878.1679740     
   2946679026.9222994     
   2844097209.3564653     
   2742916242.0496459     
   3128307346.0495076     
   3173162269.2663012     
   3244110152.3563399     
   3341831815.3020191     
   3467074905.3256912     
   2946779626.1773100     
   2955094810.5802541     
   2982332526.4899879     
   3029094052.2003222     
   3095953474.7199140     
   2809600468.9875627     
   2776464033.0961547     
   2754556959.6832838     
   2744409109.2716432     
   2746519169.1833272     
   2735453860.8818660     
   2661428223.1408048     
   2590406473.4213390     
   2522734918.1028380     
   2458806667.4123697     
   2742916242.0496459     
   2637352708.0332155     
   2527781167.2865596     
   2414599849.8058338     
   2298450078.5128636     
   3467074905.3256912     
   3613055853.6031799     
   3853466589.0833793     
   4195409924.7367940     
   4645477507.6412039     
   3095953474.7199140     
   3171597764.7599382     
   3298061589.6184793     
   3477446769.6596284     
   3711359649.3193636     
   2746519169.1833272     
   2726213495.3921747     
   2713713541.9412570     
   2709312613.0270357     
   2713414865.8441868     
   2458806667.4123697     
   2338011343.4920230     
   2186069145.0383725     
   2011854112.6171379     
   1834626361.7803426     
   2298450078.5128636     
   2140200887.4696803     
   1962242058.8442006     
   1832943660.0655394     
   1864614309.8665588     
   3624710235.6394386     
   3719106870.4273906     
   3824672514.8200431     
   3941350615.5059476     
   4069054542.2750111     
   4133447435.4003992     
   4223465942.9144158     
   4319322569.6943264     
   4419371637.2128830     
   4522169234.3401070     
   4642554597.7163086     
   4754451652.8456793     
   4867399651.2938709     
   4978777894.9996710     
   5086674847.8134394     
   5150491070.3913155     
   5310219000.3934975     
   5466522774.3605423     
   5616523147.8809175     
   5758769599.1260052     
   5656981268.1015587     
   5889917504.5549946     
   6115180908.2942314     
   6330329151.9754534     
   6535153718.0130978     
   4069054542.2750111     
   4109435355.2662077     
   4147058103.6890330     
   4181004772.3285832     
   4210529897.3718562     
   4522169234.3401070     
   4535955977.2109737     
   4554322956.7956190     
   4574787367.3071690     
   4595629475.6275587     
   5086674847.8134394     
   5051135652.3746395     
   5026046321.7830505     
   5006203322.6743069     
   4988409242.0894690     
   5758769599.1260052     
   5649582030.5069427     
   5556364586.8819962     
   5470060632.4144268     
   5385125833.2910099     
   6535153718.0130978     
   6326647511.9394026     
   6140330542.6257935     
   5962302738.9086981     
   5783544157.1023922     
   4210529897.3718562     
   4122689028.5266142     
   4040670172.1093407     
   3963613410.2604232     
   3891178554.8082647     
   4595629475.6275587     
   4485551487.6338253     
   4379314724.2145376     
   4276587948.4225502     
   4177243300.1014514     
   4988409242.0894690     
   4861028366.8360624     
   4736697511.8450470     
   4615372807.9474716     
   4497072153.9613848     
   5385125833.2910099     
   5244907608.6852589     
   5107957479.6537943     
   4974310119.8669024     
   4844054014.5869122     
   5783544157.1023922     
   5634344910.6694603     
   5489527104.0634899     
   5349004958.7160950     
   5212839504.4126539     
   3891178554.8082647     
   3799215776.2088933     
   3707174945.6492462     
   3615088518.7623940     
   3522997267.9707203     
   4177243300.1014514     
   4079772643.5652452     
   3983282553.2486844     
   3887868980.5129523     
   3793659792.5363979     
   4497072153.9613848     
   4390156673.9874868     
   4284773436.8340716     
   4181051504.3528037     
   4079193068.6758375     
   4844054014.5869122     
   4723353205.0084171     
   4604309450.6778326     
   4487053386.8778391     
   4371844697.9345026     
   5212839504.4126539     
   5073820068.5649366     
   4936243572.3097286     
   4800205807.1345959     
   4665997869.0118189     
   3522997267.9707203     
   3419353087.4238319     
   3323340140.3378491     
   3235263289.2536774     
   3155603812.4846554     
   3793659792.5363979     
   3677744137.2077808     
   3566998020.0243111     
   3461705277.5381999     
   3362272752.2655869     
   4079193068.6758375     
   3953302769.5872760     
   3830759035.0993381     
   3711787467.2491407     
   3596687268.0560970     
   4371844697.9345026     
   4238971283.7061877     
   4108166873.7795596     
   3979582738.2157459     
   3853406132.3376727     
   4665997869.0118189     
   4529519466.8539839     
   4394297218.3851814     
   4260401387.1748171     
   4127915694.5856442     
   3155603812.4846554     
   3050547878.1679740     
   2946679026.9222994     
   2844097209.3564653     
   2742916242.0496459     
   3362272752.2655869     
   3251903458.6129193     
   3143606824.7901402     
   3037555460.9328012     
   2933952618.2841506     
   3596687268.0560970     
   3478399342.9328394     
   3362733350.7749228     
   3249924064.8314276     
   3140265382.1217422     
   3853406132.3376727     
   3724174536.0787110     
   3597807038.4807286     
   3474589530.5388927     
   3354906326.7128000     
   4127915694.5856442     
   3984488768.2132421     
   3843906840.0253081     
   3706493756.4232259     
   3572720070.9568739     
   2742916242.0496459     
   2637352708.0332155     
   2527781167.2865596     
   2414599849.8058338     
   2298450078.5128636     
   2933952618.2841506     
   2832690769.1924872     
   2730194499.4408731     
   2626743878.4761367     
   2522728431.9034176     
   3140265382.1217422     
   3039911318.1647286     
   2940721340.3589473     
   2842918957.9607596     
   2746785574.9992585     
   3354906326.7128000     
   3250570446.5443983     
   3149472133.2489786     
   3051899894.8536711     
   2958222506.2970333     
   3572720070.9568739     
   3458669273.9263124     
   3349732933.2480512     
   3246438862.3238935     
   3149486980.0597777     
   2298450078.5128636     
   2140200887.4696803     
   1962242058.8442006     
   1832943660.0655394     
   1864614309.8665588     
   2522728431.9034176     
   2438339152.9357238     
   2354431847.0659223     
   2295183117.9364567     
   2293259528.4852557     
   2746785574.9992585     
   2712282922.6691785     
   2690319798.2156038     
   2682531550.0352283     
   2690543906.3140540     
   2958222506.2970333     
   2936431844.8489332     
   2938794350.0944829     
   2962255296.2207360     
   3005831924.8697209     
   3149486980.0597777     
   3100915896.3881755     
   3098997116.8429074     
   3153317383.6063476     
   3281130376.5754681     
   5656981268.1015587     
   5889917504.5549946     
   6115180908.2942314     
   6330329151.9754534     
   6535153718.0130978     
   6490991785.5764818     
   6586055314.2809286     
   6756441826.9344730     
   6960078609.5539055     
   7170310268.1595802     
   7981769323.5468941     
   7734280844.2912273     
   7668364958.2894154     
   7668712374.0894537     
   7665389831.6446104     
   10129762333.386137     
   9321416858.0990086     
   8825734863.1965370     
   8442866498.2193298     
   8034994693.4131432     
   12935060001.866791     
   11340167837.683815     
   10209703789.192085     
   9272296138.6182785     
   8303489126.0062990     
   6535153718.0130978     
   6326647511.9394026     
   6140330542.6257935     
   5962302738.9086981     
   5783544157.1023922     
   7170310268.1595802     
   6909514354.3992653     
   6656630072.6861115     
   6407810156.2132950     
   6159912586.3779917     
   7665389831.6446104     
   7380208298.8847446     
   7100444449.5053291     
   6826183177.3166656     
   6557637693.6177797     
   8034994693.4131432     
   7746366536.7865038     
   7473452541.1640215     
   7214289794.8317862     
   6968894335.4857645     
   8303489126.0062990     
   8020540030.9815359     
   7779772935.1108589     
   7570480802.3760319     
   7387695006.6097097     
   5783544157.1023922     
   5634344910.6694603     
   5489527104.0634899     
   5349004958.7160950     
   5212839504.4126539     
   6159912586.3779917     
   6012245351.7138186     
   5866017221.3783817     
   5721266908.8560581     
   5578052701.6705637     
   6557637693.6177797     
   6408259429.0156069     
   6257269272.5247927     
   6104634782.8607569     
   5950385504.6203575     
   6968894335.4857645     
   6815968334.8563766     
   6658352747.6235590     
   6495761069.7010431     
   6328147325.8280525     
   7387695006.6097097     
   7230411847.0072098     
   7065447952.4301538     
   6892100346.7950363     
   6710196017.1183128     
   5212839504.4126539     
   5073820068.5649366     
   4936243572.3097286     
   4800205807.1345959     
   4665997869.0118189     
   5578052701.6705637     
   5418048811.3798542     
   5259178469.2104425     
   5101513307.8139143     
   4945208324.6422195     
   5950385504.6203575     
   5774667104.0187445     
   5600381309.6742783     
   5427565205.6991215     
   5256293485.8385649     
   6328147325.8280525     
   6141503303.3221531     
   5957127896.4572954     
   5774994071.6544800     
   5595119932.0483265     
   6710196017.1183128     
   6516905298.0540552     
   6327204940.2671518     
   6140952057.0861416     
   5958096944.5784578     
   4665997869.0118189     
   4529519466.8539839     
   4394297218.3851814     
   4260401387.1748171     
   4127915694.5856442     
   4945208324.6422195     
   4802209757.8388901     
   4660076116.1932249     
   4518889030.6260777     
   4378749698.7255774     
   5256293485.8385649     
   5105125463.7260551     
   4954238219.2343712     
   4803694286.2653427     
   4653587934.3407793     
   5595119932.0483265     
   5434066560.9468040     
   5272569124.9399624     
   5110640420.2445545     
   4948340817.5303431     
   5958096944.5784578     
   5785407949.7658806     
   5611461477.9898911     
   5436190704.5247107     
   5259593873.6758156     
   4127915694.5856442     
   3984488768.2132421     
   3843906840.0253081     
   3706493756.4232259     
   3572720070.9568739     
   4378749698.7255774     
   4218600158.3587804     
   4060545027.7880731     
   3904798970.4345484     
   3751690869.0234666     
   4653587934.3407793     
   4478353068.7682476     
   4304706894.8216009     
   4132778159.3562894     
   3962784520.4100542     
   4948340817.5303431     
   4759436641.7941523     
   4571831864.4040632     
   4385594835.1364117     
   4200866973.6271243     
   5259593873.6758156     
   5058198042.6782856     
   4857992971.6953497     
   4659009163.5634823     
   4461343797.4583054     
   3572720070.9568739     
   3458669273.9263124     
   3349732933.2480512     
   3246438862.3238935     
   3149486980.0597777     
   3751690869.0234666     
   3620992041.4040461     
   3492709335.4629140     
   3367162034.4554415     
   3244775299.4402337     
   3962784520.4100542     
   3820466265.9412184     
   3678499727.3908243     
   3537014208.4043069     
   3396188846.8909817     
   4200866973.6271243     
   4052546190.3819532     
   3903199918.2402854     
   3752862507.2596879     
   3601598671.8250885     
   4461343797.4583054     
   4312866849.6775398     
   4162646867.2329335     
   4010749055.1074257     
   3857295693.4424810     
   3149486980.0597777     
   3100915896.3881755     
   3098997116.8429074     
   3153317383.6063476     
   3281130376.5754681     
   3244775299.4402337     
   3118704172.2482886     
   3019022037.4498005     
   2952032567.1319795     
   2928575935.7612424     
   3396188846.8909817     
   3214931306.2155614     
   3042592768.1055498     
   2880690339.1847920     
   2731961857.7136974     
   3601598671.8250885     
   3398894491.9529996     
   3193835244.7703719     
   2986797471.7554884     
   2778408782.8402267     
   3857295693.4424810     
   3675257786.8898916     
   3489553262.8908644     
   3307016116.6530108     
   3138505943.7313747     
 </DataArray>
 <DataArray  type="Float64" Name="strain" NumberOfComponents="3" format="ascii">
  0.20350631401157790        0.0000000000000000       0.12538113407717280     
  0.18669044016443703       -2.7338053288684949E-002   7.4333866098461057E-002
  0.16987456631729617       -4.4697720697277135E-002   3.5117004294254330E-002
  0.15305869247015533       -5.2079002225776522E-002   7.7305486645525938E-003
  0.13624281862301446       -4.9481897874183153E-002  -7.8255007906441187E-003
  0.15988667569775467        0.0000000000000000        9.6409977369316613E-002
  0.15321975444074470       -2.1855881573023591E-002   6.2657496812670882E-002
  0.14655283318373472       -3.6193391918132270E-002   3.7372515261781883E-002
  0.13988591192672470       -4.3012531035326061E-002   2.0555032716649609E-002
  0.13321899066971474       -4.2313298924604947E-002   1.2205049177274073E-002
  0.12649489983636777        0.0000000000000000        7.4150999703210721E-002
  0.12661402400074040       -1.6373709857362223E-002   5.5233291916453119E-002
  0.12673314816511300       -2.7689063138987419E-002   4.1420175966703977E-002
  0.12685227232948562       -3.3946059844875587E-002   3.2711651853963297E-002
  0.12697139649385822       -3.5144699975026734E-002   2.9107719578231096E-002
  0.10333098642741716        0.0000000000000000        5.8604201078855132E-002
  0.10687324884442410       -1.0891538141700862E-002   5.2061251409807767E-002
  0.11041551126143105       -1.9184734359842571E-002   4.7259986409020627E-002
  0.11395777367843800       -2.4879588654425119E-002   4.4200406076493719E-002
  0.11750003609544496       -2.7976101025448528E-002   4.2882510412226918E-002
   9.0394935470902854E-002   0.0000000000000000        4.9769581496249840E-002
   9.3997428971795860E-002  -5.4093664260394993E-003   5.3141375292734883E-002
   9.7599922472688880E-002  -1.0680405580697716E-002   5.4891946588731838E-002
  0.10120241597358190       -1.5813117463974655E-002   5.5021295384240727E-002
  0.10480490947447491       -2.0807502075870309E-002   5.3529421679261550E-002
  0.13624281862301446       -4.9481897874183153E-002  -7.8255007906441187E-003
  0.13305161303078461       -4.2946121204696756E-002  -3.3969124945371076E-003
  0.12986040743855473       -3.8511385779516918E-002  -3.8873519326345155E-004
  0.12666920184632494       -3.6177691598643688E-002   1.1990311131769293E-003
  0.12347799625409503       -3.5945038662077156E-002   1.3663864247837332E-003
  0.13321899066971474       -4.2313298924604947E-002   1.2205049177274073E-002
  0.12899638811644829       -3.8447247636179044E-002   1.2155998226215159E-002
  0.12477378556318180       -3.5765929220258542E-002   1.1464564347916446E-002
  0.12055118300991532       -3.4269343676843408E-002   1.0130747542377904E-002
  0.11632858045664887       -3.3957491005933690E-002   8.1545478095994689E-003
  0.12697139649385822       -3.5144699975026734E-002   2.9107719578231096E-002
  0.12249542504714875       -3.3948374067661422E-002   2.5497337751807451E-002
  0.11801945360043929       -3.3020472661000201E-002   2.2022601065737599E-002
  0.11354348215372984       -3.2360995755043136E-002   1.8683509520021561E-002
  0.10906751070702034       -3.1969943349790142E-002   1.5480063114659187E-002
  0.11750003609544496       -2.7976101025448528E-002   4.2882510412226918E-002
  0.11354872382288604       -2.9449500499143778E-002   3.6627106082239853E-002
  0.10959741155032714       -3.0275016101741856E-002   3.1285374960200063E-002
  0.10564609927776825       -3.0452647833242839E-002   2.6857317046107720E-002
  0.10169478700520930       -2.9982395693646607E-002   2.3342932339962669E-002
  0.10480490947447491       -2.0807502075870309E-002   5.3529421679261550E-002
  0.10215628444366015       -2.4950626930626114E-002   4.5545303217512274E-002
   9.9507659412845409E-002  -2.7529559542483529E-002   3.9252886031303905E-002
   9.6859034382030668E-002  -2.8544299911442500E-002   3.4652170120636511E-002
   9.4210409351215912E-002  -2.7994848037503101E-002   3.1743155485510044E-002
  0.12347799625409503       -3.5945038662077156E-002   1.3663864247837332E-003
  0.12055502561745246       -3.6452528786380486E-002   6.2518989869984887E-004
  0.11763205498080993       -3.6339263788117096E-002   8.2236465200058451E-005
  0.11470908434416741       -3.5605243667286748E-002  -2.6247387571547848E-004
  0.11178611370752484       -3.4250468423889513E-002  -4.0894112404682437E-004
  0.11632858045664887       -3.3957491005933690E-002   8.1545478095994689E-003
  0.11358830776510954       -3.4039708707242655E-002   7.7948258091696948E-003
  0.11084803507357018       -3.3725334280483799E-002   7.6022566063620525E-003
  0.10810776238203082       -3.3014367725657093E-002   7.5768402011766843E-003
  0.10536748969049151       -3.1906809042762552E-002   7.7185765936133022E-003
  0.10906751070702034       -3.1969943349790142E-002   1.5480063114659187E-002
  0.10647884566562230       -3.1626888628104775E-002   1.5277652645384294E-002
  0.10389018062422424       -3.1111404772850550E-002   1.5211304678769640E-002
  0.10130151558282621       -3.0423491784027458E-002   1.5281019214815478E-002
   9.8712850541428171E-002  -2.9563149661635507E-002   1.5486796253521604E-002
  0.10169478700520930       -2.9982395693646607E-002   2.3342932339962669E-002
   9.9226639318990673E-002  -2.9214068548966892E-002   2.3073670407343753E-002
   9.6758491632772031E-002  -2.8497475265217332E-002   2.2909380682423167E-002
   9.4290343946553390E-002  -2.7832615842397841E-002   2.2850063165201162E-002
   9.1822196260334721E-002  -2.7219490280508504E-002   2.2895717855677660E-002
   9.4210409351215912E-002  -2.7994848037503101E-002   3.1743155485510044E-002
   9.1831688725214772E-002  -2.6801248469829037E-002   3.1182879095048126E-002
   8.9452968099213617E-002  -2.5883545757584080E-002   3.0696484617322731E-002
   8.7074247473212490E-002  -2.5241739900768181E-002   3.0283972052333845E-002
   8.4695526847211322E-002  -2.4875830899381474E-002   2.9945341400081593E-002
  0.11178611370752484       -3.4250468423889513E-002  -4.0894112404682437E-004
  0.10869954425439743       -3.2716733315622748E-002  -1.3987770891624174E-004
  0.10561297480127013       -3.1445833600183340E-002   1.7009713382160063E-004
  0.10252640534814278       -3.0437769277571209E-002   5.2098340416635580E-004
   9.9439835895015427E-002  -2.9692540347786456E-002   9.1278110211795438E-004
  0.10536748969049151       -3.1906809042762552E-002   7.7185765936133022E-003
  0.10235526245954679       -3.0679936536001942E-002   7.5746557347081550E-003
   9.9343035228602120E-002  -2.9611028509577364E-002   7.5385078925613302E-003
   9.6330807997657336E-002  -2.8700084963488498E-002   7.6101330671727307E-003
   9.3318580766712733E-002  -2.7947105897735580E-002   7.7895312585423149E-003
   9.8712850541428171E-002  -2.9563149661635507E-002   1.5486796253521604E-002
   9.5841827121817408E-002  -2.8643139756381386E-002   1.5034762033071872E-002
   9.2970803702206659E-002  -2.7776223418971381E-002   1.4757362418531657E-002
   9.0099780282595937E-002  -2.6962400649405950E-002   1.4654597409901309E-002
   8.7228756862985188E-002  -2.6201671447684705E-002   1.4726467007180388E-002
   9.1822196260334721E-002  -2.7219490280508504E-002   2.2895717855677660E-002
   8.9159238241209304E-002  -2.6606342976760705E-002   2.2240441186174971E-002
   8.6496280222083888E-002  -2.5941418328365568E-002   2.1826660711733184E-002
   8.3833322202958485E-002  -2.5224716335323267E-002   2.1654376432352577E-002
   8.1170364183833041E-002  -2.4456236997633773E-002   2.1723588348032945E-002
   8.4695526847211322E-002  -2.4875830899381474E-002   2.9945341400081593E-002
   8.2307495817722537E-002  -2.4569546197139969E-002   2.9191693194017571E-002
   7.9919464788233752E-002  -2.4106613237759644E-002   2.8746402772165752E-002
   7.7531433758744953E-002  -2.3487032021240695E-002   2.8609470134526339E-002
   7.5143402729256153E-002  -2.2710802547582926E-002   2.8780895281099228E-002
   9.9439835895015427E-002  -2.9692540347786456E-002   9.1278110211795438E-004
   9.6529889168496308E-002  -2.9015006437880020E-002   5.6769960084279703E-004
   9.3619942441977216E-002  -2.8210027174902924E-002   4.3795085707099002E-004
   9.0709995715458111E-002  -2.7277602558855189E-002   5.2353487080263050E-004
   8.7800048988939006E-002  -2.6217732589736698E-002   8.2445164203792665E-004
   9.3318580766712733E-002  -2.7947105897735580E-002   7.7895312585423149E-003
   9.0608560572107977E-002  -2.7233578042540757E-002   7.5637284623985279E-003
   8.7898540377503276E-002  -2.6440988128125925E-002   7.5224459725800885E-003
   8.5188520182898575E-002  -2.5569336154491425E-002   7.6656837890872742E-003
   8.2478499988293819E-002  -2.4618622121637290E-002   7.9934419119196409E-003
   8.7228756862985188E-002  -2.6201671447684705E-002   1.4726467007180388E-002
   8.4687850749116805E-002  -2.5452149647201161E-002   1.4571559622317543E-002
   8.2146944635248464E-002  -2.4671949081348885E-002   1.4570360092601639E-002
   7.9606038521380054E-002  -2.3861069750127663E-002   1.4722868418033094E-002
   7.7065132407511672E-002  -2.3019511653537605E-002   1.5029084598611797E-002
   8.1170364183833041E-002  -2.4456236997633773E-002   2.1723588348032945E-002
   7.8767759699522905E-002  -2.3670721251861787E-002   2.1591193080599473E-002
   7.6365155215212754E-002  -2.2902910034571809E-002   2.1581693217135257E-002
   7.3962550730902646E-002  -2.2152803345763847E-002   2.1695088757640202E-002
   7.1559946246592468E-002  -2.1420401185438059E-002   2.1931379702114298E-002
   7.5143402729256153E-002  -2.2710802547582926E-002   2.8780895281099228E-002
   7.2848287423326163E-002  -2.1889292856522302E-002   2.8622628837244590E-002
   7.0553172117396187E-002  -2.1133870987794699E-002   2.8556445346180834E-002
   6.8258056811466211E-002  -2.0444536941400158E-002   2.8582344807908396E-002
   6.5962941505536249E-002  -1.9821290717338569E-002   2.8700327222427102E-002
   8.7800048988939006E-002  -2.6217732589736698E-002   8.2445164203792665E-004
   8.4446018412752566E-002  -2.5139246165404638E-002   7.1447119631545819E-004
   8.1091987836566126E-002  -2.4150972183716923E-002   7.2421481727247272E-004
   7.7737957260379686E-002  -2.3252910644673039E-002   8.5368250490838737E-004
   7.4383926684193247E-002  -2.2445061548273526E-002   1.1028742592237295E-003
   8.2478499988293819E-002  -2.4618622121637290E-002   7.9934419119196409E-003
   7.9267372103044353E-002  -2.3655923702517151E-002   7.7421686456516092E-003
   7.6056244217794750E-002  -2.2748318570086259E-002   7.6569766945777940E-003
   7.2845116332545229E-002  -2.1895806724343870E-002   7.7378660586985559E-003
   6.9633988447295625E-002  -2.1098388165290527E-002   7.9848367380135898E-003
   7.7065132407511672E-002  -2.3019511653537605E-002   1.5029084598611797E-002
   7.4043264461714331E-002  -2.2172601239629774E-002   1.4671637667752743E-002
   7.1021396515916879E-002  -2.1345664956455596E-002   1.4526629300603805E-002
   6.7999528570119427E-002  -2.0538702804014812E-002   1.4594059497164649E-002
   6.4977660624322087E-002  -1.9751714782307805E-002   1.4873928257435026E-002
   7.1559946246592468E-002  -2.1420401185438059E-002   2.1931379702114298E-002
   6.8773695488762443E-002  -2.0689278776742454E-002   2.1502878262620078E-002
   6.5987444730932432E-002  -1.9943011342824932E-002   2.1333172635350957E-002
   6.3201193973102449E-002  -1.9181598883685921E-002   2.1422262820306775E-002
   6.0414943215272396E-002  -1.8405041399324945E-002   2.1770148817487671E-002
   6.5962941505536249E-002  -1.9821290717338569E-002   2.8700327222427102E-002
   6.3458665184188828E-002  -1.9205956313854966E-002   2.8235890430252847E-002
   6.0954388862841477E-002  -1.8540357729194407E-002   2.8076606698818951E-002
   5.8450112541494091E-002  -1.7824494963356814E-002   2.8222476028125068E-002
   5.5945836220146705E-002  -1.7058368016342085E-002   2.8673498418171683E-002
   7.4383926684193247E-002  -2.2445061548273526E-002   1.1028742592237295E-003
   7.1721649781539554E-002  -2.1635377377223430E-002   6.6127103092783468E-004
   6.9059372878885861E-002  -2.0731810614228047E-002   5.2545126782344020E-004
   6.6397095976232168E-002  -1.9734361259288020E-002   6.9541496991018525E-004
   6.3734819073578475E-002  -1.8643029312402470E-002   1.1711621371881531E-003
   6.9633988447295625E-002  -2.1098388165290527E-002   7.9848367380135898E-003
   6.7236202540268963E-002  -2.0301040121092351E-002   7.6699688785392128E-003
   6.4838416633242246E-002  -1.9448739819914990E-002   7.5782995451273427E-003
   6.2440630726215529E-002  -1.8541487261759131E-002   7.7098287377782709E-003
   6.0042844819188868E-002  -1.7579282446624545E-002   8.0645564564917338E-003
   6.4977660624322087E-002  -1.9751714782307805E-002   1.4873928257435026E-002
   6.2761780773793560E-002  -1.8966702864961216E-002   1.4646865431815842E-002
   6.0545900923265061E-002  -1.8165669025602141E-002   1.4560416193130324E-002
   5.8330021072736618E-002  -1.7348613264230681E-002   1.4614580541378645E-002
   5.6114141222208036E-002  -1.6515535580846730E-002   1.4809358476561174E-002
   6.0414943215272396E-002  -1.8405041399324945E-002   2.1770148817487671E-002
   5.8298384482113316E-002  -1.7632365608830164E-002   2.1591960690757230E-002
   5.6181825748954313E-002  -1.6882598231289243E-002   2.1471801211831825E-002
   5.4065267015795226E-002  -1.6155739266702232E-002   2.1409670380711662E-002
   5.1948708282636286E-002  -1.5451788715068859E-002   2.1405568197396585E-002
   5.5945836220146705E-002  -1.7058368016342085E-002   2.8673498418171683E-002
   5.3846013665228287E-002  -1.6298028352698946E-002   2.8505254655364076E-002
   5.1746191110309953E-002  -1.5599527436976166E-002   2.8312454601232412E-002
   4.9646368555391576E-002  -1.4962865269173325E-002   2.8095098255777065E-002
   4.7546546000473144E-002  -1.4388041849291044E-002   2.7853185618998022E-002
   6.3734819073578475E-002  -1.8643029312402470E-002   1.1711621371881531E-003
   6.0343556195071479E-002  -1.7625043040554011E-002   1.1787539280148085E-003
   5.6952293316564484E-002  -1.6847630710725037E-002   1.0569810261966683E-003
   5.3561030438057489E-002  -1.6310792322915824E-002   8.0584343173376038E-004
   5.0169767559550493E-002  -1.6014527877125762E-002   4.2534114462577932E-004
   6.0042844819188868E-002  -1.7579282446624545E-002   8.0645564564917338E-003
   5.6620943404328217E-002  -1.6648921515343973E-002   7.7545380776651851E-003
   5.3199041989467677E-002  -1.5837200608750546E-002   7.5126073187762321E-003
   4.9777140574607026E-002  -1.5144119726844416E-002   7.3387641798249026E-003
   4.6355239159746486E-002  -1.4569678869624791E-002   7.2330086608114463E-003
   5.6114141222208036E-002  -1.6515535580846730E-002   1.4809358476561174E-002
   5.2859053583576426E-002  -1.5672799990133823E-002   1.4303663845413817E-002
   4.9603965944944817E-002  -1.4826770506775611E-002   1.4063509146786363E-002
   4.6348878306313152E-002  -1.3977447130772452E-002   1.4088894380679687E-002
   4.3093790667681597E-002  -1.3124829862124265E-002   1.4379819547093109E-002
   5.1948708282636286E-002  -1.5451788715068859E-002   2.1405568197396585E-002
   4.9057886732816060E-002  -1.4696678464923729E-002   2.0826131231260633E-002
   4.6167065182995917E-002  -1.3816340404801120E-002   2.0709686510227782E-002
   4.3276243633175913E-002  -1.2810774534701100E-002   2.1056234034297537E-002
   4.0385422083355604E-002  -1.1679980854623295E-002   2.1865773803470184E-002
   4.7546546000473144E-002  -1.4388041849291044E-002   2.7853185618998022E-002
   4.5217442852047124E-002  -1.3720556939713580E-002   2.7321940235206177E-002
   4.2888339703621048E-002  -1.2805910302826476E-002   2.7451139409099573E-002
   4.0559236555194916E-002  -1.1644101938629376E-002   2.8240783140678224E-002
   3.8230133406768951E-002  -1.0235131847122547E-002   2.9690871429942423E-002
   9.0394935470902854E-002   0.0000000000000000        4.9769581496249840E-002
   9.3997428971795860E-002  -5.4093664260394993E-003   5.3141375292734883E-002
   9.7599922472688880E-002  -1.0680405580697716E-002   5.4891946588731838E-002
  0.10120241597358190       -1.5813117463974655E-002   5.5021295384240727E-002
  0.10480490947447491       -2.0807502075870309E-002   5.3529421679261550E-002
   8.2450139355221108E-002   0.0000000000000000        4.4713862593057777E-002
   8.4660773626394681E-002  -4.5770699548690341E-003   4.8194668315015871E-002
   8.6871407897568240E-002  -9.0424643301681394E-003   5.0512978078023123E-002
   8.9082042168741798E-002  -1.3396183125897314E-002   5.1668791882079561E-002
   9.1292676439915371E-002  -1.7638226342056550E-002   5.1662109727185157E-002
   7.4259990468768217E-002   0.0000000000000000        4.0503766006941840E-002
   7.5537492051759567E-002  -3.7447734836985724E-003   4.4066931962561645E-002
   7.6814993634750903E-002  -7.4045230796385610E-003   4.6926328500767875E-002
   7.8092495217742253E-002  -1.0979248787819968E-002   4.9081955621560494E-002
   7.9369996800733589E-002  -1.4468950608242787E-002   5.0533813324939517E-002
   6.5824488811544138E-002   0.0000000000000000        3.7139291737902043E-002
   6.6627584247890517E-002  -2.9124770125281110E-003   4.0758166235372227E-002
   6.7430679684236897E-002  -5.7665818291089853E-003   4.4131997856966053E-002
   6.8233775120583262E-002  -8.5623144497426230E-003   4.7260786602683513E-002
   6.9036870556929641E-002  -1.1299674874429027E-002   5.0144532472524594E-002
   5.7143634383548927E-002   0.0000000000000000        3.4620439785938387E-002
   5.7931050214787561E-002  -2.0801805413576463E-003   3.8268371133447582E-002
   5.8718466046026187E-002  -4.1286405785794060E-003   4.2129986146617657E-002
   5.9505881877264813E-002  -6.1453801116652818E-003   4.6205284825448605E-002
   6.0293297708503446E-002  -8.1303991406152659E-003   5.0494267169940446E-002
  0.10480490947447491       -2.0807502075870309E-002   5.3529421679261550E-002
  0.10215628444366015       -2.4950626930626114E-002   4.5545303217512274E-002
   9.9507659412845409E-002  -2.7529559542483529E-002   3.9252886031303905E-002
   9.6859034382030668E-002  -2.8544299911442500E-002   3.4652170120636511E-002
   9.4210409351215912E-002  -2.7994848037503101E-002   3.1743155485510044E-002
   9.1292676439915371E-002  -1.7638226342056550E-002   5.1662109727185157E-002
   9.0096888199028211E-002  -2.1214156028335429E-002   4.6421052036744875E-002
   8.8901099958141092E-002  -2.3569534234423567E-002   4.2393966650618897E-002
   8.7705311717253959E-002  -2.4704360960320897E-002   3.9580853568807153E-002
   8.6509523476366840E-002  -2.4618636206027479E-002   3.7981712791309713E-002
   7.9369996800733589E-002  -1.4468950608242787E-002   5.0533813324939517E-002
   7.9149316378547399E-002  -1.7477685126044754E-002   4.7692175643100659E-002
   7.8928635956361209E-002  -1.9609508926363595E-002   4.5586781294349385E-002
   7.8707955534175020E-002  -2.0864422009199302E-002   4.4217630278685728E-002
   7.8487275111988830E-002  -2.1242424374551871E-002   4.3584722596109647E-002
   6.9036870556929641E-002  -1.1299674874429027E-002   5.0144532472524594E-002
   6.9313568982217716E-002  -1.3741214223754067E-002   4.9358674036579502E-002
   6.9590267407505763E-002  -1.5649483618303622E-002   4.8831329962495333E-002
   6.9866965832793823E-002  -1.7024483058077682E-002   4.8562500250272075E-002
   7.0143664258081925E-002  -1.7866212543076264E-002   4.8552184899909707E-002
   6.0293297708503446E-002  -8.1303991406152659E-003   5.0494267169940446E-002
   6.0589646010039119E-002  -1.0004743321463396E-002   5.1420547217181464E-002
   6.0885994311574758E-002  -1.1689458310243657E-002   5.2127612655056707E-002
   6.1182342613110396E-002  -1.3184544106956091E-002   5.2615463483566202E-002
   6.1478690914646070E-002  -1.4490000711600642E-002   5.2884099702709964E-002
   9.4210409351215912E-002  -2.7994848037503101E-002   3.1743155485510044E-002
   9.1831688725214772E-002  -2.6801248469829037E-002   3.1182879095048126E-002
   8.9452968099213617E-002  -2.5883545757584080E-002   3.0696484617322731E-002
   8.7074247473212490E-002  -2.5241739900768181E-002   3.0283972052333845E-002
   8.4695526847211322E-002  -2.4875830899381474E-002   2.9945341400081593E-002
   8.6509523476366840E-002  -2.4618636206027479E-002   3.7981712791309713E-002
   8.4253478870728954E-002  -2.3977596985921168E-002   3.6955958316948589E-002
   8.1997434265091110E-002  -2.3446480314379937E-002   3.6101673970577376E-002
   7.9741389659453238E-002  -2.3025286191403701E-002   3.5418859752196136E-002
   7.7485345053815408E-002  -2.2714014616992545E-002   3.4907515661805139E-002
   7.8487275111988830E-002  -2.1242424374551871E-002   4.3584722596109647E-002
   7.6451494741967746E-002  -2.1153945502013383E-002   4.2259464344713289E-002
   7.4415714371946648E-002  -2.1009414871175813E-002   4.1203264436560416E-002
   7.2379934001925536E-002  -2.0808832482039193E-002   4.0416122871651090E-002
   7.0344153631904466E-002  -2.0552198334603575E-002   3.9898039649985201E-002
   7.0143664258081925E-002  -1.7866212543076264E-002   4.8552184899909707E-002
   6.8425736338931037E-002  -1.8330294018105535E-002   4.7093397178342267E-002
   6.6707808419780190E-002  -1.8572349427971722E-002   4.6001256015271795E-002
   6.4989880500629357E-002  -1.8592378772674726E-002   4.5275761410698299E-002
   6.3271952581478469E-002  -1.8390382052214625E-002   4.4916913364621794E-002
   6.1478690914646070E-002  -1.4490000711600642E-002   5.2884099702709964E-002
   6.0176203661618938E-002  -1.5506642534197729E-002   5.1457756817835487E-002
   5.8873716408591785E-002  -1.6135283984767542E-002   5.0495648706711492E-002
   5.7571229155564632E-002  -1.6375925063310183E-002   4.9997775369337916E-002
   5.6268741902537514E-002  -1.6228565769825662E-002   4.9964136805714862E-002
   8.4695526847211322E-002  -2.4875830899381474E-002   2.9945341400081593E-002
   8.2307495817722537E-002  -2.4569546197139969E-002   2.9191693194017571E-002
   7.9919464788233752E-002  -2.4106613237759644E-002   2.8746402772165752E-002
   7.7531433758744953E-002  -2.3487032021240695E-002   2.8609470134526339E-002
   7.5143402729256153E-002  -2.2710802547582926E-002   2.8780895281099228E-002
   7.7485345053815408E-002  -2.2714014616992545E-002   3.4907515661805139E-002
   7.5384636986651044E-002  -2.2399937265737413E-002   3.4337914185034096E-002
   7.3283928919486763E-002  -2.1970325812229380E-002   3.4034600848699664E-002
   7.1183220852322454E-002  -2.1425180256468362E-002   3.3997575652801884E-002
   6.9082512785158132E-002  -2.0764500598454610E-002   3.4226838597340770E-002
   7.0344153631904466E-002  -2.0552198334603575E-002   3.9898039649985201E-002
   6.8488698883288984E-002  -2.0230328334334885E-002   3.9471370747621332E-002
   6.6633244134673461E-002  -1.9834038386699115E-002   3.9268920341918354E-002
   6.4777789386057966E-002  -1.9363328491696252E-002   3.9290688432876419E-002
   6.2922334637442456E-002  -1.8818198649326337E-002   3.9536675020495508E-002
   6.3271952581478469E-002  -1.8390382052214625E-002   4.4916913364621794E-002
   6.1619681507636165E-002  -1.8060719402932329E-002   4.4592062881779214E-002
   5.9967410433793861E-002  -1.7697750961168796E-002   4.4449361251821966E-002
   5.8315139359951536E-002  -1.7301476726924031E-002   4.4488808474750063E-002
   5.6662868286109232E-002  -1.6871896700198070E-002   4.4710404550563479E-002
   5.6268741902537514E-002  -1.6228565769825662E-002   4.9964136805714862E-002
   5.4777584859692724E-002  -1.5891110471529801E-002   4.9699990587507792E-002
   5.3286427816847927E-002  -1.5561463535638576E-002   4.9575923578410293E-002
   5.1795270774003144E-002  -1.5239624962151834E-002   4.9591935778422580E-002
   5.0304113731158367E-002  -1.4925594751069776E-002   4.9748027187544563E-002
   7.5143402729256153E-002  -2.2710802547582926E-002   2.8780895281099228E-002
   7.2848287423326163E-002  -2.1889292856522302E-002   2.8622628837244590E-002
   7.0553172117396187E-002  -2.1133870987794699E-002   2.8556445346180834E-002
   6.8258056811466211E-002  -2.0444536941400158E-002   2.8582344807908396E-002
   6.5962941505536249E-002  -1.9821290717338569E-002   2.8700327222427102E-002
   6.9082512785158132E-002  -2.0764500598454610E-002   3.4226838597340770E-002
   6.6905361691136409E-002  -2.0061474200255738E-002   3.3946700986877687E-002
   6.4728210597114783E-002  -1.9389288423939999E-002   3.3810408847440007E-002
   6.2551059503093059E-002  -1.8747943269507142E-002   3.3817962179027772E-002
   6.0373908409071420E-002  -1.8137438736957251E-002   3.3969360981641245E-002
   6.2922334637442456E-002  -1.8818198649326337E-002   3.9536675020495508E-002
   6.0914910273563452E-002  -1.8233655543989341E-002   3.9169913443874105E-002
   5.8907485909684434E-002  -1.7644705860085302E-002   3.8998759856512327E-002
   5.6900061545805423E-002  -1.7051349597614184E-002   3.9023214258410550E-002
   5.4892637181926419E-002  -1.6453586756575961E-002   3.9243276649568629E-002
   5.6662868286109232E-002  -1.6871896700198070E-002   4.4710404550563479E-002
   5.4876933170607239E-002  -1.6405836887722958E-002   4.4292266208233677E-002
   5.3090998055105254E-002  -1.5900123296230688E-002   4.4121498373397933E-002
   5.1305062939603255E-002  -1.5354755925721197E-002   4.4198101046056634E-002
   4.9519127824101269E-002  -1.4769734776194768E-002   4.4522074226209282E-002
   5.0304113731158367E-002  -1.4925594751069776E-002   4.9748027187544563E-002
   4.8791430382267770E-002  -1.4578018231456422E-002   4.9313759279956432E-002
   4.7278747033377172E-002  -1.4155540732375883E-002   4.9178624398096935E-002
   4.5766063684486595E-002  -1.3658162253828288E-002   4.9342622541965871E-002
   4.4253380335595977E-002  -1.3085882795813408E-002   4.9805753711563483E-002
   6.5962941505536249E-002  -1.9821290717338569E-002   2.8700327222427102E-002
   6.3458665184188828E-002  -1.9205956313854966E-002   2.8235890430252847E-002
   6.0954388862841477E-002  -1.8540357729194407E-002   2.8076606698818951E-002
   5.8450112541494091E-002  -1.7824494963356814E-002   2.8222476028125068E-002
   5.5945836220146705E-002  -1.7058368016342085E-002   2.8673498418171683E-002
   6.0373908409071420E-002  -1.8137438736957251E-002   3.3969360981641245E-002
   5.8146454391454674E-002  -1.7530083318889014E-002   3.3621758588825421E-002
   5.5919000373837929E-002  -1.6898185507900974E-002   3.3522647742730838E-002
   5.3691546356221184E-002  -1.6241745303993284E-002   3.3672028443357357E-002
   5.1464092338604495E-002  -1.5560762707165887E-002   3.4069900690705035E-002
   5.4892637181926419E-002  -1.6453586756575961E-002   3.9243276649568629E-002
   5.2885343954021065E-002  -1.5854210323923063E-002   3.8986786867854430E-002
   5.0878050726115745E-002  -1.5256013286607709E-002   3.8922127118841812E-002
   4.8870757498210418E-002  -1.4658995644629916E-002   3.9049297402531047E-002
   4.6863464270305064E-002  -1.4063157397989634E-002   3.9368297718922127E-002
   4.9519127824101269E-002  -1.4769734776194768E-002   4.4522074226209282E-002
   4.7675333871888124E-002  -1.4178337328957111E-002   4.4330975267339083E-002
   4.5831539919674986E-002  -1.3613841065314443E-002   4.4275044827151430E-002
   4.3987745967461835E-002  -1.3076245985266426E-002   4.4354282905646296E-002
   4.2143952015248703E-002  -1.2565552088813409E-002   4.4568689502823639E-002
   4.4253380335595977E-002  -1.3085882795813408E-002   4.9805753711563483E-002
   4.2516424145055770E-002  -1.2502464333991103E-002   4.9654323787279908E-002
   4.0779467954515564E-002  -1.1971668844021066E-002   4.9581400867659747E-002
   3.9042511763975343E-002  -1.1493496325902977E-002   4.9586984952702695E-002
   3.7305555573435151E-002  -1.1067946779637183E-002   4.9671076042409223E-002
   5.5945836220146705E-002  -1.7058368016342085E-002   2.8673498418171683E-002
   5.3846013665228287E-002  -1.6298028352698946E-002   2.8505254655364076E-002
   5.1746191110309953E-002  -1.5599527436976166E-002   2.8312454601232412E-002
   4.9646368555391576E-002  -1.4962865269173325E-002   2.8095098255777065E-002
   4.7546546000473144E-002  -1.4388041849291044E-002   2.7853185618998022E-002
   5.1464092338604495E-002  -1.5560762707165887E-002   3.4069900690705035E-002
   4.9390906998268827E-002  -1.4876944862452252E-002   3.3793610924512801E-002
   4.7317721657933215E-002  -1.4211998914885615E-002   3.3595151878809931E-002
   4.5244536317597603E-002  -1.3565924864466353E-002   3.3474523553596411E-002
   4.3171350977261935E-002  -1.2938722711194062E-002   3.3431725948872171E-002
   4.6863464270305064E-002  -1.4063157397989634E-002   3.9368297718922127E-002
   4.4919303156365234E-002  -1.3455861372205308E-002   3.9026928800118849E-002
   4.2975142042425356E-002  -1.2824470392795072E-002   3.8865777613617709E-002
   4.1030980928485547E-002  -1.2168984459758994E-002   3.8884844159418813E-002
   3.9086819814545648E-002  -1.1489403573097051E-002   3.9084128437522167E-002
   4.2143952015248703E-002  -1.2565552088813409E-002   4.4568689502823639E-002
   4.0431202139517564E-002  -1.2034777881958517E-002   4.4205208282182051E-002
   3.8718452263786382E-002  -1.1436941870704580E-002   4.4124331805655691E-002
   3.7005702388055235E-002  -1.0772044055051857E-002   4.4326060073244404E-002
   3.5292952512324074E-002  -1.0040084435000277E-002   4.4810393084948566E-002
   3.7305555573435151E-002  -1.1067946779637183E-002   4.9671076042409223E-002
   3.5926603947725733E-002  -1.0613694391711614E-002   4.9328449370702299E-002
   3.4547652322016273E-002  -1.0049413348613992E-002   4.9370814454923750E-002
   3.3168700696306848E-002  -9.3751036503445830E-003   4.9798171295073287E-002
   3.1789749070597423E-002  -8.5907652969031134E-003   5.0610519891151007E-002
   4.7546546000473144E-002  -1.4388041849291044E-002   2.7853185618998022E-002
   4.5217442852047124E-002  -1.3720556939713580E-002   2.7321940235206177E-002
   4.2888339703621048E-002  -1.2805910302826476E-002   2.7451139409099573E-002
   4.0559236555194916E-002  -1.1644101938629376E-002   2.8240783140678224E-002
   3.8230133406768951E-002  -1.0235131847122547E-002   2.9690871429942423E-002
   4.3171350977261935E-002  -1.2938722711194062E-002   3.3431725948872171E-002
   4.1364701746807619E-002  -1.2267317962271373E-002   3.3230373193740337E-002
   3.9558052516353276E-002  -1.1488636124900420E-002   3.3413483716866366E-002
   3.7751403285898932E-002  -1.0602677199081603E-002   3.3981057518250840E-002
   3.5944754055444617E-002  -9.6094411848143269E-003   3.4933094597893066E-002
   3.9086819814545648E-002  -1.1489403573097051E-002   3.9084128437522167E-002
   3.7526643222635707E-002  -1.0814078984829084E-002   3.9072783672188971E-002
   3.5966466630725794E-002  -1.0171361946974579E-002   3.9169920905686446E-002
   3.4406290038815880E-002  -9.5612524595335788E-003   3.9375540138014656E-002
   3.2846113446905939E-002  -8.9837505225062175E-003   3.9689641369173967E-002
   3.5292952512324074E-002  -1.0040084435000277E-002   4.4810393084948566E-002
   3.3703267279531365E-002  -9.3608400073866144E-003   4.4849171670552190E-002
   3.2113582046738601E-002  -8.8540877690486304E-003   4.4720450975559128E-002
   3.0523896813945788E-002  -8.5198277199856794E-003   4.4424230999969470E-002
   2.8934211581153127E-002  -8.3580598601980527E-003   4.3960511743783556E-002
   3.1789749070597423E-002  -8.5907652969031134E-003   5.0610519891151007E-002
   2.9894573917494505E-002  -7.9076010299445887E-003   5.0559537188829773E-002
   2.7999398764391573E-002  -7.5368135911226125E-003   5.0065073926484432E-002
   2.6104223611288647E-002  -7.4784029804377643E-003   4.9127130104115527E-002
   2.4209048458185778E-002  -7.7323691978898879E-003   4.7745705721722542E-002
   5.7143634383548927E-002   0.0000000000000000        3.4620439785938387E-002
   5.7931050214787561E-002  -2.0801805413576463E-003   3.8268371133447582E-002
   5.8718466046026187E-002  -4.1286405785794060E-003   4.2129986146617657E-002
   5.9505881877264813E-002  -6.1453801116652818E-003   4.6205284825448605E-002
   6.0293297708503446E-002  -8.1303991406152659E-003   5.0494267169940446E-002
   4.8631790595099610E-002   0.0000000000000000        3.2725153599047596E-002
   4.9567147363320921E-002  -1.7016487666188665E-003   3.6899459333546623E-002
   5.0502504131542225E-002  -3.4175319057635056E-003   4.1155963276350134E-002
   5.1437860899763529E-002  -5.1476494174339214E-003   4.5494665427458093E-002
   5.2373217667984841E-002  -6.8920013016301046E-003   4.9915565786870578E-002
   4.0703320856513264E-002   0.0000000000000000        3.1231376625226424E-002
   4.1655133104360836E-002  -1.3231169918800864E-003   3.5886101870053623E-002
   4.2606945352208429E-002  -2.7064232329476051E-003   4.0491539865828902E-002
   4.3558757600056008E-002  -4.1499187232025602E-003   4.5047690612552239E-002
   4.4510569847903581E-002  -5.6536034626449468E-003   4.9554554110223636E-002
   3.3358225167789905E-002   0.0000000000000000        3.0139108864474861E-002
   3.4195007437907356E-002  -9.4458521714130554E-004   3.5228298742968567E-002
   3.5031789708024806E-002  -1.9953145601317038E-003   4.0136715915053953E-002
   3.5868571978142243E-002  -3.1521880289712002E-003   4.4864360380730994E-002
   3.6705354248259693E-002  -4.4152056236597854E-003   4.9411232139999706E-002
   2.6596503528929526E-002   0.0000000000000000        2.9448350316792909E-002
   2.7186770363960437E-002  -5.6605344240252646E-004   3.4926049952291476E-002
   2.7777037198991345E-002  -1.2842058873158025E-003   4.0091491424025294E-002
   2.8367304034022250E-002  -2.1544573347398403E-003   4.4944674731994393E-002
   2.8957570869053158E-002  -3.1768077846746267E-003   4.9485599876198730E-002
   6.0293297708503446E-002  -8.1303991406152659E-003   5.0494267169940446E-002
   6.0589646010039119E-002  -1.0004743321463396E-002   5.1420547217181464E-002
   6.0885994311574758E-002  -1.1689458310243657E-002   5.2127612655056707E-002
   6.1182342613110396E-002  -1.3184544106956091E-002   5.2615463483566202E-002
   6.1478690914646070E-002  -1.4490000711600642E-002   5.2884099702709964E-002
   5.2373217667984841E-002  -6.8920013016301046E-003   4.9915565786870578E-002
   5.2490357261967865E-002  -8.5505600078842840E-003   5.1127008916600866E-002
   5.2607496855950883E-002  -1.0023297985728622E-002   5.2199249240591689E-002
   5.2724636449933915E-002  -1.1310215235163170E-002   5.3132286758842955E-002
   5.2841776043916946E-002  -1.2411311756187912E-002   5.3926121471354727E-002
   4.4510569847903581E-002  -5.6536034626449468E-003   4.9554554110223636E-002
   4.4528512537960203E-002  -7.0963766943051712E-003   5.1047351858785235E-002
   4.4546455228016840E-002  -8.3571376612135949E-003   5.2480958605233552E-002
   4.4564397918073470E-002  -9.4358863633702758E-003   5.3855374349568531E-002
   4.4582340608130100E-002  -1.0332622800775168E-002   5.5170599091790284E-002
   3.6705354248259693E-002  -4.4152056236597854E-003   4.9411232139999706E-002
   3.6704111838016161E-002  -5.6421933807260481E-003   5.1181576043734495E-002
   3.6702869427772622E-002  -6.6909773366985777E-003   5.2972740748982304E-002
   3.6701627017529090E-002  -7.5615574915773726E-003   5.4784726255743023E-002
   3.6700384607285551E-002  -8.2539338453624378E-003   5.6617532564016700E-002
   2.8957570869053158E-002  -3.1768077846746267E-003   4.9485599876198730E-002
   2.9017155162135704E-002  -4.1880100671469397E-003   5.1529681471448742E-002
   2.9076739455218232E-002  -5.0248170121835484E-003   5.3674595671837938E-002
   2.9136323748300764E-002  -5.6872286197844728E-003   5.5920342477366304E-002
   2.9195908041383313E-002  -6.1752448899496867E-003   5.8266921888033903E-002
   6.1478690914646070E-002  -1.4490000711600642E-002   5.2884099702709964E-002
   6.0176203661618938E-002  -1.5506642534197729E-002   5.1457756817835487E-002
   5.8873716408591785E-002  -1.6135283984767542E-002   5.0495648706711492E-002
   5.7571229155564632E-002  -1.6375925063310183E-002   4.9997775369337916E-002
   5.6268741902537514E-002  -1.6228565769825662E-002   4.9964136805714862E-002
   5.2841776043916946E-002  -1.2411311756187912E-002   5.3926121471354727E-002
   5.1946025999995468E-002  -1.3268035895077031E-002   5.3165222660722121E-002
   5.1050275956073983E-002  -1.3821835998104760E-002   5.2753563494550307E-002
   5.0154525912152512E-002  -1.4072712065271092E-002   5.2691143972839451E-002
   4.9258775868231040E-002  -1.4020664096576013E-002   5.2977964095589386E-002
   4.4582340608130100E-002  -1.0332622800775168E-002   5.5170599091790284E-002
   4.3978332644024710E-002  -1.1029429255956374E-002   5.4990068019233632E-002
   4.3374324679919342E-002  -1.1508388011441993E-002   5.5043781461848344E-002
   4.2770316715813959E-002  -1.1769499067232004E-002   5.5331739419634346E-002
   4.2166308751708584E-002  -1.1812762423326399E-002   5.5853941892591644E-002
   3.6700384607285551E-002  -8.2539338453624378E-003   5.6617532564016700E-002
   3.6273123593706713E-002  -8.7908226168356904E-003   5.6932292893370304E-002
   3.5845862580127848E-002  -9.1949400247792051E-003   5.7366302608605625E-002
   3.5418601566548996E-002  -9.4662860691928901E-003   5.7919561709722671E-002
   3.4991340552970152E-002  -9.6048607500767817E-003   5.8592070196721510E-002
   2.9195908041383313E-002  -6.1752448899496867E-003   5.8266921888033903E-002
   2.8830398849041421E-002  -6.5522159777150306E-003   5.8991897283131901E-002
   2.8464889656699525E-002  -6.8814920381164418E-003   5.9721126934822052E-002
   2.8099380464357622E-002  -7.1630730711538110E-003   6.0454610843104398E-002
   2.7733871272015737E-002  -7.3969590768271642E-003   6.1192349007978902E-002
   5.6268741902537514E-002  -1.6228565769825662E-002   4.9964136805714862E-002
   5.4777584859692724E-002  -1.5891110471529801E-002   4.9699990587507792E-002
   5.3286427816847927E-002  -1.5561463535638576E-002   4.9575923578410293E-002
   5.1795270774003144E-002  -1.5239624962151834E-002   4.9591935778422580E-002
   5.0304113731158367E-002  -1.4925594751069776E-002   4.9748027187544563E-002
   4.9258775868231040E-002  -1.4020664096576013E-002   5.2977964095589386E-002
   4.7922162560677779E-002  -1.3807805512368362E-002   5.2651225737727722E-002
   4.6585549253124567E-002  -1.3576249732997030E-002   5.2493495641339510E-002
   4.5248935945571327E-002  -1.3325996758461861E-002   5.2504773806424584E-002
   4.3912322638018114E-002  -1.3057046588762944E-002   5.2685060232983069E-002
   4.2166308751708584E-002  -1.1812762423326399E-002   5.5853941892591644E-002
   4.1013168231810594E-002  -1.1724500553206951E-002   5.5491116952643700E-002
   3.9860027711912625E-002  -1.1591035930355454E-002   5.5326229326532923E-002
   3.8706887192014650E-002  -1.1412368554771830E-002   5.5359279014259286E-002
   3.7553746672116660E-002  -1.1188498426456153E-002   5.5590266015822683E-002
   3.4991340552970152E-002  -9.6048607500767817E-003   5.8592070196721510E-002
   3.4050601873091127E-002  -9.6411955940455263E-003   5.8219664232255698E-002
   3.3109863193212088E-002  -9.6058221277139332E-003   5.8074124633990698E-002
   3.2169124513333071E-002  -9.4987403510818150E-003   5.8155451401926538E-002
   3.1228385833454032E-002  -9.3199502641493417E-003   5.8463644536063238E-002
   2.7733871272015737E-002  -7.3969590768271642E-003   6.1192349007978902E-002
   2.7034463484519378E-002  -7.5578906348841221E-003   6.0836867576563564E-002
   2.6335055697022991E-002  -7.6206083250723519E-003   6.0737181563712772E-002
   2.5635647909526622E-002  -7.5851121473918034E-003   6.0893290969426452E-002
   2.4936240122030245E-002  -7.4514021018425303E-003   6.1305195793704637E-002
   5.0304113731158367E-002  -1.4925594751069776E-002   4.9748027187544563E-002
   4.8791430382267770E-002  -1.4578018231456422E-002   4.9313759279956432E-002
   4.7278747033377172E-002  -1.4155540732375883E-002   4.9178624398096935E-002
   4.5766063684486595E-002  -1.3658162253828288E-002   4.9342622541965871E-002
   4.4253380335595977E-002  -1.3085882795813408E-002   4.9805753711563483E-002
   4.3912322638018114E-002  -1.3057046588762944E-002   5.2685060232983069E-002
   4.2673460271430298E-002  -1.2758098751903438E-002   5.2316794968520416E-002
   4.1434597904842482E-002  -1.2417852775886376E-002   5.2197038642934630E-002
   4.0195735538254680E-002  -1.2036308660711748E-002   5.2325791256225898E-002
   3.8956873171666878E-002  -1.1613466406379613E-002   5.2703052808394185E-002
   3.7553746672116660E-002  -1.1188498426456153E-002   5.5590266015822683E-002
   3.6538081200980080E-002  -1.0938179272350489E-002   5.5254400554175742E-002
   3.5522415729843465E-002  -1.0680164819396810E-002   5.5116419944554143E-002
   3.4506750258706864E-002  -1.0414455067595179E-002   5.5176324186957997E-002
   3.3491084787570263E-002  -1.0141050016945680E-002   5.5434113281387309E-002
   3.1228385833454032E-002  -9.3199502641493417E-003   5.8463644536063238E-002
   3.0385293170917066E-002  -9.1182597927975777E-003   5.8126576036922409E-002
   2.9542200508380100E-002  -8.9424768629072175E-003   5.7936768302955480E-002
   2.8699107845843133E-002  -8.7926014744787642E-003   5.7894221334162319E-002
   2.7856015183306160E-002  -8.6686336275117598E-003   5.7998935130543119E-002
   2.4936240122030245E-002  -7.4514021018425303E-003   6.1305195793704637E-002
   2.4215096181241319E-002  -7.2983403132445418E-003   6.0933321416760500E-002
   2.3493952240452400E-002  -7.2047889064177223E-003   6.0658083718138550E-002
   2.2772808299663480E-002  -7.1707478813620822E-003   6.0479482697838843E-002
   2.2051664358874540E-002  -7.1962172380778955E-003   6.0397518355861435E-002
   4.4253380335595977E-002  -1.3085882795813408E-002   4.9805753711563483E-002
   4.2516424145055770E-002  -1.2502464333991103E-002   4.9654323787279908E-002
   4.0779467954515564E-002  -1.1971668844021066E-002   4.9581400867659747E-002
   3.9042511763975343E-002  -1.1493496325902977E-002   4.9586984952702695E-002
   3.7305555573435151E-002  -1.1067946779637183E-002   4.9671076042409223E-002
   3.8956873171666878E-002  -1.1613466406379613E-002   5.2703052808394185E-002
   3.7331064547257181E-002  -1.1177905389617715E-002   5.2380740432335093E-002
   3.5705255922847484E-002  -1.0758204987154060E-002   5.2202216183873607E-002
   3.4079447298437773E-002  -1.0354365198988493E-002   5.2167480063009974E-002
   3.2453638674028104E-002  -9.9663860251213987E-003   5.2276532069743920E-002
   3.3491084787570263E-002  -1.0141050016945680E-002   5.5434113281387309E-002
   3.2041704852225440E-002  -9.8533464452442432E-003   5.4977680811106655E-002
   3.0592324916880603E-002  -9.5447411302871099E-003   5.4730317591358088E-002
   2.9142944981535766E-002  -9.2152340720742312E-003   5.4692023622141595E-002
   2.7693565046190936E-002  -8.8648252706056141E-003   5.4862798903457063E-002
   2.7856015183306160E-002  -8.6686336275117598E-003   5.7998935130543119E-002
   2.6648345059960547E-002  -8.5287875008707575E-003   5.7445144923594843E-002
   2.5440674936614963E-002  -8.3312772734200763E-003   5.7165705090112977E-002
   2.4233004813269350E-002  -8.0761029451598583E-003   5.7160615630097500E-002
   2.3025334689923765E-002  -7.7632645160899127E-003   5.7429876543548530E-002
   2.2051664358874540E-002  -7.1962172380778955E-003   6.0397518355861435E-002
   2.1150985170462530E-002  -7.2042285564973829E-003   5.9783132769799574E-002
   2.0250305982050520E-002  -7.1178134165532092E-003   5.9508378680138363E-002
   1.9349626793638511E-002  -6.9369718182454992E-003   5.9573256086878024E-002
   1.8448947605226501E-002  -6.6617037615740449E-003   5.9977764990018445E-002
   3.7305555573435151E-002  -1.1067946779637183E-002   4.9671076042409223E-002
   3.5926603947725733E-002  -1.0613694391711614E-002   4.9328449370702299E-002
   3.4547652322016273E-002  -1.0049413348613992E-002   4.9370814454923750E-002
   3.3168700696306848E-002  -9.3751036503445830E-003   4.9798171295073287E-002
   3.1789749070597423E-002  -8.5907652969031134E-003   5.0610519891151007E-002
   3.2453638674028104E-002  -9.9663860251213987E-003   5.2276532069743920E-002
   3.1408112092566234E-002  -9.5613852918464692E-003   5.2054148152069157E-002
   3.0362585511104385E-002  -9.1064808254578272E-003   5.2113622566961532E-002
   2.9317058929642540E-002  -8.6016726259557051E-003   5.2454955314420876E-002
   2.8271532348180667E-002  -8.0469606933397664E-003   5.3078146394447190E-002
   2.7693565046190936E-002  -8.8648252706056141E-003   5.4862798903457063E-002
   2.6878330085615465E-002  -8.5090761919814628E-003   5.4700532817756234E-002
   2.6063095125039997E-002  -8.1635483023018221E-003   5.4716991641261210E-002
   2.5247860164464529E-002  -7.8282416015668810E-003   5.4912175373971875E-002
   2.4432625203889065E-002  -7.5031560897765026E-003   5.5286084015888318E-002
   2.3025334689923765E-002  -7.7632645160899127E-003   5.7429876543548530E-002
   2.2337257926873442E-002  -7.4567670921164148E-003   5.7267603367763237E-002
   2.1649181163823139E-002  -7.2206157791457927E-003   5.7180921677822724E-002
   2.0961104400772802E-002  -7.0548105771780856E-003   5.7169831473726528E-002
   2.0273027637722485E-002  -6.9593514862130862E-003   5.7234332755475140E-002
   1.8448947605226501E-002  -6.6617037615740449E-003   5.9977764990018445E-002
   1.7784895616340141E-002  -6.4044579922513667E-003   5.9755359802090624E-002
   1.7120843627453780E-002  -6.2776832559896939E-003   5.9505412676646052E-002
   1.6456791638567426E-002  -6.2813795527891618E-003   5.9227923613685021E-002
   1.5792739649681045E-002  -6.4155468826498363E-003   5.8922892613207212E-002
   3.1789749070597423E-002  -8.5907652969031134E-003   5.0610519891151007E-002
   2.9894573917494505E-002  -7.9076010299445887E-003   5.0559537188829773E-002
   2.7999398764391573E-002  -7.5368135911226125E-003   5.0065073926484432E-002
   2.6104223611288647E-002  -7.4784029804377643E-003   4.9127130104115527E-002
   2.4209048458185778E-002  -7.7323691978898879E-003   4.7745705721722542E-002
   2.8271532348180667E-002  -8.0469606933397664E-003   5.3078146394447190E-002
   2.6176208439991841E-002  -7.4682786426388259E-003   5.2792634912648406E-002
   2.4080884531802974E-002  -6.8915600888810324E-003   5.2550306480701664E-002
   2.1985560623614071E-002  -6.3168050320666080E-003   5.2351161098606797E-002
   1.9890236715425225E-002  -5.7440134721952196E-003   5.2195198766363693E-002
   2.4432625203889065E-002  -7.5031560897765026E-003   5.5286084015888318E-002
   2.2623816150489848E-002  -7.0289562553331741E-003   5.5076457085806163E-002
   2.0815007097090655E-002  -6.2463065866393483E-003   5.5396676815451566E-002
   1.9006198043691448E-002  -5.1552070836953148E-003   5.6246743204824048E-002
   1.7197388990292245E-002  -3.7556577465006624E-003   5.7626656253924491E-002
   2.0273027637722485E-002  -6.9593514862130862E-003   5.7234332755475140E-002
   1.9237397048988657E-002  -6.5896338680275224E-003   5.7411003708303238E-002
   1.8201766460254752E-002  -5.6010530843979382E-003   5.8604184930734209E-002
   1.7166135871520837E-002  -3.9936091353239235E-003   6.0813876422768483E-002
   1.6130505282786985E-002  -1.7673020208061052E-003   6.4040078184405838E-002
   1.5792739649681045E-002  -6.4155468826498363E-003   5.8922892613207212E-002
   1.6016951135488122E-002  -6.1503114807219816E-003   5.9796274780139158E-002
   1.6241162621295206E-002  -4.9557995821560702E-003   6.2172830826549813E-002
   1.6465374107102294E-002  -2.8320111869528063E-003   6.6052560752439385E-002
   1.6689585592909340E-002   2.2105370488856302E-004   7.1435464557807471E-002
   2.6596503528929526E-002   0.0000000000000000        2.9448350316792909E-002
   2.7186770363960437E-002  -5.6605344240252646E-004   3.4926049952291476E-002
   2.7777037198991345E-002  -1.2842058873158025E-003   4.0091491424025294E-002
   2.8367304034022250E-002  -2.1544573347398403E-003   4.4944674731994393E-002
   2.8957570869053158E-002  -3.1768077846746267E-003   4.9485599876198730E-002
   2.0079583283415980E-002   0.0000000000000000        2.9020838700857286E-002
   2.0398102853729283E-002  -4.2167538537331729E-004   3.4312572376329079E-002
   2.0716622424042583E-002  -9.5666296004506737E-004   3.9373069686130413E-002
   2.1035141994355890E-002  -1.6049627240152572E-003   4.4202330630261258E-002
   2.1353661564669189E-002  -2.3665746772838685E-003   4.8800355208721641E-002
   1.3468891774733125E-002   0.0000000000000000        2.8718311735344712E-002
   1.3596685878423088E-002  -2.7729732834410898E-004   3.3862866264002062E-002
   1.3724479982113054E-002  -6.2912003277433137E-004   3.8857206225083200E-002
   1.3852274085803017E-002  -1.0554681132906732E-003   4.3701331618588135E-002
   1.3980068189492980E-002  -1.5563415698931281E-003   4.8395242444516866E-002
   6.7644290028809617E-003   0.0000000000000000        2.8540769420255185E-002
   6.7825194380418553E-003  -1.3291927131490067E-004   3.3576931615310404E-002
   6.8006098732027506E-003  -3.0157710550359580E-004   3.8543901040883677E-002
   6.8187003083636424E-003  -5.0597350256608798E-004   4.3441677696975024E-002
   6.8367907435245368E-003  -7.4610846250237526E-004   4.8270261583584419E-002
  -3.3805032140509471E-005   0.0000000000000000        2.8488211755588706E-002
  -4.4396467414418300E-005   1.1458785714307633E-005   3.3454768430254113E-002
  -5.4987902688326913E-005   2.5965821767139768E-005   3.8433154133531856E-002
  -6.5579337962235634E-005   4.3521108158492069E-005   4.3423368865421919E-002
  -7.6170773236144355E-005   6.4124644888369740E-005   4.8425412625924320E-002
   2.8957570869053158E-002  -3.1768077846746267E-003   4.9485599876198730E-002
   2.9017155162135704E-002  -4.1880100671469397E-003   5.1529681471448742E-002
   2.9076739455218232E-002  -5.0248170121835484E-003   5.3674595671837938E-002
   2.9136323748300764E-002  -5.6872286197844728E-003   5.5920342477366304E-002
   2.9195908041383313E-002  -6.1752448899496867E-003   5.8266921888033903E-002
   2.1353661564669189E-002  -2.3665746772838685E-003   4.8800355208721641E-002
   2.1484064388162791E-002  -3.1201057742064244E-003   5.1196673278164420E-002
   2.1614467211656399E-002  -3.7441629691383803E-003   5.3633795803290168E-002
   2.1744870035150004E-002  -4.2387462620797718E-003   5.6111722784098858E-002
   2.1875272858643609E-002  -4.6038556530305572E-003   5.8630454220590530E-002
   1.3980068189492980E-002  -1.5563415698931281E-003   4.8395242444516866E-002
   1.4121261393941412E-002  -2.0522014812659022E-003   5.1098875552707326E-002
   1.4262454598389842E-002  -2.4635089260932200E-003   5.3783284967124506E-002
   1.4403647802838270E-002  -2.7902639043750673E-003   5.6448470687768371E-002
   1.4544841007286704E-002  -3.0324664161114588E-003   5.9094432714638934E-002
   6.8367907435245368E-003  -7.4610846250237526E-004   4.8270261583584419E-002
   6.9287461794715517E-003  -9.8429718832537642E-004   5.1236288295077453E-002
   7.0207016154185658E-003  -1.1828548830480489E-003   5.4123063163340902E-002
   7.1126570513655816E-003  -1.3417815466703785E-003   5.6930586188374849E-002
   7.2046124873125957E-003  -1.4610771791923379E-003   5.9658857370179244E-002
  -7.6170773236144355E-005   6.4124644888369740E-005   4.8425412625924320E-002
  -9.3481255246786674E-005   8.3607104615132828E-005   5.1608911505274760E-002
  -1.1079173725742964E-004   9.7799159997113408E-005   5.4653130391939420E-002
  -1.2810221926807359E-004   1.0670081103433246E-004   5.7558069285918313E-002
  -1.4541270127871493E-004   1.1031205772676911E-004   6.0323728187211406E-002
   2.9195908041383313E-002  -6.1752448899496867E-003   5.8266921888033903E-002
   2.8830398849041421E-002  -6.5522159777150306E-003   5.8991897283131901E-002
   2.8464889656699525E-002  -6.8814920381164418E-003   5.9721126934822052E-002
   2.8099380464357622E-002  -7.1630730711538110E-003   6.0454610843104398E-002
   2.7733871272015737E-002  -7.3969590768271642E-003   6.1192349007978902E-002
   2.1875272858643609E-002  -4.6038556530305572E-003   5.8630454220590530E-002
   2.1532356410093087E-002  -4.8817392729860604E-003   5.9410307767952503E-002
   2.1189439961542558E-002  -5.1146452529415281E-003   6.0231092546305036E-002
   2.0846523512992043E-002  -5.3025735928969205E-003   6.1092808555648158E-002
   2.0503607064441511E-002  -5.4455242928522773E-003   6.1995455795981876E-002
   1.4544841007286704E-002  -3.0324664161114588E-003   5.9094432714638934E-002
   1.4261194276925937E-002  -3.2112625682570641E-003   5.9926447026900961E-002
   1.3977547546565171E-002  -3.3477984677665875E-003   6.0836069544552007E-002
   1.3693900816204408E-002  -3.4420741146400577E-003   6.1823300267591946E-002
   1.3410254085843645E-002  -3.4940895088774321E-003   6.2888139196020848E-002
   7.2046124873125957E-003  -1.4610771791923379E-003   5.9658857370179244E-002
   7.0169124495399783E-003  -1.5407858635280878E-003   6.0540315059977368E-002
   6.8292124117673610E-003  -1.5809516825917021E-003   6.1536057929562855E-002
   6.6415123739947428E-003  -1.5815746363832088E-003   6.2646085978935673E-002
   6.4538123362221237E-003  -1.5426547249025660E-003   6.3870399208095854E-002
  -1.4541270127871493E-004   1.1031205772676911E-004   6.0323728187211406E-002
  -2.0048907206479758E-004   1.2969084120091623E-004   6.1251911867181666E-002
  -2.5556544285087936E-004   1.8589510258323894E-004   6.2331057701337678E-002
  -3.1064181363696201E-004   2.7892484187368172E-004   6.3561165689679400E-002
  -3.6571818442304380E-004   4.0878005907230008E-004   6.4942235832206874E-002
   2.7733871272015737E-002  -7.3969590768271642E-003   6.1192349007978902E-002
   2.7034463484519378E-002  -7.5578906348841221E-003   6.0836867576563564E-002
   2.6335055697022991E-002  -7.6206083250723519E-003   6.0737181563712772E-002
   2.5635647909526622E-002  -7.5851121473918034E-003   6.0893290969426452E-002
   2.4936240122030245E-002  -7.4514021018425303E-003   6.1305195793704637E-002
   2.0503607064441511E-002  -5.4455242928522773E-003   6.1995455795981876E-002
   2.0028994278980007E-002  -5.5445813394813803E-003   6.1816396944273905E-002
   1.9554381493518500E-002  -5.6008287194578982E-003   6.1831132678071193E-002
   1.9079768708056988E-002  -5.6142664327819246E-003   6.2039662997373617E-002
   1.8605155922595484E-002  -5.5848944794534283E-003   6.2441987902181431E-002
   1.3410254085843645E-002  -3.4940895088774321E-003   6.2888139196020848E-002
   1.3098435469357721E-002  -3.5312720440786143E-003   6.2830098722804026E-002
   1.2786616852871796E-002  -3.5810491138434757E-003   6.2903852002033148E-002
   1.2474798236385878E-002  -3.6434207181720467E-003   6.3109399033708255E-002
   1.2162979619899955E-002  -3.7183868570642986E-003   6.3446739817829237E-002
   6.4538123362221237E-003  -1.5426547249025660E-003   6.3870399208095854E-002
   6.2427870556525100E-003  -1.5179627486758187E-003   6.3877972912153899E-002
   6.0317617750828938E-003  -1.5612695082290514E-003   6.3955339535598690E-002
   5.8207364945132766E-003  -1.6725750035621544E-003   6.4102499078430131E-002
   5.6097112139436647E-003  -1.8518792346751967E-003   6.4319451540648248E-002
  -3.6571818442304380E-004   4.0878005907230008E-004   6.4942235832206874E-002
  -5.3795096213562522E-004   4.9534654672694217E-004   6.4960019512323608E-002
  -7.1018373984821186E-004   4.5851009738537979E-004   6.4985595278767808E-002
  -8.8241651756079589E-004   2.9827071104774651E-004   6.5018963131539320E-002
  -1.0546492952733799E-003   1.4628387713960800E-005   6.5060123070638354E-002
   2.4936240122030245E-002  -7.4514021018425303E-003   6.1305195793704637E-002
   2.4215096181241319E-002  -7.2983403132445418E-003   6.0933321416760500E-002
   2.3493952240452400E-002  -7.2047889064177223E-003   6.0658083718138550E-002
   2.2772808299663480E-002  -7.1707478813620822E-003   6.0479482697838843E-002
   2.2051664358874540E-002  -7.1962172380778955E-003   6.0397518355861435E-002
   1.8605155922595484E-002  -5.5848944794534283E-003   6.2441987902181431E-002
   1.8006828927862054E-002  -5.5403854414769194E-003   6.1949178750145828E-002
   1.7408501933128616E-002  -5.5084119008569632E-003   6.1605366811898883E-002
   1.6810174938395175E-002  -5.4889738575934696E-003   6.1410552087440798E-002
   1.6211847943661747E-002  -5.4820713116867092E-003   6.1364734576771163E-002
   1.2162979619899955E-002  -3.7183868570642986E-003   6.3446739817829237E-002
   1.1739830106688488E-002  -3.7824305697093594E-003   6.2879970775116950E-002
   1.1316680593477024E-002  -3.8120348952962388E-003   6.2514559481659709E-002
   1.0893531080265560E-002  -3.8071998338249421E-003   6.2350505937457903E-002
   1.0470381567054092E-002  -3.7679253852955508E-003   6.2387810142511130E-002
   5.6097112139436647E-003  -1.8518792346751967E-003   6.4319451540648248E-002
   5.4140997177206359E-003  -2.0244756979417959E-003   6.3725697491673894E-002
   5.2184882214976105E-003  -2.1156578897354138E-003   6.3385661727421203E-002
   5.0228767252745781E-003  -2.1254258100563720E-003   6.3299344247890105E-002
   4.8272652290515562E-003  -2.0537794589043507E-003   6.3466745053080767E-002
  -1.0546492952733799E-003   1.4628387713960800E-005   6.5060123070638354E-002
  -9.7036223904150079E-004  -2.6652082617416306E-004   6.4486358899816576E-002
  -8.8607518280961473E-004  -4.1928088417476223E-004   6.4218673549183078E-002
  -8.0178812657772779E-004  -4.4365178628777598E-004   6.4257067018737735E-002
  -7.1750107034584953E-004  -3.3963353251326156E-004   6.4601539308480393E-002
   2.2051664358874540E-002  -7.1962172380778955E-003   6.0397518355861435E-002
   2.1150985170462530E-002  -7.2042285564973829E-003   5.9783132769799574E-002
   2.0250305982050520E-002  -7.1178134165532092E-003   5.9508378680138363E-002
   1.9349626793638511E-002  -6.9369718182454992E-003   5.9573256086878024E-002
   1.8448947605226501E-002  -6.6617037615740449E-003   5.9977764990018445E-002
   1.6211847943661747E-002  -5.4820713116867092E-003   6.1364734576771163E-002
   1.5614044387104946E-002  -5.4569201346318513E-003   6.0883672773777001E-002
   1.5016240830548130E-002  -5.3827361979246063E-003   6.0668730738092314E-002
   1.4418437273991322E-002  -5.2595195015647071E-003   6.0719908469717421E-002
   1.3820633717434506E-002  -5.0872700455523723E-003   6.1037205968651864E-002
   1.0470381567054092E-002  -3.7679253852955508E-003   6.2387810142511130E-002
   1.0101941913261345E-002  -3.7096117127663475E-003   6.1994678423873281E-002
   9.7335022594685974E-003  -3.6476589792957259E-003   6.1794154743454038E-002
   9.3650626056758536E-003  -3.5820671848839150E-003   6.1786239101253249E-002
   8.9966229518831098E-003  -3.5128363295305332E-003   6.1970931497270967E-002
   4.8272652290515562E-003  -2.0537794589043507E-003   6.3466745053080767E-002
   4.6146777489317397E-003  -1.9623032909007743E-003   6.3116149720088457E-002
   4.4020902688119284E-003  -1.9125817606670120E-003   6.2884650696223315E-002
   4.1895027886921102E-003  -1.9046148682031507E-003   6.2772247981485646E-002
   3.9769153085723007E-003  -1.9384026135087218E-003   6.2778941575875380E-002
  -7.1750107034584953E-004  -3.3963353251326156E-004   6.4601539308480393E-002
  -8.4774810588386651E-004  -2.1499486903531206E-004   6.4248086662422266E-002
  -9.7799514142188695E-004  -1.7750454203822874E-004   6.3940218596400283E-002
  -1.1082421769599109E-003  -2.2716255152224404E-004   6.3677935110414599E-002
  -1.2384892124979244E-003  -3.6396889748696593E-004   6.3461236204465143E-002
   1.8448947605226501E-002  -6.6617037615740449E-003   5.9977764990018445E-002
   1.7784895616340141E-002  -6.4044579922513667E-003   5.9755359802090624E-002
   1.7120843627453780E-002  -6.2776832559896939E-003   5.9505412676646052E-002
   1.6456791638567426E-002  -6.2813795527891618E-003   5.9227923613685021E-002
   1.5792739649681045E-002  -6.4155468826498363E-003   5.8922892613207212E-002
   1.3820633717434506E-002  -5.0872700455523723E-003   6.1037205968651864E-002
   1.3140223268473070E-002  -4.9480267891020835E-003   6.0507529284487410E-002
   1.2459812819511615E-002  -4.9238286914288776E-003   5.9972677617689207E-002
   1.1779402370550156E-002  -5.0146757525325186E-003   5.9432650968257630E-002
   1.1098991921588711E-002  -5.2205679724128262E-003   5.8887449336192277E-002
   8.9966229518831098E-003  -3.5128363295305332E-003   6.1970931497270967E-002
   8.3222209977296957E-003  -3.4915955859528836E-003   6.1149409191153803E-002
   7.6478190435762747E-003  -3.5699741268678462E-003   6.0345078857286120E-002
   6.9734170894228554E-003  -3.7479719522754886E-003   5.9557940495668121E-002
   6.2990151352694500E-003  -4.0255890621758439E-003   5.8787994106299632E-002
   3.9769153085723007E-003  -1.9384026135087218E-003   6.2778941575875380E-002
   3.3308888041100413E-003  -2.0351643828036697E-003   6.1680999522089733E-002
   2.6848622996477724E-003  -2.2161195623069778E-003   6.0622616395436819E-002
   2.0388357951855143E-003  -2.4812681520185965E-003   5.9603792195916654E-002
   1.3928092907232450E-003  -2.8306101519387367E-003   5.8624526923529166E-002
  -1.2384892124979244E-003  -3.6396889748696593E-004   6.3461236204465143E-002
  -1.8337733123859057E-003  -5.7873317965437265E-004   6.2102300277295241E-002
  -2.4290574122738905E-003  -8.6226499774597065E-004   6.0805290232141290E-002
  -3.0243415121618666E-003  -1.2145643517617252E-003   5.9570206069003206E-002
  -3.6196256120498566E-003  -1.6356312417019070E-003   5.8397047787880962E-002
   1.5792739649681045E-002  -6.4155468826498363E-003   5.8922892613207212E-002
   1.6016951135488122E-002  -6.1503114807219816E-003   5.9796274780139158E-002
   1.6241162621295206E-002  -4.9557995821560702E-003   6.2172830826549813E-002
   1.6465374107102294E-002  -2.8320111869528063E-003   6.6052560752439385E-002
   1.6689585592909340E-002   2.2105370488856302E-004   7.1435464557807471E-002
   1.1098991921588711E-002  -5.2205679724128262E-003   5.8887449336192277E-002
   1.2442425269063903E-002  -5.3239262077415528E-003   5.9895345239345726E-002
   1.3785858616539109E-002  -5.1071713151901593E-003   6.1638510986356476E-002
   1.5129291964014312E-002  -4.5703032947586979E-003   6.4116946577224998E-002
   1.6472725311489494E-002  -3.7133221464470401E-003   6.7330652011950876E-002
   6.2990151352694500E-003  -4.0255890621758439E-003   5.8787994106299632E-002
   7.9937663087915264E-003  -4.4975409347612905E-003   5.9321240376916731E-002
   9.6885174823135977E-003  -5.2585430482241444E-003   5.9821852455769896E-002
   1.1383268655835697E-002  -6.3085954025646467E-003   6.0289830342859591E-002
   1.3078019829357759E-002  -7.6476979977826431E-003   6.0725174038185170E-002
   1.3928092907232450E-003  -2.8306101519387367E-003   5.8624526923529166E-002
   2.6709742546709471E-003  -3.6711556617808339E-003   5.8073960192852214E-002
   3.9491392186186466E-003  -5.4099147812580704E-003   5.6722855234790467E-002
   5.2273041825663608E-003  -8.0468875103705678E-003   5.4571212049343384E-002
   6.5054691465140403E-003  -1.1582073849118246E-002   5.1619030636511798E-002
  -3.6196256120498566E-003  -1.6356312417019070E-003   5.8397047787880962E-002
  -3.5259508932977898E-003  -2.8447703888006548E-003   5.6153504687152411E-002
  -3.4322761745457300E-003  -5.5612865142921769E-003   5.2341519323417712E-002
  -3.3386014557936616E-003  -9.7851796181766433E-003   4.6961091696676463E-002
  -3.2449267370416035E-003  -1.5516449700453849E-002   4.0012221806929427E-002
  -3.3805032140509471E-005   0.0000000000000000        2.8488211755588706E-002
  -4.4396467414418300E-005   1.1458785714307633E-005   3.3454768430254113E-002
  -5.4987902688326913E-005   2.5965821767139768E-005   3.8433154133531856E-002
  -6.5579337962235634E-005   4.3521108158492069E-005   4.3423368865421919E-002
  -7.6170773236144355E-005   6.4124644888369740E-005   4.8425412625924320E-002
  -6.8306905231684326E-003   0.0000000000000000        2.8561302543213186E-002
  -6.8690311579708251E-003   1.5538759196283627E-004   3.3605414143322361E-002
  -6.9073717927732193E-003   3.4905653844351410E-004   3.8582198315762241E-002
  -6.9457124275756127E-003   5.8100683944202740E-004   4.3491655060532819E-002
  -6.9840530623780052E-003   8.5123849495839180E-004   4.8333784377634095E-002
  -1.3531107663039953E-002   0.0000000000000000        2.8760705584996538E-002
  -1.3676353953652461E-002   2.9931639821136535E-004   3.3917605214728801E-002
  -1.3821600244264971E-002   6.7214725511988843E-004   3.8928020960510137E-002
  -1.3966846534877481E-002   1.1184925707255688E-003   4.3791952822340524E-002
  -1.4112092825489990E-002   1.6383523450284108E-003   4.8509400800220016E-002
  -2.0135056451755073E-002   0.0000000000000000        2.9086420880938758E-002
  -2.0466364854459327E-002   4.4324520445989464E-004   3.4391341644473432E-002
  -2.0797673257163581E-002   9.9523797179626450E-004   3.9470622067775525E-002
  -2.1128981659867832E-002   1.6559783020091072E-003   4.4324262150845083E-002
  -2.1460290062572086E-002   2.4254661950984299E-003   4.8952261893682049E-002
  -2.6642536889313787E-002   0.0000000000000000        2.9538448431039852E-002
  -2.7239063860391419E-002   5.8717401070842307E-004   3.5026623432556241E-002
  -2.7835590831469050E-002   1.3183286884726388E-003   4.0210001637558432E-002
  -2.8432117802546685E-002   2.1934640332926456E-003   4.5088583046046439E-002
  -2.9028644773624317E-002   3.2125800451684510E-003   4.9662367658020248E-002
  -7.6170773236144355E-005   6.4124644888369740E-005   4.8425412625924320E-002
  -9.3481255246786674E-005   8.3607104615132828E-005   5.1608911505274760E-002
  -1.1079173725742964E-004   9.7799159997113408E-005   5.4653130391939420E-002
  -1.2810221926807359E-004   1.0670081103433246E-004   5.7558069285918313E-002
  -1.4541270127871493E-004   1.1031205772676911E-004   6.0323728187211406E-002
  -6.9840530623780052E-003   8.5123849495839180E-004   4.8333784377634095E-002
  -7.1092432928905758E-003   1.1182226772499400E-003   5.1303492674542137E-002
  -7.2344335234031483E-003   1.3404305585740415E-003   5.4196721467132100E-002
  -7.3596237539157250E-003   1.5178621389306682E-003   5.7013470755404007E-002
  -7.4848139844282957E-003   1.6505174183198412E-003   5.9753740539357794E-002
  -1.4112092825489990E-002   1.6383523450284108E-003   4.8509400800220016E-002
  -1.4282362316136794E-002   2.1528382498847546E-003   5.1225832618062989E-002
  -1.4452631806783592E-002   2.5830619571509559E-003   5.3928585419955578E-002
  -1.4622901297430400E-002   2.9290234668270109E-003   5.6617659205897793E-002
  -1.4793170788077202E-002   3.1907227789129272E-003   5.9293053975889631E-002
  -2.1460290062572086E-002   2.4254661950984299E-003   4.8952261893682049E-002
  -2.1612838324985423E-002   3.1874538225195757E-003   5.1375931335837260E-002
  -2.1765386587398766E-002   3.8256933557278840E-003   5.3848722250409806E-002
  -2.1917934849812103E-002   4.3401847947233535E-003   5.6370634637399643E-002
  -2.2070483112225446E-002   4.7309281395060132E-003   5.8941668496806814E-002
  -2.9028644773624317E-002   3.2125800451684510E-003   4.9662367658020248E-002
  -2.9100671319436493E-002   4.2220693951543807E-003   5.1753788827865022E-002
  -2.9172697865248658E-002   5.0683247543048052E-003   5.3957131958494803E-002
  -2.9244724411060834E-002   5.7513461226196879E-003   5.6272397049909613E-002
  -2.9316750956873007E-002   6.2711335000990853E-003   5.8699584102109403E-002
  -1.4541270127871493E-004   1.1031205772676911E-004   6.0323728187211406E-002
  -2.0048907206479758E-004   1.2969084120091623E-004   6.1251911867181666E-002
  -2.5556544285087936E-004   1.8589510258323894E-004   6.2331057701337678E-002
  -3.1064181363696201E-004   2.7892484187368172E-004   6.3561165689679400E-002
  -3.6571818442304380E-004   4.0878005907230008E-004   6.4942235832206874E-002
  -7.4848139844282957E-003   1.6505174183198412E-003   5.9753740539357794E-002
  -7.3991783450572520E-003   1.7623342252103512E-003   6.0722680971739287E-002
  -7.3135427056862110E-003   1.8772503880710445E-003   6.1822083270249288E-002
  -7.2279070663151673E-003   1.9952659069018101E-003   6.3051947434887803E-002
  -7.1422714269441263E-003   2.1163807817027314E-003   6.4412273465654868E-002
  -1.4793170788077202E-002   3.1907227789129272E-003   5.9293053975889631E-002
  -1.4587323426606248E-002   3.3949776092198278E-003   6.0269025038744317E-002
  -1.4381476065135290E-002   3.5686056735588501E-003   6.1354957679670280E-002
  -1.4175628703664345E-002   3.7116069719299524E-003   6.2550851898667562E-002
  -1.3969781342193382E-002   3.8239815043332182E-003   6.3856707695736148E-002
  -2.2070483112225446E-002   4.7309281395060132E-003   5.8941668496806814E-002
  -2.1764924316711790E-002   5.0276209932292835E-003   5.9890944068196658E-002
  -2.1459365521198134E-002   5.2599609590466487E-003   6.0929680929600584E-002
  -2.1153806725684485E-002   5.4279480369581294E-003   6.2057879081018633E-002
  -2.0848247930170826E-002   5.5315822269637049E-003   6.3275538522450742E-002
  -2.9316750956873007E-002   6.2711335000990853E-003   5.8699584102109403E-002
  -2.8931981015373864E-002   6.6602643772387497E-003   5.9588438060096394E-002
  -2.8547211073874729E-002   6.9513162445344716E-003   6.0546253020040249E-002
  -2.8162441132375596E-002   7.1442891019862674E-003   6.1573028981941003E-002
  -2.7777671190876457E-002   7.2391829495941501E-003   6.2668765945798607E-002
  -3.6571818442304380E-004   4.0878005907230008E-004   6.4942235832206874E-002
  -5.3795096213562522E-004   4.9534654672694217E-004   6.4960019512323608E-002
  -7.1018373984821186E-004   4.5851009738537979E-004   6.4985595278767808E-002
  -8.8241651756079589E-004   2.9827071104774651E-004   6.5018963131539320E-002
  -1.0546492952733799E-003   1.4628387713960800E-005   6.5060123070638354E-002
  -7.1422714269441263E-003   2.1163807817027314E-003   6.4412273465654868E-002
  -7.2509666034523577E-003   2.2028177892233214E-003   6.4336916974156874E-002
  -7.3596617799605918E-003   2.2167997062130240E-003   6.4380843598740259E-002
  -7.4683569564688284E-003   2.1583265326718462E-003   6.4544053339404966E-002
  -7.5770521329770572E-003   2.0273982685999059E-003   6.4826546196150955E-002
  -1.3969781342193382E-002   3.8239815043332182E-003   6.3856707695736148E-002
  -1.3903447887743349E-002   3.9102890317197457E-003   6.3739158879088764E-002
  -1.3837114433293317E-002   3.9750893150406370E-003   6.3852384208276575E-002
  -1.3770780978843284E-002   4.0183823542960422E-003   6.4196383683299690E-002
  -1.3704447524393253E-002   4.0401681494858371E-003   6.4771157304157945E-002
  -2.0848247930170826E-002   5.5315822269637049E-003   6.3275538522450742E-002
  -2.0495394815008599E-002   5.6177602742161475E-003   6.3166745227119209E-002
  -2.0142541699846386E-002   5.7333789238682795E-003   6.3400217107376866E-002
  -1.9789688584684176E-002   5.8784381759202173E-003   6.3975954163223561E-002
  -1.9436835469521945E-002   6.0529380303718447E-003   6.4893956394659572E-002
  -2.7777671190876457E-002   7.2391829495941501E-003   6.2668765945798607E-002
  -2.7026807385248125E-002   7.3252315167125631E-003   6.2619676018248221E-002
  -2.6275943579619807E-002   7.4916685326958769E-003   6.3024342296040897E-002
  -2.5525079773991481E-002   7.7384939975443335E-003   6.3882764779176662E-002
  -2.4774215968363159E-002   8.0657079112577412E-003   6.5194943467655447E-002
  -1.0546492952733799E-003   1.4628387713960800E-005   6.5060123070638354E-002
  -9.7036223904150079E-004  -2.6652082617416306E-004   6.4486358899816576E-002
  -8.8607518280961473E-004  -4.1928088417476223E-004   6.4218673549183078E-002
  -8.0178812657772779E-004  -4.4365178628777598E-004   6.4257067018737735E-002
  -7.1750107034584953E-004  -3.3963353251326156E-004   6.4601539308480393E-002
  -7.5770521329770572E-003   2.0273982685999059E-003   6.4826546196150955E-002
  -7.2212701915980405E-003   1.8963323241374813E-003   6.4713489979394426E-002
  -6.8654882502190220E-003   1.8374461094247882E-003   6.4837344712744022E-002
  -6.5097063088400088E-003   1.8507396244621856E-003   6.5198110396199799E-002
  -6.1539243674609868E-003   1.9362128692493319E-003   6.5795787029761604E-002
  -1.3704447524393253E-002   4.0401681494858371E-003   6.4771157304157945E-002
  -1.3146338567949119E-002   4.0591854744490077E-003   6.5062599615329036E-002
  -1.2588229611504992E-002   4.0941731030243421E-003   6.5521785006524183E-002
  -1.2030120655060860E-002   4.1451310352119261E-003   6.6148713477743412E-002
  -1.1472011698616729E-002   4.2120592710117866E-003   6.6943385028986793E-002
  -1.9436835469521945E-002   6.0529380303718447E-003   6.4893956394659572E-002
  -1.8745567368094733E-002   6.2220386247604821E-003   6.5533687807620408E-002
  -1.8054299266667514E-002   6.3509000966238943E-003   6.6271994430523395E-002
  -1.7363031165240291E-002   6.4395224459618053E-003   6.7108876263368505E-002
  -1.6671763063813086E-002   6.4879056727742551E-003   6.8044333306155558E-002
  -2.4774215968363159E-002   8.0657079112577412E-003   6.5194943467655447E-002
  -2.4018956592034880E-002   8.3848917750721647E-003   6.6126754556268597E-002
  -2.3263697215706598E-002   8.6076270902234672E-003   6.7087972984741798E-002
  -2.2508437839378313E-002   8.7339138567116333E-003   6.8078598753075037E-002
  -2.1753178463050034E-002   8.7637520745367792E-003   6.9098631861268300E-002
  -7.1750107034584953E-004  -3.3963353251326156E-004   6.4601539308480393E-002
  -8.4774810588386651E-004  -2.1499486903531206E-004   6.4248086662422266E-002
  -9.7799514142188695E-004  -1.7750454203822874E-004   6.3940218596400283E-002
  -1.1082421769599109E-003  -2.2716255152224404E-004   6.3677935110414599E-002
  -1.2384892124979244E-003  -3.6396889748696593E-004   6.3461236204465143E-002
  -6.1539243674609868E-003   1.9362128692493319E-003   6.5795787029761604E-002
  -6.1866547613076738E-003   2.0289446249868170E-003   6.5540196889153024E-002
  -6.2193851551543642E-003   2.0640136728753283E-003   6.5434055451890794E-002
  -6.2521155490010485E-003   2.0414200129147790E-003   6.5477362717975038E-002
  -6.2848459428477346E-003   1.9611636451050130E-003   6.5670118687405826E-002
  -1.1472011698616729E-002   4.2120592710117866E-003   6.6943385028986793E-002
  -1.1303361327461868E-002   4.2728841190091127E-003   6.6815143022459347E-002
  -1.1134710956307012E-002   4.3055318877890450E-003   6.6940213842588692E-002
  -1.0966060585152149E-002   4.3100025773516893E-003   6.7318597489374535E-002
  -1.0797410213997303E-002   4.2862961876970751E-003   6.7950293962817182E-002
  -1.6671763063813086E-002   6.4879056727742551E-003   6.8044333306155558E-002
  -1.6197867804346455E-002   6.5168236130314083E-003   6.8072925062341305E-002
  -1.5723972544879849E-002   6.5470501027027096E-003   6.8458693768493936E-002
  -1.5250077285413216E-002   6.5785851417887115E-003   6.9201639424613409E-002
  -1.4776182025946608E-002   6.6114287302892066E-003   7.0301762030699821E-002
  -2.1753178463050034E-002   8.7637520745367792E-003   6.9098631861268300E-002
  -2.0870174191961435E-002   8.7607631070535374E-003   6.9313543008798939E-002
  -1.9987169920872842E-002   8.7885683176163326E-003   6.9989495229606569E-002
  -1.9104165649784254E-002   8.8471677062257094E-003   7.1126488523691342E-002
  -1.8221161378695651E-002   8.9365612728811716E-003   7.2724522891053189E-002
  -1.2384892124979244E-003  -3.6396889748696593E-004   6.3461236204465143E-002
  -1.8337733123859057E-003  -5.7873317965437265E-004   6.2102300277295241E-002
  -2.4290574122738905E-003  -8.6226499774597065E-004   6.0805290232141290E-002
  -3.0243415121618666E-003  -1.2145643517617252E-003   5.9570206069003206E-002
  -3.6196256120498566E-003  -1.6356312417019070E-003   5.8397047787880962E-002
  -6.2848459428477346E-003   1.9611636451050130E-003   6.5670118687405826E-002
  -6.7519107051885602E-003   1.8638640253760552E-003   6.4888673009010495E-002
  -7.2189754675293892E-003   1.7901406096573758E-003   6.4301740123693787E-002
  -7.6860402298702156E-003   1.7399933979490440E-003   6.3909320031455691E-002
  -8.1531049922110368E-003   1.7134223902513512E-003   6.3711412732295802E-002
  -1.0797410213997303E-002   4.2862961876970751E-003   6.7950293962817182E-002
  -1.1003668727728337E-002   4.3064612304063027E-003   6.7838682273131445E-002
  -1.1209927241459378E-002   4.4425462170605973E-003   6.8054170287586632E-002
  -1.1416185755190425E-002   4.6945511476600872E-003   6.8596758006183062E-002
  -1.1622444268921454E-002   5.0624760222046372E-003   6.9466445428920429E-002
  -1.4776182025946608E-002   6.6114287302892066E-003   7.0301762030699821E-002
  -1.4589047380005243E-002   6.7490584354367236E-003   7.0952328069657886E-002
  -1.4401912734063878E-002   7.0949518244640478E-003   7.2062580723819714E-002
  -1.4214778088122505E-002   7.6491088973709934E-003   7.3632519993185319E-002
  -1.4027643442181147E-002   8.4115296541579093E-003   7.5662145877754605E-002
  -1.8221161378695651E-002   8.9365612728811716E-003   7.2724522891053189E-002
  -1.7508046662019244E-002   9.1916556404669780E-003   7.4229610398589996E-002
  -1.6794931945342862E-002   9.7473574318671374E-003   7.6326971432393198E-002
  -1.6081817228666473E-002   1.0603666647081837E-002   7.9016605992462713E-002
  -1.5368702511990073E-002   1.1760583286111126E-002   8.2298514078798568E-002
  -3.6196256120498566E-003  -1.6356312417019070E-003   5.8397047787880962E-002
  -3.5259508932977898E-003  -2.8447703888006548E-003   5.6153504687152411E-002
  -3.4322761745457300E-003  -5.5612865142921769E-003   5.2341519323417712E-002
  -3.3386014557936616E-003  -9.7851796181766433E-003   4.6961091696676463E-002
  -3.2449267370416035E-003  -1.5516449700453849E-002   4.0012221806929427E-002
  -8.1531049922110368E-003   1.7134223902513512E-003   6.3711412732295802E-002
  -9.1970353015378564E-003   1.3073838617610745E-003   6.1817902857951385E-002
  -1.0240965610864669E-002   1.1883408767540682E-004   5.9217625190455314E-002
  -1.1284895920191492E-002  -1.8522269320059639E-003   5.5910579729807688E-002
  -1.2328826229518287E-002  -4.6057991972823231E-003   5.1896766476008938E-002
  -1.1622444268921454E-002   5.0624760222046372E-003   6.9466445428920429E-002
  -1.2942305136472397E-002   5.4595381123226649E-003   6.8647834513757389E-002
  -1.4262166004023313E-002   5.7989546896427754E-003   6.7984130275297566E-002
  -1.5582026871574232E-002   6.0807257541648837E-003   6.7475332713540864E-002
  -1.6901887739125168E-002   6.3048513058889810E-003   6.7121441828487893E-002
  -1.4027643442181147E-002   8.4115296541579093E-003   7.5662145877754605E-002
  -1.4761760398101398E-002   9.6116923628843248E-003   7.6643299654570368E-002
  -1.5495877354021635E-002   1.1479075291610141E-002   7.8641034577944399E-002
  -1.6229994309941879E-002   1.4013678440335648E-002   8.1655350647876213E-002
  -1.6964111265862124E-002   1.7215501809060341E-002   8.5686247864366238E-002
  -1.5368702511990073E-002   1.1760583286111126E-002   8.2298514078798568E-002
  -1.4655401086424880E-002   1.3763846613445763E-002   8.5804298280390601E-002
  -1.3942099660859672E-002   1.7159195893577658E-002   9.1188338098395688E-002
  -1.3228798235294489E-002   2.1946631126506310E-002   9.8450633532813372E-002
  -1.2515496809729271E-002   2.8126152312231811E-002  0.10759118458364414     
  -2.6642536889313787E-002   0.0000000000000000        2.9538448431039852E-002
  -2.7239063860391419E-002   5.8717401070842307E-004   3.5026623432556241E-002
  -2.7835590831469050E-002   1.3183286884726388E-003   4.0210001637558432E-002
  -2.8432117802546685E-002   2.1934640332926456E-003   4.5088583046046439E-002
  -2.9028644773624317E-002   3.2125800451684510E-003   4.9662367658020248E-002
  -3.3392624440252865E-002   0.0000000000000000        3.0249936400808863E-002
  -3.4229424632097757E-002   9.5813952409924165E-004   3.5343289995424694E-002
  -3.5066224823942650E-002   2.0169735716819579E-003   4.0260893945020186E-002
  -3.5903025015787550E-002   3.1765021427481461E-003   4.5002748249595347E-002
  -3.6739825207632450E-002   4.4367252372978011E-003   4.9568852909150168E-002
  -4.0724394569109056E-002   0.0000000000000000        3.1354032955754854E-002
  -4.1672420830227361E-002   1.3291050374900589E-003   3.6009278999897809E-002
  -4.2620447091345659E-002   2.7156184548912726E-003   4.0617822550514292E-002
  -4.3568473352463964E-002   4.1595402522036432E-003   4.5179663607604302E-002
  -4.4516499613582269E-002   5.6608704294271658E-003   4.9694802171167812E-002
  -4.8637847275882370E-002   0.0000000000000000        3.2850738095877831E-002
  -4.9568052454780215E-002   1.7000705508808773E-003   3.7024590445975593E-002
  -5.0498257633678066E-002   3.4142633381005886E-003   4.1280787454040735E-002
  -5.1428462812575924E-002   5.1425783616591367E-003   4.5619329120073250E-002
  -5.2358667991473776E-002   6.8850156215565228E-003   5.0040215444073166E-002
  -5.7132982560572802E-002   0.0000000000000000        3.4740051821177773E-002
  -5.7916319505756340E-002   2.0710360642716957E-003   3.8389224333658017E-002
  -5.8699656450939879E-002   4.1129082213099064E-003   4.2249788655599502E-002
  -5.9482993396123424E-002   6.1256164711146390E-003   4.6321744787002225E-002
  -6.0266330341306962E-002   8.1091608136858815E-003   5.0605092727866181E-002
  -2.9028644773624317E-002   3.2125800451684510E-003   4.9662367658020248E-002
  -2.9100671319436493E-002   4.2220693951543807E-003   5.1753788827865022E-002
  -2.9172697865248658E-002   5.0683247543048052E-003   5.3957131958494803E-002
  -2.9244724411060834E-002   5.7513461226196879E-003   5.6272397049909613E-002
  -2.9316750956873007E-002   6.2711335000990853E-003   5.8699584102109403E-002
  -3.6739825207632450E-002   4.4367252372978011E-003   4.9568852909150168E-002
  -3.6740909650313833E-002   5.6610547119203790E-003   5.1385942372312435E-002
  -3.6741994092995243E-002   6.7129024232052917E-003   5.3232994080951238E-002
  -3.6743078535676627E-002   7.5922683711525593E-003   5.5110008035066584E-002
  -3.6744162978358030E-002   8.2991525557621626E-003   5.7016984234658494E-002
  -4.4516499613582269E-002   5.6608704294271658E-003   4.9694802171167812E-002
  -4.4528601668441352E-002   7.1000400286863764E-003   5.1228312155145422E-002
  -4.4540703723300441E-002   8.3574800921057922E-003   5.2709824669291111E-002
  -4.4552805778159524E-002   9.4331906196854238E-003   5.4139339713604850E-002
  -4.4564907833018606E-002   1.0327171611425254E-002   5.5516857288086682E-002
  -5.2358667991473776E-002   6.8850156215565228E-003   5.0040215444073166E-002
  -5.2463747373819022E-002   8.5390253454523616E-003   5.1280898176363977E-002
  -5.2568826756164283E-002   1.0002057761006275E-002   5.2387623723514409E-002
  -5.2673906138509537E-002   1.1274112868218280E-002   5.3360392085524434E-002
  -5.2778985520854797E-002   1.2355190667088338E-002   5.4199203262394080E-002
  -6.0266330341306962E-002   8.1091608136858815E-003   5.0605092727866181E-002
  -6.0546346766446851E-002   9.9780106622183746E-003   5.1543700435968100E-002
  -6.0826363191586748E-002   1.1646635429906781E-002   5.2266391243621146E-002
  -6.1106379616726637E-002   1.3115035116751158E-002   5.2773165150825314E-002
  -6.1386396041866541E-002   1.4383209722751422E-002   5.3064022157580604E-002
  -2.9316750956873007E-002   6.2711335000990853E-003   5.8699584102109403E-002
  -2.8931981015373864E-002   6.6602643772387497E-003   5.9588438060096394E-002
  -2.8547211073874729E-002   6.9513162445344716E-003   6.0546253020040249E-002
  -2.8162441132375596E-002   7.1442891019862674E-003   6.1573028981941003E-002
  -2.7777671190876457E-002   7.2391829495941501E-003   6.2668765945798607E-002
  -3.6744162978358030E-002   8.2991525557621626E-003   5.7016984234658494E-002
  -3.6246947332432181E-002   8.8347268358756059E-003   5.7421881534190408E-002
  -3.5749731686506331E-002   9.2001630703344092E-003   5.7982709240618886E-002
  -3.5252516040580502E-002   9.3954612591385638E-003   5.8699467353943845E-002
  -3.4755300394654631E-002   9.4206214022880264E-003   5.9572155874165394E-002
  -4.4564907833018606E-002   1.0327171611425254E-002   5.5516857288086682E-002
  -4.3868277077726427E-002   1.1009189294512505E-002   5.5365738893352841E-002
  -4.3171646322434219E-002   1.1449009896134376E-002   5.5457520310455199E-002
  -4.2475015567141998E-002   1.1646633416290847E-002   5.5792201539393751E-002
  -4.1778384811849811E-002   1.1602059854981923E-002   5.6369782580168476E-002
  -5.2778985520854797E-002   1.2355190667088338E-002   5.4199203262394080E-002
  -5.1795970251256568E-002   1.3183651753149370E-002   5.3420010137583733E-002
  -5.0812954981658366E-002   1.3697856721934323E-002   5.2970686229549264E-002
  -4.9829939712060151E-002   1.3897805573443108E-002   5.2851231538290570E-002
  -4.8846924442461914E-002   1.3783498307675810E-002   5.3061646063807741E-002
  -6.1386396041866541E-002   1.4383209722751422E-002   5.3064022157580604E-002
  -6.0030026853022646E-002   1.5358114211786265E-002   5.1584695266883057E-002
  -5.8673657664178785E-002   1.5946703547734295E-002   5.0522206997900970E-002
  -5.7317288475334904E-002   1.6148977730595402E-002   4.9876557350634398E-002
  -5.5960919286491023E-002   1.5964936760369725E-002   4.9647746325083286E-002
  -2.7777671190876457E-002   7.2391829495941501E-003   6.2668765945798607E-002
  -2.7026807385248125E-002   7.3252315167125631E-003   6.2619676018248221E-002
  -2.6275943579619807E-002   7.4916685326958769E-003   6.3024342296040897E-002
  -2.5525079773991481E-002   7.7384939975443335E-003   6.3882764779176662E-002
  -2.4774215968363159E-002   8.0657079112577412E-003   6.5194943467655447E-002
  -3.4755300394654631E-002   9.4206214022880264E-003   5.9572155874165394E-002
  -3.3607545708197052E-002   9.3857288560860730E-003   5.9485955966592743E-002
  -3.2459791021739431E-002   9.4008689768360215E-003   5.9739781615335545E-002
  -3.1312036335281845E-002   9.4660417645378546E-003   6.0333632820393890E-002
  -3.0164281648824232E-002   9.5812472191915132E-003   6.1267509581767729E-002
  -4.1778384811849811E-002   1.1602059854981923E-002   5.6369782580168476E-002
  -4.0347469893590476E-002   1.1446226195459687E-002   5.6216116910660335E-002
  -3.8916554975331141E-002   1.1310069420976140E-002   5.6288746148440143E-002
  -3.7485640057071792E-002   1.1193589531531349E-002   5.6587670293507843E-002
  -3.6054725138812471E-002   1.1096786527125271E-002   5.7112889345863609E-002
  -4.8846924442461914E-002   1.3783498307675810E-002   5.3061646063807741E-002
  -4.7246579941428425E-002   1.3506723534833221E-002   5.2810158850451011E-002
  -4.5646235440394929E-002   1.3219269865116286E-002   5.2671235895354704E-002
  -4.4045890939361433E-002   1.2921137298524827E-002   5.2644877198518673E-002
  -4.2445546438327909E-002   1.2612325835059023E-002   5.2731082759943183E-002
  -5.5960919286491023E-002   1.5964936760369725E-002   4.9647746325083286E-002
  -5.4304875851710913E-002   1.5567220874206811E-002   4.9268081785964826E-002
  -5.2648832416930788E-002   1.5128470309256334E-002   4.8887250856079187E-002
  -5.0992788982150664E-002   1.4648685065518387E-002   4.8505253535426340E-002
  -4.9336745547370553E-002   1.4127865142992774E-002   4.8122089824006425E-002
  -2.4774215968363159E-002   8.0657079112577412E-003   6.5194943467655447E-002
  -2.4018956592034880E-002   8.3848917750721647E-003   6.6126754556268597E-002
  -2.3263697215706598E-002   8.6076270902234672E-003   6.7087972984741798E-002
  -2.2508437839378313E-002   8.7339138567116333E-003   6.8078598753075037E-002
  -2.1753178463050034E-002   8.7637520745367792E-003   6.9098631861268300E-002
  -3.0164281648824232E-002   9.5812472191915132E-003   6.1267509581767729E-002
  -2.9338361424805566E-002   9.6806498916462286E-003   6.1651152978677501E-002
  -2.8512441200786907E-002   9.6984143327511069E-003   6.2146710731107994E-002
  -2.7686520976768252E-002   9.6345405425061238E-003   6.2754182839059258E-002
  -2.6860600752749608E-002   9.4890285209113245E-003   6.3473569302531119E-002
  -3.6054725138812471E-002   1.1096786527125271E-002   5.7112889345863609E-002
  -3.5075637051442787E-002   1.0976408008220244E-002   5.6963175368383329E-002
  -3.4096548964073110E-002   1.0789201575278750E-002   5.7007882762084433E-002
  -3.3117460876703440E-002   1.0535167228300561E-002   5.7247011526966936E-002
  -3.2138372789333763E-002   1.0214304967285898E-002   5.7680561663030663E-002
  -4.2445546438327909E-002   1.2612325835059023E-002   5.2731082759943183E-002
  -4.1230783471946572E-002   1.2272166124794270E-002   5.2062821725386149E-002
  -4.0016020505565214E-002   1.1879988817806253E-002   5.1671489077671093E-002
  -3.8801257539183849E-002   1.1435793914094968E-002   5.1557084816798007E-002
  -3.7586494572802519E-002   1.0939581413660457E-002   5.1719608942766920E-002
  -4.9336745547370553E-002   1.4127865142992774E-002   4.8122089824006425E-002
  -4.7803800686316886E-002   1.3567924241368323E-002   4.6950092049685838E-002
  -4.6270855825263212E-002   1.2970776060333998E-002   4.6137529677867897E-002
  -4.4737910964209537E-002   1.2336420599889450E-002   4.5684402708552611E-002
  -4.3204966103155842E-002   1.1664857860035016E-002   4.5590711141740015E-002
  -2.1753178463050034E-002   8.7637520745367792E-003   6.9098631861268300E-002
  -2.0870174191961435E-002   8.7607631070535374E-003   6.9313543008798939E-002
  -1.9987169920872842E-002   8.7885683176163326E-003   6.9989495229606569E-002
  -1.9104165649784254E-002   8.8471677062257094E-003   7.1126488523691342E-002
  -1.8221161378695651E-002   8.9365612728811716E-003   7.2724522891053189E-002
  -2.6860600752749608E-002   9.4890285209113245E-003   6.3473569302531119E-002
  -2.5572170068736459E-002   9.3151130848441455E-003   6.3490328833050225E-002
  -2.4283739384723363E-002   9.1660290511822867E-003   6.3856900116141285E-002
  -2.2995308700710256E-002   9.0417764199254395E-003   6.4573283151804356E-002
  -2.1706878016697146E-002   8.9423551910736698E-003   6.5639477940039326E-002
  -3.2138372789333763E-002   1.0214304967285898E-002   5.7680561663030663E-002
  -3.0555745013101251E-002   9.8694630626349755E-003   5.7493206800897270E-002
  -2.8973117236868767E-002   9.5434897847479563E-003   5.7544434370630539E-002
  -2.7390489460636290E-002   9.2363851336250569E-003   5.7834244372230753E-002
  -2.5807861684403778E-002   8.9481491092661403E-003   5.8362636805697671E-002
  -3.7586494572802519E-002   1.0939581413660457E-002   5.1719608942766920E-002
  -3.5820899025055745E-002   1.0423813040425611E-002   5.1322176912339812E-002
  -3.4055303477309028E-002   9.9209505183136849E-003   5.1052097993074218E-002
  -3.2289707929562324E-002   9.4309938473247021E-003   5.0909372184970450E-002
  -3.0524112381815571E-002   8.9539430274585691E-003   5.0893999488028217E-002
  -4.3204966103155842E-002   1.1664857860035016E-002   4.5590711141740015E-002
  -4.1367632104600011E-002   1.0978163018216441E-002   4.4977239167377947E-002
  -3.9530298106044186E-002   1.0298411251879552E-002   4.4379890983472420E-002
  -3.7692964107488333E-002   9.6256025610243698E-003   4.3798666590023502E-002
  -3.5855630108932515E-002   8.9597369456511089E-003   4.3233565987031042E-002
  -1.8221161378695651E-002   8.9365612728811716E-003   7.2724522891053189E-002
  -1.7508046662019244E-002   9.1916556404669780E-003   7.4229610398589996E-002
  -1.6794931945342862E-002   9.7473574318671374E-003   7.6326971432393198E-002
  -1.6081817228666473E-002   1.0603666647081837E-002   7.9016605992462713E-002
  -1.5368702511990073E-002   1.1760583286111126E-002   8.2298514078798568E-002
  -2.1706878016697146E-002   8.9423551910736698E-003   6.5639477940039326E-002
  -2.0491368645611283E-002   8.9452524428252078E-003   6.6679626037321998E-002
  -1.9275859274525436E-002   9.1279552533782005E-003   6.8132289917157363E-002
  -1.8060349903439590E-002   9.4904636227322661E-003   6.9997469579545266E-002
  -1.6844840532353755E-002   1.0032777550887995E-002   7.2275165024485610E-002
  -2.5807861684403778E-002   8.9481491092661403E-003   5.8362636805697671E-002
  -2.4269715402622235E-002   8.6988492451833266E-003   5.8817043627713145E-002
  -2.2731569120840695E-002   8.5085530748888333E-003   5.9504208488567537E-002
  -2.1193422839059159E-002   8.3772605983828095E-003   6.0424131388260645E-002
  -1.9655276557277605E-002   8.3049718156650021E-003   6.1576812326792671E-002
  -3.0524112381815571E-002   8.9539430274585691E-003   5.0893999488028217E-002
  -2.8843086933052101E-002   8.4524460475414454E-003   5.0641863169763511E-002
  -2.7162061484288631E-002   7.8891508963997367E-003   5.0442727146623900E-002
  -2.5481036035525133E-002   7.2640575740330737E-003   5.0296591418609315E-002
  -2.3800010586761670E-002   6.5771660804418847E-003   5.0203455985719847E-002
  -3.5855630108932515E-002   8.9597369456511089E-003   4.3233565987031042E-002
  -3.4211483236900847E-002   8.2060428498996751E-003   4.2154084663473035E-002
  -3.2567336364869227E-002   7.2697487179104736E-003   4.0947845891326384E-002
  -3.0923189492837604E-002   6.1508545496837957E-003   3.9614849670590896E-002
  -2.9279042620805940E-002   4.8493603452188783E-003   3.8155096001266764E-002
  -1.5368702511990073E-002   1.1760583286111126E-002   8.2298514078798568E-002
  -1.4655401086424880E-002   1.3763846613445763E-002   8.5804298280390601E-002
  -1.3942099660859672E-002   1.7159195893577658E-002   9.1188338098395688E-002
  -1.3228798235294489E-002   2.1946631126506310E-002   9.8450633532813372E-002
  -1.2515496809729271E-002   2.8126152312231811E-002  0.10759118458364414     
  -1.6844840532353755E-002   1.0032777550887995E-002   7.2275165024485610E-002
  -1.4718913670544266E-002   1.0958688147093443E-002   7.4970757906396401E-002
  -1.2592986808734800E-002   1.2471986520596584E-002   7.8613346044382776E-002
  -1.0467059946925320E-002   1.4572672671397925E-002   8.3202929438444762E-002
  -8.3411330851158524E-003   1.7260746599496946E-002   8.8739508088582553E-002
  -1.9655276557277605E-002   8.3049718156650021E-003   6.1576812326792671E-002
  -1.7047984619561009E-002   8.1535296807407898E-003   6.2657515713522960E-002
  -1.4440692681844466E-002   7.7847771476155722E-003   6.3753953995991902E-002
  -1.1833400744127885E-002   7.1987142162894310E-003   6.4866127174199428E-002
  -9.2261088064113025E-003   6.3953408867620798E-003   6.5994035248145289E-002
  -2.3800010586761670E-002   6.5771660804418847E-003   5.0203455985719847E-002
  -2.1642613933475129E-002   5.3483712143883033E-003   4.8864571701770755E-002
  -1.9485217280188608E-002   3.0975677746345291E-003   4.6610161953223248E-002
  -1.7327820626902066E-002  -1.7524423881900859E-004   4.3440226740077130E-002
  -1.5170423973615515E-002  -4.4700648259727860E-003   3.9354766062332222E-002
  -2.9279042620805940E-002   4.8493603452188783E-003   3.8155096001266764E-002
  -2.8502801612286632E-002   2.5432127480358169E-003   3.3591925871139627E-002
  -2.7726560603767311E-002  -1.5896415983465140E-003   2.7181969916076576E-002
  -2.6950319595247990E-002  -7.5492026939274204E-003   1.8925228136077721E-002
  -2.6174078586728655E-002  -1.5335470538707652E-002   8.8217005311432839E-003
  -5.7132982560572802E-002   0.0000000000000000        3.4740051821177773E-002
  -5.7916319505756340E-002   2.0710360642716957E-003   3.8389224333658017E-002
  -5.8699656450939879E-002   4.1129082213099064E-003   4.2249788655599502E-002
  -5.9482993396123424E-002   6.1256164711146390E-003   4.6321744787002225E-002
  -6.0266330341306962E-002   8.1091608136858815E-003   5.0605092727866181E-002
  -6.5798180124229805E-002   0.0000000000000000        3.7248471249499725E-002
  -6.6598930665034403E-002   2.9031455386936775E-003   4.0867739123203142E-002
  -6.7399681205838974E-002   5.7501404772637857E-003   4.4240787996203235E-002
  -6.8200431746643572E-002   8.5409848157103341E-003   4.7367617868499981E-002
  -6.9001182287448143E-002   1.1275678554033310E-002   5.0248228740093423E-002
  -7.4221819667902825E-002   0.0000000000000000        4.0602493498688691E-002
  -7.5497594614493027E-002   3.7352550131156577E-003   4.4164870040725210E-002
  -7.6773369561083230E-002   7.3873727332176651E-003   4.7023416771893818E-002
  -7.8049144507673418E-002   1.0956353160306017E-002   4.9178133692194530E-002
  -7.9324919454263607E-002   1.4442196294380729E-002   5.0629020801627338E-002
  -8.2403901191591869E-002   0.0000000000000000        4.4802118568744692E-002
  -8.4612311354132261E-002   4.5673644875376378E-003   4.8280617086224206E-002
  -8.6820721516672625E-002   9.0246049891715419E-003   5.0597674982671252E-002
  -8.9029131679213017E-002   1.3371721504901716E-002   5.1753292258085837E-002
  -9.1237541841753408E-002   1.7608714034728152E-002   5.1747468912467932E-002
  -9.0344424695296910E-002   0.0000000000000000        4.9847346459667707E-002
  -9.3943080883952049E-002   5.3994739619596197E-003   5.3214980259700145E-002
  -9.7541737072607188E-002   1.0661837245125424E-002   5.4963562628535544E-002
 -0.10114039326126231        1.5787089849497400E-002   5.5093093566173909E-002
 -0.10473904944991745        2.0775231775075575E-002   5.3603573072615235E-002
  -6.0266330341306962E-002   8.1091608136858815E-003   5.0605092727866181E-002
  -6.0546346766446851E-002   9.9780106622183746E-003   5.1543700435968100E-002
  -6.0826363191586748E-002   1.1646635429906781E-002   5.2266391243621146E-002
  -6.1106379616726637E-002   1.3115035116751158E-002   5.2773165150825314E-002
  -6.1386396041866541E-002   1.4383209722751422E-002   5.3064022157580604E-002
  -6.9001182287448143E-002   1.1275678554033310E-002   5.0248228740093423E-002
  -6.9259403454252022E-002   1.3712032458266347E-002   4.9465286311855754E-002
  -6.9517624621055901E-002   1.5607857294443124E-002   4.8941851300739005E-002
  -6.9775845787859780E-002   1.6963153062563571E-002   4.8677923706743162E-002
  -7.0034066954663632E-002   1.7777919762627742E-002   4.8673503529868212E-002
  -7.9324919454263607E-002   1.4442196294380729E-002   5.0629020801627338E-002
  -7.9085921045161711E-002   1.7446054254314350E-002   4.7784224249837866E-002
  -7.8846922636059788E-002   1.9569079158979444E-002   4.5674359432739099E-002
  -7.8607924226957851E-002   2.0811271008376014E-002   4.4299426350330996E-002
  -7.8368925817855928E-002   2.1172629802504062E-002   4.3659425002613578E-002
  -9.1237541841753408E-002   1.7608714034728152E-002   5.1747468912467932E-002
  -9.0025899539175891E-002   2.1180076050362345E-002   4.6500514249914443E-002
  -8.8814257236598387E-002   2.3530301023515780E-002   4.2463915639621382E-002
  -8.7602614934020884E-002   2.4659388954188483E-002   3.9637673081588817E-002
  -8.6390972631443380E-002   2.4567339842380381E-002   3.8021786575816716E-002
 -0.10473904944991745        2.0775231775075575E-002   5.3603573072615235E-002
 -0.10207933893629460        2.4914097846410327E-002   4.5614156312085444E-002
  -9.9419628422671741E-002   2.7491522888052122E-002   3.9310519921385956E-002
  -9.6759917909048851E-002   2.8507506900000885E-002   3.4692663900516632E-002
  -9.4100207395425989E-002   2.7962049882256701E-002   3.1760588249477584E-002
  -6.1386396041866541E-002   1.4383209722751422E-002   5.3064022157580604E-002
  -6.0030026853022646E-002   1.5358114211786265E-002   5.1584695266883057E-002
  -5.8673657664178785E-002   1.5946703547734295E-002   5.0522206997900970E-002
  -5.7317288475334904E-002   1.6148977730595402E-002   4.9876557350634398E-002
  -5.5960919286491023E-002   1.5964936760369725E-002   4.9647746325083286E-002
  -7.0034066954663632E-002   1.7777919762627742E-002   4.8673503529868212E-002
  -6.8302528831857889E-002   1.8213164342691154E-002   4.7162903838505812E-002
  -6.6570990709052091E-002   1.8429893750809261E-002   4.5985803393351746E-002
  -6.4839452586246335E-002   1.8428107986982110E-002   4.5142202194405970E-002
  -6.3107914463440579E-002   1.8207807051209682E-002   4.4632100241668471E-002
  -7.8368925817855928E-002   2.1172629802504062E-002   4.3659425002613578E-002
  -7.6345558136595465E-002   2.1068214473595998E-002   4.2285352491727948E-002
  -7.4322190455334960E-002   2.0913083953884255E-002   4.1161439851543427E-002
  -7.2298822774074498E-002   2.0707238243368772E-002   4.0287687082060014E-002
  -7.0275455092814007E-002   2.0450677342049625E-002   3.9664094183277682E-002
  -8.6390972631443380E-002   2.4567339842380381E-002   3.8021786575816716E-002
  -8.4159114767235352E-002   2.3923264604500880E-002   3.6952041226549381E-002
  -8.1927256903027393E-002   2.3396274156959228E-002   3.6049116372475987E-002
  -7.9695399038819378E-002   2.2986368499755473E-002   3.5313012013596545E-002
  -7.7463541174611433E-002   2.2693547632889548E-002   3.4743728149910974E-002
  -9.4100207395425989E-002   2.7962049882256701E-002   3.1760588249477584E-002
  -9.1743198723777675E-002   2.6778314735405727E-002   3.1162970042970188E-002
  -8.9386190052129347E-002   2.5879464360034223E-002   3.0648832956149501E-002
  -8.7029181380481033E-002   2.5265498756142153E-002   3.0218176989015501E-002
  -8.4672172708832691E-002   2.4936417923729526E-002   2.9871002141568376E-002
  -5.5960919286491023E-002   1.5964936760369725E-002   4.9647746325083286E-002
  -5.4304875851710913E-002   1.5567220874206811E-002   4.9268081785964826E-002
  -5.2648832416930788E-002   1.5128470309256334E-002   4.8887250856079187E-002
  -5.0992788982150664E-002   1.4648685065518387E-002   4.8505253535426340E-002
  -4.9336745547370553E-002   1.4127865142992774E-002   4.8122089824006425E-002
  -6.3107914463440579E-002   1.8207807051209682E-002   4.4632100241668471E-002
  -6.1408012144849436E-002   1.7843462264321742E-002   4.4221611920167637E-002
  -5.9708109826258321E-002   1.7409544947148182E-002   4.3900007757055978E-002
  -5.8008207507667206E-002   1.6906055099688951E-002   4.3667287752333486E-002
  -5.6308305189076063E-002   1.6332992721944134E-002   4.3523451906000155E-002
  -7.0275455092814007E-002   2.0450677342049625E-002   3.9664094183277682E-002
  -6.8441643341255576E-002   2.0119703654436716E-002   3.9194244227896413E-002
  -6.6607831589697103E-002   1.9690619585040030E-002   3.8903328980060638E-002
  -6.4774019838138672E-002   1.9163425133859643E-002   3.8791348439770335E-002
  -6.2940208086580199E-002   1.8538120300895453E-002   3.8858302607025545E-002
  -7.7463541174611433E-002   2.2693547632889548E-002   3.4743728149910974E-002
  -7.5405769440929235E-002   2.2395945044551641E-002   3.4185978709151146E-002
  -7.3347997707247134E-002   2.1971694222931878E-002   3.3897214525093075E-002
  -7.1290225973564991E-002   2.1420795168030297E-002   3.3877435597736962E-002
  -6.9232454239882821E-002   2.0743247879846820E-002   3.4126641927082549E-002
  -8.4672172708832691E-002   2.4936417923729526E-002   2.9871002141568376E-002
  -8.2300390443870552E-002   2.4672186434666607E-002   2.9196815363931872E-002
  -7.9928608178908400E-002   2.4252768860823747E-002   2.8881664392153478E-002
  -7.7556825913946262E-002   2.3678165202200958E-002   2.8925549226233270E-002
  -7.5185043648984123E-002   2.2948375458798159E-002   2.9328469866171214E-002
  -4.9336745547370553E-002   1.4127865142992774E-002   4.8122089824006425E-002
  -4.7803800686316886E-002   1.3567924241368323E-002   4.6950092049685838E-002
  -4.6270855825263212E-002   1.2970776060333998E-002   4.6137529677867897E-002
  -4.4737910964209537E-002   1.2336420599889450E-002   4.5684402708552611E-002
  -4.3204966103155842E-002   1.1664857860035016E-002   4.5590711141740015E-002
  -5.6308305189076063E-002   1.6332992721944134E-002   4.3523451906000155E-002
  -5.4455477397205361E-002   1.5715823520497912E-002   4.2623634205931848E-002
  -5.2602649605334714E-002   1.5080013201934528E-002   4.2004146964994854E-002
  -5.0749821813463998E-002   1.4425561766254119E-002   4.1664990183189254E-002
  -4.8896994021593358E-002   1.3752469213456603E-002   4.1606163860515105E-002
  -6.2940208086580199E-002   1.8538120300895453E-002   3.8858302607025545E-002
  -6.0846602307263756E-002   1.7863722799627335E-002   3.8249231143502385E-002
  -5.8752996527947327E-002   1.7189250343535061E-002   3.7841385195739347E-002
  -5.6659390748630883E-002   1.6514702932618679E-002   3.7634764763736457E-002
  -5.4565784969314440E-002   1.5840080566878190E-002   3.7629369847493627E-002
  -6.9232454239882821E-002   2.0743247879846820E-002   3.4126641927082549E-002
  -6.6977175416491952E-002   2.0011622078756841E-002   3.3826882862397538E-002
  -6.4721896593101041E-002   1.9298487485135664E-002   3.3649244370101389E-002
  -6.2466617769710110E-002   1.8603844098983236E-002   3.3593726450193984E-002
  -6.0211338946319234E-002   1.7927691920299776E-002   3.3660329102675531E-002
  -7.5185043648984123E-002   2.2948375458798159E-002   2.9328469866171214E-002
  -7.2847196724889998E-002   2.2159521357886389E-002   2.9356589362617286E-002
  -7.0509349800795873E-002   2.1407724626736187E-002   2.9427724488080925E-002
  -6.8171502876701734E-002   2.0692985265347880E-002   2.9541875242562209E-002
  -6.5833655952607623E-002   2.0015303273721363E-002   2.9699041626061018E-002
  -4.3204966103155842E-002   1.1664857860035016E-002   4.5590711141740015E-002
  -4.1367632104600011E-002   1.0978163018216441E-002   4.4977239167377947E-002
  -3.9530298106044186E-002   1.0298411251879552E-002   4.4379890983472420E-002
  -3.7692964107488333E-002   9.6256025610243698E-003   4.3798666590023502E-002
  -3.5855630108932515E-002   8.9597369456511089E-003   4.3233565987031042E-002
  -4.8896994021593358E-002   1.3752469213456603E-002   4.1606163860515105E-002
  -4.7011585235215397E-002   1.3067096508309853E-002   4.1048391798185133E-002
  -4.5126176448837485E-002   1.2375804615582083E-002   4.0570645521042933E-002
  -4.3240767662459552E-002   1.1678593535272898E-002   4.0172925029088390E-002
  -4.1355358876081598E-002   1.0975463267382468E-002   3.9855230322321467E-002
  -5.4565784969314440E-002   1.5840080566878190E-002   3.7629369847493627E-002
  -5.2568399400383319E-002   1.5156029998403445E-002   3.7114435434132863E-002
  -5.0571013831452190E-002   1.4453197979284557E-002   3.6743428800690897E-002
  -4.8573628262521089E-002   1.3731584509521316E-002   3.6516349947167653E-002
  -4.6576242693589939E-002   1.2991189589113938E-002   3.6433198873563138E-002
  -6.0211338946319234E-002   1.7927691920299776E-002   3.3660329102675531E-002
  -5.8038074600103809E-002   1.7244963488497002E-002   3.3175370075221013E-002
  -5.5864810253888404E-002   1.6530591342987032E-002   3.2898240822416283E-002
  -5.3691545907672979E-002   1.5784575483769873E-002   3.2828941344261495E-002
  -5.1518281561457512E-002   1.5006915910845409E-002   3.2967471640756529E-002
  -6.5833655952607623E-002   2.0015303273721363E-002   2.9699041626061018E-002
  -6.3420610834376778E-002   1.9333896978590476E-002   2.9231195721449665E-002
  -6.1007565716146003E-002   1.8607984706689562E-002   2.9035081586219202E-002
  -5.8594520597915152E-002   1.7837566458018178E-002   2.9110699220369726E-002
  -5.6181475479684356E-002   1.7022642232576823E-002   2.9458048623901223E-002
  -3.5855630108932515E-002   8.9597369456511089E-003   4.3233565987031042E-002
  -3.4211483236900847E-002   8.2060428498996751E-003   4.2154084663473035E-002
  -3.2567336364869227E-002   7.2697487179104736E-003   4.0947845891326384E-002
  -3.0923189492837604E-002   6.1508545496837957E-003   3.9614849670590896E-002
  -2.9279042620805940E-002   4.8493603452188783E-003   3.8155096001266764E-002
  -4.1355358876081598E-002   1.0975463267382468E-002   3.9855230322321467E-002
  -3.9786465171642166E-002   1.0206895757719492E-002   3.8952320563299919E-002
  -3.8217571467202671E-002   9.3133729520927105E-003   3.8025661917682890E-002
  -3.6648677762763177E-002   8.2948948505023150E-003   3.7075254385470255E-002
  -3.5079784058323682E-002   7.1514614529479825E-003   3.6101097966661944E-002
  -4.6576242693589939E-002   1.2991189589113938E-002   3.6433198873563138E-002
  -4.4979593594749491E-002   1.2207748665539475E-002   3.5764505419352222E-002
  -4.3382944495909036E-002   1.1356997186275225E-002   3.5175071640538860E-002
  -4.1786295397068587E-002   1.0438935151321001E-002   3.4664897537123041E-002
  -4.0189646298228132E-002   9.4535625606770868E-003   3.4233983109104749E-002
  -5.1518281561457512E-002   1.5006915910845409E-002   3.2967471640756529E-002
  -4.9790868506222975E-002   1.4208601573359458E-002   3.2590639231630053E-002
  -4.8063455450988397E-002   1.3400621420457545E-002   3.2396075059894267E-002
  -4.6336042395753847E-002   1.2582975452139825E-002   3.2383779125549086E-002
  -4.4608629340519276E-002   1.1755663668406302E-002   3.2553751428594679E-002
  -5.6181475479684356E-002   1.7022642232576823E-002   2.9458048623901223E-002
  -5.4220289906062535E-002   1.6209454481179220E-002   2.9430722000133247E-002
  -5.2259104332440728E-002   1.5444245654639921E-002   2.9688672175749081E-002
  -5.0297918758818887E-002   1.4727015752958275E-002   3.0231899150748753E-002
  -4.8336733185197100E-002   1.4057764776135351E-002   3.1060402925132291E-002
  -2.9279042620805940E-002   4.8493603452188783E-003   3.8155096001266764E-002
  -2.8502801612286632E-002   2.5432127480358169E-003   3.3591925871139627E-002
  -2.7726560603767311E-002  -1.5896415983465140E-003   2.7181969916076576E-002
  -2.6950319595247990E-002  -7.5492026939274204E-003   1.8925228136077721E-002
  -2.6174078586728655E-002  -1.5335470538707652E-002   8.8217005311432839E-003
  -3.5079784058323682E-002   7.1514614529479825E-003   3.6101097966661944E-002
  -3.5693481844447920E-002   5.4348872399151149E-003   3.1261637522344232E-002
  -3.6307179630572117E-002   2.6969866918890861E-003   2.5489085313675081E-002
  -3.6920877416696307E-002  -1.0622401911298610E-003   1.8783441340654836E-002
  -3.7534575202820497E-002  -5.8427934091421774E-003   1.1144705603282956E-002
  -4.0189646298228132E-002   9.4535625606770868E-003   3.4233983109104749E-002
  -4.1279588818411435E-002   8.3265617317946905E-003   2.9923612764802210E-002
  -4.2369531338594807E-002   6.9836149821247417E-003   2.5593844716732914E-002
  -4.3459473858778110E-002   5.4247223116676985E-003   2.1244678964896652E-002
  -4.4549416378961426E-002   3.6498837204231860E-003   1.6876115509293577E-002
  -4.4608629340519276E-002   1.1755663668406302E-002   3.2553751428594679E-002
  -4.5261122534177224E-002   1.1218236223674016E-002   2.9577851598513401E-002
  -4.5913615727835200E-002   1.1270243272360314E-002   2.7496248125249624E-002
  -4.6566108921493168E-002   1.1911684814465147E-002   2.6308941008803363E-002
  -4.7218602115151234E-002   1.3142560849988494E-002   2.6015930249174868E-002
  -4.8336733185197100E-002   1.4057764776135351E-002   3.1060402925132291E-002
  -4.7638082991745295E-002   1.4109910715553509E-002   3.0224354023477895E-002
  -4.6939432798293518E-002   1.5556871562595900E-002   3.1196295539225621E-002
  -4.6240782604841615E-002   1.8398647317262849E-002   3.3976227472375040E-002
  -4.5542132411389880E-002   2.2635237979554024E-002   3.8564149822926996E-002
  -9.0344424695296910E-002   0.0000000000000000        4.9847346459667707E-002
  -9.3943080883952049E-002   5.3994739619596197E-003   5.3214980259700145E-002
  -9.7541737072607188E-002   1.0661837245125424E-002   5.4963562628535544E-002
 -0.10114039326126231        1.5787089849497400E-002   5.5093093566173909E-002
 -0.10473904944991745        2.0775231775075575E-002   5.3603573072615235E-002
 -0.10327982949408009        0.0000000000000000        5.8671068577236252E-002
 -0.10681606605900924        1.0881117391097577E-002   5.2121999939971596E-002
 -0.11035230262393841        1.9165639696829197E-002   4.7316821981355922E-002
 -0.11388853918886757        2.4853566917194866E-002   4.4255534701389231E-002
 -0.11742477575379673        2.7944899052194567E-002   4.2938138100071507E-002
 -0.12644655490300347        0.0000000000000000        7.4206176327228812E-002
 -0.12655742973436063        1.6362760820235533E-002   5.5280920846094948E-002
 -0.12666830456571784        2.7669442148532973E-002   4.1462498153456068E-002
 -0.12677917939707500        3.3920043984892324E-002   3.2750908249312156E-002
 -0.12689005422843219        3.5114566329313548E-002   2.9146151133663242E-002
 -0.15984460092206704        0.0000000000000000        9.6452669709645417E-002
 -0.15316717191000620        2.1844404249373488E-002   6.2691742978070189E-002
 -0.14648974289794539        3.6173244600236742E-002   3.7400591144835939E-002
 -0.13981231388588461        4.2986521052589766E-002   2.0579214209942676E-002
 -0.13313488487382377        4.2284233606432541E-002   1.2227612173390440E-002
 -0.20347396755127081        0.0000000000000000       0.12541054872448604     
 -0.18664529258594600        2.7326047678511448E-002   7.4354466335897290E-002
 -0.16981661762062120        4.4677047051940512E-002   3.5131100955495556E-002
 -0.15298794265529636        5.2052998120287235E-002   7.7404525832808213E-003
 -0.13615926768997155        4.9453900883551540E-002  -7.8174787807468935E-003
 -0.10473904944991745        2.0775231775075575E-002   5.3603573072615235E-002
 -0.10207933893629460        2.4914097846410327E-002   4.5614156312085444E-002
  -9.9419628422671741E-002   2.7491522888052122E-002   3.9310519921385956E-002
  -9.6759917909048851E-002   2.8507506900000885E-002   3.4692663900516632E-002
  -9.4100207395425989E-002   2.7962049882256701E-002   3.1760588249477584E-002
 -0.11742477575379673        2.7944899052194567E-002   4.2938138100071507E-002
 -0.11346697321594970        2.9415061940070528E-002   3.6677888603892220E-002
 -0.10950917067810266        3.0239481419064972E-002   3.1328042786331063E-002
 -0.10555136814025562        3.0418157489177960E-002   2.6888600647387930E-002
 -0.10159356560240862        2.9951090150409358E-002   2.3359562187062956E-002
 -0.12689005422843219        3.5114566329313548E-002   2.9146151133663242E-002
 -0.12240953635757315        3.3916026033730715E-002   2.5530766522645919E-002
 -0.11792901848671408        3.2987439950077871E-002   2.2050408899034576E-002
 -0.11344850061585504        3.2328808078354962E-002   1.8705078262829175E-002
 -0.10896798274499600        3.1940130418562002E-002   1.5494774614029653E-002
 -0.13313488487382377        4.2284233606432541E-002   1.2227612173390440E-002
 -0.12890702836116488        3.8416990127390915E-002   1.2172790068346595E-002
 -0.12467917184850599        3.5735398481090724E-002   1.1477618259496490E-002
 -0.12045131533584709        3.4239458667532009E-002   1.0142096746840239E-002
 -0.11622345882318819        3.3929170686714694E-002   8.1662255303777392E-003
 -0.13615926768997155        4.9453900883551540E-002  -7.8174787807468935E-003
 -0.13295944922672495        4.2917954221051102E-002  -3.3960407590058125E-003
 -0.12975963076347838        3.8483357012103592E-002  -3.9032913228314280E-004
 -0.12655981230023178        3.6150109256709057E-002   1.1996560994213140E-003
 -0.12335999383698518        3.5918210954867330E-002   1.3739149361072234E-003
  -9.4100207395425989E-002   2.7962049882256701E-002   3.1760588249477584E-002
  -9.1743198723777675E-002   2.6778314735405727E-002   3.1162970042970188E-002
  -8.9386190052129347E-002   2.5879464360034223E-002   3.0648832956149501E-002
  -8.7029181380481033E-002   2.5265498756142153E-002   3.0218176989015501E-002
  -8.4672172708832691E-002   2.4936417923729526E-002   2.9871002141568376E-002
 -0.10159356560240862        2.9951090150409358E-002   2.3359562187062956E-002
  -9.9138881475924090E-002   2.9189545077408664E-002   2.3065915736048524E-002
  -9.6684197349439588E-002   2.8484787944825313E-002   2.2884139075019714E-002
  -9.4229513222955141E-002   2.7836818752659247E-002   2.2814232203976527E-002
  -9.1774829096470611E-002   2.7245637500910552E-002   2.2856195122918962E-002
 -0.10896798274499600        3.1940130418562002E-002   1.5494774614029653E-002
 -0.10638723449337648        3.1600775419411628E-002   1.5277003087446143E-002
 -0.10380648624175695        3.1090111529616427E-002   1.5199490021147080E-002
 -0.10122573799013741        3.0408138749176448E-002   1.5262235415132558E-002
  -9.8644989738517846E-002   2.9554857078091523E-002   1.5465239269402416E-002
 -0.11622345882318819        3.3929170686714694E-002   8.1662255303777392E-003
 -0.11348825777613478        3.4012005761414561E-002   7.7962320971630521E-003
 -0.11075305672908137        3.3695435114407458E-002   7.5948857945315499E-003
 -0.10801785568202792        3.2979458745693510E-002   7.5621866224834591E-003
 -0.10528265463497452        3.1864076655272605E-002   7.6981345810186036E-003
 -0.12335999383698518        3.5918210954867330E-002   1.3739149361072234E-003
 -0.12044195132419899        3.6423236103417508E-002   6.2360276519904390E-004
 -0.11752390881141279        3.6300758699198611E-002   7.0326395172945477E-005
 -0.11460586629862660        3.5550778742210652E-002  -2.8591417397067290E-004
 -0.11168782378584041        3.4173296232453576E-002  -4.4511894223225879E-004
  -8.4672172708832691E-002   2.4936417923729526E-002   2.9871002141568376E-002
  -8.2300390443870552E-002   2.4672186434666607E-002   2.9196815363931872E-002
  -7.9928608178908400E-002   2.4252768860823747E-002   2.8881664392153478E-002
  -7.7556825913946262E-002   2.3678165202200958E-002   2.8925549226233270E-002
  -7.5185043648984123E-002   2.2948375458798159E-002   2.9328469866171214E-002
  -9.1774829096470611E-002   2.7245637500910552E-002   2.2856195122918962E-002
  -8.9089549360765602E-002   2.6657194553944961E-002   2.2265717047942453E-002
  -8.6404269625060537E-002   2.6017440276128442E-002   2.1943198108593354E-002
  -8.3718989889355500E-002   2.5326374667460922E-002   2.1888638304871959E-002
  -8.1033710153650448E-002   2.4583997727942480E-002   2.2102037636778302E-002
  -9.8644989738517846E-002   2.9554857078091523E-002   1.5465239269402416E-002
  -9.5737289202300485E-002   2.8642202673223364E-002   1.5062344651014609E-002
  -9.2829588666083068E-002   2.7782111691433114E-002   1.4836332498024119E-002
  -8.9921888129865721E-002   2.6974584132721000E-002   1.4787202810430613E-002
  -8.7014187593648276E-002   2.6219619997086843E-002   1.4914955588234073E-002
 -0.10528265463497452        3.1864076655272605E-002   7.6981345810186036E-003
 -0.10224360996847534        3.0627210792501604E-002   7.5866981731489876E-003
  -9.9204565301976091E-002   2.9546783106737771E-002   7.5610675604456451E-003
  -9.6165520635476842E-002   2.8622793597980853E-002   7.6212427429090037E-003
  -9.3126475968977662E-002   2.7855242266231046E-002   7.7672237205388354E-003
 -0.11168782378584041        3.4173296232453576E-002  -4.4511894223225879E-004
 -0.10860851165928992        3.2612218911780150E-002  -1.6122238565513536E-004
 -0.10552919953273948        3.1311454522042495E-002   1.1740329585813170E-004
 -0.10244988740618902        3.0271003063240921E-002   3.9075810230722319E-004
  -9.9370575279638551E-002   2.9490864535375472E-002   6.5884203369226402E-004
  -7.5185043648984123E-002   2.2948375458798159E-002   2.9328469866171214E-002
  -7.2847196724889998E-002   2.2159521357886389E-002   2.9356589362617286E-002
  -7.0509349800795873E-002   2.1407724626736187E-002   2.9427724488080925E-002
  -6.8171502876701734E-002   2.0692985265347880E-002   2.9541875242562209E-002
  -6.5833655952607623E-002   2.0015303273721363E-002   2.9699041626061018E-002
  -8.1033710153650448E-002   2.4583997727942480E-002   2.2102037636778302E-002
  -7.8627522562160768E-002   2.3817240905157563E-002   2.2043475703310778E-002
  -7.6221334970671017E-002   2.3053035646690846E-002   2.2078579475616915E-002
  -7.3815147379181281E-002   2.2291381952542134E-002   2.2207348953696544E-002
  -7.1408959787691573E-002   2.1532279822711498E-002   2.2429784137549841E-002
  -8.7014187593648276E-002   2.6219619997086843E-002   1.4914955588234073E-002
  -8.4489009258006939E-002   2.5474960452428939E-002   1.4735206419409369E-002
  -8.1963830922365588E-002   2.4698346666645336E-002   1.4699773033114216E-002
  -7.9438652586724265E-002   2.3889778639736223E-002   1.4808655429348750E-002
  -7.6913474251082914E-002   2.3049256371701521E-002   1.5061853608112769E-002
  -9.3126475968977662E-002   2.7855242266231046E-002   7.7672237205388354E-003
  -9.0431656812428679E-002   2.7132679999700159E-002   7.4317815109131349E-003
  -8.7736837655879626E-002   2.6343657686599936E-002   7.2913051605729392E-003
  -8.5042018499330643E-002   2.5488175326930394E-002   7.3457946695185232E-003
  -8.2347199342781660E-002   2.4566232920691766E-002   7.5952500377499399E-003
  -9.9370575279638551E-002   2.9490864535375472E-002   6.5884203369226402E-004
  -9.6455465225425863E-002   2.8790399546971407E-002   1.3320097782190676E-004
  -9.3540355171213174E-002   2.7988968706554609E-002  -1.4682414200677119E-004
  -9.0625245117000486E-002   2.7086572014124777E-002  -1.8123332579368309E-004
  -8.7710135062787797E-002   2.6083209469681790E-002   2.9973426460994101E-005
  -6.5833655952607623E-002   2.0015303273721363E-002   2.9699041626061018E-002
  -6.3420610834376778E-002   1.9333896978590476E-002   2.9231195721449665E-002
  -6.1007565716146003E-002   1.8607984706689562E-002   2.9035081586219202E-002
  -5.8594520597915152E-002   1.7837566458018178E-002   2.9110699220369726E-002
  -5.6181475479684356E-002   1.7022642232576823E-002   2.9458048623901223E-002
  -7.1408959787691573E-002   2.1532279822711498E-002   2.2429784137549841E-002
  -6.8733158776904293E-002   2.0769184948853520E-002   2.1996230213235185E-002
  -6.6057357766117097E-002   1.9995553022622875E-002   2.1816456304652190E-002
  -6.3381556755329901E-002   1.9211384044019640E-002   2.1890462411801224E-002
  -6.0705755744542636E-002   1.8416678013043808E-002   2.2218248534681961E-002
  -7.6913474251082914E-002   2.3049256371701521E-002   1.5061853608112769E-002
  -7.3992869101388359E-002   2.2204472919116494E-002   1.4696560588492197E-002
  -7.1072263951693818E-002   2.1383121338556355E-002   1.4567095830954432E-002
  -6.8151658801999221E-002   2.0585201630021102E-002   1.4673459335499468E-002
  -6.5231053652304638E-002   1.9810713793510931E-002   1.5015651102127298E-002
  -8.2347199342781660E-002   2.4566232920691766E-002   7.5952500377499399E-003
  -7.9199741807828850E-002   2.3639760889379448E-002   7.3321868472209228E-003
  -7.6052284272876025E-002   2.2770689654489862E-002   7.2870001651258662E-003
  -7.2904826737923187E-002   2.1959019216022564E-002   7.4596899914643831E-003
  -6.9757369202970418E-002   2.1204749573977846E-002   7.8502563262368708E-003
  -8.7710135062787797E-002   2.6083209469681790E-002   2.9973426460994101E-005
  -8.4353776896225863E-002   2.5075048859642401E-002  -9.6891010578525893E-005
  -8.0997418729663873E-002   2.4158257970423230E-002  -2.3830692833556877E-005
  -7.7641060563101882E-002   2.3332836802023769E-002   2.4915437969640422E-004
  -7.4284702396539948E-002   2.2598785354444928E-002   7.2206420701070861E-004
  -5.6181475479684356E-002   1.7022642232576823E-002   2.9458048623901223E-002
  -5.4220289906062535E-002   1.6209454481179220E-002   2.9430722000133247E-002
  -5.2259104332440728E-002   1.5444245654639921E-002   2.9688672175749081E-002
  -5.0297918758818887E-002   1.4727015752958275E-002   3.0231899150748753E-002
  -4.8336733185197100E-002   1.4057764776135351E-002   3.1060402925132291E-002
  -6.0705755744542636E-002   1.8416678013043808E-002   2.2218248534681961E-002
  -5.8498792743668065E-002   1.7617960071756061E-002   2.2175650974182781E-002
  -5.6291829742793405E-002   1.6821755362217070E-002   2.2339331468805373E-002
  -5.4084866741918744E-002   1.6028063884427009E-002   2.2709290018549752E-002
  -5.1877903741044104E-002   1.5236885638385655E-002   2.3285526623415820E-002
  -6.5231053652304638E-002   1.9810713793510931E-002   1.5015651102127298E-002
  -6.2857311968439231E-002   1.9026465662332820E-002   1.4912316911787599E-002
  -6.0483570284573837E-002   1.8199265069794274E-002   1.4936262032307399E-002
  -5.8109828600708464E-002   1.7329112015895411E-002   1.5087486463687259E-002
  -5.5736086916842967E-002   1.6416006500635932E-002   1.5365990205926841E-002
  -6.9757369202970418E-002   2.1204749573977846E-002   7.8502563262368708E-003
  -6.7295847580376239E-002   2.0434971252909426E-002   7.6407198129472310E-003
  -6.4834325957782032E-002   1.9576774777371173E-002   7.4794638662553925E-003
  -6.2372804335187888E-002   1.8630160147363423E-002   7.3664884861611123E-003
  -5.9911282712593647E-002   1.7595127362886223E-002   7.3017936726648795E-003
  -7.4284702396539948E-002   2.2598785354444928E-002   7.2206420701070861E-004
  -7.1814399579478994E-002   2.1843476843486476E-002   3.6085967766208427E-004
  -6.9344096762418039E-002   2.0954284484948571E-002  -3.1063029350991700E-005
  -6.6873793945357141E-002   1.9931208278832144E-002  -4.5370391402794336E-004
  -6.4403491128296131E-002   1.8774248225136292E-002  -9.0706297636955480E-004
  -4.8336733185197100E-002   1.4057764776135351E-002   3.1060402925132291E-002
  -4.7638082991745295E-002   1.4109910715553509E-002   3.0224354023477895E-002
  -4.6939432798293518E-002   1.5556871562595900E-002   3.1196295539225621E-002
  -4.6240782604841615E-002   1.8398647317262849E-002   3.3976227472375040E-002
  -4.5542132411389880E-002   2.2635237979554024E-002   3.8564149822926996E-002
  -5.1877903741044104E-002   1.5236885638385655E-002   2.3285526623415820E-002
  -4.9684696437018672E-002   1.4880156109635917E-002   2.2949631350210636E-002
  -4.7491489132993246E-002   1.5389810783720245E-002   2.3794859880750752E-002
  -4.5298281828967793E-002   1.6765849660638873E-002   2.5821212215035888E-002
  -4.3105074524942388E-002   1.9008272740391519E-002   2.9028688353066823E-002
  -5.5736086916842967E-002   1.6416006500635932E-002   1.5365990205926841E-002
  -5.2675189115900661E-002   1.5650401503718187E-002   1.5001817856380509E-002
  -4.9614291314958252E-002   1.5222750004844694E-002   1.5191902696922756E-002
  -4.6553393514015912E-002   1.5133052004014729E-002   1.5936244727553391E-002
  -4.3492495713073467E-002   1.5381307501229013E-002   1.7234843948272960E-002
  -5.9911282712593647E-002   1.7595127362886223E-002   7.3017936726648795E-003
  -5.6609561028391084E-002   1.6420646897800470E-002   6.3809135419873979E-003
  -5.3307839344188528E-002   1.5055689225968980E-002   5.3874239877414378E-003
  -5.0006117659985881E-002   1.3500254347390779E-002   4.3213250099275917E-003
  -4.6704395975783353E-002   1.1754342262066286E-002   3.1826166085454632E-003
  -6.4403491128296131E-002   1.8774248225136292E-002  -9.0706297636955480E-004
  -6.1487812174490064E-002   1.7190892291882975E-002  -2.9130815929688247E-003
  -5.8572133220683942E-002   1.4888628447093433E-002  -5.6185762467929889E-003
  -5.5656454266877847E-002   1.1867456690766817E-002  -9.0235469378420266E-003
  -5.2740775313071753E-002   8.1273770229040032E-003  -1.3127993666115723E-002
 </DataArray>
 </PointData>
 </Piece>
 <Piece  NumberOfPoints="          1600 "  NumberOfCells="         1024 ">
 <Points>
 <DataArray  type="Float64" NumberOfComponents="3"  format="ascii" >
  0.50000000000000000        0.0000000000000000        0.0000000000000000     
  0.53125000000000000        0.0000000000000000        0.0000000000000000     
  0.56250000000000000        0.0000000000000000        0.0000000000000000     
  0.59375000000000000        0.0000000000000000        0.0000000000000000     
  0.62500000000000000        0.0000000000000000        0.0000000000000000     
  0.50000000000000000        3.1250000000000000E-002   0.0000000000000000     
  0.53125000000000000        3.1250000000000000E-002   0.0000000000000000     
  0.56250000000000000        3.1250000000000000E-002   0.0000000000000000     
  0.59375000000000000        3.1250000000000000E-002   0.0000000000000000     
  0.62500000000000000        3.1250000000000000E-002   0.0000000000000000     
  0.50000000000000000        6.2500000000000000E-002   0.0000000000000000     
  0.53125000000000000        6.2500000000000000E-002   0.0000000000000000     
  0.56250000000000000        6.2500000000000000E-002   0.0000000000000000     
  0.59375000000000000        6.2500000000000000E-002   0.0000000000000000     
  0.62500000000000000        6.2500000000000000E-002   0.0000000000000000     
  0.50000000000000000        9.3750000000000000E-002   0.0000000000000000     
  0.53125000000000000        9.3750000000000000E-002   0.0000000000000000     
  0.56250000000000000        9.3750000000000000E-002   0.0000000000000000     
  0.59375000000000000        9.3750000000000000E-002   0.0000000000000000     
  0.62500000000000000        9.3750000000000000E-002   0.0000000000000000     
  0.50000000000000000       0.12500000000000000        0.0000000000000000     
  0.53125000000000000       0.12500000000000000        0.0000000000000000     
  0.56250000000000000       0.12500000000000000        0.0000000000000000     
  0.59375000000000000       0.12500000000000000        0.0000000000000000     
  0.62500000000000000       0.12500000000000000        0.0000000000000000     
  0.62500000000000000        0.0000000000000000        0.0000000000000000     
  0.65625000000000000        0.0000000000000000        0.0000000000000000     
  0.68750000000000000        0.0000000000000000        0.0000000000000000     
  0.71875000000000000        0.0000000000000000        0.0000000000000000     
  0.75000000000000000        0.0000000000000000        0.0000000000000000     
  0.62500000000000000        3.1250000000000000E-002   0.0000000000000000     
  0.65625000000000000        3.1250000000000000E-002   0.0000000000000000     
  0.68750000000000000        3.1250000000000000E-002   0.0000000000000000     
  0.71875000000000000        3.1250000000000000E-002   0.0000000000000000     
  0.75000000000000000        3.1250000000000000E-002   0.0000000000000000     
  0.62500000000000000        6.2500000000000000E-002   0.0000000000000000     
  0.65625000000000000        6.2500000000000000E-002   0.0000000000000000     
  0.68750000000000000        6.2500000000000000E-002   0.0000000000000000     
  0.71875000000000000        6.2500000000000000E-002   0.0000000000000000     
  0.75000000000000000        6.2500000000000000E-002   0.0000000000000000     
  0.62500000000000000        9.3750000000000000E-002   0.0000000000000000     
  0.65625000000000000        9.3750000000000000E-002   0.0000000000000000     
  0.68750000000000000        9.3750000000000000E-002   0.0000000000000000     
  0.71875000000000000        9.3750000000000000E-002   0.0000000000000000     
  0.75000000000000000        9.3750000000000000E-002   0.0000000000000000     
  0.62500000000000000       0.12500000000000000        0.0000000000000000     
  0.65625000000000000       0.12500000000000000        0.0000000000000000     
  0.68750000000000000       0.12500000000000000        0.0000000000000000     
  0.71875000000000000       0.12500000000000000        0.0000000000000000     
  0.75000000000000000       0.12500000000000000        0.0000000000000000     
  0.75000000000000000        0.0000000000000000        0.0000000000000000     
  0.78125000000000000        0.0000000000000000        0.0000000000000000     
  0.81250000000000000        0.0000000000000000        0.0000000000000000     
  0.84375000000000000        0.0000000000000000        0.0000000000000000     
  0.87500000000000000        0.0000000000000000        0.0000000000000000     
  0.75000000000000000        3.1250000000000000E-002   0.0000000000000000     
  0.78125000000000000        3.1250000000000000E-002   0.0000000000000000     
  0.81250000000000000        3.1250000000000000E-002   0.0000000000000000     
  0.84375000000000000        3.1250000000000000E-002   0.0000000000000000     
  0.87500000000000000        3.1250000000000000E-002   0.0000000000000000     
  0.75000000000000000        6.2500000000000000E-002   0.0000000000000000     
  0.78125000000000000        6.2500000000000000E-002   0.0000000000000000     
  0.81250000000000000        6.2500000000000000E-002   0.0000000000000000     
  0.84375000000000000        6.2500000000000000E-002   0.0000000000000000     
  0.87500000000000000        6.2500000000000000E-002   0.0000000000000000     
  0.75000000000000000        9.3750000000000000E-002   0.0000000000000000     
  0.78125000000000000        9.3750000000000000E-002   0.0000000000000000     
  0.81250000000000000        9.3750000000000000E-002   0.0000000000000000     
  0.84375000000000000        9.3750000000000000E-002   0.0000000000000000     
  0.87500000000000000        9.3750000000000000E-002   0.0000000000000000     
  0.75000000000000000       0.12500000000000000        0.0000000000000000     
  0.78125000000000000       0.12500000000000000        0.0000000000000000     
  0.81250000000000000       0.12500000000000000        0.0000000000000000     
  0.84375000000000000       0.12500000000000000        0.0000000000000000     
  0.87500000000000000       0.12500000000000000        0.0000000000000000     
  0.87500000000000000        0.0000000000000000        0.0000000000000000     
  0.90625000000000000        0.0000000000000000        0.0000000000000000     
  0.93750000000000000        0.0000000000000000        0.0000000000000000     
  0.96875000000000000        0.0000000000000000        0.0000000000000000     
   1.0000000000000000        0.0000000000000000        0.0000000000000000     
  0.87500000000000000        3.1250000000000000E-002   0.0000000000000000     
  0.90625000000000000        3.1250000000000000E-002   0.0000000000000000     
  0.93750000000000000        3.1250000000000000E-002   0.0000000000000000     
  0.96875000000000000        3.1250000000000000E-002   0.0000000000000000     
   1.0000000000000000        3.1250000000000000E-002   0.0000000000000000     
  0.87500000000000000        6.2500000000000000E-002   0.0000000000000000     
  0.90625000000000000        6.2500000000000000E-002   0.0000000000000000     
  0.93750000000000000        6.2500000000000000E-002   0.0000000000000000     
  0.96875000000000000        6.2500000000000000E-002   0.0000000000000000     
   1.0000000000000000        6.2500000000000000E-002   0.0000000000000000     
  0.87500000000000000        9.3750000000000000E-002   0.0000000000000000     
  0.90625000000000000        9.3750000000000000E-002   0.0000000000000000     
  0.93750000000000000        9.3750000000000000E-002   0.0000000000000000     
  0.96875000000000000        9.3750000000000000E-002   0.0000000000000000     
   1.0000000000000000        9.3750000000000000E-002   0.0000000000000000     
  0.87500000000000000       0.12500000000000000        0.0000000000000000     
  0.90625000000000000       0.12500000000000000        0.0000000000000000     
  0.93750000000000000       0.12500000000000000        0.0000000000000000     
  0.96875000000000000       0.12500000000000000        0.0000000000000000     
   1.0000000000000000       0.12500000000000000        0.0000000000000000     
   1.0000000000000000        0.0000000000000000        0.0000000000000000     
   1.0312500000000000        0.0000000000000000        0.0000000000000000     
   1.0625000000000000        0.0000000000000000        0.0000000000000000     
   1.0937500000000000        0.0000000000000000        0.0000000000000000     
   1.1250000000000000        0.0000000000000000        0.0000000000000000     
   1.0000000000000000        3.1250000000000000E-002   0.0000000000000000     
   1.0312500000000000        3.1250000000000000E-002   0.0000000000000000     
   1.0625000000000000        3.1250000000000000E-002   0.0000000000000000     
   1.0937500000000000        3.1250000000000000E-002   0.0000000000000000     
   1.1250000000000000        3.1250000000000000E-002   0.0000000000000000     
   1.0000000000000000        6.2500000000000000E-002   0.0000000000000000     
   1.0312500000000000        6.2500000000000000E-002   0.0000000000000000     
   1.0625000000000000        6.2500000000000000E-002   0.0000000000000000     
   1.0937500000000000        6.2500000000000000E-002   0.0000000000000000     
   1.1250000000000000        6.2500000000000000E-002   0.0000000000000000     
   1.0000000000000000        9.3750000000000000E-002   0.0000000000000000     
   1.0312500000000000        9.3750000000000000E-002   0.0000000000000000     
   1.0625000000000000        9.3750000000000000E-002   0.0000000000000000     
   1.0937500000000000        9.3750000000000000E-002   0.0000000000000000     
   1.1250000000000000        9.3750000000000000E-002   0.0000000000000000     
   1.0000000000000000       0.12500000000000000        0.0000000000000000     
   1.0312500000000000       0.12500000000000000        0.0000000000000000     
   1.0625000000000000       0.12500000000000000        0.0000000000000000     
   1.0937500000000000       0.12500000000000000        0.0000000000000000     
   1.1250000000000000       0.12500000000000000        0.0000000000000000     
   1.1250000000000000        0.0000000000000000        0.0000000000000000     
   1.1562500000000000        0.0000000000000000        0.0000000000000000     
   1.1875000000000000        0.0000000000000000        0.0000000000000000     
   1.2187500000000000        0.0000000000000000        0.0000000000000000     
   1.2500000000000000        0.0000000000000000        0.0000000000000000     
   1.1250000000000000        3.1250000000000000E-002   0.0000000000000000     
   1.1562500000000000        3.1250000000000000E-002   0.0000000000000000     
   1.1875000000000000        3.1250000000000000E-002   0.0000000000000000     
   1.2187500000000000        3.1250000000000000E-002   0.0000000000000000     
   1.2500000000000000        3.1250000000000000E-002   0.0000000000000000     
   1.1250000000000000        6.2500000000000000E-002   0.0000000000000000     
   1.1562500000000000        6.2500000000000000E-002   0.0000000000000000     
   1.1875000000000000        6.2500000000000000E-002   0.0000000000000000     
   1.2187500000000000        6.2500000000000000E-002   0.0000000000000000     
   1.2500000000000000        6.2500000000000000E-002   0.0000000000000000     
   1.1250000000000000        9.3750000000000000E-002   0.0000000000000000     
   1.1562500000000000        9.3750000000000000E-002   0.0000000000000000     
   1.1875000000000000        9.3750000000000000E-002   0.0000000000000000     
   1.2187500000000000        9.3750000000000000E-002   0.0000000000000000     
   1.2500000000000000        9.3750000000000000E-002   0.0000000000000000     
   1.1250000000000000       0.12500000000000000        0.0000000000000000     
   1.1562500000000000       0.12500000000000000        0.0000000000000000     
   1.1875000000000000       0.12500000000000000        0.0000000000000000     
   1.2187500000000000       0.12500000000000000        0.0000000000000000     
   1.2500000000000000       0.12500000000000000        0.0000000000000000     
   1.2500000000000000        0.0000000000000000        0.0000000000000000     
   1.2812500000000000        0.0000000000000000        0.0000000000000000     
   1.3125000000000000        0.0000000000000000        0.0000000000000000     
   1.3437500000000000        0.0000000000000000        0.0000000000000000     
   1.3750000000000000        0.0000000000000000        0.0000000000000000     
   1.2500000000000000        3.1250000000000000E-002   0.0000000000000000     
   1.2812500000000000        3.1250000000000000E-002   0.0000000000000000     
   1.3125000000000000        3.1250000000000000E-002   0.0000000000000000     
   1.3437500000000000        3.1250000000000000E-002   0.0000000000000000     
   1.3750000000000000        3.1250000000000000E-002   0.0000000000000000     
   1.2500000000000000        6.2500000000000000E-002   0.0000000000000000     
   1.2812500000000000        6.2500000000000000E-002   0.0000000000000000     
   1.3125000000000000        6.2500000000000000E-002   0.0000000000000000     
   1.3437500000000000        6.2500000000000000E-002   0.0000000000000000     
   1.3750000000000000        6.2500000000000000E-002   0.0000000000000000     
   1.2500000000000000        9.3750000000000000E-002   0.0000000000000000     
   1.2812500000000000        9.3750000000000000E-002   0.0000000000000000     
   1.3125000000000000        9.3750000000000000E-002   0.0000000000000000     
   1.3437500000000000        9.3750000000000000E-002   0.0000000000000000     
   1.3750000000000000        9.3750000000000000E-002   0.0000000000000000     
   1.2500000000000000       0.12500000000000000        0.0000000000000000     
   1.2812500000000000       0.12500000000000000        0.0000000000000000     
   1.3125000000000000       0.12500000000000000        0.0000000000000000     
   1.3437500000000000       0.12500000000000000        0.0000000000000000     
   1.3750000000000000       0.12500000000000000        0.0000000000000000     
   1.3750000000000000        0.0000000000000000        0.0000000000000000     
   1.4062500000000000        0.0000000000000000        0.0000000000000000     
   1.4375000000000000        0.0000000000000000        0.0000000000000000     
   1.4687500000000000        0.0000000000000000        0.0000000000000000     
   1.5000000000000000        0.0000000000000000        0.0000000000000000     
   1.3750000000000000        3.1250000000000000E-002   0.0000000000000000     
   1.4062500000000000        3.1250000000000000E-002   0.0000000000000000     
   1.4375000000000000        3.1250000000000000E-002   0.0000000000000000     
   1.4687500000000000        3.1250000000000000E-002   0.0000000000000000     
   1.5000000000000000        3.1250000000000000E-002   0.0000000000000000     
   1.3750000000000000        6.2500000000000000E-002   0.0000000000000000     
   1.4062500000000000        6.2500000000000000E-002   0.0000000000000000     
   1.4375000000000000        6.2500000000000000E-002   0.0000000000000000     
   1.4687500000000000        6.2500000000000000E-002   0.0000000000000000     
   1.5000000000000000        6.2500000000000000E-002   0.0000000000000000     
   1.3750000000000000        9.3750000000000000E-002   0.0000000000000000     
   1.4062500000000000        9.3750000000000000E-002   0.0000000000000000     
   1.4375000000000000        9.3750000000000000E-002   0.0000000000000000     
   1.4687500000000000        9.3750000000000000E-002   0.0000000000000000     
   1.5000000000000000        9.3750000000000000E-002   0.0000000000000000     
   1.3750000000000000       0.12500000000000000        0.0000000000000000     
   1.4062500000000000       0.12500000000000000        0.0000000000000000     
   1.4375000000000000       0.12500000000000000        0.0000000000000000     
   1.4687500000000000       0.12500000000000000        0.0000000000000000     
   1.5000000000000000       0.12500000000000000        0.0000000000000000     
  0.50000000000000000       0.12500000000000000        0.0000000000000000     
  0.53125000000000000       0.12500000000000000        0.0000000000000000     
  0.56250000000000000       0.12500000000000000        0.0000000000000000     
  0.59375000000000000       0.12500000000000000        0.0000000000000000     
  0.62500000000000000       0.12500000000000000        0.0000000000000000     
  0.50000000000000000       0.15625000000000000        0.0000000000000000     
  0.53125000000000000       0.15625000000000000        0.0000000000000000     
  0.56250000000000000       0.15625000000000000        0.0000000000000000     
  0.59375000000000000       0.15625000000000000        0.0000000000000000     
  0.62500000000000000       0.15625000000000000        0.0000000000000000     
  0.50000000000000000       0.18750000000000000        0.0000000000000000     
  0.53125000000000000       0.18750000000000000        0.0000000000000000     
  0.56250000000000000       0.18750000000000000        0.0000000000000000     
  0.59375000000000000       0.18750000000000000        0.0000000000000000     
  0.62500000000000000       0.18750000000000000        0.0000000000000000     
  0.50000000000000000       0.21875000000000000        0.0000000000000000     
  0.53125000000000000       0.21875000000000000        0.0000000000000000     
  0.56250000000000000       0.21875000000000000        0.0000000000000000     
  0.59375000000000000       0.21875000000000000        0.0000000000000000     
  0.62500000000000000       0.21875000000000000        0.0000000000000000     
  0.50000000000000000       0.25000000000000000        0.0000000000000000     
  0.53125000000000000       0.25000000000000000        0.0000000000000000     
  0.56250000000000000       0.25000000000000000        0.0000000000000000     
  0.59375000000000000       0.25000000000000000        0.0000000000000000     
  0.62500000000000000       0.25000000000000000        0.0000000000000000     
  0.62500000000000000       0.12500000000000000        0.0000000000000000     
  0.65625000000000000       0.12500000000000000        0.0000000000000000     
  0.68750000000000000       0.12500000000000000        0.0000000000000000     
  0.71875000000000000       0.12500000000000000        0.0000000000000000     
  0.75000000000000000       0.12500000000000000        0.0000000000000000     
  0.62500000000000000       0.15625000000000000        0.0000000000000000     
  0.65625000000000000       0.15625000000000000        0.0000000000000000     
  0.68750000000000000       0.15625000000000000        0.0000000000000000     
  0.71875000000000000       0.15625000000000000        0.0000000000000000     
  0.75000000000000000       0.15625000000000000        0.0000000000000000     
  0.62500000000000000       0.18750000000000000        0.0000000000000000     
  0.65625000000000000       0.18750000000000000        0.0000000000000000     
  0.68750000000000000       0.18750000000000000        0.0000000000000000     
  0.71875000000000000       0.18750000000000000        0.0000000000000000     
  0.75000000000000000       0.18750000000000000        0.0000000000000000     
  0.62500000000000000       0.21875000000000000        0.0000000000000000     
  0.65625000000000000       0.21875000000000000        0.0000000000000000     
  0.68750000000000000       0.21875000000000000        0.0000000000000000     
  0.71875000000000000       0.21875000000000000        0.0000000000000000     
  0.75000000000000000       0.21875000000000000        0.0000000000000000     
  0.62500000000000000       0.25000000000000000        0.0000000000000000     
  0.65625000000000000       0.25000000000000000        0.0000000000000000     
  0.68750000000000000       0.25000000000000000        0.0000000000000000     
  0.71875000000000000       0.25000000000000000        0.0000000000000000     
  0.75000000000000000       0.25000000000000000        0.0000000000000000     
  0.75000000000000000       0.12500000000000000        0.0000000000000000     
  0.78125000000000000       0.12500000000000000        0.0000000000000000     
  0.81250000000000000       0.12500000000000000        0.0000000000000000     
  0.84375000000000000       0.12500000000000000        0.0000000000000000     
  0.87500000000000000       0.12500000000000000        0.0000000000000000     
  0.75000000000000000       0.15625000000000000        0.0000000000000000     
  0.78125000000000000       0.15625000000000000        0.0000000000000000     
  0.81250000000000000       0.15625000000000000        0.0000000000000000     
  0.84375000000000000       0.15625000000000000        0.0000000000000000     
  0.87500000000000000       0.15625000000000000        0.0000000000000000     
  0.75000000000000000       0.18750000000000000        0.0000000000000000     
  0.78125000000000000       0.18750000000000000        0.0000000000000000     
  0.81250000000000000       0.18750000000000000        0.0000000000000000     
  0.84375000000000000       0.18750000000000000        0.0000000000000000     
  0.87500000000000000       0.18750000000000000        0.0000000000000000     
  0.75000000000000000       0.21875000000000000        0.0000000000000000     
  0.78125000000000000       0.21875000000000000        0.0000000000000000     
  0.81250000000000000       0.21875000000000000        0.0000000000000000     
  0.84375000000000000       0.21875000000000000        0.0000000000000000     
  0.87500000000000000       0.21875000000000000        0.0000000000000000     
  0.75000000000000000       0.25000000000000000        0.0000000000000000     
  0.78125000000000000       0.25000000000000000        0.0000000000000000     
  0.81250000000000000       0.25000000000000000        0.0000000000000000     
  0.84375000000000000       0.25000000000000000        0.0000000000000000     
  0.87500000000000000       0.25000000000000000        0.0000000000000000     
  0.87500000000000000       0.12500000000000000        0.0000000000000000     
  0.90625000000000000       0.12500000000000000        0.0000000000000000     
  0.93750000000000000       0.12500000000000000        0.0000000000000000     
  0.96875000000000000       0.12500000000000000        0.0000000000000000     
   1.0000000000000000       0.12500000000000000        0.0000000000000000     
  0.87500000000000000       0.15625000000000000        0.0000000000000000     
  0.90625000000000000       0.15625000000000000        0.0000000000000000     
  0.93750000000000000       0.15625000000000000        0.0000000000000000     
  0.96875000000000000       0.15625000000000000        0.0000000000000000     
   1.0000000000000000       0.15625000000000000        0.0000000000000000     
  0.87500000000000000       0.18750000000000000        0.0000000000000000     
  0.90625000000000000       0.18750000000000000        0.0000000000000000     
  0.93750000000000000       0.18750000000000000        0.0000000000000000     
  0.96875000000000000       0.18750000000000000        0.0000000000000000     
   1.0000000000000000       0.18750000000000000        0.0000000000000000     
  0.87500000000000000       0.21875000000000000        0.0000000000000000     
  0.90625000000000000       0.21875000000000000        0.0000000000000000     
  0.93750000000000000       0.21875000000000000        0.0000000000000000     
  0.96875000000000000       0.21875000000000000        0.0000000000000000     
   1.0000000000000000       0.21875000000000000        0.0000000000000000     
  0.87500000000000000       0.25000000000000000        0.0000000000000000     
  0.90625000000000000       0.25000000000000000        0.0000000000000000     
  0.93750000000000000       0.25000000000000000        0.0000000000000000     
  0.96875000000000000       0.25000000000000000        0.0000000000000000     
   1.0000000000000000       0.25000000000000000        0.0000000000000000     
   1.0000000000000000       0.12500000000000000        0.0000000000000000     
   1.0312500000000000       0.12500000000000000        0.0000000000000000     
   1.0625000000000000       0.12500000000000000        0.0000000000000000     
   1.0937500000000000       0.12500000000000000        0.0000000000000000     
   1.1250000000000000       0.12500000000000000        0.0000000000000000     
   1.0000000000000000       0.15625000000000000        0.0000000000000000     
   1.0312500000000000       0.15625000000000000        0.0000000000000000     
   1.0625000000000000       0.15625000000000000        0.0000000000000000     
   1.0937500000000000       0.15625000000000000        0.0000000000000000     
   1.1250000000000000       0.15625000000000000        0.0000000000000000     
   1.0000000000000000       0.18750000000000000        0.0000000000000000     
   1.0312500000000000       0.18750000000000000        0.0000000000000000     
   1.0625000000000000       0.18750000000000000        0.0000000000000000     
   1.0937500000000000       0.18750000000000000        0.0000000000000000     
   1.1250000000000000       0.18750000000000000        0.0000000000000000     
   1.0000000000000000       0.21875000000000000        0.0000000000000000     
   1.0312500000000000       0.21875000000000000        0.0000000000000000     
   1.0625000000000000       0.21875000000000000        0.0000000000000000     
   1.0937500000000000       0.21875000000000000        0.0000000000000000     
   1.1250000000000000       0.21875000000000000        0.0000000000000000     
   1.0000000000000000       0.25000000000000000        0.0000000000000000     
   1.0312500000000000       0.25000000000000000        0.0000000000000000     
   1.0625000000000000       0.25000000000000000        0.0000000000000000     
   1.0937500000000000       0.25000000000000000        0.0000000000000000     
   1.1250000000000000       0.25000000000000000        0.0000000000000000     
   1.1250000000000000       0.12500000000000000        0.0000000000000000     
   1.1562500000000000       0.12500000000000000        0.0000000000000000     
   1.1875000000000000       0.12500000000000000        0.0000000000000000     
   1.2187500000000000       0.12500000000000000        0.0000000000000000     
   1.2500000000000000       0.12500000000000000        0.0000000000000000     
   1.1250000000000000       0.15625000000000000        0.0000000000000000     
   1.1562500000000000       0.15625000000000000        0.0000000000000000     
   1.1875000000000000       0.15625000000000000        0.0000000000000000     
   1.2187500000000000       0.15625000000000000        0.0000000000000000     
   1.2500000000000000       0.15625000000000000        0.0000000000000000     
   1.1250000000000000       0.18750000000000000        0.0000000000000000     
   1.1562500000000000       0.18750000000000000        0.0000000000000000     
   1.1875000000000000       0.18750000000000000        0.0000000000000000     
   1.2187500000000000       0.18750000000000000        0.0000000000000000     
   1.2500000000000000       0.18750000000000000        0.0000000000000000     
   1.1250000000000000       0.21875000000000000        0.0000000000000000     
   1.1562500000000000       0.21875000000000000        0.0000000000000000     
   1.1875000000000000       0.21875000000000000        0.0000000000000000     
   1.2187500000000000       0.21875000000000000        0.0000000000000000     
   1.2500000000000000       0.21875000000000000        0.0000000000000000     
   1.1250000000000000       0.25000000000000000        0.0000000000000000     
   1.1562500000000000       0.25000000000000000        0.0000000000000000     
   1.1875000000000000       0.25000000000000000        0.0000000000000000     
   1.2187500000000000       0.25000000000000000        0.0000000000000000     
   1.2500000000000000       0.25000000000000000        0.0000000000000000     
   1.2500000000000000       0.12500000000000000        0.0000000000000000     
   1.2812500000000000       0.12500000000000000        0.0000000000000000     
   1.3125000000000000       0.12500000000000000        0.0000000000000000     
   1.3437500000000000       0.12500000000000000        0.0000000000000000     
   1.3750000000000000       0.12500000000000000        0.0000000000000000     
   1.2500000000000000       0.15625000000000000        0.0000000000000000     
   1.2812500000000000       0.15625000000000000        0.0000000000000000     
   1.3125000000000000       0.15625000000000000        0.0000000000000000     
   1.3437500000000000       0.15625000000000000        0.0000000000000000     
   1.3750000000000000       0.15625000000000000        0.0000000000000000     
   1.2500000000000000       0.18750000000000000        0.0000000000000000     
   1.2812500000000000       0.18750000000000000        0.0000000000000000     
   1.3125000000000000       0.18750000000000000        0.0000000000000000     
   1.3437500000000000       0.18750000000000000        0.0000000000000000     
   1.3750000000000000       0.18750000000000000        0.0000000000000000     
   1.2500000000000000       0.21875000000000000        0.0000000000000000     
   1.2812500000000000       0.21875000000000000        0.0000000000000000     
   1.3125000000000000       0.21875000000000000        0.0000000000000000     
   1.3437500000000000       0.21875000000000000        0.0000000000000000     
   1.3750000000000000       0.21875000000000000        0.0000000000000000     
   1.2500000000000000       0.25000000000000000        0.0000000000000000     
   1.2812500000000000       0.25000000000000000        0.0000000000000000     
   1.3125000000000000       0.25000000000000000        0.0000000000000000     
   1.3437500000000000       0.25000000000000000        0.0000000000000000     
   1.3750000000000000       0.25000000000000000        0.0000000000000000     
   1.3750000000000000       0.12500000000000000        0.0000000000000000     
   1.4062500000000000       0.12500000000000000        0.0000000000000000     
   1.4375000000000000       0.12500000000000000        0.0000000000000000     
   1.4687500000000000       0.12500000000000000        0.0000000000000000     
   1.5000000000000000       0.12500000000000000        0.0000000000000000     
   1.3750000000000000       0.15625000000000000        0.0000000000000000     
   1.4062500000000000       0.15625000000000000        0.0000000000000000     
   1.4375000000000000       0.15625000000000000        0.0000000000000000     
   1.4687500000000000       0.15625000000000000        0.0000000000000000     
   1.5000000000000000       0.15625000000000000        0.0000000000000000     
   1.3750000000000000       0.18750000000000000        0.0000000000000000     
   1.4062500000000000       0.18750000000000000        0.0000000000000000     
   1.4375000000000000       0.18750000000000000        0.0000000000000000     
   1.4687500000000000       0.18750000000000000        0.0000000000000000     
   1.5000000000000000       0.18750000000000000        0.0000000000000000     
   1.3750000000000000       0.21875000000000000        0.0000000000000000     
   1.4062500000000000       0.21875000000000000        0.0000000000000000     
   1.4375000000000000       0.21875000000000000        0.0000000000000000     
   1.4687500000000000       0.21875000000000000        0.0000000000000000     
   1.5000000000000000       0.21875000000000000        0.0000000000000000     
   1.3750000000000000       0.25000000000000000        0.0000000000000000     
   1.4062500000000000       0.25000000000000000        0.0000000000000000     
   1.4375000000000000       0.25000000000000000        0.0000000000000000     
   1.4687500000000000       0.25000000000000000        0.0000000000000000     
   1.5000000000000000       0.25000000000000000        0.0000000000000000     
  0.50000000000000000       0.25000000000000000        0.0000000000000000     
  0.53125000000000000       0.25000000000000000        0.0000000000000000     
  0.56250000000000000       0.25000000000000000        0.0000000000000000     
  0.59375000000000000       0.25000000000000000        0.0000000000000000     
  0.62500000000000000       0.25000000000000000        0.0000000000000000     
  0.50000000000000000       0.28125000000000000        0.0000000000000000     
  0.53125000000000000       0.28125000000000000        0.0000000000000000     
  0.56250000000000000       0.28125000000000000        0.0000000000000000     
  0.59375000000000000       0.28125000000000000        0.0000000000000000     
  0.62500000000000000       0.28125000000000000        0.0000000000000000     
  0.50000000000000000       0.31250000000000000        0.0000000000000000     
  0.53125000000000000       0.31250000000000000        0.0000000000000000     
  0.56250000000000000       0.31250000000000000        0.0000000000000000     
  0.59375000000000000       0.31250000000000000        0.0000000000000000     
  0.62500000000000000       0.31250000000000000        0.0000000000000000     
  0.50000000000000000       0.34375000000000000        0.0000000000000000     
  0.53125000000000000       0.34375000000000000        0.0000000000000000     
  0.56250000000000000       0.34375000000000000        0.0000000000000000     
  0.59375000000000000       0.34375000000000000        0.0000000000000000     
  0.62500000000000000       0.34375000000000000        0.0000000000000000     
  0.50000000000000000       0.37500000000000000        0.0000000000000000     
  0.53125000000000000       0.37500000000000000        0.0000000000000000     
  0.56250000000000000       0.37500000000000000        0.0000000000000000     
  0.59375000000000000       0.37500000000000000        0.0000000000000000     
  0.62500000000000000       0.37500000000000000        0.0000000000000000     
  0.62500000000000000       0.25000000000000000        0.0000000000000000     
  0.65625000000000000       0.25000000000000000        0.0000000000000000     
  0.68750000000000000       0.25000000000000000        0.0000000000000000     
  0.71875000000000000       0.25000000000000000        0.0000000000000000     
  0.75000000000000000       0.25000000000000000        0.0000000000000000     
  0.62500000000000000       0.28125000000000000        0.0000000000000000     
  0.65625000000000000       0.28125000000000000        0.0000000000000000     
  0.68750000000000000       0.28125000000000000        0.0000000000000000     
  0.71875000000000000       0.28125000000000000        0.0000000000000000     
  0.75000000000000000       0.28125000000000000        0.0000000000000000     
  0.62500000000000000       0.31250000000000000        0.0000000000000000     
  0.65625000000000000       0.31250000000000000        0.0000000000000000     
  0.68750000000000000       0.31250000000000000        0.0000000000000000     
  0.71875000000000000       0.31250000000000000        0.0000000000000000     
  0.75000000000000000       0.31250000000000000        0.0000000000000000     
  0.62500000000000000       0.34375000000000000        0.0000000000000000     
  0.65625000000000000       0.34375000000000000        0.0000000000000000     
  0.68750000000000000       0.34375000000000000        0.0000000000000000     
  0.71875000000000000       0.34375000000000000        0.0000000000000000     
  0.75000000000000000       0.34375000000000000        0.0000000000000000     
  0.62500000000000000       0.37500000000000000        0.0000000000000000     
  0.65625000000000000       0.37500000000000000        0.0000000000000000     
  0.68750000000000000       0.37500000000000000        0.0000000000000000     
  0.71875000000000000       0.37500000000000000        0.0000000000000000     
  0.75000000000000000       0.37500000000000000        0.0000000000000000     
  0.75000000000000000       0.25000000000000000        0.0000000000000000     
  0.78125000000000000       0.25000000000000000        0.0000000000000000     
  0.81250000000000000       0.25000000000000000        0.0000000000000000     
  0.84375000000000000       0.25000000000000000        0.0000000000000000     
  0.87500000000000000       0.25000000000000000        0.0000000000000000     
  0.75000000000000000       0.28125000000000000        0.0000000000000000     
  0.78125000000000000       0.28125000000000000        0.0000000000000000     
  0.81250000000000000       0.28125000000000000        0.0000000000000000     
  0.84375000000000000       0.28125000000000000        0.0000000000000000     
  0.87500000000000000       0.28125000000000000        0.0000000000000000     
  0.75000000000000000       0.31250000000000000        0.0000000000000000     
  0.78125000000000000       0.31250000000000000        0.0000000000000000     
  0.81250000000000000       0.31250000000000000        0.0000000000000000     
  0.84375000000000000       0.31250000000000000        0.0000000000000000     
  0.87500000000000000       0.31250000000000000        0.0000000000000000     
  0.75000000000000000       0.34375000000000000        0.0000000000000000     
  0.78125000000000000       0.34375000000000000        0.0000000000000000     
  0.81250000000000000       0.34375000000000000        0.0000000000000000     
  0.84375000000000000       0.34375000000000000        0.0000000000000000     
  0.87500000000000000       0.34375000000000000        0.0000000000000000     
  0.75000000000000000       0.37500000000000000        0.0000000000000000     
  0.78125000000000000       0.37500000000000000        0.0000000000000000     
  0.81250000000000000       0.37500000000000000        0.0000000000000000     
  0.84375000000000000       0.37500000000000000        0.0000000000000000     
  0.87500000000000000       0.37500000000000000        0.0000000000000000     
  0.87500000000000000       0.25000000000000000        0.0000000000000000     
  0.90625000000000000       0.25000000000000000        0.0000000000000000     
  0.93750000000000000       0.25000000000000000        0.0000000000000000     
  0.96875000000000000       0.25000000000000000        0.0000000000000000     
   1.0000000000000000       0.25000000000000000        0.0000000000000000     
  0.87500000000000000       0.28125000000000000        0.0000000000000000     
  0.90625000000000000       0.28125000000000000        0.0000000000000000     
  0.93750000000000000       0.28125000000000000        0.0000000000000000     
  0.96875000000000000       0.28125000000000000        0.0000000000000000     
   1.0000000000000000       0.28125000000000000        0.0000000000000000     
  0.87500000000000000       0.31250000000000000        0.0000000000000000     
  0.90625000000000000       0.31250000000000000        0.0000000000000000     
  0.93750000000000000       0.31250000000000000        0.0000000000000000     
  0.96875000000000000       0.31250000000000000        0.0000000000000000     
   1.0000000000000000       0.31250000000000000        0.0000000000000000     
  0.87500000000000000       0.34375000000000000        0.0000000000000000     
  0.90625000000000000       0.34375000000000000        0.0000000000000000     
  0.93750000000000000       0.34375000000000000        0.0000000000000000     
  0.96875000000000000       0.34375000000000000        0.0000000000000000     
   1.0000000000000000       0.34375000000000000        0.0000000000000000     
  0.87500000000000000       0.37500000000000000        0.0000000000000000     
  0.90625000000000000       0.37500000000000000        0.0000000000000000     
  0.93750000000000000       0.37500000000000000        0.0000000000000000     
  0.96875000000000000       0.37500000000000000        0.0000000000000000     
   1.0000000000000000       0.37500000000000000        0.0000000000000000     
   1.0000000000000000       0.25000000000000000        0.0000000000000000     
   1.0312500000000000       0.25000000000000000        0.0000000000000000     
   1.0625000000000000       0.25000000000000000        0.0000000000000000     
   1.0937500000000000       0.25000000000000000        0.0000000000000000     
   1.1250000000000000       0.25000000000000000        0.0000000000000000     
   1.0000000000000000       0.28125000000000000        0.0000000000000000     
   1.0312500000000000       0.28125000000000000        0.0000000000000000     
   1.0625000000000000       0.28125000000000000        0.0000000000000000     
   1.0937500000000000       0.28125000000000000        0.0000000000000000     
   1.1250000000000000       0.28125000000000000        0.0000000000000000     
   1.0000000000000000       0.31250000000000000        0.0000000000000000     
   1.0312500000000000       0.31250000000000000        0.0000000000000000     
   1.0625000000000000       0.31250000000000000        0.0000000000000000     
   1.0937500000000000       0.31250000000000000        0.0000000000000000     
   1.1250000000000000       0.31250000000000000        0.0000000000000000     
   1.0000000000000000       0.34375000000000000        0.0000000000000000     
   1.0312500000000000       0.34375000000000000        0.0000000000000000     
   1.0625000000000000       0.34375000000000000        0.0000000000000000     
   1.0937500000000000       0.34375000000000000        0.0000000000000000     
   1.1250000000000000       0.34375000000000000        0.0000000000000000     
   1.0000000000000000       0.37500000000000000        0.0000000000000000     
   1.0312500000000000       0.37500000000000000        0.0000000000000000     
   1.0625000000000000       0.37500000000000000        0.0000000000000000     
   1.0937500000000000       0.37500000000000000        0.0000000000000000     
   1.1250000000000000       0.37500000000000000        0.0000000000000000     
   1.1250000000000000       0.25000000000000000        0.0000000000000000     
   1.1562500000000000       0.25000000000000000        0.0000000000000000     
   1.1875000000000000       0.25000000000000000        0.0000000000000000     
   1.2187500000000000       0.25000000000000000        0.0000000000000000     
   1.2500000000000000       0.25000000000000000        0.0000000000000000     
   1.1250000000000000       0.28125000000000000        0.0000000000000000     
   1.1562500000000000       0.28125000000000000        0.0000000000000000     
   1.1875000000000000       0.28125000000000000        0.0000000000000000     
   1.2187500000000000       0.28125000000000000        0.0000000000000000     
   1.2500000000000000       0.28125000000000000        0.0000000000000000     
   1.1250000000000000       0.31250000000000000        0.0000000000000000     
   1.1562500000000000       0.31250000000000000        0.0000000000000000     
   1.1875000000000000       0.31250000000000000        0.0000000000000000     
   1.2187500000000000       0.31250000000000000        0.0000000000000000     
   1.2500000000000000       0.31250000000000000        0.0000000000000000     
   1.1250000000000000       0.34375000000000000        0.0000000000000000     
   1.1562500000000000       0.34375000000000000        0.0000000000000000     
   1.1875000000000000       0.34375000000000000        0.0000000000000000     
   1.2187500000000000       0.34375000000000000        0.0000000000000000     
   1.2500000000000000       0.34375000000000000        0.0000000000000000     
   1.1250000000000000       0.37500000000000000        0.0000000000000000     
   1.1562500000000000       0.37500000000000000        0.0000000000000000     
   1.1875000000000000       0.37500000000000000        0.0000000000000000     
   1.2187500000000000       0.37500000000000000        0.0000000000000000     
   1.2500000000000000       0.37500000000000000        0.0000000000000000     
   1.2500000000000000       0.25000000000000000        0.0000000000000000     
   1.2812500000000000       0.25000000000000000        0.0000000000000000     
   1.3125000000000000       0.25000000000000000        0.0000000000000000     
   1.3437500000000000       0.25000000000000000        0.0000000000000000     
   1.3750000000000000       0.25000000000000000        0.0000000000000000     
   1.2500000000000000       0.28125000000000000        0.0000000000000000     
   1.2812500000000000       0.28125000000000000        0.0000000000000000     
   1.3125000000000000       0.28125000000000000        0.0000000000000000     
   1.3437500000000000       0.28125000000000000        0.0000000000000000     
   1.3750000000000000       0.28125000000000000        0.0000000000000000     
   1.2500000000000000       0.31250000000000000        0.0000000000000000     
   1.2812500000000000       0.31250000000000000        0.0000000000000000     
   1.3125000000000000       0.31250000000000000        0.0000000000000000     
   1.3437500000000000       0.31250000000000000        0.0000000000000000     
   1.3750000000000000       0.31250000000000000        0.0000000000000000     
   1.2500000000000000       0.34375000000000000        0.0000000000000000     
   1.2812500000000000       0.34375000000000000        0.0000000000000000     
   1.3125000000000000       0.34375000000000000        0.0000000000000000     
   1.3437500000000000       0.34375000000000000        0.0000000000000000     
   1.3750000000000000       0.34375000000000000        0.0000000000000000     
   1.2500000000000000       0.37500000000000000        0.0000000000000000     
   1.2812500000000000       0.37500000000000000        0.0000000000000000     
   1.3125000000000000       0.37500000000000000        0.0000000000000000     
   1.3437500000000000       0.37500000000000000        0.0000000000000000     
   1.3750000000000000       0.37500000000000000        0.0000000000000000     
   1.3750000000000000       0.25000000000000000        0.0000000000000000     
   1.4062500000000000       0.25000000000000000        0.0000000000000000     
   1.4375000000000000       0.25000000000000000        0.0000000000000000     
   1.4687500000000000       0.25000000000000000        0.0000000000000000     
   1.5000000000000000       0.25000000000000000        0.0000000000000000     
   1.3750000000000000       0.28125000000000000        0.0000000000000000     
   1.4062500000000000       0.28125000000000000        0.0000000000000000     
   1.4375000000000000       0.28125000000000000        0.0000000000000000     
   1.4687500000000000       0.28125000000000000        0.0000000000000000     
   1.5000000000000000       0.28125000000000000        0.0000000000000000     
   1.3750000000000000       0.31250000000000000        0.0000000000000000     
   1.4062500000000000       0.31250000000000000        0.0000000000000000     
   1.4375000000000000       0.31250000000000000        0.0000000000000000     
   1.4687500000000000       0.31250000000000000        0.0000000000000000     
   1.5000000000000000       0.31250000000000000        0.0000000000000000     
   1.3750000000000000       0.34375000000000000        0.0000000000000000     
   1.4062500000000000       0.34375000000000000        0.0000000000000000     
   1.4375000000000000       0.34375000000000000        0.0000000000000000     
   1.4687500000000000       0.34375000000000000        0.0000000000000000     
   1.5000000000000000       0.34375000000000000        0.0000000000000000     
   1.3750000000000000       0.37500000000000000        0.0000000000000000     
   1.4062500000000000       0.37500000000000000        0.0000000000000000     
   1.4375000000000000       0.37500000000000000        0.0000000000000000     
   1.4687500000000000       0.37500000000000000        0.0000000000000000     
   1.5000000000000000       0.37500000000000000        0.0000000000000000     
  0.50000000000000000       0.37500000000000000        0.0000000000000000     
  0.53125000000000000       0.37500000000000000        0.0000000000000000     
  0.56250000000000000       0.37500000000000000        0.0000000000000000     
  0.59375000000000000       0.37500000000000000        0.0000000000000000     
  0.62500000000000000       0.37500000000000000        0.0000000000000000     
  0.50000000000000000       0.40625000000000000        0.0000000000000000     
  0.53125000000000000       0.40625000000000000        0.0000000000000000     
  0.56250000000000000       0.40625000000000000        0.0000000000000000     
  0.59375000000000000       0.40625000000000000        0.0000000000000000     
  0.62500000000000000       0.40625000000000000        0.0000000000000000     
  0.50000000000000000       0.43750000000000000        0.0000000000000000     
  0.53125000000000000       0.43750000000000000        0.0000000000000000     
  0.56250000000000000       0.43750000000000000        0.0000000000000000     
  0.59375000000000000       0.43750000000000000        0.0000000000000000     
  0.62500000000000000       0.43750000000000000        0.0000000000000000     
  0.50000000000000000       0.46875000000000000        0.0000000000000000     
  0.53125000000000000       0.46875000000000000        0.0000000000000000     
  0.56250000000000000       0.46875000000000000        0.0000000000000000     
  0.59375000000000000       0.46875000000000000        0.0000000000000000     
  0.62500000000000000       0.46875000000000000        0.0000000000000000     
  0.50000000000000000       0.50000000000000000        0.0000000000000000     
  0.53125000000000000       0.50000000000000000        0.0000000000000000     
  0.56250000000000000       0.50000000000000000        0.0000000000000000     
  0.59375000000000000       0.50000000000000000        0.0000000000000000     
  0.62500000000000000       0.50000000000000000        0.0000000000000000     
  0.62500000000000000       0.37500000000000000        0.0000000000000000     
  0.65625000000000000       0.37500000000000000        0.0000000000000000     
  0.68750000000000000       0.37500000000000000        0.0000000000000000     
  0.71875000000000000       0.37500000000000000        0.0000000000000000     
  0.75000000000000000       0.37500000000000000        0.0000000000000000     
  0.62500000000000000       0.40625000000000000        0.0000000000000000     
  0.65625000000000000       0.40625000000000000        0.0000000000000000     
  0.68750000000000000       0.40625000000000000        0.0000000000000000     
  0.71875000000000000       0.40625000000000000        0.0000000000000000     
  0.75000000000000000       0.40625000000000000        0.0000000000000000     
  0.62500000000000000       0.43750000000000000        0.0000000000000000     
  0.65625000000000000       0.43750000000000000        0.0000000000000000     
  0.68750000000000000       0.43750000000000000        0.0000000000000000     
  0.71875000000000000       0.43750000000000000        0.0000000000000000     
  0.75000000000000000       0.43750000000000000        0.0000000000000000     
  0.62500000000000000       0.46875000000000000        0.0000000000000000     
  0.65625000000000000       0.46875000000000000        0.0000000000000000     
  0.68750000000000000       0.46875000000000000        0.0000000000000000     
  0.71875000000000000       0.46875000000000000        0.0000000000000000     
  0.75000000000000000       0.46875000000000000        0.0000000000000000     
  0.62500000000000000       0.50000000000000000        0.0000000000000000     
  0.65625000000000000       0.50000000000000000        0.0000000000000000     
  0.68750000000000000       0.50000000000000000        0.0000000000000000     
  0.71875000000000000       0.50000000000000000        0.0000000000000000     
  0.75000000000000000       0.50000000000000000        0.0000000000000000     
  0.75000000000000000       0.37500000000000000        0.0000000000000000     
  0.78125000000000000       0.37500000000000000        0.0000000000000000     
  0.81250000000000000       0.37500000000000000        0.0000000000000000     
  0.84375000000000000       0.37500000000000000        0.0000000000000000     
  0.87500000000000000       0.37500000000000000        0.0000000000000000     
  0.75000000000000000       0.40625000000000000        0.0000000000000000     
  0.78125000000000000       0.40625000000000000        0.0000000000000000     
  0.81250000000000000       0.40625000000000000        0.0000000000000000     
  0.84375000000000000       0.40625000000000000        0.0000000000000000     
  0.87500000000000000       0.40625000000000000        0.0000000000000000     
  0.75000000000000000       0.43750000000000000        0.0000000000000000     
  0.78125000000000000       0.43750000000000000        0.0000000000000000     
  0.81250000000000000       0.43750000000000000        0.0000000000000000     
  0.84375000000000000       0.43750000000000000        0.0000000000000000     
  0.87500000000000000       0.43750000000000000        0.0000000000000000     
  0.75000000000000000       0.46875000000000000        0.0000000000000000     
  0.78125000000000000       0.46875000000000000        0.0000000000000000     
  0.81250000000000000       0.46875000000000000        0.0000000000000000     
  0.84375000000000000       0.46875000000000000        0.0000000000000000     
  0.87500000000000000       0.46875000000000000        0.0000000000000000     
  0.75000000000000000       0.50000000000000000        0.0000000000000000     
  0.78125000000000000       0.50000000000000000        0.0000000000000000     
  0.81250000000000000       0.50000000000000000        0.0000000000000000     
  0.84375000000000000       0.50000000000000000        0.0000000000000000     
  0.87500000000000000       0.50000000000000000        0.0000000000000000     
  0.87500000000000000       0.37500000000000000        0.0000000000000000     
  0.90625000000000000       0.37500000000000000        0.0000000000000000     
  0.93750000000000000       0.37500000000000000        0.0000000000000000     
  0.96875000000000000       0.37500000000000000        0.0000000000000000     
   1.0000000000000000       0.37500000000000000        0.0000000000000000     
  0.87500000000000000       0.40625000000000000        0.0000000000000000     
  0.90625000000000000       0.40625000000000000        0.0000000000000000     
  0.93750000000000000       0.40625000000000000        0.0000000000000000     
  0.96875000000000000       0.40625000000000000        0.0000000000000000     
   1.0000000000000000       0.40625000000000000        0.0000000000000000     
  0.87500000000000000       0.43750000000000000        0.0000000000000000     
  0.90625000000000000       0.43750000000000000        0.0000000000000000     
  0.93750000000000000       0.43750000000000000        0.0000000000000000     
  0.96875000000000000       0.43750000000000000        0.0000000000000000     
   1.0000000000000000       0.43750000000000000        0.0000000000000000     
  0.87500000000000000       0.46875000000000000        0.0000000000000000     
  0.90625000000000000       0.46875000000000000        0.0000000000000000     
  0.93750000000000000       0.46875000000000000        0.0000000000000000     
  0.96875000000000000       0.46875000000000000        0.0000000000000000     
   1.0000000000000000       0.46875000000000000        0.0000000000000000     
  0.87500000000000000       0.50000000000000000        0.0000000000000000     
  0.90625000000000000       0.50000000000000000        0.0000000000000000     
  0.93750000000000000       0.50000000000000000        0.0000000000000000     
  0.96875000000000000       0.50000000000000000        0.0000000000000000     
   1.0000000000000000       0.50000000000000000        0.0000000000000000     
   1.0000000000000000       0.37500000000000000        0.0000000000000000     
   1.0312500000000000       0.37500000000000000        0.0000000000000000     
   1.0625000000000000       0.37500000000000000        0.0000000000000000     
   1.0937500000000000       0.37500000000000000        0.0000000000000000     
   1.1250000000000000       0.37500000000000000        0.0000000000000000     
   1.0000000000000000       0.40625000000000000        0.0000000000000000     
   1.0312500000000000       0.40625000000000000        0.0000000000000000     
   1.0625000000000000       0.40625000000000000        0.0000000000000000     
   1.0937500000000000       0.40625000000000000        0.0000000000000000     
   1.1250000000000000       0.40625000000000000        0.0000000000000000     
   1.0000000000000000       0.43750000000000000        0.0000000000000000     
   1.0312500000000000       0.43750000000000000        0.0000000000000000     
   1.0625000000000000       0.43750000000000000        0.0000000000000000     
   1.0937500000000000       0.43750000000000000        0.0000000000000000     
   1.1250000000000000       0.43750000000000000        0.0000000000000000     
   1.0000000000000000       0.46875000000000000        0.0000000000000000     
   1.0312500000000000       0.46875000000000000        0.0000000000000000     
   1.0625000000000000       0.46875000000000000        0.0000000000000000     
   1.0937500000000000       0.46875000000000000        0.0000000000000000     
   1.1250000000000000       0.46875000000000000        0.0000000000000000     
   1.0000000000000000       0.50000000000000000        0.0000000000000000     
   1.0312500000000000       0.50000000000000000        0.0000000000000000     
   1.0625000000000000       0.50000000000000000        0.0000000000000000     
   1.0937500000000000       0.50000000000000000        0.0000000000000000     
   1.1250000000000000       0.50000000000000000        0.0000000000000000     
   1.1250000000000000       0.37500000000000000        0.0000000000000000     
   1.1562500000000000       0.37500000000000000        0.0000000000000000     
   1.1875000000000000       0.37500000000000000        0.0000000000000000     
   1.2187500000000000       0.37500000000000000        0.0000000000000000     
   1.2500000000000000       0.37500000000000000        0.0000000000000000     
   1.1250000000000000       0.40625000000000000        0.0000000000000000     
   1.1562500000000000       0.40625000000000000        0.0000000000000000     
   1.1875000000000000       0.40625000000000000        0.0000000000000000     
   1.2187500000000000       0.40625000000000000        0.0000000000000000     
   1.2500000000000000       0.40625000000000000        0.0000000000000000     
   1.1250000000000000       0.43750000000000000        0.0000000000000000     
   1.1562500000000000       0.43750000000000000        0.0000000000000000     
   1.1875000000000000       0.43750000000000000        0.0000000000000000     
   1.2187500000000000       0.43750000000000000        0.0000000000000000     
   1.2500000000000000       0.43750000000000000        0.0000000000000000     
   1.1250000000000000       0.46875000000000000        0.0000000000000000     
   1.1562500000000000       0.46875000000000000        0.0000000000000000     
   1.1875000000000000       0.46875000000000000        0.0000000000000000     
   1.2187500000000000       0.46875000000000000        0.0000000000000000     
   1.2500000000000000       0.46875000000000000        0.0000000000000000     
   1.1250000000000000       0.50000000000000000        0.0000000000000000     
   1.1562500000000000       0.50000000000000000        0.0000000000000000     
   1.1875000000000000       0.50000000000000000        0.0000000000000000     
   1.2187500000000000       0.50000000000000000        0.0000000000000000     
   1.2500000000000000       0.50000000000000000        0.0000000000000000     
   1.2500000000000000       0.37500000000000000        0.0000000000000000     
   1.2812500000000000       0.37500000000000000        0.0000000000000000     
   1.3125000000000000       0.37500000000000000        0.0000000000000000     
   1.3437500000000000       0.37500000000000000        0.0000000000000000     
   1.3750000000000000       0.37500000000000000        0.0000000000000000     
   1.2500000000000000       0.40625000000000000        0.0000000000000000     
   1.2812500000000000       0.40625000000000000        0.0000000000000000     
   1.3125000000000000       0.40625000000000000        0.0000000000000000     
   1.3437500000000000       0.40625000000000000        0.0000000000000000     
   1.3750000000000000       0.40625000000000000        0.0000000000000000     
   1.2500000000000000       0.43750000000000000        0.0000000000000000     
   1.2812500000000000       0.43750000000000000        0.0000000000000000     
   1.3125000000000000       0.43750000000000000        0.0000000000000000     
   1.3437500000000000       0.43750000000000000        0.0000000000000000     
   1.3750000000000000       0.43750000000000000        0.0000000000000000     
   1.2500000000000000       0.46875000000000000        0.0000000000000000     
   1.2812500000000000       0.46875000000000000        0.0000000000000000     
   1.3125000000000000       0.46875000000000000        0.0000000000000000     
   1.3437500000000000       0.46875000000000000        0.0000000000000000     
   1.3750000000000000       0.46875000000000000        0.0000000000000000     
   1.2500000000000000       0.50000000000000000        0.0000000000000000     
   1.2812500000000000       0.50000000000000000        0.0000000000000000     
   1.3125000000000000       0.50000000000000000        0.0000000000000000     
   1.3437500000000000       0.50000000000000000        0.0000000000000000     
   1.3750000000000000       0.50000000000000000        0.0000000000000000     
   1.3750000000000000       0.37500000000000000        0.0000000000000000     
   1.4062500000000000       0.37500000000000000        0.0000000000000000     
   1.4375000000000000       0.37500000000000000        0.0000000000000000     
   1.4687500000000000       0.37500000000000000        0.0000000000000000     
   1.5000000000000000       0.37500000000000000        0.0000000000000000     
   1.3750000000000000       0.40625000000000000        0.0000000000000000     
   1.4062500000000000       0.40625000000000000        0.0000000000000000     
   1.4375000000000000       0.40625000000000000        0.0000000000000000     
   1.4687500000000000       0.40625000000000000        0.0000000000000000     
   1.5000000000000000       0.40625000000000000        0.0000000000000000     
   1.3750000000000000       0.43750000000000000        0.0000000000000000     
   1.4062500000000000       0.43750000000000000        0.0000000000000000     
   1.4375000000000000       0.43750000000000000        0.0000000000000000     
   1.4687500000000000       0.43750000000000000        0.0000000000000000     
   1.5000000000000000       0.43750000000000000        0.0000000000000000     
   1.3750000000000000       0.46875000000000000        0.0000000000000000     
   1.4062500000000000       0.46875000000000000        0.0000000000000000     
   1.4375000000000000       0.46875000000000000        0.0000000000000000     
   1.4687500000000000       0.46875000000000000        0.0000000000000000     
   1.5000000000000000       0.46875000000000000        0.0000000000000000     
   1.3750000000000000       0.50000000000000000        0.0000000000000000     
   1.4062500000000000       0.50000000000000000        0.0000000000000000     
   1.4375000000000000       0.50000000000000000        0.0000000000000000     
   1.4687500000000000       0.50000000000000000        0.0000000000000000     
   1.5000000000000000       0.50000000000000000        0.0000000000000000     
  0.50000000000000000       0.50000000000000000        0.0000000000000000     
  0.53125000000000000       0.50000000000000000        0.0000000000000000     
  0.56250000000000000       0.50000000000000000        0.0000000000000000     
  0.59375000000000000       0.50000000000000000        0.0000000000000000     
  0.62500000000000000       0.50000000000000000        0.0000000000000000     
  0.50000000000000000       0.53125000000000000        0.0000000000000000     
  0.53125000000000000       0.53125000000000000        0.0000000000000000     
  0.56250000000000000       0.53125000000000000        0.0000000000000000     
  0.59375000000000000       0.53125000000000000        0.0000000000000000     
  0.62500000000000000       0.53125000000000000        0.0000000000000000     
  0.50000000000000000       0.56250000000000000        0.0000000000000000     
  0.53125000000000000       0.56250000000000000        0.0000000000000000     
  0.56250000000000000       0.56250000000000000        0.0000000000000000     
  0.59375000000000000       0.56250000000000000        0.0000000000000000     
  0.62500000000000000       0.56250000000000000        0.0000000000000000     
  0.50000000000000000       0.59375000000000000        0.0000000000000000     
  0.53125000000000000       0.59375000000000000        0.0000000000000000     
  0.56250000000000000       0.59375000000000000        0.0000000000000000     
  0.59375000000000000       0.59375000000000000        0.0000000000000000     
  0.62500000000000000       0.59375000000000000        0.0000000000000000     
  0.50000000000000000       0.62500000000000000        0.0000000000000000     
  0.53125000000000000       0.62500000000000000        0.0000000000000000     
  0.56250000000000000       0.62500000000000000        0.0000000000000000     
  0.59375000000000000       0.62500000000000000        0.0000000000000000     
  0.62500000000000000       0.62500000000000000        0.0000000000000000     
  0.62500000000000000       0.50000000000000000        0.0000000000000000     
  0.65625000000000000       0.50000000000000000        0.0000000000000000     
  0.68750000000000000       0.50000000000000000        0.0000000000000000     
  0.71875000000000000       0.50000000000000000        0.0000000000000000     
  0.75000000000000000       0.50000000000000000        0.0000000000000000     
  0.62500000000000000       0.53125000000000000        0.0000000000000000     
  0.65625000000000000       0.53125000000000000        0.0000000000000000     
  0.68750000000000000       0.53125000000000000        0.0000000000000000     
  0.71875000000000000       0.53125000000000000        0.0000000000000000     
  0.75000000000000000       0.53125000000000000        0.0000000000000000     
  0.62500000000000000       0.56250000000000000        0.0000000000000000     
  0.65625000000000000       0.56250000000000000        0.0000000000000000     
  0.68750000000000000       0.56250000000000000        0.0000000000000000     
  0.71875000000000000       0.56250000000000000        0.0000000000000000     
  0.75000000000000000       0.56250000000000000        0.0000000000000000     
  0.62500000000000000       0.59375000000000000        0.0000000000000000     
  0.65625000000000000       0.59375000000000000        0.0000000000000000     
  0.68750000000000000       0.59375000000000000        0.0000000000000000     
  0.71875000000000000       0.59375000000000000        0.0000000000000000     
  0.75000000000000000       0.59375000000000000        0.0000000000000000     
  0.62500000000000000       0.62500000000000000        0.0000000000000000     
  0.65625000000000000       0.62500000000000000        0.0000000000000000     
  0.68750000000000000       0.62500000000000000        0.0000000000000000     
  0.71875000000000000       0.62500000000000000        0.0000000000000000     
  0.75000000000000000       0.62500000000000000        0.0000000000000000     
  0.75000000000000000       0.50000000000000000        0.0000000000000000     
  0.78125000000000000       0.50000000000000000        0.0000000000000000     
  0.81250000000000000       0.50000000000000000        0.0000000000000000     
  0.84375000000000000       0.50000000000000000        0.0000000000000000     
  0.87500000000000000       0.50000000000000000        0.0000000000000000     
  0.75000000000000000       0.53125000000000000        0.0000000000000000     
  0.78125000000000000       0.53125000000000000        0.0000000000000000     
  0.81250000000000000       0.53125000000000000        0.0000000000000000     
  0.84375000000000000       0.53125000000000000        0.0000000000000000     
  0.87500000000000000       0.53125000000000000        0.0000000000000000     
  0.75000000000000000       0.56250000000000000        0.0000000000000000     
  0.78125000000000000       0.56250000000000000        0.0000000000000000     
  0.81250000000000000       0.56250000000000000        0.0000000000000000     
  0.84375000000000000       0.56250000000000000        0.0000000000000000     
  0.87500000000000000       0.56250000000000000        0.0000000000000000     
  0.75000000000000000       0.59375000000000000        0.0000000000000000     
  0.78125000000000000       0.59375000000000000        0.0000000000000000     
  0.81250000000000000       0.59375000000000000        0.0000000000000000     
  0.84375000000000000       0.59375000000000000        0.0000000000000000     
  0.87500000000000000       0.59375000000000000        0.0000000000000000     
  0.75000000000000000       0.62500000000000000        0.0000000000000000     
  0.78125000000000000       0.62500000000000000        0.0000000000000000     
  0.81250000000000000       0.62500000000000000        0.0000000000000000     
  0.84375000000000000       0.62500000000000000        0.0000000000000000     
  0.87500000000000000       0.62500000000000000        0.0000000000000000     
  0.87500000000000000       0.50000000000000000        0.0000000000000000     
  0.90625000000000000       0.50000000000000000        0.0000000000000000     
  0.93750000000000000       0.50000000000000000        0.0000000000000000     
  0.96875000000000000       0.50000000000000000        0.0000000000000000     
   1.0000000000000000       0.50000000000000000        0.0000000000000000     
  0.87500000000000000       0.53125000000000000        0.0000000000000000     
  0.90625000000000000       0.53125000000000000        0.0000000000000000     
  0.93750000000000000       0.53125000000000000        0.0000000000000000     
  0.96875000000000000       0.53125000000000000        0.0000000000000000     
   1.0000000000000000       0.53125000000000000        0.0000000000000000     
  0.87500000000000000       0.56250000000000000        0.0000000000000000     
  0.90625000000000000       0.56250000000000000        0.0000000000000000     
  0.93750000000000000       0.56250000000000000        0.0000000000000000     
  0.96875000000000000       0.56250000000000000        0.0000000000000000     
   1.0000000000000000       0.56250000000000000        0.0000000000000000     
  0.87500000000000000       0.59375000000000000        0.0000000000000000     
  0.90625000000000000       0.59375000000000000        0.0000000000000000     
  0.93750000000000000       0.59375000000000000        0.0000000000000000     
  0.96875000000000000       0.59375000000000000        0.0000000000000000     
   1.0000000000000000       0.59375000000000000        0.0000000000000000     
  0.87500000000000000       0.62500000000000000        0.0000000000000000     
  0.90625000000000000       0.62500000000000000        0.0000000000000000     
  0.93750000000000000       0.62500000000000000        0.0000000000000000     
  0.96875000000000000       0.62500000000000000        0.0000000000000000     
   1.0000000000000000       0.62500000000000000        0.0000000000000000     
   1.0000000000000000       0.50000000000000000        0.0000000000000000     
   1.0312500000000000       0.50000000000000000        0.0000000000000000     
   1.0625000000000000       0.50000000000000000        0.0000000000000000     
   1.0937500000000000       0.50000000000000000        0.0000000000000000     
   1.1250000000000000       0.50000000000000000        0.0000000000000000     
   1.0000000000000000       0.53125000000000000        0.0000000000000000     
   1.0312500000000000       0.53125000000000000        0.0000000000000000     
   1.0625000000000000       0.53125000000000000        0.0000000000000000     
   1.0937500000000000       0.53125000000000000        0.0000000000000000     
   1.1250000000000000       0.53125000000000000        0.0000000000000000     
   1.0000000000000000       0.56250000000000000        0.0000000000000000     
   1.0312500000000000       0.56250000000000000        0.0000000000000000     
   1.0625000000000000       0.56250000000000000        0.0000000000000000     
   1.0937500000000000       0.56250000000000000        0.0000000000000000     
   1.1250000000000000       0.56250000000000000        0.0000000000000000     
   1.0000000000000000       0.59375000000000000        0.0000000000000000     
   1.0312500000000000       0.59375000000000000        0.0000000000000000     
   1.0625000000000000       0.59375000000000000        0.0000000000000000     
   1.0937500000000000       0.59375000000000000        0.0000000000000000     
   1.1250000000000000       0.59375000000000000        0.0000000000000000     
   1.0000000000000000       0.62500000000000000        0.0000000000000000     
   1.0312500000000000       0.62500000000000000        0.0000000000000000     
   1.0625000000000000       0.62500000000000000        0.0000000000000000     
   1.0937500000000000       0.62500000000000000        0.0000000000000000     
   1.1250000000000000       0.62500000000000000        0.0000000000000000     
   1.1250000000000000       0.50000000000000000        0.0000000000000000     
   1.1562500000000000       0.50000000000000000        0.0000000000000000     
   1.1875000000000000       0.50000000000000000        0.0000000000000000     
   1.2187500000000000       0.50000000000000000        0.0000000000000000     
   1.2500000000000000       0.50000000000000000        0.0000000000000000     
   1.1250000000000000       0.53125000000000000        0.0000000000000000     
   1.1562500000000000       0.53125000000000000        0.0000000000000000     
   1.1875000000000000       0.53125000000000000        0.0000000000000000     
   1.2187500000000000       0.53125000000000000        0.0000000000000000     
   1.2500000000000000       0.53125000000000000        0.0000000000000000     
   1.1250000000000000       0.56250000000000000        0.0000000000000000     
   1.1562500000000000       0.56250000000000000        0.0000000000000000     
   1.1875000000000000       0.56250000000000000        0.0000000000000000     
   1.2187500000000000       0.56250000000000000        0.0000000000000000     
   1.2500000000000000       0.56250000000000000        0.0000000000000000     
   1.1250000000000000       0.59375000000000000        0.0000000000000000     
   1.1562500000000000       0.59375000000000000        0.0000000000000000     
   1.1875000000000000       0.59375000000000000        0.0000000000000000     
   1.2187500000000000       0.59375000000000000        0.0000000000000000     
   1.2500000000000000       0.59375000000000000        0.0000000000000000     
   1.1250000000000000       0.62500000000000000        0.0000000000000000     
   1.1562500000000000       0.62500000000000000        0.0000000000000000     
   1.1875000000000000       0.62500000000000000        0.0000000000000000     
   1.2187500000000000       0.62500000000000000        0.0000000000000000     
   1.2500000000000000       0.62500000000000000        0.0000000000000000     
   1.2500000000000000       0.50000000000000000        0.0000000000000000     
   1.2812500000000000       0.50000000000000000        0.0000000000000000     
   1.3125000000000000       0.50000000000000000        0.0000000000000000     
   1.3437500000000000       0.50000000000000000        0.0000000000000000     
   1.3750000000000000       0.50000000000000000        0.0000000000000000     
   1.2500000000000000       0.53125000000000000        0.0000000000000000     
   1.2812500000000000       0.53125000000000000        0.0000000000000000     
   1.3125000000000000       0.53125000000000000        0.0000000000000000     
   1.3437500000000000       0.53125000000000000        0.0000000000000000     
   1.3750000000000000       0.53125000000000000        0.0000000000000000     
   1.2500000000000000       0.56250000000000000        0.0000000000000000     
   1.2812500000000000       0.56250000000000000        0.0000000000000000     
   1.3125000000000000       0.56250000000000000        0.0000000000000000     
   1.3437500000000000       0.56250000000000000        0.0000000000000000     
   1.3750000000000000       0.56250000000000000        0.0000000000000000     
   1.2500000000000000       0.59375000000000000        0.0000000000000000     
   1.2812500000000000       0.59375000000000000        0.0000000000000000     
   1.3125000000000000       0.59375000000000000        0.0000000000000000     
   1.3437500000000000       0.59375000000000000        0.0000000000000000     
   1.3750000000000000       0.59375000000000000        0.0000000000000000     
   1.2500000000000000       0.62500000000000000        0.0000000000000000     
   1.2812500000000000       0.62500000000000000        0.0000000000000000     
   1.3125000000000000       0.62500000000000000        0.0000000000000000     
   1.3437500000000000       0.62500000000000000        0.0000000000000000     
   1.3750000000000000       0.62500000000000000        0.0000000000000000     
   1.3750000000000000       0.50000000000000000        0.0000000000000000     
   1.4062500000000000       0.50000000000000000        0.0000000000000000     
   1.4375000000000000       0.50000000000000000        0.0000000000000000     
   1.4687500000000000       0.50000000000000000        0.0000000000000000     
   1.5000000000000000       0.50000000000000000        0.0000000000000000     
   1.3750000000000000       0.53125000000000000        0.0000000000000000     
   1.4062500000000000       0.53125000000000000        0.0000000000000000     
   1.4375000000000000       0.53125000000000000        0.0000000000000000     
   1.4687500000000000       0.53125000000000000        0.0000000000000000     
   1.5000000000000000       0.53125000000000000        0.0000000000000000     
   1.3750000000000000       0.56250000000000000        0.0000000000000000     
   1.4062500000000000       0.56250000000000000        0.0000000000000000     
   1.4375000000000000       0.56250000000000000        0.0000000000000000     
   1.4687500000000000       0.56250000000000000        0.0000000000000000     
   1.5000000000000000       0.56250000000000000        0.0000000000000000     
   1.3750000000000000       0.59375000000000000        0.0000000000000000     
   1.4062500000000000       0.59375000000000000        0.0000000000000000     
   1.4375000000000000       0.59375000000000000        0.0000000000000000     
   1.4687500000000000       0.59375000000000000        0.0000000000000000     
   1.5000000000000000       0.59375000000000000        0.0000000000000000     
   1.3750000000000000       0.62500000000000000        0.0000000000000000     
   1.4062500000000000       0.62500000000000000        0.0000000000000000     
   1.4375000000000000       0.62500000000000000        0.0000000000000000     
   1.4687500000000000       0.62500000000000000        0.0000000000000000     
   1.5000000000000000       0.62500000000000000        0.0000000000000000     
  0.50000000000000000       0.62500000000000000        0.0000000000000000     
  0.53125000000000000       0.62500000000000000        0.0000000000000000     
  0.56250000000000000       0.62500000000000000        0.0000000000000000     
  0.59375000000000000       0.62500000000000000        0.0000000000000000     
  0.62500000000000000       0.62500000000000000        0.0000000000000000     
  0.50000000000000000       0.65625000000000000        0.0000000000000000     
  0.53125000000000000       0.65625000000000000        0.0000000000000000     
  0.56250000000000000       0.65625000000000000        0.0000000000000000     
  0.59375000000000000       0.65625000000000000        0.0000000000000000     
  0.62500000000000000       0.65625000000000000        0.0000000000000000     
  0.50000000000000000       0.68750000000000000        0.0000000000000000     
  0.53125000000000000       0.68750000000000000        0.0000000000000000     
  0.56250000000000000       0.68750000000000000        0.0000000000000000     
  0.59375000000000000       0.68750000000000000        0.0000000000000000     
  0.62500000000000000       0.68750000000000000        0.0000000000000000     
  0.50000000000000000       0.71875000000000000        0.0000000000000000     
  0.53125000000000000       0.71875000000000000        0.0000000000000000     
  0.56250000000000000       0.71875000000000000        0.0000000000000000     
  0.59375000000000000       0.71875000000000000        0.0000000000000000     
  0.62500000000000000       0.71875000000000000        0.0000000000000000     
  0.50000000000000000       0.75000000000000000        0.0000000000000000     
  0.53125000000000000       0.75000000000000000        0.0000000000000000     
  0.56250000000000000       0.75000000000000000        0.0000000000000000     
  0.59375000000000000       0.75000000000000000        0.0000000000000000     
  0.62500000000000000       0.75000000000000000        0.0000000000000000     
  0.62500000000000000       0.62500000000000000        0.0000000000000000     
  0.65625000000000000       0.62500000000000000        0.0000000000000000     
  0.68750000000000000       0.62500000000000000        0.0000000000000000     
  0.71875000000000000       0.62500000000000000        0.0000000000000000     
  0.75000000000000000       0.62500000000000000        0.0000000000000000     
  0.62500000000000000       0.65625000000000000        0.0000000000000000     
  0.65625000000000000       0.65625000000000000        0.0000000000000000     
  0.68750000000000000       0.65625000000000000        0.0000000000000000     
  0.71875000000000000       0.65625000000000000        0.0000000000000000     
  0.75000000000000000       0.65625000000000000        0.0000000000000000     
  0.62500000000000000       0.68750000000000000        0.0000000000000000     
  0.65625000000000000       0.68750000000000000        0.0000000000000000     
  0.68750000000000000       0.68750000000000000        0.0000000000000000     
  0.71875000000000000       0.68750000000000000        0.0000000000000000     
  0.75000000000000000       0.68750000000000000        0.0000000000000000     
  0.62500000000000000       0.71875000000000000        0.0000000000000000     
  0.65625000000000000       0.71875000000000000        0.0000000000000000     
  0.68750000000000000       0.71875000000000000        0.0000000000000000     
  0.71875000000000000       0.71875000000000000        0.0000000000000000     
  0.75000000000000000       0.71875000000000000        0.0000000000000000     
  0.62500000000000000       0.75000000000000000        0.0000000000000000     
  0.65625000000000000       0.75000000000000000        0.0000000000000000     
  0.68750000000000000       0.75000000000000000        0.0000000000000000     
  0.71875000000000000       0.75000000000000000        0.0000000000000000     
  0.75000000000000000       0.75000000000000000        0.0000000000000000     
  0.75000000000000000       0.62500000000000000        0.0000000000000000     
  0.78125000000000000       0.62500000000000000        0.0000000000000000     
  0.81250000000000000       0.62500000000000000        0.0000000000000000     
  0.84375000000000000       0.62500000000000000        0.0000000000000000     
  0.87500000000000000       0.62500000000000000        0.0000000000000000     
  0.75000000000000000       0.65625000000000000        0.0000000000000000     
  0.78125000000000000       0.65625000000000000        0.0000000000000000     
  0.81250000000000000       0.65625000000000000        0.0000000000000000     
  0.84375000000000000       0.65625000000000000        0.0000000000000000     
  0.87500000000000000       0.65625000000000000        0.0000000000000000     
  0.75000000000000000       0.68750000000000000        0.0000000000000000     
  0.78125000000000000       0.68750000000000000        0.0000000000000000     
  0.81250000000000000       0.68750000000000000        0.0000000000000000     
  0.84375000000000000       0.68750000000000000        0.0000000000000000     
  0.87500000000000000       0.68750000000000000        0.0000000000000000     
  0.75000000000000000       0.71875000000000000        0.0000000000000000     
  0.78125000000000000       0.71875000000000000        0.0000000000000000     
  0.81250000000000000       0.71875000000000000        0.0000000000000000     
  0.84375000000000000       0.71875000000000000        0.0000000000000000     
  0.87500000000000000       0.71875000000000000        0.0000000000000000     
  0.75000000000000000       0.75000000000000000        0.0000000000000000     
  0.78125000000000000       0.75000000000000000        0.0000000000000000     
  0.81250000000000000       0.75000000000000000        0.0000000000000000     
  0.84375000000000000       0.75000000000000000        0.0000000000000000     
  0.87500000000000000       0.75000000000000000        0.0000000000000000     
  0.87500000000000000       0.62500000000000000        0.0000000000000000     
  0.90625000000000000       0.62500000000000000        0.0000000000000000     
  0.93750000000000000       0.62500000000000000        0.0000000000000000     
  0.96875000000000000       0.62500000000000000        0.0000000000000000     
   1.0000000000000000       0.62500000000000000        0.0000000000000000     
  0.87500000000000000       0.65625000000000000        0.0000000000000000     
  0.90625000000000000       0.65625000000000000        0.0000000000000000     
  0.93750000000000000       0.65625000000000000        0.0000000000000000     
  0.96875000000000000       0.65625000000000000        0.0000000000000000     
   1.0000000000000000       0.65625000000000000        0.0000000000000000     
  0.87500000000000000       0.68750000000000000        0.0000000000000000     
  0.90625000000000000       0.68750000000000000        0.0000000000000000     
  0.93750000000000000       0.68750000000000000        0.0000000000000000     
  0.96875000000000000       0.68750000000000000        0.0000000000000000     
   1.0000000000000000       0.68750000000000000        0.0000000000000000     
  0.87500000000000000       0.71875000000000000        0.0000000000000000     
  0.90625000000000000       0.71875000000000000        0.0000000000000000     
  0.93750000000000000       0.71875000000000000        0.0000000000000000     
  0.96875000000000000       0.71875000000000000        0.0000000000000000     
   1.0000000000000000       0.71875000000000000        0.0000000000000000     
  0.87500000000000000       0.75000000000000000        0.0000000000000000     
  0.90625000000000000       0.75000000000000000        0.0000000000000000     
  0.93750000000000000       0.75000000000000000        0.0000000000000000     
  0.96875000000000000       0.75000000000000000        0.0000000000000000     
   1.0000000000000000       0.75000000000000000        0.0000000000000000     
   1.0000000000000000       0.62500000000000000        0.0000000000000000     
   1.0312500000000000       0.62500000000000000        0.0000000000000000     
   1.0625000000000000       0.62500000000000000        0.0000000000000000     
   1.0937500000000000       0.62500000000000000        0.0000000000000000     
   1.1250000000000000       0.62500000000000000        0.0000000000000000     
   1.0000000000000000       0.65625000000000000        0.0000000000000000     
   1.0312500000000000       0.65625000000000000        0.0000000000000000     
   1.0625000000000000       0.65625000000000000        0.0000000000000000     
   1.0937500000000000       0.65625000000000000        0.0000000000000000     
   1.1250000000000000       0.65625000000000000        0.0000000000000000     
   1.0000000000000000       0.68750000000000000        0.0000000000000000     
   1.0312500000000000       0.68750000000000000        0.0000000000000000     
   1.0625000000000000       0.68750000000000000        0.0000000000000000     
   1.0937500000000000       0.68750000000000000        0.0000000000000000     
   1.1250000000000000       0.68750000000000000        0.0000000000000000     
   1.0000000000000000       0.71875000000000000        0.0000000000000000     
   1.0312500000000000       0.71875000000000000        0.0000000000000000     
   1.0625000000000000       0.71875000000000000        0.0000000000000000     
   1.0937500000000000       0.71875000000000000        0.0000000000000000     
   1.1250000000000000       0.71875000000000000        0.0000000000000000     
   1.0000000000000000       0.75000000000000000        0.0000000000000000     
   1.0312500000000000       0.75000000000000000        0.0000000000000000     
   1.0625000000000000       0.75000000000000000        0.0000000000000000     
   1.0937500000000000       0.75000000000000000        0.0000000000000000     
   1.1250000000000000       0.75000000000000000        0.0000000000000000     
   1.1250000000000000       0.62500000000000000        0.0000000000000000     
   1.1562500000000000       0.62500000000000000        0.0000000000000000     
   1.1875000000000000       0.62500000000000000        0.0000000000000000     
   1.2187500000000000       0.62500000000000000        0.0000000000000000     
   1.2500000000000000       0.62500000000000000        0.0000000000000000     
   1.1250000000000000       0.65625000000000000        0.0000000000000000     
   1.1562500000000000       0.65625000000000000        0.0000000000000000     
   1.1875000000000000       0.65625000000000000        0.0000000000000000     
   1.2187500000000000       0.65625000000000000        0.0000000000000000     
   1.2500000000000000       0.65625000000000000        0.0000000000000000     
   1.1250000000000000       0.68750000000000000        0.0000000000000000     
   1.1562500000000000       0.68750000000000000        0.0000000000000000     
   1.1875000000000000       0.68750000000000000        0.0000000000000000     
   1.2187500000000000       0.68750000000000000        0.0000000000000000     
   1.2500000000000000       0.68750000000000000        0.0000000000000000     
   1.1250000000000000       0.71875000000000000        0.0000000000000000     
   1.1562500000000000       0.71875000000000000        0.0000000000000000     
   1.1875000000000000       0.71875000000000000        0.0000000000000000     
   1.2187500000000000       0.71875000000000000        0.0000000000000000     
   1.2500000000000000       0.71875000000000000        0.0000000000000000     
   1.1250000000000000       0.75000000000000000        0.0000000000000000     
   1.1562500000000000       0.75000000000000000        0.0000000000000000     
   1.1875000000000000       0.75000000000000000        0.0000000000000000     
   1.2187500000000000       0.75000000000000000        0.0000000000000000     
   1.2500000000000000       0.75000000000000000        0.0000000000000000     
   1.2500000000000000       0.62500000000000000        0.0000000000000000     
   1.2812500000000000       0.62500000000000000        0.0000000000000000     
   1.3125000000000000       0.62500000000000000        0.0000000000000000     
   1.3437500000000000       0.62500000000000000        0.0000000000000000     
   1.3750000000000000       0.62500000000000000        0.0000000000000000     
   1.2500000000000000       0.65625000000000000        0.0000000000000000     
   1.2812500000000000       0.65625000000000000        0.0000000000000000     
   1.3125000000000000       0.65625000000000000        0.0000000000000000     
   1.3437500000000000       0.65625000000000000        0.0000000000000000     
   1.3750000000000000       0.65625000000000000        0.0000000000000000     
   1.2500000000000000       0.68750000000000000        0.0000000000000000     
   1.2812500000000000       0.68750000000000000        0.0000000000000000     
   1.3125000000000000       0.68750000000000000        0.0000000000000000     
   1.3437500000000000       0.68750000000000000        0.0000000000000000     
   1.3750000000000000       0.68750000000000000        0.0000000000000000     
   1.2500000000000000       0.71875000000000000        0.0000000000000000     
   1.2812500000000000       0.71875000000000000        0.0000000000000000     
   1.3125000000000000       0.71875000000000000        0.0000000000000000     
   1.3437500000000000       0.71875000000000000        0.0000000000000000     
   1.3750000000000000       0.71875000000000000        0.0000000000000000     
   1.2500000000000000       0.75000000000000000        0.0000000000000000     
   1.2812500000000000       0.75000000000000000        0.0000000000000000     
   1.3125000000000000       0.75000000000000000        0.0000000000000000     
   1.3437500000000000       0.75000000000000000        0.0000000000000000     
   1.3750000000000000       0.75000000000000000        0.0000000000000000     
   1.3750000000000000       0.62500000000000000        0.0000000000000000     
   1.4062500000000000       0.62500000000000000        0.0000000000000000     
   1.4375000000000000       0.62500000000000000        0.0000000000000000     
   1.4687500000000000       0.62500000000000000        0.0000000000000000     
   1.5000000000000000       0.62500000000000000        0.0000000000000000     
   1.3750000000000000       0.65625000000000000        0.0000000000000000     
   1.4062500000000000       0.65625000000000000        0.0000000000000000     
   1.4375000000000000       0.65625000000000000        0.0000000000000000     
   1.4687500000000000       0.65625000000000000        0.0000000000000000     
   1.5000000000000000       0.65625000000000000        0.0000000000000000     
   1.3750000000000000       0.68750000000000000        0.0000000000000000     
   1.4062500000000000       0.68750000000000000        0.0000000000000000     
   1.4375000000000000       0.68750000000000000        0.0000000000000000     
   1.4687500000000000       0.68750000000000000        0.0000000000000000     
   1.5000000000000000       0.68750000000000000        0.0000000000000000     
   1.3750000000000000       0.71875000000000000        0.0000000000000000     
   1.4062500000000000       0.71875000000000000        0.0000000000000000     
   1.4375000000000000       0.71875000000000000        0.0000000000000000     
   1.4687500000000000       0.71875000000000000        0.0000000000000000     
   1.5000000000000000       0.71875000000000000        0.0000000000000000     
   1.3750000000000000       0.75000000000000000        0.0000000000000000     
   1.4062500000000000       0.75000000000000000        0.0000000000000000     
   1.4375000000000000       0.75000000000000000        0.0000000000000000     
   1.4687500000000000       0.75000000000000000        0.0000000000000000     
   1.5000000000000000       0.75000000000000000        0.0000000000000000     
  0.50000000000000000       0.75000000000000000        0.0000000000000000     
  0.53125000000000000       0.75000000000000000        0.0000000000000000     
  0.56250000000000000       0.75000000000000000        0.0000000000000000     
  0.59375000000000000       0.75000000000000000        0.0000000000000000     
  0.62500000000000000       0.75000000000000000        0.0000000000000000     
  0.50000000000000000       0.78125000000000000        0.0000000000000000     
  0.53125000000000000       0.78125000000000000        0.0000000000000000     
  0.56250000000000000       0.78125000000000000        0.0000000000000000     
  0.59375000000000000       0.78125000000000000        0.0000000000000000     
  0.62500000000000000       0.78125000000000000        0.0000000000000000     
  0.50000000000000000       0.81250000000000000        0.0000000000000000     
  0.53125000000000000       0.81250000000000000        0.0000000000000000     
  0.56250000000000000       0.81250000000000000        0.0000000000000000     
  0.59375000000000000       0.81250000000000000        0.0000000000000000     
  0.62500000000000000       0.81250000000000000        0.0000000000000000     
  0.50000000000000000       0.84375000000000000        0.0000000000000000     
  0.53125000000000000       0.84375000000000000        0.0000000000000000     
  0.56250000000000000       0.84375000000000000        0.0000000000000000     
  0.59375000000000000       0.84375000000000000        0.0000000000000000     
  0.62500000000000000       0.84375000000000000        0.0000000000000000     
  0.50000000000000000       0.87500000000000000        0.0000000000000000     
  0.53125000000000000       0.87500000000000000        0.0000000000000000     
  0.56250000000000000       0.87500000000000000        0.0000000000000000     
  0.59375000000000000       0.87500000000000000        0.0000000000000000     
  0.62500000000000000       0.87500000000000000        0.0000000000000000     
  0.62500000000000000       0.75000000000000000        0.0000000000000000     
  0.65625000000000000       0.75000000000000000        0.0000000000000000     
  0.68750000000000000       0.75000000000000000        0.0000000000000000     
  0.71875000000000000       0.75000000000000000        0.0000000000000000     
  0.75000000000000000       0.75000000000000000        0.0000000000000000     
  0.62500000000000000       0.78125000000000000        0.0000000000000000     
  0.65625000000000000       0.78125000000000000        0.0000000000000000     
  0.68750000000000000       0.78125000000000000        0.0000000000000000     
  0.71875000000000000       0.78125000000000000        0.0000000000000000     
  0.75000000000000000       0.78125000000000000        0.0000000000000000     
  0.62500000000000000       0.81250000000000000        0.0000000000000000     
  0.65625000000000000       0.81250000000000000        0.0000000000000000     
  0.68750000000000000       0.81250000000000000        0.0000000000000000     
  0.71875000000000000       0.81250000000000000        0.0000000000000000     
  0.75000000000000000       0.81250000000000000        0.0000000000000000     
  0.62500000000000000       0.84375000000000000        0.0000000000000000     
  0.65625000000000000       0.84375000000000000        0.0000000000000000     
  0.68750000000000000       0.84375000000000000        0.0000000000000000     
  0.71875000000000000       0.84375000000000000        0.0000000000000000     
  0.75000000000000000       0.84375000000000000        0.0000000000000000     
  0.62500000000000000       0.87500000000000000        0.0000000000000000     
  0.65625000000000000       0.87500000000000000        0.0000000000000000     
  0.68750000000000000       0.87500000000000000        0.0000000000000000     
  0.71875000000000000       0.87500000000000000        0.0000000000000000     
  0.75000000000000000       0.87500000000000000        0.0000000000000000     
  0.75000000000000000       0.75000000000000000        0.0000000000000000     
  0.78125000000000000       0.75000000000000000        0.0000000000000000     
  0.81250000000000000       0.75000000000000000        0.0000000000000000     
  0.84375000000000000       0.75000000000000000        0.0000000000000000     
  0.87500000000000000       0.75000000000000000        0.0000000000000000     
  0.75000000000000000       0.78125000000000000        0.0000000000000000     
  0.78125000000000000       0.78125000000000000        0.0000000000000000     
  0.81250000000000000       0.78125000000000000        0.0000000000000000     
  0.84375000000000000       0.78125000000000000        0.0000000000000000     
  0.87500000000000000       0.78125000000000000        0.0000000000000000     
  0.75000000000000000       0.81250000000000000        0.0000000000000000     
  0.78125000000000000       0.81250000000000000        0.0000000000000000     
  0.81250000000000000       0.81250000000000000        0.0000000000000000     
  0.84375000000000000       0.81250000000000000        0.0000000000000000     
  0.87500000000000000       0.81250000000000000        0.0000000000000000     
  0.75000000000000000       0.84375000000000000        0.0000000000000000     
  0.78125000000000000       0.84375000000000000        0.0000000000000000     
  0.81250000000000000       0.84375000000000000        0.0000000000000000     
  0.84375000000000000       0.84375000000000000        0.0000000000000000     
  0.87500000000000000       0.84375000000000000        0.0000000000000000     
  0.75000000000000000       0.87500000000000000        0.0000000000000000     
  0.78125000000000000       0.87500000000000000        0.0000000000000000     
  0.81250000000000000       0.87500000000000000        0.0000000000000000     
  0.84375000000000000       0.87500000000000000        0.0000000000000000     
  0.87500000000000000       0.87500000000000000        0.0000000000000000     
  0.87500000000000000       0.75000000000000000        0.0000000000000000     
  0.90625000000000000       0.75000000000000000        0.0000000000000000     
  0.93750000000000000       0.75000000000000000        0.0000000000000000     
  0.96875000000000000       0.75000000000000000        0.0000000000000000     
   1.0000000000000000       0.75000000000000000        0.0000000000000000     
  0.87500000000000000       0.78125000000000000        0.0000000000000000     
  0.90625000000000000       0.78125000000000000        0.0000000000000000     
  0.93750000000000000       0.78125000000000000        0.0000000000000000     
  0.96875000000000000       0.78125000000000000        0.0000000000000000     
   1.0000000000000000       0.78125000000000000        0.0000000000000000     
  0.87500000000000000       0.81250000000000000        0.0000000000000000     
  0.90625000000000000       0.81250000000000000        0.0000000000000000     
  0.93750000000000000       0.81250000000000000        0.0000000000000000     
  0.96875000000000000       0.81250000000000000        0.0000000000000000     
   1.0000000000000000       0.81250000000000000        0.0000000000000000     
  0.87500000000000000       0.84375000000000000        0.0000000000000000     
  0.90625000000000000       0.84375000000000000        0.0000000000000000     
  0.93750000000000000       0.84375000000000000        0.0000000000000000     
  0.96875000000000000       0.84375000000000000        0.0000000000000000     
   1.0000000000000000       0.84375000000000000        0.0000000000000000     
  0.87500000000000000       0.87500000000000000        0.0000000000000000     
  0.90625000000000000       0.87500000000000000        0.0000000000000000     
  0.93750000000000000       0.87500000000000000        0.0000000000000000     
  0.96875000000000000       0.87500000000000000        0.0000000000000000     
   1.0000000000000000       0.87500000000000000        0.0000000000000000     
   1.0000000000000000       0.75000000000000000        0.0000000000000000     
   1.0312500000000000       0.75000000000000000        0.0000000000000000     
   1.0625000000000000       0.75000000000000000        0.0000000000000000     
   1.0937500000000000       0.75000000000000000        0.0000000000000000     
   1.1250000000000000       0.75000000000000000        0.0000000000000000     
   1.0000000000000000       0.78125000000000000        0.0000000000000000     
   1.0312500000000000       0.78125000000000000        0.0000000000000000     
   1.0625000000000000       0.78125000000000000        0.0000000000000000     
   1.0937500000000000       0.78125000000000000        0.0000000000000000     
   1.1250000000000000       0.78125000000000000        0.0000000000000000     
   1.0000000000000000       0.81250000000000000        0.0000000000000000     
   1.0312500000000000       0.81250000000000000        0.0000000000000000     
   1.0625000000000000       0.81250000000000000        0.0000000000000000     
   1.0937500000000000       0.81250000000000000        0.0000000000000000     
   1.1250000000000000       0.81250000000000000        0.0000000000000000     
   1.0000000000000000       0.84375000000000000        0.0000000000000000     
   1.0312500000000000       0.84375000000000000        0.0000000000000000     
   1.0625000000000000       0.84375000000000000        0.0000000000000000     
   1.0937500000000000       0.84375000000000000        0.0000000000000000     
   1.1250000000000000       0.84375000000000000        0.0000000000000000     
   1.0000000000000000       0.87500000000000000        0.0000000000000000     
   1.0312500000000000       0.87500000000000000        0.0000000000000000     
   1.0625000000000000       0.87500000000000000        0.0000000000000000     
   1.0937500000000000       0.87500000000000000        0.0000000000000000     
   1.1250000000000000       0.87500000000000000        0.0000000000000000     
   1.1250000000000000       0.75000000000000000        0.0000000000000000     
   1.1562500000000000       0.75000000000000000        0.0000000000000000     
   1.1875000000000000       0.75000000000000000        0.0000000000000000     
   1.2187500000000000       0.75000000000000000        0.0000000000000000     
   1.2500000000000000       0.75000000000000000        0.0000000000000000     
   1.1250000000000000       0.78125000000000000        0.0000000000000000     
   1.1562500000000000       0.78125000000000000        0.0000000000000000     
   1.1875000000000000       0.78125000000000000        0.0000000000000000     
   1.2187500000000000       0.78125000000000000        0.0000000000000000     
   1.2500000000000000       0.78125000000000000        0.0000000000000000     
   1.1250000000000000       0.81250000000000000        0.0000000000000000     
   1.1562500000000000       0.81250000000000000        0.0000000000000000     
   1.1875000000000000       0.81250000000000000        0.0000000000000000     
   1.2187500000000000       0.81250000000000000        0.0000000000000000     
   1.2500000000000000       0.81250000000000000        0.0000000000000000     
   1.1250000000000000       0.84375000000000000        0.0000000000000000     
   1.1562500000000000       0.84375000000000000        0.0000000000000000     
   1.1875000000000000       0.84375000000000000        0.0000000000000000     
   1.2187500000000000       0.84375000000000000        0.0000000000000000     
   1.2500000000000000       0.84375000000000000        0.0000000000000000     
   1.1250000000000000       0.87500000000000000        0.0000000000000000     
   1.1562500000000000       0.87500000000000000        0.0000000000000000     
   1.1875000000000000       0.87500000000000000        0.0000000000000000     
   1.2187500000000000       0.87500000000000000        0.0000000000000000     
   1.2500000000000000       0.87500000000000000        0.0000000000000000     
   1.2500000000000000       0.75000000000000000        0.0000000000000000     
   1.2812500000000000       0.75000000000000000        0.0000000000000000     
   1.3125000000000000       0.75000000000000000        0.0000000000000000     
   1.3437500000000000       0.75000000000000000        0.0000000000000000     
   1.3750000000000000       0.75000000000000000        0.0000000000000000     
   1.2500000000000000       0.78125000000000000        0.0000000000000000     
   1.2812500000000000       0.78125000000000000        0.0000000000000000     
   1.3125000000000000       0.78125000000000000        0.0000000000000000     
   1.3437500000000000       0.78125000000000000        0.0000000000000000     
   1.3750000000000000       0.78125000000000000        0.0000000000000000     
   1.2500000000000000       0.81250000000000000        0.0000000000000000     
   1.2812500000000000       0.81250000000000000        0.0000000000000000     
   1.3125000000000000       0.81250000000000000        0.0000000000000000     
   1.3437500000000000       0.81250000000000000        0.0000000000000000     
   1.3750000000000000       0.81250000000000000        0.0000000000000000     
   1.2500000000000000       0.84375000000000000        0.0000000000000000     
   1.2812500000000000       0.84375000000000000        0.0000000000000000     
   1.3125000000000000       0.84375000000000000        0.0000000000000000     
   1.3437500000000000       0.84375000000000000        0.0000000000000000     
   1.3750000000000000       0.84375000000000000        0.0000000000000000     
   1.2500000000000000       0.87500000000000000        0.0000000000000000     
   1.2812500000000000       0.87500000000000000        0.0000000000000000     
   1.3125000000000000       0.87500000000000000        0.0000000000000000     
   1.3437500000000000       0.87500000000000000        0.0000000000000000     
   1.3750000000000000       0.87500000000000000        0.0000000000000000     
   1.3750000000000000       0.75000000000000000        0.0000000000000000     
   1.4062500000000000       0.75000000000000000        0.0000000000000000     
   1.4375000000000000       0.75000000000000000        0.0000000000000000     
   1.4687500000000000       0.75000000000000000        0.0000000000000000     
   1.5000000000000000       0.75000000000000000        0.0000000000000000     
   1.3750000000000000       0.78125000000000000        0.0000000000000000     
   1.4062500000000000       0.78125000000000000        0.0000000000000000     
   1.4375000000000000       0.78125000000000000        0.0000000000000000     
   1.4687500000000000       0.78125000000000000        0.0000000000000000     
   1.5000000000000000       0.78125000000000000        0.0000000000000000     
   1.3750000000000000       0.81250000000000000        0.0000000000000000     
   1.4062500000000000       0.81250000000000000        0.0000000000000000     
   1.4375000000000000       0.81250000000000000        0.0000000000000000     
   1.4687500000000000       0.81250000000000000        0.0000000000000000     
   1.5000000000000000       0.81250000000000000        0.0000000000000000     
   1.3750000000000000       0.84375000000000000        0.0000000000000000     
   1.4062500000000000       0.84375000000000000        0.0000000000000000     
   1.4375000000000000       0.84375000000000000        0.0000000000000000     
   1.4687500000000000       0.84375000000000000        0.0000000000000000     
   1.5000000000000000       0.84375000000000000        0.0000000000000000     
   1.3750000000000000       0.87500000000000000        0.0000000000000000     
   1.4062500000000000       0.87500000000000000        0.0000000000000000     
   1.4375000000000000       0.87500000000000000        0.0000000000000000     
   1.4687500000000000       0.87500000000000000        0.0000000000000000     
   1.5000000000000000       0.87500000000000000        0.0000000000000000     
  0.50000000000000000       0.87500000000000000        0.0000000000000000     
  0.53125000000000000       0.87500000000000000        0.0000000000000000     
  0.56250000000000000       0.87500000000000000        0.0000000000000000     
  0.59375000000000000       0.87500000000000000        0.0000000000000000     
  0.62500000000000000       0.87500000000000000        0.0000000000000000     
  0.50000000000000000       0.90625000000000000        0.0000000000000000     
  0.53125000000000000       0.90625000000000000        0.0000000000000000     
  0.56250000000000000       0.90625000000000000        0.0000000000000000     
  0.59375000000000000       0.90625000000000000        0.0000000000000000     
  0.62500000000000000       0.90625000000000000        0.0000000000000000     
  0.50000000000000000       0.93750000000000000        0.0000000000000000     
  0.53125000000000000       0.93750000000000000        0.0000000000000000     
  0.56250000000000000       0.93750000000000000        0.0000000000000000     
  0.59375000000000000       0.93750000000000000        0.0000000000000000     
  0.62500000000000000       0.93750000000000000        0.0000000000000000     
  0.50000000000000000       0.96875000000000000        0.0000000000000000     
  0.53125000000000000       0.96875000000000000        0.0000000000000000     
  0.56250000000000000       0.96875000000000000        0.0000000000000000     
  0.59375000000000000       0.96875000000000000        0.0000000000000000     
  0.62500000000000000       0.96875000000000000        0.0000000000000000     
  0.50000000000000000        1.0000000000000000        0.0000000000000000     
  0.53125000000000000        1.0000000000000000        0.0000000000000000     
  0.56250000000000000        1.0000000000000000        0.0000000000000000     
  0.59375000000000000        1.0000000000000000        0.0000000000000000     
  0.62500000000000000        1.0000000000000000        0.0000000000000000     
  0.62500000000000000       0.87500000000000000        0.0000000000000000     
  0.65625000000000000       0.87500000000000000        0.0000000000000000     
  0.68750000000000000       0.87500000000000000        0.0000000000000000     
  0.71875000000000000       0.87500000000000000        0.0000000000000000     
  0.75000000000000000       0.87500000000000000        0.0000000000000000     
  0.62500000000000000       0.90625000000000000        0.0000000000000000     
  0.65625000000000000       0.90625000000000000        0.0000000000000000     
  0.68750000000000000       0.90625000000000000        0.0000000000000000     
  0.71875000000000000       0.90625000000000000        0.0000000000000000     
  0.75000000000000000       0.90625000000000000        0.0000000000000000     
  0.62500000000000000       0.93750000000000000        0.0000000000000000     
  0.65625000000000000       0.93750000000000000        0.0000000000000000     
  0.68750000000000000       0.93750000000000000        0.0000000000000000     
  0.71875000000000000       0.93750000000000000        0.0000000000000000     
  0.75000000000000000       0.93750000000000000        0.0000000000000000     
  0.62500000000000000       0.96875000000000000        0.0000000000000000     
  0.65625000000000000       0.96875000000000000        0.0000000000000000     
  0.68750000000000000       0.96875000000000000        0.0000000000000000     
  0.71875000000000000       0.96875000000000000        0.0000000000000000     
  0.75000000000000000       0.96875000000000000        0.0000000000000000     
  0.62500000000000000        1.0000000000000000        0.0000000000000000     
  0.65625000000000000        1.0000000000000000        0.0000000000000000     
  0.68750000000000000        1.0000000000000000        0.0000000000000000     
  0.71875000000000000        1.0000000000000000        0.0000000000000000     
  0.75000000000000000        1.0000000000000000        0.0000000000000000     
  0.75000000000000000       0.87500000000000000        0.0000000000000000     
  0.78125000000000000       0.87500000000000000        0.0000000000000000     
  0.81250000000000000       0.87500000000000000        0.0000000000000000     
  0.84375000000000000       0.87500000000000000        0.0000000000000000     
  0.87500000000000000       0.87500000000000000        0.0000000000000000     
  0.75000000000000000       0.90625000000000000        0.0000000000000000     
  0.78125000000000000       0.90625000000000000        0.0000000000000000     
  0.81250000000000000       0.90625000000000000        0.0000000000000000     
  0.84375000000000000       0.90625000000000000        0.0000000000000000     
  0.87500000000000000       0.90625000000000000        0.0000000000000000     
  0.75000000000000000       0.93750000000000000        0.0000000000000000     
  0.78125000000000000       0.93750000000000000        0.0000000000000000     
  0.81250000000000000       0.93750000000000000        0.0000000000000000     
  0.84375000000000000       0.93750000000000000        0.0000000000000000     
  0.87500000000000000       0.93750000000000000        0.0000000000000000     
  0.75000000000000000       0.96875000000000000        0.0000000000000000     
  0.78125000000000000       0.96875000000000000        0.0000000000000000     
  0.81250000000000000       0.96875000000000000        0.0000000000000000     
  0.84375000000000000       0.96875000000000000        0.0000000000000000     
  0.87500000000000000       0.96875000000000000        0.0000000000000000     
  0.75000000000000000        1.0000000000000000        0.0000000000000000     
  0.78125000000000000        1.0000000000000000        0.0000000000000000     
  0.81250000000000000        1.0000000000000000        0.0000000000000000     
  0.84375000000000000        1.0000000000000000        0.0000000000000000     
  0.87500000000000000        1.0000000000000000        0.0000000000000000     
  0.87500000000000000       0.87500000000000000        0.0000000000000000     
  0.90625000000000000       0.87500000000000000        0.0000000000000000     
  0.93750000000000000       0.87500000000000000        0.0000000000000000     
  0.96875000000000000       0.87500000000000000        0.0000000000000000     
   1.0000000000000000       0.87500000000000000        0.0000000000000000     
  0.87500000000000000       0.90625000000000000        0.0000000000000000     
  0.90625000000000000       0.90625000000000000        0.0000000000000000     
  0.93750000000000000       0.90625000000000000        0.0000000000000000     
  0.96875000000000000       0.90625000000000000        0.0000000000000000     
   1.0000000000000000       0.90625000000000000        0.0000000000000000     
  0.87500000000000000       0.93750000000000000        0.0000000000000000     
  0.90625000000000000       0.93750000000000000        0.0000000000000000     
  0.93750000000000000       0.93750000000000000        0.0000000000000000     
  0.96875000000000000       0.93750000000000000        0.0000000000000000     
   1.0000000000000000       0.93750000000000000        0.0000000000000000     
  0.87500000000000000       0.96875000000000000        0.0000000000000000     
  0.90625000000000000       0.96875000000000000        0.0000000000000000     
  0.93750000000000000       0.96875000000000000        0.0000000000000000     
  0.96875000000000000       0.96875000000000000        0.0000000000000000     
   1.0000000000000000       0.96875000000000000        0.0000000000000000     
  0.87500000000000000        1.0000000000000000        0.0000000000000000     
  0.90625000000000000        1.0000000000000000        0.0000000000000000     
  0.93750000000000000        1.0000000000000000        0.0000000000000000     
  0.96875000000000000        1.0000000000000000        0.0000000000000000     
   1.0000000000000000        1.0000000000000000        0.0000000000000000     
   1.0000000000000000       0.87500000000000000        0.0000000000000000     
   1.0312500000000000       0.87500000000000000        0.0000000000000000     
   1.0625000000000000       0.87500000000000000        0.0000000000000000     
   1.0937500000000000       0.87500000000000000        0.0000000000000000     
   1.1250000000000000       0.87500000000000000        0.0000000000000000     
   1.0000000000000000       0.90625000000000000        0.0000000000000000     
   1.0312500000000000       0.90625000000000000        0.0000000000000000     
   1.0625000000000000       0.90625000000000000        0.0000000000000000     
   1.0937500000000000       0.90625000000000000        0.0000000000000000     
   1.1250000000000000       0.90625000000000000        0.0000000000000000     
   1.0000000000000000       0.93750000000000000        0.0000000000000000     
   1.0312500000000000       0.93750000000000000        0.0000000000000000     
   1.0625000000000000       0.93750000000000000        0.0000000000000000     
   1.0937500000000000       0.93750000000000000        0.0000000000000000     
   1.1250000000000000       0.93750000000000000        0.0000000000000000     
   1.0000000000000000       0.96875000000000000        0.0000000000000000     
   1.0312500000000000       0.96875000000000000        0.0000000000000000     
   1.0625000000000000       0.96875000000000000        0.0000000000000000     
   1.0937500000000000       0.96875000000000000        0.0000000000000000     
   1.1250000000000000       0.96875000000000000        0.0000000000000000     
   1.0000000000000000        1.0000000000000000        0.0000000000000000     
   1.0312500000000000        1.0000000000000000        0.0000000000000000     
   1.0625000000000000        1.0000000000000000        0.0000000000000000     
   1.0937500000000000        1.0000000000000000        0.0000000000000000     
   1.1250000000000000        1.0000000000000000        0.0000000000000000     
   1.1250000000000000       0.87500000000000000        0.0000000000000000     
   1.1562500000000000       0.87500000000000000        0.0000000000000000     
   1.1875000000000000       0.87500000000000000        0.0000000000000000     
   1.2187500000000000       0.87500000000000000        0.0000000000000000     
   1.2500000000000000       0.87500000000000000        0.0000000000000000     
   1.1250000000000000       0.90625000000000000        0.0000000000000000     
   1.1562500000000000       0.90625000000000000        0.0000000000000000     
   1.1875000000000000       0.90625000000000000        0.0000000000000000     
   1.2187500000000000       0.90625000000000000        0.0000000000000000     
   1.2500000000000000       0.90625000000000000        0.0000000000000000     
   1.1250000000000000       0.93750000000000000        0.0000000000000000     
   1.1562500000000000       0.93750000000000000        0.0000000000000000     
   1.1875000000000000       0.93750000000000000        0.0000000000000000     
   1.2187500000000000       0.93750000000000000        0.0000000000000000     
   1.2500000000000000       0.93750000000000000        0.0000000000000000     
   1.1250000000000000       0.96875000000000000        0.0000000000000000     
   1.1562500000000000       0.96875000000000000        0.0000000000000000     
   1.1875000000000000       0.96875000000000000        0.0000000000000000     
   1.2187500000000000       0.96875000000000000        0.0000000000000000     
   1.2500000000000000       0.96875000000000000        0.0000000000000000     
   1.1250000000000000        1.0000000000000000        0.0000000000000000     
   1.1562500000000000        1.0000000000000000        0.0000000000000000     
   1.1875000000000000        1.0000000000000000        0.0000000000000000     
   1.2187500000000000        1.0000000000000000        0.0000000000000000     
   1.2500000000000000        1.0000000000000000        0.0000000000000000     
   1.2500000000000000       0.87500000000000000        0.0000000000000000     
   1.2812500000000000       0.87500000000000000        0.0000000000000000     
   1.3125000000000000       0.87500000000000000        0.0000000000000000     
   1.3437500000000000       0.87500000000000000        0.0000000000000000     
   1.3750000000000000       0.87500000000000000        0.0000000000000000     
   1.2500000000000000       0.90625000000000000        0.0000000000000000     
   1.2812500000000000       0.90625000000000000        0.0000000000000000     
   1.3125000000000000       0.90625000000000000        0.0000000000000000     
   1.3437500000000000       0.90625000000000000        0.0000000000000000     
   1.3750000000000000       0.90625000000000000        0.0000000000000000     
   1.2500000000000000       0.93750000000000000        0.0000000000000000     
   1.2812500000000000       0.93750000000000000        0.0000000000000000     
   1.3125000000000000       0.93750000000000000        0.0000000000000000     
   1.3437500000000000       0.93750000000000000        0.0000000000000000     
   1.3750000000000000       0.93750000000000000        0.0000000000000000     
   1.2500000000000000       0.96875000000000000        0.0000000000000000     
   1.2812500000000000       0.96875000000000000        0.0000000000000000     
   1.3125000000000000       0.96875000000000000        0.0000000000000000     
   1.3437500000000000       0.96875000000000000        0.0000000000000000     
   1.3750000000000000       0.96875000000000000        0.0000000000000000     
   1.2500000000000000        1.0000000000000000        0.0000000000000000     
   1.2812500000000000        1.0000000000000000        0.0000000000000000     
   1.3125000000000000        1.0000000000000000        0.0000000000000000     
   1.3437500000000000        1.0000000000000000        0.0000000000000000     
   1.3750000000000000        1.0000000000000000        0.0000000000000000     
   1.3750000000000000       0.87500000000000000        0.0000000000000000     
   1.4062500000000000       0.87500000000000000        0.0000000000000000     
   1.4375000000000000       0.87500000000000000        0.0000000000000000     
   1.4687500000000000       0.87500000000000000        0.0000000000000000     
   1.5000000000000000       0.87500000000000000        0.0000000000000000     
   1.3750000000000000       0.90625000000000000        0.0000000000000000     
   1.4062500000000000       0.90625000000000000        0.0000000000000000     
   1.4375000000000000       0.90625000000000000        0.0000000000000000     
   1.4687500000000000       0.90625000000000000        0.0000000000000000     
   1.5000000000000000       0.90625000000000000        0.0000000000000000     
   1.3750000000000000       0.93750000000000000        0.0000000000000000     
   1.4062500000000000       0.93750000000000000        0.0000000000000000     
   1.4375000000000000       0.93750000000000000        0.0000000000000000     
   1.4687500000000000       0.93750000000000000        0.0000000000000000     
   1.5000000000000000       0.93750000000000000        0.0000000000000000     
   1.3750000000000000       0.96875000000000000        0.0000000000000000     
   1.4062500000000000       0.96875000000000000        0.0000000000000000     
   1.4375000000000000       0.96875000000000000        0.0000000000000000     
   1.4687500000000000       0.96875000000000000        0.0000000000000000     
   1.5000000000000000       0.96875000000000000        0.0000000000000000     
   1.3750000000000000        1.0000000000000000        0.0000000000000000     
   1.4062500000000000        1.0000000000000000        0.0000000000000000     
   1.4375000000000000        1.0000000000000000        0.0000000000000000     
   1.4687500000000000        1.0000000000000000        0.0000000000000000     
   1.5000000000000000        1.0000000000000000        0.0000000000000000     
 </DataArray>
 </Points>
 <Cells>
 <DataArray  type="Int32"  Name="connectivity"  format="ascii">
           0           1           6           5
           1           2           7           6
           2           3           8           7
           3           4           9           8
           5           6          11          10
           6           7          12          11
           7           8          13          12
           8           9          14          13
          10          11          16          15
          11          12          17          16
          12          13          18          17
          13          14          19          18
          15          16          21          20
          16          17          22          21
          17          18          23          22
          18          19          24          23
          25          26          31          30
          26          27          32          31
          27          28          33          32
          28          29          34          33
          30          31          36          35
          31          32          37          36
          32          33          38          37
          33          34          39          38
          35          36          41          40
          36          37          42          41
          37          38          43          42
          38          39          44          43
          40          41          46          45
          41          42          47          46
          42          43          48          47
          43          44          49          48
          50          51          56          55
          51          52          57          56
          52          53          58          57
          53          54          59          58
          55          56          61          60
          56          57          62          61
          57          58          63          62
          58          59          64          63
          60          61          66          65
          61          62          67          66
          62          63          68          67
          63          64          69          68
          65          66          71          70
          66          67          72          71
          67          68          73          72
          68          69          74          73
          75          76          81          80
          76          77          82          81
          77          78          83          82
          78          79          84          83
          80          81          86          85
          81          82          87          86
          82          83          88          87
          83          84          89          88
          85          86          91          90
          86          87          92          91
          87          88          93          92
          88          89          94          93
          90          91          96          95
          91          92          97          96
          92          93          98          97
          93          94          99          98
         100         101         106         105
         101         102         107         106
         102         103         108         107
         103         104         109         108
         105         106         111         110
         106         107         112         111
         107         108         113         112
         108         109         114         113
         110         111         116         115
         111         112         117         116
         112         113         118         117
         113         114         119         118
         115         116         121         120
         116         117         122         121
         117         118         123         122
         118         119         124         123
         125         126         131         130
         126         127         132         131
         127         128         133         132
         128         129         134         133
         130         131         136         135
         131         132         137         136
         132         133         138         137
         133         134         139         138
         135         136         141         140
         136         137         142         141
         137         138         143         142
         138         139         144         143
         140         141         146         145
         141         142         147         146
         142         143         148         147
         143         144         149         148
         150         151         156         155
         151         152         157         156
         152         153         158         157
         153         154         159         158
         155         156         161         160
         156         157         162         161
         157         158         163         162
         158         159         164         163
         160         161         166         165
         161         162         167         166
         162         163         168         167
         163         164         169         168
         165         166         171         170
         166         167         172         171
         167         168         173         172
         168         169         174         173
         175         176         181         180
         176         177         182         181
         177         178         183         182
         178         179         184         183
         180         181         186         185
         181         182         187         186
         182         183         188         187
         183         184         189         188
         185         186         191         190
         186         187         192         191
         187         188         193         192
         188         189         194         193
         190         191         196         195
         191         192         197         196
         192         193         198         197
         193         194         199         198
         200         201         206         205
         201         202         207         206
         202         203         208         207
         203         204         209         208
         205         206         211         210
         206         207         212         211
         207         208         213         212
         208         209         214         213
         210         211         216         215
         211         212         217         216
         212         213         218         217
         213         214         219         218
         215         216         221         220
         216         217         222         221
         217         218         223         222
         218         219         224         223
         225         226         231         230
         226         227         232         231
         227         228         233         232
         228         229         234         233
         230         231         236         235
         231         232         237         236
         232         233         238         237
         233         234         239         238
         235         236         241         240
         236         237         242         241
         237         238         243         242
         238         239         244         243
         240         241         246         245
         241         242         247         246
         242         243         248         247
         243         244         249         248
         250         251         256         255
         251         252         257         256
         252         253         258         257
         253         254         259         258
         255         256         261         260
         256         257         262         261
         257         258         263         262
         258         259         264         263
         260         261         266         265
         261         262         267         266
         262         263         268         267
         263         264         269         268
         265         266         271         270
         266         267         272         271
         267         268         273         272
         268         269         274         273
         275         276         281         280
         276         277         282         281
         277         278         283         282
         278         279         284         283
         280         281         286         285
         281         282         287         286
         282         283         288         287
         283         284         289         288
         285         286         291         290
         286         287         292         291
         287         288         293         292
         288         289         294         293
         290         291         296         295
         291         292         297         296
         292         293         298         297
         293         294         299         298
         300         301         306         305
         301         302         307         306
         302         303         308         307
         303         304         309         308
         305         306         311         310
         306         307         312         311
         307         308         313         312
         308         309         314         313
         310         311         316         315
         311         312         317         316
         312         313         318         317
         313         314         319         318
         315         316         321         320
         316         317         322         321
         317         318         323         322
         318         319         324         323
         325         326         331         330
         326         327         332         331
         327         328         333         332
         328         329         334         333
         330         331         336         335
         331         332         337         336
         332         333         338         337
         333         334         339         338
         335         336         341         340
         336         337         342         341
         337         338         343         342
         338         339         344         343
         340         341         346         345
         341         342         347         346
         342         343         348         347
         343         344         349         348
         350         351         356         355
         351         352         357         356
         352         353         358         357
         353         354         359         358
         355         356         361         360
         356         357         362         361
         357         358         363         362
         358         359         364         363
         360         361         366         365
         361         362         367         366
         362         363         368         367
         363         364         369         368
         365         366         371         370
         366         367         372         371
         367         368         373         372
         368         369         374         373
         375         376         381         380
         376         377         382         381
         377         378         383         382
         378         379         384         383
         380         381         386         385
         381         382         387         386
         382         383         388         387
         383         384         389         388
         385         386         391         390
         386         387         392         391
         387         388         393         392
         388         389         394         393
         390         391         396         395
         391         392         397         396
         392         393         398         397
         393         394         399         398
         400         401         406         405
         401         402         407         406
         402         403         408         407
         403         404         409         408
         405         406         411         410
         406         407         412         411
         407         408         413         412
         408         409         414         413
         410         411         416         415
         411         412         417         416
         412         413         418         417
         413         414         419         418
         415         416         421         420
         416         417         422         421
         417         418         423         422
         418         419         424         423
         425         426         431         430
         426         427         432         431
         427         428         433         432
         428         429         434         433
         430         431         436         435
         431         432         437         436
         432         433         438         437
         433         434         439         438
         435         436         441         440
         436         437         442         441
         437         438         443         442
         438         439         444         443
         440         441         446         445
         441         442         447         446
         442         443         448         447
         443         444         449         448
         450         451         456         455
         451         452         457         456
         452         453         458         457
         453         454         459         458
         455         456         461         460
         456         457         462         461
         457         458         463         462
         458         459         464         463
         460         461         466         465
         461         462         467         466
         462         463         468         467
         463         464         469         468
         465         466         471         470
         466         467         472         471
         467         468         473         472
         468         469         474         473
         475         476         481         480
         476         477         482         481
         477         478         483         482
         478         479         484         483
         480         481         486         485
         481         482         487         486
         482         483         488         487
         483         484         489         488
         485         486         491         490
         486         487         492         491
         487         488         493         492
         488         489         494         493
         490         491         496         495
         491         492         497         496
         492         493         498         497
         493         494         499         498
         500         501         506         505
         501         502         507         506
         502         503         508         507
         503         504         509         508
         505         506         511         510
         506         507         512         511
         507         508         513         512
         508         509         514         513
         510         511         516         515
         511         512         517         516
         512         513         518         517
         513         514         519         518
         515         516         521         520
         516         517         522         521
         517         518         523         522
         518         519         524         523
         525         526         531         530
         526         527         532         531
         527         528         533         532
         528         529         534         533
         530         531         536         535
         531         532         537         536
         532         533         538         537
         533         534         539         538
         535         536         541         540
         536         537         542         541
         537         538         543         542
         538         539         544         543
         540         541         546         545
         541         542         547         546
         542         543         548         547
         543         544         549         548
         550         551         556         555
         551         552         557         556
         552         553         558         557
         553         554         559         558
         555         556         561         560
         556         557         562         561
         557         558         563         562
         558         559         564         563
         560         561         566         565
         561         562         567         566
         562         563         568         567
         563         564         569         568
         565         566         571         570
         566         567         572         571
         567         568         573         572
         568         569         574         573
         575         576         581         580
         576         577         582         581
         577         578         583         582
         578         579         584         583
         580         581         586         585
         581         582         587         586
         582         583         588         587
         583         584         589         588
         585         586         591         590
         586         587         592         591
         587         588         593         592
         588         589         594         593
         590         591         596         595
         591         592         597         596
         592         593         598         597
         593         594         599         598
         600         601         606         605
         601         602         607         606
         602         603         608         607
         603         604         609         608
         605         606         611         610
         606         607         612         611
         607         608         613         612
         608         609         614         613
         610         611         616         615
         611         612         617         616
         612         613         618         617
         613         614         619         618
         615         616         621         620
         616         617         622         621
         617         618         623         622
         618         619         624         623
         625         626         631         630
         626         627         632         631
         627         628         633         632
         628         629         634         633
         630         631         636         635
         631         632         637         636
         632         633         638         637
         633         634         639         638
         635         636         641         640
         636         637         642         641
         637         638         643         642
         638         639         644         643
         640         641         646         645
         641         642         647         646
         642         643         648         647
         643         644         649         648
         650         651         656         655
         651         652         657         656
         652         653         658         657
         653         654         659         658
         655         656         661         660
         656         657         662         661
         657         658         663         662
         658         659         664         663
         660         661         666         665
         661         662         667         666
         662         663         668         667
         663         664         669         668
         665         666         671         670
         666         667         672         671
         667         668         673         672
         668         669         674         673
         675         676         681         680
         676         677         682         681
         677         678         683         682
         678         679         684         683
         680         681         686         685
         681         682         687         686
         682         683         688         687
         683         684         689         688
         685         686         691         690
         686         687         692         691
         687         688         693         692
         688         689         694         693
         690         691         696         695
         691         692         697         696
         692         693         698         697
         693         694         699         698
         700         701         706         705
         701         702         707         706
         702         703         708         707
         703         704         709         708
         705         706         711         710
         706         707         712         711
         707         708         713         712
         708         709         714         713
         710         711         716         715
         711         712         717         716
         712         713         718         717
         713         714         719         718
         715         716         721         720
         716         717         722         721
         717         718         723         722
         718         719         724         723
         725         726         731         730
         726         727         732         731
         727         728         733         732
         728         729         734         733
         730         731         736         735
         731         732         737         736
         732         733         738         737
         733         734         739         738
         735         736         741         740
         736         737         742         741
         737         738         743         742
         738         739         744         743
         740         741         746         745
         741         742         747         746
         742         743         748         747
         743         744         749         748
         750         751         756         755
         751         752         757         756
         752         753         758         757
         753         754         759         758
         755         756         761         760
         756         757         762         761
         757         758         763         762
         758         759         764         763
         760         761         766         765
         761         762         767         766
         762         763         768         767
         763         764         769         768
         765         766         771         770
         766         767         772         771
         767         768         773         772
         768         769         774         773
         775         776         781         780
         776         777         782         781
         777         778         783         782
         778         779         784         783
         780         781         786         785
         781         782         787         786
         782         783         788         787
         783         784         789         788
         785         786         791         790
         786         787         792         791
         787         788         793         792
         788         789         794         793
         790         791         796         795
         791         792         797         796
         792         793         798         797
         793         794         799         798
         800         801         806         805
         801         802         807         806
         802         803         808         807
         803         804         809         808
         805         806         811         810
         806         807         812         811
         807         808         813         812
         808         809         814         813
         810         811         816         815
         811         812         817         816
         812         813         818         817
         813         814         819         818
         815         816         821         820
         816         817         822         821
         817         818         823         822
         818         819         824         823
         825         826         831         830
         826         827         832         831
         827         828         833         832
         828         829         834         833
         830         831         836         835
         831         832         837         836
         832         833         838         837
         833         834         839         838
         835         836         841         840
         836         837         842         841
         837         838         843         842
         838         839         844         843
         840         841         846         845
         841         842         847         846
         842         843         848         847
         843         844         849         848
         850         851         856         855
         851         852         857         856
         852         853         858         857
         853         854         859         858
         855         856         861         860
         856         857         862         861
         857         858         863         862
         858         859         864         863
         860         861         866         865
         861         862         867         866
         862         863         868         867
         863         864         869         868
         865         866         871         870
         866         867         872         871
         867         868         873         872
         868         869         874         873
         875         876         881         880
         876         877         882         881
         877         878         883         882
         878         879         884         883
         880         881         886         885
         881         882         887         886
         882         883         888         887
         883         884         889         888
         885         886         891         890
         886         887         892         891
         887         888         893         892
         888         889         894         893
         890         891         896         895
         891         892         897         896
         892         893         898         897
         893         894         899         898
         900         901         906         905
         901         902         907         906
         902         903         908         907
         903         904         909         908
         905         906         911         910
         906         907         912         911
         907         908         913         912
         908         909         914         913
         910         911         916         915
         911         912         917         916
         912         913         918         917
         913         914         919         918
         915         916         921         920
         916         917         922         921
         917         918         923         922
         918         919         924         923
         925         926         931         930
         926         927         932         931
         927         928         933         932
         928         929         934         933
         930         931         936         935
         931         932         937         936
         932         933         938         937
         933         934         939         938
         935         936         941         940
         936         937         942         941
         937         938         943         942
         938         939         944         943
         940         941         946         945
         941         942         947         946
         942         943         948         947
         943         944         949         948
         950         951         956         955
         951         952         957         956
         952         953         958         957
         953         954         959         958
         955         956         961         960
         956         957         962         961
         957         958         963         962
         958         959         964         963
         960         961         966         965
         961         962         967         966
         962         963         968         967
         963         964         969         968
         965         966         971         970
         966         967         972         971
         967         968         973         972
         968         969         974         973
         975         976         981         980
         976         977         982         981
         977         978         983         982
         978         979         984         983
         980         981         986         985
         981         982         987         986
         982         983         988         987
         983         984         989         988
         985         986         991         990
         986         987         992         991
         987         988         993         992
         988         989         994         993
         990         991         996         995
         991         992         997         996
         992         993         998         997
         993         994         999         998
        1000        1001        1006        1005
        1001        1002        1007        1006
        1002        1003        1008        1007
        1003        1004        1009        1008
        1005        1006        1011        1010
        1006        1007        1012        1011
        1007        1008        1013        1012
        1008        1009        1014        1013
        1010        1011        1016        1015
        1011        1012        1017        1016
        1012        1013        1018        1017
        1013        1014        1019        1018
        1015        1016        1021        1020
        1016        1017        1022        1021
        1017        1018        1023        1022
        1018        1019        1024        1023
        1025        1026        1031        1030
        1026        1027        1032        1031
        1027        1028        1033        1032
        1028        1029        1034        1033
        1030        1031        1036        1035
        1031        1032        1037        1036
        1032        1033        1038        1037
        1033        1034        1039        1038
        1035        1036        1041        1040
        1036        1037        1042        1041
        1037        1038        1043        1042
        1038        1039        1044        1043
        1040        1041        1046        1045
        1041        1042        1047        1046
        1042        1043        1048        1047
        1043        1044        1049        1048
        1050        1051        1056        1055
        1051        1052        1057        1056
        1052        1053        1058        1057
        1053        1054        1059        1058
        1055        1056        1061        1060
        1056        1057        1062        1061
        1057        1058        1063        1062
        1058        1059        1064        1063
        1060        1061        1066        1065
        1061        1062        1067        1066
        1062        1063        1068        1067
        1063        1064        1069        1068
        1065        1066        1071        1070
        1066        1067        1072        1071
        1067        1068        1073        1072
        1068        1069        1074        1073
        1075        1076        1081        1080
        1076        1077        1082        1081
        1077        1078        1083        1082
        1078        1079        1084        1083
        1080        1081        1086        1085
        1081        1082        1087        1086
        1082        1083        1088        1087
        1083        1084        1089        1088
        1085        1086        1091        1090
        1086        1087        1092        1091
        1087        1088        1093        1092
        1088        1089        1094        1093
        1090        1091        1096        1095
        1091        1092        1097        1096
        1092        1093        1098        1097
        1093        1094        1099        1098
        1100        1101        1106        1105
        1101        1102        1107        1106
        1102        1103        1108        1107
        1103        1104        1109        1108
        1105        1106        1111        1110
        1106        1107        1112        1111
        1107        1108        1113        1112
        1108        1109        1114        1113
        1110        1111        1116        1115
        1111        1112        1117        1116
        1112        1113        1118        1117
        1113        1114        1119        1118
        1115        1116        1121        1120
        1116        1117        1122        1121
        1117        1118        1123        1122
        1118        1119        1124        1123
        1125        1126        1131        1130
        1126        1127        1132        1131
        1127        1128        1133        1132
        1128        1129        1134        1133
        1130        1131        1136        1135
        1131        1132        1137        1136
        1132        1133        1138        1137
        1133        1134        1139        1138
        1135        1136        1141        1140
        1136        1137        1142        1141
        1137        1138        1143        1142
        1138        1139        1144        1143
        1140        1141        1146        1145
        1141        1142        1147        1146
        1142        1143        1148        1147
        1143        1144        1149        1148
        1150        1151        1156        1155
        1151        1152        1157        1156
        1152        1153        1158        1157
        1153        1154        1159        1158
        1155        1156        1161        1160
        1156        1157        1162        1161
        1157        1158        1163        1162
        1158        1159        1164        1163
        1160        1161        1166        1165
        1161        1162        1167        1166
        1162        1163        1168        1167
        1163        1164        1169        1168
        1165        1166        1171        1170
        1166        1167        1172        1171
        1167        1168        1173        1172
        1168        1169        1174        1173
        1175        1176        1181        1180
        1176        1177        1182        1181
        1177        1178        1183        1182
        1178        1179        1184        1183
        1180        1181        1186        1185
        1181        1182        1187        1186
        1182        1183        1188        1187
        1183        1184        1189        1188
        1185        1186        1191        1190
        1186        1187        1192        1191
        1187        1188        1193        1192
        1188        1189        1194        1193
        1190        1191        1196        1195
        1191        1192        1197        1196
        1192        1193        1198        1197
        1193        1194        1199        1198
        1200        1201        1206        1205
        1201        1202        1207        1206
        1202        1203        1208        1207
        1203        1204        1209        1208
        1205        1206        1211        1210
        1206        1207        1212        1211
        1207        1208        1213        1212
        1208        1209        1214        1213
        1210        1211        1216        1215
        1211        1212        1217        1216
        1212        1213        1218        1217
        1213        1214        1219        1218
        1215        1216        1221        1220
        1216        1217        1222        1221
        1217        1218        1223        1222
        1218        1219        1224        1223
        1225        1226        1231        1230
        1226        1227        1232        1231
        1227        1228        1233        1232
        1228        1229        1234        1233
        1230        1231        1236        1235
        1231        1232        1237        1236
        1232        1233        1238        1237
        1233        1234        1239        1238
        1235        1236        1241        1240
        1236        1237        1242        1241
        1237        1238        1243        1242
        1238        1239        1244        1243
        1240        1241        1246        1245
        1241        1242        1247        1246
        1242        1243        1248        1247
        1243        1244        1249        1248
        1250        1251        1256        1255
        1251        1252        1257        1256
        1252        1253        1258        1257
        1253        1254        1259        1258
        1255        1256        1261        1260
        1256        1257        1262        1261
        1257        1258        1263        1262
        1258        1259        1264        1263
        1260        1261        1266        1265
        1261        1262        1267        1266
        1262        1263        1268        1267
        1263        1264        1269        1268
        1265        1266        1271        1270
        1266        1267        1272        1271
        1267        1268        1273        1272
        1268        1269        1274        1273
        1275        1276        1281        1280
        1276        1277        1282        1281
        1277        1278        1283        1282
        1278        1279        1284        1283
        1280        1281        1286        1285
        1281        1282        1287        1286
        1282        1283        1288        1287
        1283        1284        1289        1288
        1285        1286        1291        1290
        1286        1287        1292        1291
        1287        1288        1293        1292
        1288        1289        1294        1293
        1290        1291        1296        1295
        1291        1292        1297        1296
        1292        1293        1298        1297
        1293        1294        1299        1298
        1300        1301        1306        1305
        1301        1302        1307        1306
        1302        1303        1308        1307
        1303        1304        1309        1308
        1305        1306        1311        1310
        1306        1307        1312        1311
        1307        1308        1313        1312
        1308        1309        1314        1313
        1310        1311        1316        1315
        1311        1312        1317        1316
        1312        1313        1318        1317
        1313        1314        1319        1318
        1315        1316        1321        1320
        1316        1317        1322        1321
        1317        1318        1323        1322
        1318        1319        1324        1323
        1325        1326        1331        1330
        1326        1327        1332        1331
        1327        1328        1333        1332
        1328        1329        1334        1333
        1330        1331        1336        1335
        1331        1332        1337        1336
        1332        1333        1338        1337
        1333        1334        1339        1338
        1335        1336        1341        1340
        1336        1337        1342        1341
        1337        1338        1343        1342
        1338        1339        1344        1343
        1340        1341        1346        1345
        1341        1342        1347        1346
        1342        1343        1348        1347
        1343        1344        1349        1348
        1350        1351        1356        1355
        1351        1352        1357        1356
        1352        1353        1358        1357
        1353        1354        1359        1358
        1355        1356        1361        1360
        1356        1357        1362        1361
        1357        1358        1363        1362
        1358        1359        1364        1363
        1360        1361        1366        1365
        1361        1362        1367        1366
        1362        1363        1368        1367
        1363        1364        1369        1368
        1365        1366        1371        1370
        1366        1367        1372        1371
        1367        1368        1373        1372
        1368        1369        1374        1373
        1375        1376        1381        1380
        1376        1377        1382        1381
        1377        1378        1383        1382
        1378        1379        1384        1383
        1380        1381        1386        1385
        1381        1382        1387        1386
        1382        1383        1388        1387
        1383        1384        1389        1388
        1385        1386        1391        1390
        1386        1387        1392        1391
        1387        1388        1393        1392
        1388        1389        1394        1393
        1390        1391        1396        1395
        1391        1392        1397        1396
        1392        1393        1398        1397
        1393        1394        1399        1398
        1400        1401        1406        1405
        1401        1402        1407        1406
        1402        1403        1408        1407
        1403        1404        1409        1408
        1405        1406        1411        1410
        1406        1407        1412        1411
        1407        1408        1413        1412
        1408        1409        1414        1413
        1410        1411        1416        1415
        1411        1412        1417        1416
        1412        1413        1418        1417
        1413        1414        1419        1418
        1415        1416        1421        1420
        1416        1417        1422        1421
        1417        1418        1423        1422
        1418        1419        1424        1423
        1425        1426        1431        1430
        1426        1427        1432        1431
        1427        1428        1433        1432
        1428        1429        1434        1433
        1430        1431        1436        1435
        1431        1432        1437        1436
        1432        1433        1438        1437
        1433        1434        1439        1438
        1435        1436        1441        1440
        1436        1437        1442        1441
        1437        1438        1443        1442
        1438        1439        1444        1443
        1440        1441        1446        1445
        1441        1442        1447        1446
        1442        1443        1448        1447
        1443        1444        1449        1448
        1450        1451        1456        1455
        1451        1452        1457        1456
        1452        1453        1458        1457
        1453        1454        1459        1458
        1455        1456        1461        1460
        1456        1457        1462        1461
        1457        1458        1463        1462
        1458        1459        1464        1463
        1460        1461        1466        1465
        1461        1462        1467        1466
        1462        1463        1468        1467
        1463        1464        1469        1468
        1465        1466        1471        1470
        1466        1467        1472        1471
        1467        1468        1473        1472
        1468        1469        1474        1473
        1475        1476        1481        1480
        1476        1477        1482        1481
        1477        1478        1483        1482
        1478        1479        1484        1483
        1480        1481        1486        1485
        1481        1482        1487        1486
        1482        1483        1488        1487
        1483        1484        1489        1488
        1485        1486        1491        1490
        1486        1487        1492        1491
        1487        1488        1493        1492
        1488        1489        1494        1493
        1490        1491        1496        1495
        1491        1492        1497        1496
        1492        1493        1498        1497
        1493        1494        1499        1498
        1500        1501        1506        1505
        1501        1502        1507        1506
        1502        1503        1508        1507
        1503        1504        1509        1508
        1505        1506        1511        1510
        1506        1507        1512        1511
        1507        1508        1513        1512
        1508        1509        1514        1513
        1510        1511        1516        1515
        1511        1512        1517        1516
        1512        1513        1518        1517
        1513        1514        1519        1518
        1515        1516        1521        1520
        1516        1517        1522        1521
        1517        1518        1523        1522
        1518        1519        1524        1523
        1525        1526        1531        1530
        1526        1527        1532        1531
        1527        1528        1533        1532
        1528        1529        1534        1533
        1530        1531        1536        1535
        1531        1532        1537        1536
        1532        1533        1538        1537
        1533        1534        1539        1538
        1535        1536        1541        1540
        1536        1537        1542        1541
        1537        1538        1543        1542
        1538        1539        1544        1543
        1540        1541        1546        1545
        1541        1542        1547        1546
        1542        1543        1548        1547
        1543        1544        1549        1548
        1550        1551        1556        1555
        1551        1552        1557        1556
        1552        1553        1558        1557
        1553        1554        1559        1558
        1555        1556        1561        1560
        1556        1557        1562        1561
        1557        1558        1563        1562
        1558        1559        1564        1563
        1560        1561        1566        1565
        1561        1562        1567        1566
        1562        1563        1568        1567
        1563        1564        1569        1568
        1565        1566        1571        1570
        1566        1567        1572        1571
        1567        1568        1573        1572
        1568        1569        1574        1573
        1575        1576        1581        1580
        1576        1577        1582        1581
        1577        1578        1583        1582
        1578        1579        1584        1583
        1580        1581        1586        1585
        1581        1582        1587        1586
        1582        1583        1588        1587
        1583        1584        1589        1588
        1585        1586        1591        1590
        1586        1587        1592        1591
        1587        1588        1593        1592
        1588        1589        1594        1593
        1590        1591        1596        1595
        1591        1592        1597        1596
        1592        1593        1598        1597
        1593        1594        1599        1598
 </DataArray>
 <DataArray  type="Int32"  Name="offsets"  format="ascii"> 
           4
           8
          12
          16
          20
          24
          28
          32
          36
          40
          44
          48
          52
          56
          60
          64
          68
          72
          76
          80
          84
          88
          92
          96
         100
         104
         108
         112
         116
         120
         124
         128
         132
         136
         140
         144
         148
         152
         156
         160
         164
         168
         172
         176
         180
         184
         188
         192
         196
         200
         204
         208
         212
         216
         220
         224
         228
         232
         236
         240
         244
         248
         252
         256
         260
         264
         268
         272
         276
         280
         284
         288
         292
         296
         300
         304
         308
         312
         316
         320
         324
         328
         332
         336
         340
         344
         348
         352
         356
         360
         364
         368
         372
         376
         380
         384
         388
         392
         396
         400
         404
         408
         412
         416
         420
         424
         428
         432
         436
         440
         444
         448
         452
         456
         460
         464
         468
         472
         476
         480
         484
         488
         492
         496
         500
         504
         508
         512
         516
         520
         524
         528
         532
         536
         540
         544
         548
         552
         556
         560
         564
         568
         572
         576
         580
         584
         588
         592
         596
         600
         604
         608
         612
         616
         620
         624
         628
         632
         636
         640
         644
         648
         652
         656
         660
         664
         668
         672
         676
         680
         684
         688
         692
         696
         700
         704
         708
         712
         716
         720
         724
         728
         732
         736
         740
         744
         748
         752
         756
         760
         764
         768
         772
         776
         780
         784
         788
         792
         796
         800
         804
         808
         812
         816
         820
         824
         828
         832
         836
         840
         844
         848
         852
         856
         860
         864
         868
         872
         876
         880
         884
         888
         892
         896
         900
         904
         908
         912
         916
         920
         924
         928
         932
         936
         940
         944
         948
         952
         956
         960
         964
         968
         972
         976
         980
         984
         988
         992
         996
        1000
        1004
        1008
        1012
        1016
        1020
        1024
        1028
        1032
        1036
        1040
        1044
        1048
        1052
        1056
        1060
        1064
        1068
        1072
        1076
        1080
        1084
        1088
        1092
        1096
        1100
        1104
        1108
        1112
        1116
        1120
        1124
        1128
        1132
        1136
        1140
        1144
        1148
        1152
        1156
        1160
        1164
        1168
        1172
        1176
        1180
        1184
        1188
        1192
        1196
        1200
        1204
        1208
        1212
        1216
        1220
        1224
        1228
        1232
        1236
        1240
        1244
        1248
        1252
        1256
        1260
        1264
        1268
        1272
        1276
        1280
        1284
        1288
        1292
        1296
        1300
        1304
        1308
        1312
        1316
        1320
        1324
        1328
        1332
        1336
        1340
        1344
        1348
        1352
        1356
        1360
        1364
        1368
        1372
        1376
        1380
        1384
        1388
        1392
        1396
        1400
        1404
        1408
        1412
        1416
        1420
        1424
        1428
        1432
        1436
        1440
        1444
        1448
        1452
        1456
        1460
        1464
        1468
        1472
        1476
        1480
        1484
        1488
        1492
        1496
        1500
        1504
        1508
        1512
        1516
        1520
        1524
        1528
        1532
        1536
        1540
        1544
        1548
        1552
        1556
        1560
        1564
        1568
        1572
        1576
        1580
        1584
        1588
        1592
        1596
        1600
        1604
        1608
        1612
        1616
        1620
        1624
        1628
        1632
        1636
        1640
        1644
        1648
        1652
        1656
        1660
        1664
        1668
        1672
        1676
        1680
        1684
        1688
        1692
        1696
        1700
        1704
        1708
        1712
        1716
        1720
        1724
        1728
        1732
        1736
        1740
        1744
        1748
        1752
        1756
        1760
        1764
        1768
        1772
        1776
        1780
        1784
        1788
        1792
        1796
        1800
        1804
        1808
        1812
        1816
        1820
        1824
        1828
        1832
        1836
        1840
        1844
        1848
        1852
        1856
        1860
        1864
        1868
        1872
        1876
        1880
        1884
        1888
        1892
        1896
        1900
        1904
        1908
        1912
        1916
        1920
        1924
        1928
        1932
        1936
        1940
        1944
        1948
        1952
        1956
        1960
        1964
        1968
        1972
        1976
        1980
        1984
        1988
        1992
        1996
        2000
        2004
        2008
        2012
        2016
        2020
        2024
        2028
        2032
        2036
        2040
        2044
        2048
        2052
        2056
        2060
        2064
        2068
        2072
        2076
        2080
        2084
        2088
        2092
        2096
        2100
        2104
        2108
        2112
        2116
        2120
        2124
        2128
        2132
        2136
        2140
        2144
        2148
        2152
        2156
        2160
        2164
        2168
        2172
        2176
        2180
        2184
        2188
        2192
        2196
        2200
        2204
        2208
        2212
        2216
        2220
        2224
        2228
        2232
        2236
        2240
        2244
        2248
        2252
        2256
        2260
        2264
        2268
        2272
        2276
        2280
        2284
        2288
        2292
        2296
        2300
        2304
        2308
        2312
        2316
        2320
        2324
        2328
        2332
        2336
        2340
        2344
        2348
        2352
        2356
        2360
        2364
        2368
        2372
        2376
        2380
        2384
        2388
        2392
        2396
        2400
        2404
        2408
        2412
        2416
        2420
        2424
        2428
        2432
        2436
        2440
        2444
        2448
        2452
        2456
        2460
        2464
        2468
        2472
        2476
        2480
        2484
        2488
        2492
        2496
        2500
        2504
        2508
        2512
        2516
        2520
        2524
        2528
        2532
        2536
        2540
        2544
        2548
        2552
        2556
        2560
        2564
        2568
        2572
        2576
        2580
        2584
        2588
        2592
        2596
        2600
        2604
        2608
        2612
        2616
        2620
        2624
        2628
        2632
        2636
        2640
        2644
        2648
        2652
        2656
        2660
        2664
        2668
        2672
        2676
        2680
        2684
        2688
        2692
        2696
        2700
        2704
        2708
        2712
        2716
        2720
        2724
        2728
        2732
        2736
        2740
        2744
        2748
        2752
        2756
        2760
        2764
        2768
        2772
        2776
        2780
        2784
        2788
        2792
        2796
        2800
        2804
        2808
        2812
        2816
        2820
        2824
        2828
        2832
        2836
        2840
        2844
        2848
        2852
        2856
        2860
        2864
        2868
        2872
        2876
        2880
        2884
        2888
        2892
        2896
        2900
        2904
        2908
        2912
        2916
        2920
        2924
        2928
        2932
        2936
        2940
        2944
        2948
        2952
        2956
        2960
        2964
        2968
        2972
        2976
        2980
        2984
        2988
        2992
        2996
        3000
        3004
        3008
        3012
        3016
        3020
        3024
        3028
        3032
        3036
        3040
        3044
        3048
        3052
        3056
        3060
        3064
        3068
        3072
        3076
        3080
        3084
        3088
        3092
        3096
        3100
        3104
        3108
        3112
        3116
        3120
        3124
        3128
        3132
        3136
        3140
        3144
        3148
        3152
        3156
        3160
        3164
        3168
        3172
        3176
        3180
        3184
        3188
        3192
        3196
        3200
        3204
        3208
        3212
        3216
        3220
        3224
        3228
        3232
        3236
        3240
        3244
        3248
        3252
        3256
        3260
        3264
        3268
        3272
        3276
        3280
        3284
        3288
        3292
        3296
        3300
        3304
        3308
        3312
        3316
        3320
        3324
        3328
        3332
        3336
        3340
        3344
        3348
        3352
        3356
        3360
        3364
        3368
        3372
        3376
        3380
        3384
        3388
        3392
        3396
        3400
        3404
        3408
        3412
        3416
        3420
        3424
        3428
        3432
        3436
        3440
        3444
        3448
        3452
        3456
        3460
        3464
        3468
        3472
        3476
        3480
        3484
        3488
        3492
        3496
        3500
        3504
        3508
        3512
        3516
        3520
        3524
        3528
        3532
        3536
        3540
        3544
        3548
        3552
        3556
        3560
        3564
        3568
        3572
        3576
        3580
        3584
        3588
        3592
        3596
        3600
        3604
        3608
        3612
        3616
        3620
        3624
        3628
        3632
        3636
        3640
        3644
        3648
        3652
        3656
        3660
        3664
        3668
        3672
        3676
        3680
        3684
        3688
        3692
        3696
        3700
        3704
        3708
        3712
        3716
        3720
        3724
        3728
        3732
        3736
        3740
        3744
        3748
        3752
        3756
        3760
        3764
        3768
        3772
        3776
        3780
        3784
        3788
        3792
        3796
        3800
        3804
        3808
        3812
        3816
        3820
        3824
        3828
        3832
        3836
        3840
        3844
        3848
        3852
        3856
        3860
        3864
        3868
        3872
        3876
        3880
        3884
        3888
        3892
        3896
        3900
        3904
        3908
        3912
        3916
        3920
        3924
        3928
        3932
        3936
        3940
        3944
        3948
        3952
        3956
        3960
        3964
        3968
        3972
        3976
        3980
        3984
        3988
        3992
        3996
        4000
        4004
        4008
        4012
        4016
        4020
        4024
        4028
        4032
        4036
        4040
        4044
        4048
        4052
        4056
        4060
        4064
        4068
        4072
        4076
        4080
        4084
        4088
        4092
        4096
 </DataArray>
 <DataArray  type="UInt8"  Name="types"  format="ascii">
 9
 9
 9
 9
 9
 9
 9
 9
 9
 9
 9
 9
 9
 9
 9
 9
 9
 9
 9
 9
 9
 9
 9
 9
 9
 9
 9
 9
 9
 9
 9
 9
 9
 9
 9
 9
 9
 9
 9
 9
 9
 9
 9
 9
 9
 9
 9
 9
 9
 9
 9
 9
 9
 9
 9
 9
 9
 9
 9
 9
 9
 9
 9
 9
 9
 9
 9
 9
 9
 9
 9
 9
 9
 9
 9
 9
 9
 9
 9
 9
 9
 9
 9
 9
 9
 9
 9
 9
 9
 9
 9
 9
 9
 9
 9
 9
 9
 9
 9
 9
 9
 9
 9
 9
 9
 9
 9
 9
 9
 9
 9
 9
 9
 9
 9
 9
 9
 9
 9
 9
 9
 9
 9
 9
 9
 9
 9
 9
 9
 9
 9
 9
 9
 9
 9
 9
 9
 9
 9
 9
 9
 9
 9
 9
 9
 9
 9
 9
 9
 9
 9
 9
 9
 9
 9
 9
 9
 9
 9
 9
 9
 9
 9
 9
 9
 9
 9
 9
 9
 9
 9
 9
 9
 9
 9
 9
 9
 9
 9
 9
 9
 9
 9
 9
 9
 9
 9
 9
 9
 9
 9
 9
 9
 9
 9
 9
 9
 9
 9
 9
 9
 9
 9
 9
 9
 9
 9
 9
 9
 9
 9
 9
 9
 9
 9
 9
 9
 9
 9
 9
 9
 9
 9
 9
 9
 9
 9
 9
 9
 9
 9
 9
 9
 9
 9
 9
 9
 9
 9
 9
 9
 9
 9
 9
 9
 9
 9
 9
 9
 9
 9
 9
 9
 9
 9
 9
 9
 9
 9
 9
 9
 9
 9
 9
 9
 9
 9
 9
 9
 9
 9
 9
 9
 9
 9
 9
 9
 9
 9
 9
 9
 9
 9
 9
 9
 9
 9
 9
 9
 9
 9
 9
 9
 9
 9
 9
 9
 9
 9
 9
 9
 9
 9
 9
 9
 9
 9
 9
 9
 9
 9
 9
 9
 9
 9
 9
 9
 9
 9
 9
 9
 9
 9
 9
 9
 9
 9
 9
 9
 9
 9
 9
 9
 9
 9
 9
 9
 9
 9
 9
 9
 9
 9
 9
 9
 9
 9
 9
 9
 9
 9
 9
 9
 9
 9
 9
 9
 9
 9
 9
 9
 9
 9
 9
 9
 9
 9
 9
 9
 9
 9
 9
 9
 9
 9
 9
 9
 9
 9
 9
 9
 9
 9
 9
 9
 9
 9
 9
 9
 9
 9
 9
 9
 9
 9
 9
 9
 9
 9
 9
 9
 9
 9
 9
 9
 9
 9
 9
 9
 9
 9
 9
 9
 9
 9
 9
 9
 9
 9
 9
 9
 9
 9
 9
 9
 9
 9
 9
 9
 9
 9
 9
 9
 9
 9
 9
 9
 9
 9
 9
 9
 9
 9
 9
 9
 9
 9
 9
 9
 9
 9
 9
 9
 9
 9
 9
 9
 9
 9
 9
 9
 9
 9
 9
 9
 9
 9
 9
 9
 9
 9
 9
 9
 9
 9
 9
 9
 9
 9
 9
 9
 9
 9
 9
 9
 9
 9
 9
 9
 9
 9
 9
 9
 9
 9
 9
 9
 9
 9
 9
 9
 9
 9
 9
 9
 9
 9
 9
 9
 9
 9
 9
 9
 9
 9
 9
 9
 9
 9
 9
 9
 9
 9
 9
 9
 9
 9
 9
 9
 9
 9
 9
 9
 9
 9
 9
 9
 9
 9
 9
 9
 9
 9
 9
 9
 9
 9
 9
 9
 9
 9
 9
 9
 9
 9
 9
 9
 9
 9
 9
 9
 9
 9
 9
 9
 9
 9
 9
 9
 9
 9
 9
 9
 9
 9
 9
 9
 9
 9
 9
 9
 9
 9
 9
 9
 9
 9
 9
 9
 9
 9
 9
 9
 9
 9
 9
 9
 9
 9
 9
 9
 9
 9
 9
 9
 9
 9
 9
 9
 9
 9
 9
 9
 9
 9
 9
 9
 9
 9
 9
 9
 9
 9
 9
 9
 9
 9
 9
 9
 9
 9
 9
 9
 9
 9
 9
 9
 9
 9
 9
 9
 9
 9
 9
 9
 9
 9
 9
 9
 9
 9
 9
 9
 9
 9
 9
 9
 9
 9
 9
 9
 9
 9
 9
 9
 9
 9
 9
 9
 9
 9
 9
 9
 9
 9
 9
 9
 9
 9
 9
 9
 9
 9
 9
 9
 9
 9
 9
 9
 9
 9
 9
 9
 9
 9
 9
 9
 9
 9
 9
 9
 9
 9
 9
 9
 9
 9
 9
 9
 9
 9
 9
 9
 9
 9
 9
 9
 9
 9
 9
 9
 9
 9
 9
 9
 9
 9
 9
 9
 9
 9
 9
 9
 9
 9
 9
 9
 9
 9
 9
 9
 9
 9
 9
 9
 9
 9
 9
 9
 9
 9
 9
 9
 9
 9
 9
 9
 9
 9
 9
 9
 9
 9
 9
 9
 9
 9
 9
 9
 9
 9
 9
 9
 9
 9
 9
 9
 9
 9
 9
 9
 9
 9
 9
 9
 9
 9
 9
 9
 9
 9
 9
 9
 9
 9
 9
 9
 9
 9
 9
 9
 9
 9
 9
 9
 9
 9
 9
 9
 9
 9
 9
 9
 9
 9
 9
 9
 9
 9
 9
 9
 9
 9
 9
 9
 9
 9
 9
 9
 9
 9
 9
 9
 9
 9
 9
 9
 9
 9
 9
 9
 9
 9
 9
 9
 9
 9
 9
 9
 9
 9
 9
 9
 9
 9
 9
 9
 9
 9
 9
 9
 9
 9
 9
 9
 9
 9
 9
 9
 9
 9
 9
 9
 9
 9
 9
 9
 9
 9
 9
 9
 9
 9
 9
 9
 9
 9
 9
 9
 9
 9
 9
 9
 9
 9
 9
 9
 9
 9
 9
 9
 9
 9
 9
 9
 9
 9
 9
 9
 9
 9
 9
 9
 9
 9
 9
 9
 9
 9
 9
 9
 9
 9
 9
 9
 9
 9
 9
 9
 9
 9
 9
 9
 9
 9
 9
 9
 9
 9
 9
 9
 9
 9
 9
 9
 9
 9
 9
 9
 9
 9
 9
 9
 9
 9
 9
 9
 9
 9
 9
 9
 9
 9
 9
 9
 9
 9
 9
 9
 9
 9
 9
 9
 9
 9
 9
 9
 9
 9
 9
 9
 9
 9
 9
 9
 9
 9
 9
 9
 9
 9
 9
 9
 9
 9
 9
 9
 9
 9
 9
 9
 9
 9
 9
 9
 9
 9
 9
 9
 9
 9
 9
 9
 9
 9
 9
 9
 9
 9
 9
 9
 9
 9
 9
 </DataArray>
 </Cells> 
 <PointData>
 <DataArray  type="Float64" Name="disp" NumberOfComponents="3" format="ascii">
   6.5365129970795244E-002   6.2801701376375474E-002   0.0000000000000000     
   6.8460858710646194E-002   6.8203090242790282E-002   0.0000000000000000     
   7.1444728431010879E-002   7.3781109821068031E-002   0.0000000000000000     
   7.4316739131889326E-002   7.9535760111208748E-002   0.0000000000000000     
   7.7076890813281507E-002   8.5467041113212405E-002   0.0000000000000000     
   6.0179026192385437E-002   6.1904642065775284E-002   0.0000000000000000     
   6.3089236841032861E-002   6.7325505058402513E-002   0.0000000000000000     
   6.5890968334326699E-002   7.2926261627219532E-002   0.0000000000000000     
   6.8584220672266938E-002   7.8706911772226273E-002   0.0000000000000000     
   7.1168993854853577E-002   8.4667455493422777E-002   0.0000000000000000     
   5.5192391429700755E-002   6.1057358072139099E-002   0.0000000000000000     
   5.7913564015503238E-002   6.6502349011289097E-002   0.0000000000000000     
   6.0532041340798572E-002   7.2128257973304272E-002   0.0000000000000000     
   6.3047823405586734E-002   7.7935084958184589E-002   0.0000000000000000     
   6.5460910209867759E-002   8.3922829965930090E-002   0.0000000000000000     
   5.0405225682741216E-002   6.0259849395466955E-002   0.0000000000000000     
   5.2933840234057304E-002   6.5733622101450007E-002   0.0000000000000000     
   5.5367947450426475E-002   7.1387098859322248E-002   0.0000000000000000     
   5.7707547331848727E-002   7.7220279669083680E-002   0.0000000000000000     
   5.9952639878324068E-002   8.3233164530734302E-002   0.0000000000000000     
   4.5817528951506800E-002   5.9512116035758830E-002   0.0000000000000000     
   4.8150065496695066E-002   6.5019324328885228E-002   0.0000000000000000     
   5.0398686663210443E-002   7.0702784285273462E-002   0.0000000000000000     
   5.2563392451052918E-002   7.6562495904923533E-002   0.0000000000000000     
   5.4644182860222504E-002   8.2598459187835413E-002   0.0000000000000000     
   7.7076890813281507E-002   8.5467041113212405E-002   0.0000000000000000     
   7.9739275895242906E-002   9.1566332603647632E-002   0.0000000000000000     
   8.2317986797829007E-002   9.7825014359083001E-002   0.0000000000000000     
   8.4813023521039782E-002  0.10424308637951851        0.0000000000000000     
   8.7224386064875245E-002  0.11082054866495418        0.0000000000000000     
   7.1168993854853577E-002   8.4667455493422777E-002   0.0000000000000000     
   7.3661698971799527E-002   9.0797065597958942E-002   0.0000000000000000     
   7.6078747112817702E-002   9.7084914892984597E-002   0.0000000000000000     
   7.8420138277908100E-002  0.10353100337849980        0.0000000000000000     
   8.0685872467070721E-002  0.11013533105450447        0.0000000000000000     
   6.5460910209867759E-002   8.3922829965930090E-002   0.0000000000000000     
   6.7787691878424372E-002   9.0079844058676334E-002   0.0000000000000000     
   7.0044558536039275E-002   9.6394478298558989E-002   0.0000000000000000     
   7.2231510182712511E-002  0.10286673268557799        0.0000000000000000     
   7.4348546818444050E-002  0.10949660721973341        0.0000000000000000     
   5.9952639878324068E-002   8.3233164530734302E-002   0.0000000000000000     
   6.2117254615117433E-002   8.9414667985799876E-002   0.0000000000000000     
   6.4215421067493741E-002   9.5753704575806162E-002   0.0000000000000000     
   6.6247139235453015E-002  0.10225027430075319        0.0000000000000000     
   6.8212409118995232E-002  0.10890437716064093        0.0000000000000000     
   5.4644182860222504E-002   8.2598459187835413E-002   0.0000000000000000     
   5.6650387181878731E-002   8.8801537379329512E-002   0.0000000000000000     
   5.8591334707181093E-002   9.5162593724726158E-002   0.0000000000000000     
   6.0467025436129605E-002  0.10168162822402534        0.0000000000000000     
   6.2277459368724267E-002  0.10835864087722707        0.0000000000000000     
   8.7224386064875245E-002  0.11082054866495418        0.0000000000000000     
   8.9541700221864542E-002  0.11754361890889750        0.0000000000000000     
   9.1754591784536807E-002  0.12439851480485600        0.0000000000000000     
   9.3863060752892066E-002  0.13138523635282964        0.0000000000000000     
   9.5867107126930307E-002  0.13850378355281848        0.0000000000000000     
   8.0685872467070721E-002  0.11013533105450447        0.0000000000000000     
   8.2863961242672313E-002  0.11688514840041217        0.0000000000000000     
   8.4942416167079635E-002  0.12376770589563632        0.0000000000000000     
   8.6921237240292687E-002  0.13078300354017694        0.0000000000000000     
   8.8800424462311497E-002  0.13793104133403403        0.0000000000000000     
   7.4348546818444050E-002  0.10949660721973341        0.0000000000000000     
   7.6383740908596787E-002  0.11627192616766693        0.0000000000000000     
   7.8325164918533655E-002  0.12318051379602034        0.0000000000000000     
   8.0172818848254640E-002  0.13022237010479362        0.0000000000000000     
   8.1926702697759771E-002  0.13739749509398683        0.0000000000000000     
   6.8212409118995232E-002  0.10890437716064093        0.0000000000000000     
   7.0101039219637992E-002  0.11570395221066175        0.0000000000000000     
   7.1902838038898895E-002  0.12263693850600800        0.0000000000000000     
   7.3617805576777939E-002  0.12970333604667972        0.0000000000000000     
   7.5245941833275140E-002  0.13690314483267679        0.0000000000000000     
   6.2277459368724267E-002  0.10835864087722707        0.0000000000000000     
   6.4015856175795902E-002  0.11518122652939666        0.0000000000000000     
   6.5675435528175341E-002  0.12213698002559935        0.0000000000000000     
   6.7256197425862585E-002  0.12922590136583514        0.0000000000000000     
   6.8758141868857606E-002  0.13644799055010406        0.0000000000000000     
   9.5867107126930307E-002  0.13850378355281848        0.0000000000000000     
   9.7774082863845729E-002  0.14574325141455297        0.0000000000000000     
   9.9591339920832564E-002  0.15309273494776363        0.0000000000000000     
  0.10131887829789078       0.16055223415245048        0.0000000000000000     
  0.10295669799502041       0.16812174902861352        0.0000000000000000     
   8.8800424462311497E-002  0.13793104133403403        0.0000000000000000     
   9.0587895069306340E-002  0.14519974637876520        0.0000000000000000     
   9.2291566297447516E-002  0.15257704577592807        0.0000000000000000     
   9.3911438146735055E-002  0.16006293952552264        0.0000000000000000     
   9.5447510617168954E-002  0.16765742762754887        0.0000000000000000     
   8.1926702697759771E-002  0.13739749509398683        0.0000000000000000     
   8.3594340982580798E-002  0.14469318781370383        0.0000000000000000     
   8.5183258218249555E-002  0.15209674731404868        0.0000000000000000     
   8.6693454404766002E-002  0.15960817359502133        0.0000000000000000     
   8.8124929542130206E-002  0.16722746665662178        0.0000000000000000     
   7.5245941833275140E-002  0.13690314483267679        0.0000000000000000     
   7.6793420603669144E-002  0.14422357571936895        0.0000000000000000     
   7.8266415683238652E-002  0.15165183956212550        0.0000000000000000     
   7.9664927071983679E-002  0.15918793636094661        0.0000000000000000     
   8.0988954769904212E-002  0.16683186611583223        0.0000000000000000     
   6.8758141868857606E-002  0.13644799055010406        0.0000000000000000     
   7.0185133932571392E-002  0.14379091009576045        0.0000000000000000     
   7.1541038692414863E-002  0.15124232252015857        0.0000000000000000     
   7.2825856148388046E-002  0.15880222782329853        0.0000000000000000     
   7.4039586300490901E-002  0.16647062600518023        0.0000000000000000     
  0.10295669799502041       0.16812174902861352        0.0000000000000000     
  0.10450663049807583       0.17579102198457436        0.0000000000000000     
  0.10597050729291138       0.18354979542865460        0.0000000000000000     
  0.10734832837952712       0.19139806936085432        0.0000000000000000     
  0.10864009375792300       0.19933584378117347        0.0000000000000000     
   9.5447510617168954E-002  0.16765742762754887        0.0000000000000000     
   9.6899436234503408E-002  0.17535144618728632        0.0000000000000000     
   9.8266867524492596E-002  0.18313593131001443        0.0000000000000000     
   9.9549804487136517E-002  0.19101088299573321        0.0000000000000000     
  0.10074824712243519       0.19897630124444265        0.0000000000000000     
   8.8124929542130206E-002  0.16722746665662178        0.0000000000000000     
   8.9476002936758114E-002  0.17494614368280803        0.0000000000000000     
   9.0744993895065712E-002  0.18275572185753811        0.0000000000000000     
   9.1931902417052958E-002  0.19065620118081197        0.0000000000000000     
   9.3036728502719906E-002  0.19864758165262963        0.0000000000000000     
   8.0988954769904212E-002  0.16683186611583223        0.0000000000000000     
   8.2236330604839966E-002  0.17457511447113949        0.0000000000000000     
   8.3404886404630715E-002  0.18240916707122556        0.0000000000000000     
   8.4494622169276487E-002  0.19033402391609050        0.0000000000000000     
   8.5505537898777240E-002  0.19834968500573427        0.0000000000000000     
   7.4039586300490901E-002  0.16647062600518023        0.0000000000000000     
   7.5180419238748949E-002  0.17423835855228070        0.0000000000000000     
   7.6246545053187675E-002  0.18209626695107692        0.0000000000000000     
   7.7237963743807050E-002  0.19004435120156890        0.0000000000000000     
   7.8154675310607102E-002  0.19808261130375662        0.0000000000000000     
  0.10864009375792300       0.19933584378117347        0.0000000000000000     
  0.10985091990425105       0.20735928809297233        0.0000000000000000     
  0.11098592329466334       0.21546457169961117        0.0000000000000000     
  0.11204510392915984       0.22365169460109005        0.0000000000000000     
  0.11302846180774057       0.23192065679740886        0.0000000000000000     
  0.10074824712243519       0.19897630124444265        0.0000000000000000     
  0.10186771457574864       0.20702570670075518        0.0000000000000000     
  0.10291372599243699       0.21515262000928315        0.0000000000000000     
  0.10388628137250019       0.22335704117002647        0.0000000000000000     
  0.10478538071593826       0.23163897018298527        0.0000000000000000     
   9.3036728502719906E-002  0.19864758165262963        0.0000000000000000     
   9.4064367938457502E-002  0.20672189660074472        0.0000000000000000     
   9.5019716510656688E-002  0.21487117935291092        0.0000000000000000     
   9.5902774219317408E-002  0.22309542990912817        0.0000000000000000     
   9.6713541064439745E-002  0.23139464826939657        0.0000000000000000     
   8.5505537898777240E-002  0.19834968500573427        0.0000000000000000     
   8.6440879992377664E-002  0.20644785779294089        0.0000000000000000     
   8.7303894849322425E-002  0.21462024973049451        0.0000000000000000     
   8.8094582469611563E-002  0.22286686081839507        0.0000000000000000     
   8.8812942853245022E-002  0.23118769105664264        0.0000000000000000     
   7.8154675310607102E-002  0.19808261130375662        0.0000000000000000     
   7.8997250737509073E-002  0.20620359027734372        0.0000000000000000     
   7.9766261008434217E-002  0.21439983114203395        0.0000000000000000     
   8.0461706123382534E-002  0.22267133389782723        0.0000000000000000     
   8.1083586082354039E-002  0.23101809854472358        0.0000000000000000     
  0.11302846180774057       0.23192065679740886        0.0000000000000000     
  0.11396427132799888       0.24028787200826490        0.0000000000000000     
  0.11488080688752811       0.24876975395335532        0.0000000000000000     
  0.11577806848632832       0.25736630263268007        0.0000000000000000     
  0.11665605612439944       0.26607751804623919        0.0000000000000000     
  0.10478538071593826       0.23163897018298527        0.0000000000000000     
  0.10561604777920629       0.24002183341171079        0.0000000000000000     
  0.10638330631875924       0.24852905721975443        0.0000000000000000     
  0.10708715633459720       0.25716064160711621        0.0000000000000000     
  0.10772759782672013       0.26591658657379597        0.0000000000000000     
   9.6713541064439745E-002  0.23139464826939657        0.0000000000000000     
   9.7442813194882516E-002  0.23979529314767192        0.0000000000000000     
   9.8081386759504618E-002  0.24832382325791028        0.0000000000000000     
   9.8629261758305997E-002  0.25698023860011165        0.0000000000000000     
   9.9086438191286680E-002  0.26576453917427595        0.0000000000000000     
   8.8812942853245022E-002  0.23118769105664264        0.0000000000000000     
   8.9444567575027611E-002  0.23960825121614820        0.0000000000000000     
   8.9975048209764180E-002  0.24815405206782279        0.0000000000000000     
   9.0404384757454687E-002  0.25682509361166644        0.0000000000000000     
   9.0732577218099145E-002  0.26562137584767914        0.0000000000000000     
   8.1083586082354039E-002  0.23101809854472358        0.0000000000000000     
   8.1621310919641574E-002  0.23946070761713967        0.0000000000000000     
   8.2064290669537979E-002  0.24801974364949195        0.0000000000000000     
   8.2412525332043282E-002  0.25669520664178058        0.0000000000000000     
   8.2666014907157470E-002  0.26548709659400543        0.0000000000000000     
  0.11665605612439944       0.26607751804623919        0.0000000000000000     
  0.11745519254822454       0.27506800371596968        0.0000000000000000     
  0.11811590050428664       0.28450236316380850        0.0000000000000000     
  0.11863817999258569       0.29438059638975567        0.0000000000000000     
  0.11902203101312177       0.30470270339381123        0.0000000000000000     
  0.10772759782672013       0.26591658657379597        0.0000000000000000     
  0.10828574083649298       0.27492897087220214        0.0000000000000000     
  0.10874269540528073       0.28432987325474290        0.0000000000000000     
  0.10909846153308339       0.29411929372141826        0.0000000000000000     
  0.10935303921990093       0.30429723227222827        0.0000000000000000     
   9.9086438191286680E-002  0.26576453917427595        0.0000000000000000     
   9.9464027279894340E-002  0.27477489642145242        0.0000000000000000     
   9.9773140245576625E-002  0.28410948178269013        0.0000000000000000     
  0.10001377708833353       0.29376829525798920        0.0000000000000000     
  0.10018593780816505       0.30375133684734945        0.0000000000000000     
   9.0732577218099145E-002  0.26562137584767914        0.0000000000000000     
   9.0990051878428638E-002  0.27460578036372052        0.0000000000000000     
   9.1207235025174305E-002  0.28384118874765019        0.0000000000000000     
   9.1384126658336146E-002  0.29332760099946831        0.0000000000000000     
   9.1520726777914160E-002  0.30306501711917466        0.0000000000000000     
   8.2666014907157470E-002  0.26548709659400543        0.0000000000000000     
   8.2863814632095870E-002  0.27442162269900638        0.0000000000000000     
   8.3044979744073794E-002  0.28352499414962312        0.0000000000000000     
   8.3209510243091214E-002  0.29279721094585570        0.0000000000000000     
   8.3357406129148201E-002  0.30223827308770401        0.0000000000000000     
   4.5817528951506800E-002   5.9512116035758830E-002   0.0000000000000000     
   4.8150065496695066E-002   6.5019324328885228E-002   0.0000000000000000     
   5.0398686663210443E-002   7.0702784285273462E-002   0.0000000000000000     
   5.2563392451052918E-002   7.6562495904923533E-002   0.0000000000000000     
   5.4644182860222504E-002   8.2598459187835413E-002   0.0000000000000000     
   4.1398924712988221E-002   5.8823634236876303E-002   0.0000000000000000     
   4.3535155291858044E-002   6.4361860218310155E-002   0.0000000000000000     
   4.5597857781424340E-002   7.0072980041572086E-002   0.0000000000000000     
   4.7587032181687125E-002   7.5956993706662090E-002   0.0000000000000000     
   4.9502678492646376E-002   8.2013901213580140E-002   0.0000000000000000     
   3.7119036444176176E-002   5.8203880242680951E-002   0.0000000000000000     
   3.9062025107987744E-002   6.3763634294440180E-002   0.0000000000000000     
   4.0939059607342058E-002   6.9495351918632278E-002   0.0000000000000000     
   4.2750139942239154E-002   7.5399033115257239E-002   0.0000000000000000     
   4.4495266112679004E-002   8.1474677884315089E-002   0.0000000000000000     
   3.2977864145070659E-002   5.7652854053172775E-002   0.0000000000000000     
   3.4730674945084167E-002   6.3224646557275249E-002   0.0000000000000000     
   3.6422292140963618E-002   6.8969899916454011E-002   0.0000000000000000     
   3.8052715732709026E-002   7.4888614130709019E-002   0.0000000000000000     
   3.9621945720320365E-002   8.0980789200040287E-002   0.0000000000000000     
   2.8975407815671660E-002   5.7170555668351775E-002   0.0000000000000000     
   3.0541104803147312E-002   6.2744897006815417E-002   0.0000000000000000     
   3.2047555382288997E-002   6.8496624035037285E-002   0.0000000000000000     
   3.3494759553096727E-002   7.4425736753017391E-002   0.0000000000000000     
   3.4882717315570494E-002   8.0532235160755750E-002   0.0000000000000000     
   5.4644182860222504E-002   8.2598459187835413E-002   0.0000000000000000     
   5.6650387181878731E-002   8.8801537379329512E-002   0.0000000000000000     
   5.8591334707181093E-002   9.5162593724726158E-002   0.0000000000000000     
   6.0467025436129605E-002  0.10168162822402534        0.0000000000000000     
   6.2277459368724267E-002  0.10835864087722707        0.0000000000000000     
   4.9502678492646376E-002   8.2013901213580140E-002   0.0000000000000000     
   5.1349721099605901E-002   8.8236577232569460E-002   0.0000000000000000     
   5.3133084387869449E-002   9.4617896433873319E-002   0.0000000000000000     
   5.4852768357437034E-002  0.10115785881749169        0.0000000000000000     
   5.6508773008308651E-002  0.10785646438342456        0.0000000000000000     
   4.4495266112679004E-002   8.1474677884315089E-002   0.0000000000000000     
   4.6177887889196592E-002   8.7715912538823992E-002   0.0000000000000000     
   4.7801455042326947E-002   9.4116363391802141E-002   0.0000000000000000     
   4.9365967572070041E-002  0.10067603044324949        0.0000000000000000     
   5.0871425478425873E-002  0.10739491369316610        0.0000000000000000     
   3.9621945720320365E-002   8.0980789200040287E-002   0.0000000000000000     
   4.1134887550650839E-002   8.7239543298093067E-002   0.0000000000000000     
   4.2596446670553581E-002   9.3657994598512539E-002   0.0000000000000000     
   4.4006623080028617E-002  0.10023614310129876        0.0000000000000000     
   4.5365416779075927E-002  0.10697398880645169        0.0000000000000000     
   3.4882717315570494E-002   8.0532235160755750E-002   0.0000000000000000     
   3.6220720083968601E-002   8.6807469510376684E-002   0.0000000000000000     
   3.7518059272549364E-002   9.3242790054004585E-002   0.0000000000000000     
   3.8774734881312771E-002   9.9838196791639480E-002   0.0000000000000000     
   3.9990746910258827E-002  0.10659368972328132        0.0000000000000000     
   6.2277459368724267E-002  0.10835864087722707        0.0000000000000000     
   6.4015856175795902E-002  0.11518122652939666        0.0000000000000000     
   6.5675435528175341E-002  0.12213698002559935        0.0000000000000000     
   6.7256197425862585E-002  0.12922590136583514        0.0000000000000000     
   6.8758141868857606E-002  0.13644799055010406        0.0000000000000000     
   5.6508773008308651E-002  0.10785646438342456        0.0000000000000000     
   5.8097424204251596E-002  0.11470082219945947        0.0000000000000000     
   5.9615047809033178E-002  0.12167804133338400        0.0000000000000000     
   6.1061643822653361E-002  0.12878812178519808        0.0000000000000000     
   6.2437212245112179E-002  0.13603106355490172        0.0000000000000000     
   5.0871425478425873E-002  0.10739491369316610        0.0000000000000000     
   5.2314975732186159E-002  0.11425981229643807        0.0000000000000000     
   5.3693765304142577E-002  0.12125752540795155        0.0000000000000000     
   5.5007794194295155E-002  0.12838805302770653        0.0000000000000000     
   5.6257062402643866E-002  0.13565139515570301        0.0000000000000000     
   4.5365416779075927E-002  0.10697398880645169        0.0000000000000000     
   4.6668510759599574E-002  0.11385819682033242        0.0000000000000000     
   4.7911588013503571E-002  0.12087543224930203        0.0000000000000000     
   4.9094648540787926E-002  0.12802569509336051        0.0000000000000000     
   5.0217692341452645E-002  0.13530898535250790        0.0000000000000000     
   3.9990746910258827E-002  0.10659368972328132        0.0000000000000000     
   4.1158029286491843E-002  0.11349597577114251        0.0000000000000000     
   4.2268515937116141E-002  0.12053176185743544        0.0000000000000000     
   4.3322206862131701E-002  0.12770104798216006        0.0000000000000000     
   4.4319102061538558E-002  0.13500383414531644        0.0000000000000000     
   6.8758141868857606E-002  0.13644799055010406        0.0000000000000000     
   7.0185133932571392E-002  0.14379091009576045        0.0000000000000000     
   7.1541038692414863E-002  0.15124232252015857        0.0000000000000000     
   7.2825856148388046E-002  0.15880222782329853        0.0000000000000000     
   7.4039586300490901E-002  0.16647062600518023        0.0000000000000000     
   6.2437212245112179E-002  0.13603106355490172        0.0000000000000000     
   6.3743438348973891E-002  0.14339510652208778        0.0000000000000000     
   6.4982007406802739E-002  0.15086849056634907        0.0000000000000000     
   6.6152919418598757E-002  0.15845121568768558        0.0000000000000000     
   6.7256174384361933E-002  0.16614328188609725        0.0000000000000000     
   5.6257062402643866E-002  0.13565139515570301        0.0000000000000000     
   5.7442291232563010E-002  0.14303608057756043        0.0000000000000000     
   5.8564201987426893E-002  0.15053063807889822        0.0000000000000000     
   5.9622794667235503E-002  0.15813506765971633        0.0000000000000000     
   6.0618069271988866E-002  0.16584936932001479        0.0000000000000000     
   5.0217692341452645E-002  0.13530898535250790        0.0000000000000000     
   5.1281692583338784E-002  0.14271383226217838        0.0000000000000000     
   5.2287622434287320E-002  0.15022876505780597        0.0000000000000000     
   5.3235481894298303E-002  0.15785378373939082        0.0000000000000000     
   5.4125270963371698E-002  0.16558888830693289        0.0000000000000000     
   4.4319102061538558E-002  0.13500383414531644        0.0000000000000000     
   4.5261642401301164E-002  0.14242836157594155        0.0000000000000000     
   4.6152268747384005E-002  0.14996287150307241        0.0000000000000000     
   4.6990981099787103E-002  0.15760736392670904        0.0000000000000000     
   4.7777779458510437E-002  0.16536183884685146        0.0000000000000000     
   7.4039586300490901E-002  0.16647062600518023        0.0000000000000000     
   7.5180419238748949E-002  0.17423835855228070        0.0000000000000000     
   7.6246545053187675E-002  0.18209626695107692        0.0000000000000000     
   7.7237963743807050E-002  0.19004435120156890        0.0000000000000000     
   7.8154675310607102E-002  0.19808261130375662        0.0000000000000000     
   6.7256174384361933E-002  0.16614328188609725        0.0000000000000000     
   6.8290524342913134E-002  0.17393473059663861        0.0000000000000000     
   6.9254721333073282E-002  0.18181560325436405        0.0000000000000000     
   7.0148765354842310E-002  0.18978589985927360        0.0000000000000000     
   7.0972656408220286E-002  0.19784562041136716        0.0000000000000000     
   6.0618069271988866E-002  0.16584936932001479        0.0000000000000000     
   6.1548901421760560E-002  0.17366308527462015        0.0000000000000000     
   6.2414166736624248E-002  0.18156575773835890        0.0000000000000000     
   6.3213865216579915E-002  0.18955738671123096        0.0000000000000000     
   6.3947996861627568E-002  0.19763797219323645        0.0000000000000000     
   5.4125270963371698E-002  0.16558888830693289        0.0000000000000000     
   5.4955550475291229E-002  0.17342342258622531        0.0000000000000000     
   5.5724881263840606E-002  0.18134673040306140        0.0000000000000000     
   5.6433263329019837E-002  0.18935881175744110        0.0000000000000000     
   5.7080696670828907E-002  0.19745966664936448        0.0000000000000000     
   4.7777779458510437E-002  0.16536183884685146        0.0000000000000000     
   4.8510471503505154E-002  0.17321574253145414        0.0000000000000000     
   4.9186864914722371E-002  0.18115852124847165        0.0000000000000000     
   4.9806959692162103E-002  0.18919017499790400        0.0000000000000000     
   5.0370755835824330E-002  0.19731070377975121        0.0000000000000000     
   7.8154675310607102E-002  0.19808261130375662        0.0000000000000000     
   7.8997250737509073E-002  0.20620359027734372        0.0000000000000000     
   7.9766261008434217E-002  0.21439983114203395        0.0000000000000000     
   8.0461706123382534E-002  0.22267133389782723        0.0000000000000000     
   8.1083586082354039E-002  0.23101809854472358        0.0000000000000000     
   7.0972656408220286E-002  0.19784562041136716        0.0000000000000000     
   7.1724387194793265E-002  0.20598830848396485        0.0000000000000000     
   7.2401950416147318E-002  0.21420750765038660        0.0000000000000000     
   7.3005346072282429E-002  0.22250321791063229        0.0000000000000000     
   7.3534574163198627E-002  0.23087543926470205        0.0000000000000000     
   6.3947996861627568E-002  0.19763797219323645        0.0000000000000000     
   6.4613196385171726E-002  0.20580122684281585        0.0000000000000000     
   6.5206098500616955E-002  0.21404086331840969        0.0000000000000000     
   6.5726703207963227E-002  0.22235688162001796        0.0000000000000000     
   6.6175010507210585E-002  0.23074928174764070        0.0000000000000000     
   5.7080696670828907E-002  0.19745966664936448        0.0000000000000000     
   5.7663678308644467E-002  0.20564234535389678        0.0000000000000000     
   5.8178705261843142E-002  0.21389989814610338        0.0000000000000000     
   5.8625777530424965E-002  0.22223232502598431        0.0000000000000000     
   5.9004895114389909E-002  0.23063962599353952        0.0000000000000000     
   5.0370755835824330E-002  0.19731070377975121        0.0000000000000000     
   5.0875832965211469E-002  0.20551166401720761        0.0000000000000000     
   5.1319770699825892E-002  0.21378461213346764        0.0000000000000000     
   5.1702569039667585E-002  0.22212954812853125        0.0000000000000000     
   5.2024227984736576E-002  0.23054647200239853        0.0000000000000000     
   8.1083586082354039E-002  0.23101809854472358        0.0000000000000000     
   8.1621310919641574E-002  0.23946070761713967        0.0000000000000000     
   8.2064290669537979E-002  0.24801974364949195        0.0000000000000000     
   8.2412525332043282E-002  0.25669520664178058        0.0000000000000000     
   8.2666014907157470E-002  0.26548709659400543        0.0000000000000000     
   7.3534574163198627E-002  0.23087543926470205        0.0000000000000000     
   7.3986468932561139E-002  0.23933773809514741        0.0000000000000000     
   7.4357864624035139E-002  0.24790368078451974        0.0000000000000000     
   7.4648761237620681E-002  0.25657326733281921        0.0000000000000000     
   7.4859158773317711E-002  0.26534649774004571        0.0000000000000000     
   6.6175010507210585E-002  0.23074928174764070        0.0000000000000000     
   6.6553467317623072E-002  0.23922441839467251        0.0000000000000000     
   6.6864520558464785E-002  0.24778864625450817        0.0000000000000000     
   6.7108170229735753E-002  0.25644196532714753        0.0000000000000000     
   6.7284416331435906E-002  0.26518437561259067        0.0000000000000000     
   5.9004895114389909E-002  0.23063962599353952        0.0000000000000000     
   5.9322306074827413E-002  0.23912074851571510        0.0000000000000000     
   5.9584258472826938E-002  0.24767464005945708        0.0000000000000000     
   5.9790752308388491E-002  0.25630130062476547        0.0000000000000000     
   5.9941787581512036E-002  0.26500073021164033        0.0000000000000000     
   5.2024227984736576E-002  0.23054647200239853        0.0000000000000000     
   5.2292985204174136E-002  0.23902672845827511        0.0000000000000000     
   5.2517078367121599E-002  0.24756166219936662        0.0000000000000000     
   5.2696507473578909E-002  0.25615127322567316        0.0000000000000000     
   5.2831272523546122E-002  0.26479556153719463        0.0000000000000000     
   8.2666014907157470E-002  0.26548709659400543        0.0000000000000000     
   8.2863814632095870E-002  0.27442162269900638        0.0000000000000000     
   8.3044979744073794E-002  0.28352499414962312        0.0000000000000000     
   8.3209510243091214E-002  0.29279721094585570        0.0000000000000000     
   8.3357406129148201E-002  0.30223827308770401        0.0000000000000000     
   7.4859158773317711E-002  0.26534649774004571        0.0000000000000000     
   7.5030066924718503E-002  0.27421682722343477        0.0000000000000000     
   7.5202495385415249E-002  0.28317771100022188        0.0000000000000000     
   7.5376444155407951E-002  0.29222914907040715        0.0000000000000000     
   7.5551913234696622E-002  0.30137114143399041        0.0000000000000000     
   6.7284416331435906E-002  0.26518437561259067        0.0000000000000000     
   6.7433560140119045E-002  0.27398579773313042        0.0000000000000000     
   6.7595902932338914E-002  0.28281615231105972        0.0000000000000000     
   6.7771444708095513E-002  0.29167543934637852        0.0000000000000000     
   6.7960185467388842E-002  0.30056365883908687        0.0000000000000000     
   5.9941787581512036E-002  0.26500073021164033        0.0000000000000000     
   6.0074294278297510E-002  0.27372853422809329        0.0000000000000000     
   6.0225202384844786E-002  0.28244031808213654        0.0000000000000000     
   6.0394511901153906E-002  0.29113608177376982        0.0000000000000000     
   6.0582222827224828E-002  0.29981582530299328        0.0000000000000000     
   5.2831272523546122E-002  0.26479556153719463        0.0000000000000000     
   5.2952269339253871E-002  0.27344503670832354        0.0000000000000000     
   5.3090393742932868E-002  0.28205020831345234        0.0000000000000000     
   5.3245645734583118E-002  0.29061107635258104        0.0000000000000000     
   5.3418025314204608E-002  0.29912764082570975        0.0000000000000000     
   2.8975407815671660E-002   5.7170555668351775E-002   0.0000000000000000     
   3.0541104803147312E-002   6.2744897006815417E-002   0.0000000000000000     
   3.2047555382288997E-002   6.8496624035037285E-002   0.0000000000000000     
   3.3494759553096727E-002   7.4425736753017391E-002   0.0000000000000000     
   3.4882717315570494E-002   8.0532235160755750E-002   0.0000000000000000     
   2.5081333398162119E-002   5.6737738268103355E-002   0.0000000000000000     
   2.6466184015967911E-002   6.2319709342486915E-002   0.0000000000000000     
   2.7791927510083660E-002   6.8080789719739673E-002   0.0000000000000000     
   2.9058563880509373E-002   7.4020979399861589E-002   0.0000000000000000     
   3.0266093127245049E-002   8.0140278382852648E-002   0.0000000000000000     
   2.1265306834724957E-002   5.6335155032312928E-002   0.0000000000000000     
   2.2478781917336686E-002   6.1944407263716056E-002   0.0000000000000000     
   2.3632486703113055E-002   6.7727662415918641E-002   0.0000000000000000     
   2.4726421192054069E-002   7.3684920488920710E-002   0.0000000000000000     
   2.5760585384159731E-002   7.9816181482722251E-002   0.0000000000000000     
   1.7527328125360179E-002   5.5962805960980508E-002   0.0000000000000000     
   1.8578898507253638E-002   6.1618990770502799E-002   0.0000000000000000     
   1.9569232961377185E-002   6.7437242123574243E-002   0.0000000000000000     
   2.0498331487730819E-002   7.3417560020194839E-002   0.0000000000000000     
   2.1366194086314530E-002   7.9559944460364532E-002   0.0000000000000000     
   1.3867397270067779E-002   5.5620691054106074E-002   0.0000000000000000     
   1.4766533785718773E-002   6.1343459862847179E-002   0.0000000000000000     
   1.5602166284876050E-002   6.7209528842706465E-002   0.0000000000000000     
   1.6374294767539609E-002   7.3218897993683890E-002   0.0000000000000000     
   1.7082919233709453E-002   7.9371567315779504E-002   0.0000000000000000     
   3.4882717315570494E-002   8.0532235160755750E-002   0.0000000000000000     
   3.6220720083968601E-002   8.6807469510376684E-002   0.0000000000000000     
   3.7518059272549364E-002   9.3242790054004585E-002   0.0000000000000000     
   3.8774734881312771E-002   9.9838196791639480E-002   0.0000000000000000     
   3.9990746910258827E-002  0.10659368972328132        0.0000000000000000     
   3.0266093127245049E-002   8.0140278382852648E-002   0.0000000000000000     
   3.1428976321495689E-002   8.6429384705134657E-002   0.0000000000000000     
   3.2561674534466283E-002   9.2878996403129355E-002   0.0000000000000000     
   3.3664187766156838E-002   9.9489113476836741E-002   0.0000000000000000     
   3.4736516016567354E-002  0.10625973592625683        0.0000000000000000     
   2.5760585384159731E-002   7.9816181482722251E-002   0.0000000000000000     
   2.6753247095577880E-002   8.6114982411826801E-002   0.0000000000000000     
   2.7722674142456358E-002   9.2574860290737970E-002   0.0000000000000000     
   2.8668866524795170E-002   9.9195815119455730E-002   0.0000000000000000     
   2.9591824242594305E-002  0.10597784689798008        0.0000000000000000     
   2.1366194086314530E-002   7.9559944460364532E-002   0.0000000000000000     
   2.2193532406215175E-002   8.5864262630453131E-002   0.0000000000000000     
   2.3001058096519578E-002   9.2330381716830431E-002   0.0000000000000000     
   2.3788771157227752E-002   9.8958301719496405E-002   0.0000000000000000     
   2.4556671588339692E-002  0.10574802263845104        0.0000000000000000     
   1.7082919233709453E-002   7.9371567315779504E-002   0.0000000000000000     
   1.7749832253407569E-002   8.5677225361013673E-002   0.0000000000000000     
   1.8396826396655953E-002   9.2145560681406738E-002   0.0000000000000000     
   1.9023901663454596E-002   9.8776573276958768E-002   0.0000000000000000     
   1.9631058053803503E-002  0.10557026314766976        0.0000000000000000     
   3.9990746910258827E-002  0.10659368972328132        0.0000000000000000     
   4.1158029286491843E-002  0.11349597577114251        0.0000000000000000     
   4.2268515937116141E-002  0.12053176185743544        0.0000000000000000     
   4.3322206862131701E-002  0.12770104798216006        0.0000000000000000     
   4.4319102061538558E-002  0.13500383414531644        0.0000000000000000     
   3.4736516016567354E-002  0.10625973592625683        0.0000000000000000     
   3.5767101919710276E-002  0.11317770685113071        0.0000000000000000     
   3.6744388109598056E-002  0.12022986935119941        0.0000000000000000     
   3.7668374586230700E-002  0.12741622342646303        0.0000000000000000     
   3.8539061349608210E-002  0.13473676907692145        0.0000000000000000     
   2.9591824242594305E-002  0.10597784689798008        0.0000000000000000     
   3.0479299266102152E-002  0.11290794776255930        0.0000000000000000     
   3.1319043565567098E-002  0.11997310984944169        0.0000000000000000     
   3.2111057140989128E-002  0.12717333315862722        0.0000000000000000     
   3.2855339992368254E-002  0.13450861769011591        0.0000000000000000     
   2.4556671588339692E-002  0.10574802263845104        0.0000000000000000     
   2.5294621325667493E-002  0.11268669850542834        0.0000000000000000     
   2.5992482305023261E-002  0.11976148335216220        0.0000000000000000     
   2.6650254526406996E-002  0.12697237717865270        0.0000000000000000     
   2.7267937989818691E-002  0.13431937998489976        0.0000000000000000     
   1.9631058053803503E-002  0.10557026314766976        0.0000000000000000     
   2.0213068098406287E-002  0.11251395907973778        0.0000000000000000     
   2.0764704327966552E-002  0.11959498985936101        0.0000000000000000     
   2.1285966742484296E-002  0.12681335548653944        0.0000000000000000     
   2.1776855341959524E-002  0.13416905596127301        0.0000000000000000     
   4.4319102061538558E-002  0.13500383414531644        0.0000000000000000     
   4.5261642401301164E-002  0.14242836157594155        0.0000000000000000     
   4.6152268747384005E-002  0.14996287150307241        0.0000000000000000     
   4.6990981099787103E-002  0.15760736392670904        0.0000000000000000     
   4.7777779458510437E-002  0.16536183884685146        0.0000000000000000     
   3.8539061349608210E-002  0.13473676907692145        0.0000000000000000     
   3.9360409396239672E-002  0.14217929780267713        0.0000000000000000     
   4.0136379722634195E-002  0.14973160110383227        0.0000000000000000     
   4.0866972328791766E-002  0.15739367898038698        0.0000000000000000     
   4.1552187214712398E-002  0.16516553143234114        0.0000000000000000     
   3.2855339992368254E-002  0.13450861769011591        0.0000000000000000     
   3.3556262277943796E-002  0.14196627022621214        0.0000000000000000     
   3.4218194155955076E-002  0.14953359754922033        0.0000000000000000     
   3.4841135626402099E-002  0.15721059965914050        0.0000000000000000     
   3.5425086689284874E-002  0.16499727655597257        0.0000000000000000     
   2.7267937989818691E-002  0.13431937998489976        0.0000000000000000     
   2.7849201046413523E-002  0.14178927884654668        0.0000000000000000     
   2.8397712047346670E-002  0.14936886083923662        0.0000000000000000     
   2.8913470992618116E-002  0.15705812596296970        0.0000000000000000     
   2.9396477882227864E-002  0.16485707421774573        0.0000000000000000     
   2.1776855341959524E-002  0.13416905596127301        0.0000000000000000     
   2.2239225701648869E-002  0.14164832366368066        0.0000000000000000     
   2.2674933396808959E-002  0.14923739097388117        0.0000000000000000     
   2.3083978427439797E-002  0.15693625789187446        0.0000000000000000     
   2.3466360793541381E-002  0.16474492441766064        0.0000000000000000     
   4.7777779458510437E-002  0.16536183884685146        0.0000000000000000     
   4.8510471503505154E-002  0.17321574253145414        0.0000000000000000     
   4.9186864914722371E-002  0.18115852124847165        0.0000000000000000     
   4.9806959692162103E-002  0.18919017499790400        0.0000000000000000     
   5.0370755835824330E-002  0.19731070377975121        0.0000000000000000     
   4.1552187214712398E-002  0.16516553143234114        0.0000000000000000     
   4.2189112711148911E-002  0.17303683888030344        0.0000000000000000     
   4.2774837148854147E-002  0.18099728174488258        0.0000000000000000     
   4.3309360527828092E-002  0.18904686002607837        0.0000000000000000     
   4.3792682848070773E-002  0.19718557372389101        0.0000000000000000     
   3.5425086689284874E-002  0.16499727655597257        0.0000000000000000     
   3.5966922302969127E-002  0.17288350540277025        0.0000000000000000     
   3.6463517425820574E-002  0.18085916336258706        0.0000000000000000     
   3.6914872057839256E-002  0.18892425043542305        0.0000000000000000     
   3.7320986199025130E-002  0.19707876662127816        0.0000000000000000     
   2.9396477882227864E-002  0.16485707421774573        0.0000000000000000     
   2.9843900278965767E-002  0.17275574209885439        0.0000000000000000     
   3.0252905745621665E-002  0.18074416610158511        0.0000000000000000     
   3.0623494282195542E-002  0.18882234622593791        0.0000000000000000     
   3.0955665888687419E-002  0.19699028247191272        0.0000000000000000     
   2.3466360793541381E-002  0.16474492441766064        0.0000000000000000     
   2.3820046639138864E-002  0.17265354896855600        0.0000000000000000     
   2.4143002108257403E-002  0.18065228996187679        0.0000000000000000     
   2.4435227200896994E-002  0.18874114739762302        0.0000000000000000     
   2.4696721917057636E-002  0.19692012127579472        0.0000000000000000     
   5.0370755835824330E-002  0.19731070377975121        0.0000000000000000     
   5.0875832965211469E-002  0.20551166401720761        0.0000000000000000     
   5.1319770699825892E-002  0.21378461213346764        0.0000000000000000     
   5.1702569039667585E-002  0.22212954812853125        0.0000000000000000     
   5.2024227984736576E-002  0.23054647200239853        0.0000000000000000     
   4.3792682848070773E-002  0.19718557372389101        0.0000000000000000     
   4.4223839315467930E-002  0.20540304383837685        0.0000000000000000     
   4.4601865135905326E-002  0.21368889136959254        0.0000000000000000     
   4.4926760309383001E-002  0.22204311631753801        0.0000000000000000     
   4.5198524835900922E-002  0.23046571868221333        0.0000000000000000     
   3.7320986199025130E-002  0.19707876662127816        0.0000000000000000     
   3.7681876320009002E-002  0.20531034582303309        0.0000000000000000     
   3.7997558891421652E-002  0.21360662194356828        0.0000000000000000     
   3.8268033913263069E-002  0.22196759498288374        0.0000000000000000     
   3.8493301385533273E-002  0.23039326494097953        0.0000000000000000     
   3.0955665888687419E-002  0.19699028247191272        0.0000000000000000     
   3.1249943978834710E-002  0.20523356997117617        0.0000000000000000     
   3.1506851966374830E-002  0.21353780385539475        0.0000000000000000     
   3.1726389851307810E-002  0.22190298412456835        0.0000000000000000     
   3.1908557633633615E-002  0.23032911077869717        0.0000000000000000     
   2.4696721917057636E-002  0.19692012127579472        0.0000000000000000     
   2.4928042291945035E-002  0.20517271628280626        0.0000000000000000     
   2.5129744360764886E-002  0.21348243710507200        0.0000000000000000     
   2.5301828123517188E-002  0.22184928374259197        0.0000000000000000     
   2.5444293580201949E-002  0.23027325619536618        0.0000000000000000     
   5.2024227984736576E-002  0.23054647200239853        0.0000000000000000     
   5.2292985204174136E-002  0.23902672845827511        0.0000000000000000     
   5.2517078367121599E-002  0.24756166219936662        0.0000000000000000     
   5.2696507473578909E-002  0.25615127322567316        0.0000000000000000     
   5.2831272523546122E-002  0.26479556153719463        0.0000000000000000     
   4.5198524835900922E-002  0.23046571868221333        0.0000000000000000     
   4.5426112836363247E-002  0.23894109346353370        0.0000000000000000     
   4.5618478431674096E-002  0.24745363566141415        0.0000000000000000     
   4.5775621621833483E-002  0.25600334527585483        0.0000000000000000     
   4.5897542406841400E-002  0.26459022230685580        0.0000000000000000     
   3.8493301385533273E-002  0.23039326494097953        0.0000000000000000     
   3.8682297102094705E-002  0.23886257877267195        0.0000000000000000     
   3.8843956856809837E-002  0.24735448343277711        0.0000000000000000     
   3.8978280649678662E-002  0.25586897892129512        0.0000000000000000     
   3.9085268480701173E-002  0.26440606523822591        0.0000000000000000     
   3.1908557633633615E-002  0.23032911077869717        0.0000000000000000     
   3.2061538001368524E-002  0.23879118438568991        0.0000000000000000     
   3.2193513642528801E-002  0.24726420551345552        0.0000000000000000     
   3.2304484557114432E-002  0.25574817416199386        0.0000000000000000     
   3.2394450745125439E-002  0.26424309033130511        0.0000000000000000     
   2.5444293580201949E-002  0.23027325619536618        0.0000000000000000     
   2.5563835534184700E-002  0.23872691030258764        0.0000000000000000     
   2.5667148788830994E-002  0.24718280190344930        0.0000000000000000     
   2.5754233344140821E-002  0.25564093099795115        0.0000000000000000     
   2.5825089200114192E-002  0.26410129758609324        0.0000000000000000     
   5.2831272523546122E-002  0.26479556153719463        0.0000000000000000     
   5.2952269339253871E-002  0.27344503670832354        0.0000000000000000     
   5.3090393742932868E-002  0.28205020831345234        0.0000000000000000     
   5.3245645734583118E-002  0.29061107635258104        0.0000000000000000     
   5.3418025314204608E-002  0.29912764082570975        0.0000000000000000     
   4.5897542406841400E-002  0.26459022230685580        0.0000000000000000     
   4.6008430244554525E-002  0.27316404466519933        0.0000000000000000     
   4.6132474592829507E-002  0.28167459026166808        0.0000000000000000     
   4.6269675451666360E-002  0.29012185909626187        0.0000000000000000     
   4.6420032821065091E-002  0.29850585116898093        0.0000000000000000     
   3.9085268480701173E-002  0.26440606523822591        0.0000000000000000     
   3.9183721915765829E-002  0.27291429759009916        0.0000000000000000     
   3.9292442520761056E-002  0.28134223118344448        0.0000000000000000     
   3.9411430295686847E-002  0.28968986601826191        0.0000000000000000     
   3.9540685240543216E-002  0.29795720209455140        0.0000000000000000     
   3.2394450745125439E-002  0.26424309033130511        0.0000000000000000     
   3.2478144352887803E-002  0.27269579548302303        0.0000000000000000     
   3.2570297526727514E-002  0.28105313107878166        0.0000000000000000     
   3.2670910266644558E-002  0.28931509711858117        0.0000000000000000     
   3.2779982572638977E-002  0.29748169360242133        0.0000000000000000     
   2.5825089200114192E-002  0.26410129758609324        0.0000000000000000     
   2.5891697555920433E-002  0.27250853834397099        0.0000000000000000     
   2.5966039610728877E-002  0.28080728994767978        0.0000000000000000     
   2.6048115364539524E-002  0.28899755239721969        0.0000000000000000     
   2.6137924817352370E-002  0.29707932569259055        0.0000000000000000     
   1.3867397270067779E-002   5.5620691054106074E-002   0.0000000000000000     
   1.4766533785718773E-002   6.1343459862847179E-002   0.0000000000000000     
   1.5602166284876050E-002   6.7209528842706465E-002   0.0000000000000000     
   1.6374294767539609E-002   7.3218897993683890E-002   0.0000000000000000     
   1.7082919233709453E-002   7.9371567315779504E-002   0.0000000000000000     
   1.0360159760849426E-002   5.5396098646772501E-002   0.0000000000000000     
   1.1086233818730761E-002   6.1163879069154450E-002   0.0000000000000000     
   1.1750599505727582E-002   6.7061338472645671E-002   0.0000000000000000     
   1.2353256821839881E-002   7.3088476857246149E-002   0.0000000000000000     
   1.2894205767067665E-002   7.9245294222955884E-002   0.0000000000000000     
   7.0802610897067854E-003   5.5376317074062639E-002   0.0000000000000000     
   7.5825446722882868E-003   6.1126312917829911E-002   0.0000000000000000     
   8.0338454560497131E-003   6.7009486912722294E-002   0.0000000000000000     
   8.4341634409910646E-003   7.3025839058739786E-002   0.0000000000000000     
   8.7834986271123367E-003   7.9175369355882388E-002   0.0000000000000000     
   4.0277012566398620E-003   5.5561346335976494E-002   0.0000000000000000     
   4.2554663463913516E-003   6.1230761408873534E-002   0.0000000000000000     
   4.4519041358424489E-003   6.7053974162936306E-002   0.0000000000000000     
   4.6170146249931562E-003   7.3030984598164816E-002   0.0000000000000000     
   4.7507978138434702E-003   7.9161792714559032E-002   0.0000000000000000     
   1.2024802616486525E-003   5.5951186432514066E-002   0.0000000000000000     
   1.1049988410399524E-003   6.1477224542285352E-002   0.0000000000000000     
   1.0047755451057881E-003   6.7194800223287748E-002   0.0000000000000000     
   9.0181037384615777E-004   7.3103913475521226E-002   0.0000000000000000     
   7.9610332726106313E-004   7.9204564298985813E-002   0.0000000000000000     
   1.7082919233709453E-002   7.9371567315779504E-002   0.0000000000000000     
   1.7749832253407569E-002   8.5677225361013673E-002   0.0000000000000000     
   1.8396826396655953E-002   9.2145560681406738E-002   0.0000000000000000     
   1.9023901663454596E-002   9.8776573276958768E-002   0.0000000000000000     
   1.9631058053803503E-002  0.10557026314766976        0.0000000000000000     
   1.2894205767067665E-002   7.9245294222955884E-002   0.0000000000000000     
   1.3394754797684847E-002   8.5548883182833033E-002   0.0000000000000000     
   1.3876212369965342E-002   9.2016336349935793E-002   0.0000000000000000     
   1.4338578483909148E-002   9.8647653724264095E-002   0.0000000000000000     
   1.4781853139516268E-002  0.10544283530581802        0.0000000000000000     
   8.7834986271123367E-003   7.9175369355882388E-002   0.0000000000000000     
   9.1009081995767765E-003   8.5474248675235967E-002   0.0000000000000000     
   9.4054493435476137E-003   9.1938647887886402E-002   0.0000000000000000     
   9.6971220590248534E-003   9.8568566993833637E-002   0.0000000000000000     
   9.9759263460084940E-003  0.10536400599307773        0.0000000000000000     
   4.7507978138434702E-003   7.9161792714559032E-002   0.0000000000000000     
   4.8682924590833544E-003   8.5453321838222462E-002   0.0000000000000000     
   4.9845373174027671E-003   9.1912495295258578E-002   0.0000000000000000     
   5.0995323888017108E-003   9.8539313085667365E-002   0.0000000000000000     
   5.2132776732801839E-003  0.10533377520944887        0.0000000000000000     
   7.9610332726106313E-004   7.9204564298985813E-002   0.0000000000000000     
   6.9690757620458435E-004   8.5486102671792533E-002   0.0000000000000000     
   6.1347629153080401E-004   9.1937878572052351E-002   0.0000000000000000     
   5.4580947323972276E-004   9.8559891999765323E-002   0.0000000000000000     
   4.9390712133133910E-004  0.10535214295493141        0.0000000000000000     
   1.9631058053803503E-002  0.10557026314766976        0.0000000000000000     
   2.0213068098406287E-002  0.11251395907973778        0.0000000000000000     
   2.0764704327966552E-002  0.11959498985936101        0.0000000000000000     
   2.1285966742484296E-002  0.12681335548653944        0.0000000000000000     
   2.1776855341959524E-002  0.13416905596127301        0.0000000000000000     
   1.4781853139516268E-002  0.10544283530581802        0.0000000000000000     
   1.5205549067333140E-002  0.11238914982896314        0.0000000000000000     
   1.5609178997906207E-002  0.11947386602806506        0.0000000000000000     
   1.5992742931235468E-002  0.12669698390312378        0.0000000000000000     
   1.6356240867320924E-002  0.13405850345413933        0.0000000000000000     
   9.9759263460084940E-003  0.10536400599307773        0.0000000000000000     
   1.0242973715462660E-002  0.11231169109657989        0.0000000000000000     
   1.0499375678351477E-002  0.11939834851530136        0.0000000000000000     
   1.0745132234674945E-002  0.12662397824924215        0.0000000000000000     
   1.0980243384433066E-002  0.13398858029840227        0.0000000000000000     
   5.2132776732801839E-003  0.10533377520944887        0.0000000000000000     
   5.3253420427948487E-003  0.11228158288258804        0.0000000000000000     
   5.4352943693023632E-003  0.11936843732106990        0.0000000000000000     
   5.5431346528027302E-003  0.12659433852489449        0.0000000000000000     
   5.6488628932959478E-003  0.13395928649406177        0.0000000000000000     
   4.9390712133133910E-004  0.10535214295493141        0.0000000000000000     
   4.5265404932970290E-004  0.11229882518698757        0.0000000000000000     
   4.1693507075886286E-004  0.11938413244537072        0.0000000000000000     
   3.8675018561881876E-004  0.12660806473008085        0.0000000000000000     
   3.6209939390957147E-004  0.13397062204111798        0.0000000000000000     
   2.1776855341959524E-002  0.13416905596127301        0.0000000000000000     
   2.2239225701648869E-002  0.14164832366368066        0.0000000000000000     
   2.2674933396808959E-002  0.14923739097388117        0.0000000000000000     
   2.3083978427439797E-002  0.15693625789187446        0.0000000000000000     
   2.3466360793541381E-002  0.16474492441766064        0.0000000000000000     
   1.6356240867320924E-002  0.13405850345413933        0.0000000000000000     
   1.6699380260850667E-002  0.14154422337880243        0.0000000000000000     
   1.7021868566512794E-002  0.14913994237480388        0.0000000000000000     
   1.7323705784307301E-002  0.15684566044214368        0.0000000000000000     
   1.7604891914234186E-002  0.16466137758082183        0.0000000000000000     
   1.0980243384433066E-002  0.13398858029840227        0.0000000000000000     
   1.1202708741219774E-002  0.14147779669310029        0.0000000000000000     
   1.1410527918629010E-002  0.14907726946365488        0.0000000000000000     
   1.1603700916660770E-002  0.15678699861006604        0.0000000000000000     
   1.1782227735315058E-002  0.16460698413233379        0.0000000000000000     
   5.6488628932959478E-003  0.13395928649406177        0.0000000000000000     
   5.7492111427561833E-003  0.14144904360657420        0.0000000000000000     
   5.8409114531576024E-003  0.14904937224043413        0.0000000000000000     
   5.9239638245002059E-003  0.15676027239564155        0.0000000000000000     
   5.9983682567839930E-003  0.16458174407219656        0.0000000000000000     
   3.6209939390957147E-004  0.13397062204111798        0.0000000000000000     
   3.3888746545989779E-004  0.14145796411922421        0.0000000000000000     
   3.1301917009857801E-004  0.14905625070514161        0.0000000000000000     
   2.8449450782560941E-004  0.15676548179887026        0.0000000000000000     
   2.5331347864099470E-004  0.16458565740041009        0.0000000000000000     
   2.3466360793541381E-002  0.16474492441766064        0.0000000000000000     
   2.3820046639138864E-002  0.17265354896855600        0.0000000000000000     
   2.4143002108257403E-002  0.18065228996187679        0.0000000000000000     
   2.4435227200896994E-002  0.18874114739762302        0.0000000000000000     
   2.4696721917057636E-002  0.19692012127579472        0.0000000000000000     
   1.7604891914234186E-002  0.16466137758082183        0.0000000000000000     
   1.7864551516136720E-002  0.17257732728297914        0.0000000000000000     
   1.8101809149858171E-002  0.18058374304075653        0.0000000000000000     
   1.8316664815398530E-002  0.18868062485415393        0.0000000000000000     
   1.8509118512757803E-002  0.19686797272317141        0.0000000000000000     
   1.1782227735315058E-002  0.16460698413233379        0.0000000000000000     
   1.1946605042607651E-002  0.17252747831322809        0.0000000000000000     
   1.2097329506554327E-002  0.18053873343551891        0.0000000000000000     
   1.2234401127155089E-002  0.18864074949920628        0.0000000000000000     
   1.2357819904409933E-002  0.19683352650429012        0.0000000000000000     
   5.9983682567839930E-003  0.16458174407219656        0.0000000000000000     
   6.0662072185516556E-003  0.17250400205930275        0.0000000000000000     
   6.1295631783458817E-003  0.18051726114616387        0.0000000000000000     
   6.1884361361666746E-003  0.18862152133277990        0.0000000000000000     
   6.2428260920140309E-003  0.19681678261915095        0.0000000000000000     
   2.5331347864099470E-004  0.16458565740041009        0.0000000000000000     
   2.2335804396873523E-004  0.17250689852120316        0.0000000000000000     
   1.9851016523283116E-004  0.18051932617269145        0.0000000000000000     
   1.7876984243328454E-004  0.18862294035487498        0.0000000000000000     
   1.6413707557009355E-004  0.19681774106775377        0.0000000000000000     
   2.4696721917057636E-002  0.19692012127579472        0.0000000000000000     
   2.4928042291945035E-002  0.20517271628280626        0.0000000000000000     
   2.5129744360764886E-002  0.21348243710507200        0.0000000000000000     
   2.5301828123517188E-002  0.22184928374259197        0.0000000000000000     
   2.5444293580201949E-002  0.23027325619536618        0.0000000000000000     
   1.8509118512757803E-002  0.19686797272317141        0.0000000000000000     
   1.8679436972840874E-002  0.20512744750062711        0.0000000000000000     
   1.8827886926552628E-002  0.21344071003933932        0.0000000000000000     
   1.8954468373893068E-002  0.22180776033930799        0.0000000000000000     
   1.9059181314862190E-002  0.23022859840053317        0.0000000000000000     
   1.2357819904409933E-002  0.19683352650429012        0.0000000000000000     
   1.2467393735023121E-002  0.20509742636734268        0.0000000000000000     
   1.2562930515698902E-002  0.21341281100493595        0.0000000000000000     
   1.2644430246437280E-002  0.22177968041706991        0.0000000000000000     
   1.2711892927238256E-002  0.23019803460374463        0.0000000000000000     
   6.2428260920140309E-003  0.19681678261915095        0.0000000000000000     
   6.2919125784917677E-003  0.20508265288295285        0.0000000000000000     
   6.3348751282036996E-003  0.21339874000186182        0.0000000000000000     
   6.3717137411498249E-003  0.22176504397587773        0.0000000000000000     
   6.4024284173301469E-003  0.23018156480500071        0.0000000000000000     
   1.6413707557009355E-004  0.19681774106775377        0.0000000000000000     
   1.5299350324682044E-004  0.20508312704745779        0.0000000000000000     
   1.4372076406702228E-004  0.21339849703011701        0.0000000000000000     
   1.3631885803070342E-004  0.22176385101573151        0.0000000000000000     
   1.3078778513786037E-004  0.23017918900430123        0.0000000000000000     
   2.5444293580201949E-002  0.23027325619536618        0.0000000000000000     
   2.5563835534184700E-002  0.23872691030258764        0.0000000000000000     
   2.5667148788830994E-002  0.24718280190344930        0.0000000000000000     
   2.5754233344140821E-002  0.25564093099795115        0.0000000000000000     
   2.5825089200114192E-002  0.26410129758609324        0.0000000000000000     
   1.9059181314862190E-002  0.23022859840053317        0.0000000000000000     
   1.9146874320632567E-002  0.23867429206105231        0.0000000000000000     
   1.9222395962376765E-002  0.24711590915890291        0.0000000000000000     
   1.9285746240094787E-002  0.25555344969408494        0.0000000000000000     
   1.9336925153786634E-002  0.26398691366659843        0.0000000000000000     
   1.2711892927238256E-002  0.23019803460374463        0.0000000000000000     
   1.2768338980801442E-002  0.23863786519877125        0.0000000000000000     
   1.2816788829826457E-002  0.24706916383596078        0.0000000000000000     
   1.2857242474313298E-002  0.25549193051531327        0.0000000000000000     
   1.2889699914261966E-002  0.26390616523682864        0.0000000000000000     
   6.4024284173301469E-003  0.23018156480500071        0.0000000000000000     
   6.4282295146913387E-003  0.23861762971574441        0.0000000000000000     
   6.4503273911800767E-003  0.24704256593462290        0.0000000000000000     
   6.4687220467963616E-003  0.25545637346163602        0.0000000000000000     
   6.4834134815401926E-003  0.26385905229678391        0.0000000000000000     
   1.3078778513786037E-004  0.23017918900430123        0.0000000000000000     
   1.2654592230224937E-004  0.23861358561197188        0.0000000000000000     
   1.2301164643761949E-004  0.24703611545488929        0.0000000000000000     
   1.2018495754397522E-004  0.25544677853305336        0.0000000000000000     
   1.1806585562131305E-004  0.26384557484646415        0.0000000000000000     
   2.5825089200114192E-002  0.26410129758609324        0.0000000000000000     
   2.5891697555920433E-002  0.27250853834397099        0.0000000000000000     
   2.5966039610728877E-002  0.28080728994767978        0.0000000000000000     
   2.6048115364539524E-002  0.28899755239721969        0.0000000000000000     
   2.6137924817352370E-002  0.29707932569259055        0.0000000000000000     
   1.9336925153786634E-002  0.26398691366659843        0.0000000000000000     
   1.9385578016437328E-002  0.27235879633657673        0.0000000000000000     
   1.9441350141031898E-002  0.28061159296415317        0.0000000000000000     
   1.9504241527570344E-002  0.28874530354932759        0.0000000000000000     
   1.9574252176052662E-002  0.29675992809210028        0.0000000000000000     
   1.2889699914261966E-002  0.26390616523682864        0.0000000000000000     
   1.2920982226012099E-002  0.27225283962447400        0.0000000000000000     
   1.2957910485903334E-002  0.28047292530221629        0.0000000000000000     
   1.3000484693935672E-002  0.28856642227005552        0.0000000000000000     
   1.3048704850109118E-002  0.29653333052799175        0.0000000000000000     
   6.4834134815401926E-003  0.26385905229678391        0.0000000000000000     
   6.4979101846447430E-003  0.27219066820766280        0.0000000000000000     
   6.5157206453431826E-003  0.28039128696186932        0.0000000000000000     
   6.5368448636355121E-003  0.28846090855940332        0.0000000000000000     
   6.5612828395217324E-003  0.29639953300026484        0.0000000000000000     
   1.1806585562131305E-004  0.26384557484646415        0.0000000000000000     
   1.1636189233526009E-004  0.27217228208614325        0.0000000000000000     
   1.1478061935144132E-004  0.28036667794311215        0.0000000000000000     
   1.1332203666985835E-004  0.28842876241737098        0.0000000000000000     
   1.1198614429050718E-004  0.29635853550891966        0.0000000000000000     
   1.2024802616486525E-003   5.5951186432514066E-002   0.0000000000000000     
   1.1049988410399524E-003   6.1477224542285352E-002   0.0000000000000000     
   1.0047755451057881E-003   6.7194800223287748E-002   0.0000000000000000     
   9.0181037384615777E-004   7.3103913475521226E-002   0.0000000000000000     
   7.9610332726106313E-004   7.9204564298985813E-002   0.0000000000000000     
  -1.7812856956378417E-003   5.6312779523121942E-002   0.0000000000000000     
  -2.1849198255018010E-003   6.1710574317141609E-002   0.0000000000000000     
  -2.5641435810994607E-003   6.7334847979205872E-002   0.0000000000000000     
  -2.9189569624308237E-003   7.3185600509314747E-002   0.0000000000000000     
  -3.2493599694958849E-003   7.9262831907468217E-002   0.0000000000000000     
  -5.3094804155906219E-003   5.6413067767246687E-002   0.0000000000000000     
  -5.9303516349698028E-003   6.1775682732518558E-002   0.0000000000000000     
  -6.5114565077124889E-003   6.7377000316120025E-002   0.0000000000000000     
  -7.0527950338186811E-003   7.3217020518051082E-002   0.0000000000000000     
  -7.5543672132883785E-003   7.9295743338311742E-002   0.0000000000000000     
  -9.3821038982096865E-003   5.6252051164888309E-002   0.0000000000000000     
  -1.0131296587364051E-002   6.1672549788416207E-002   0.0000000000000000     
  -1.0837163234733294E-002   6.7321257234030193E-002   0.0000000000000000     
  -1.1499703840317415E-002   7.3198173501730232E-002   0.0000000000000000     
  -1.2118918404116413E-002   7.9303298591516372E-002   0.0000000000000000     
  -1.3999156143495034E-002   5.5829729716046814E-002   0.0000000000000000     
  -1.4787754682684551E-002   6.1401175484834550E-002   0.0000000000000000     
  -1.5541263762161880E-002   6.7167618732936349E-002   0.0000000000000000     
  -1.6259683381927029E-002   7.3129059460352211E-002   0.0000000000000000     
  -1.6943013541979992E-002   7.9285497667082122E-002   0.0000000000000000     
   7.9610332726106313E-004   7.9204564298985813E-002   0.0000000000000000     
   6.9690757620458435E-004   8.5486102671792533E-002   0.0000000000000000     
   6.1347629153080401E-004   9.1937878572052351E-002   0.0000000000000000     
   5.4580947323972276E-004   9.8559891999765323E-002   0.0000000000000000     
   4.9390712133133910E-004  0.10535214295493141        0.0000000000000000     
  -3.2493599694958849E-003   7.9262831907468217E-002   0.0000000000000000     
  -3.5521499720685109E-003   8.5539046280877995E-002   0.0000000000000000     
  -3.8241243399225614E-003   9.1986747736755706E-002   0.0000000000000000     
  -4.0652830730580347E-003   9.8605936275101433E-002   0.0000000000000000     
  -4.2756261714749343E-003  0.10539661189591511        0.0000000000000000     
  -7.5543672132883785E-003   7.9295743338311742E-002   0.0000000000000000     
  -8.0177837087449123E-003   8.5578607770410681E-002   0.0000000000000000     
  -8.4446551828116136E-003   9.2031052807856659E-002   0.0000000000000000     
  -8.8349816354884869E-003   9.8653078450649648E-002   0.0000000000000000     
  -9.1887630667755252E-003  0.10544468469878965        0.0000000000000000     
  -1.2118918404116413E-002   7.9303298591516372E-002   0.0000000000000000     
  -1.2699993633824617E-002   8.5604787140390659E-002   0.0000000000000000     
  -1.3248116237136356E-002   9.2070793785355209E-002   0.0000000000000000     
  -1.3763286214051632E-002   9.8701318526409995E-002   0.0000000000000000     
  -1.4245503564570439E-002  0.10549636136355504        0.0000000000000000     
  -1.6943013541979992E-002   7.9285497667082122E-002   0.0000000000000000     
  -1.7598779747307627E-002   8.5617584390817889E-002   0.0000000000000000     
  -1.8234507502896787E-002   9.2105970669251344E-002   0.0000000000000000     
  -1.8850196808747468E-002   9.8750656502382461E-002   0.0000000000000000     
  -1.9445847664859673E-002  0.10555164189021128        0.0000000000000000     
   4.9390712133133910E-004  0.10535214295493141        0.0000000000000000     
   4.5265404932970290E-004  0.11229882518698757        0.0000000000000000     
   4.1693507075886286E-004  0.11938413244537072        0.0000000000000000     
   3.8675018561881876E-004  0.12660806473008085        0.0000000000000000     
   3.6209939390957147E-004  0.13397062204111798        0.0000000000000000     
  -4.2756261714749343E-003  0.10539661189591511        0.0000000000000000     
  -4.4643557098035924E-003  0.11234199731045504        0.0000000000000000     
  -4.6406737626743487E-003  0.11942531522997947        0.0000000000000000     
  -4.8045803300872025E-003  0.12664656565448845        0.0000000000000000     
  -4.9560754120421520E-003  0.13400574858398193        0.0000000000000000     
  -9.1887630667755252E-003  0.10544468469878965        0.0000000000000000     
  -9.5149526794758559E-003  0.11238967855366697        0.0000000000000000     
  -9.8225036763925962E-003  0.11947186701667192        0.0000000000000000     
  -1.0111416057525748E-002  0.12669125008780449        0.0000000000000000     
  -1.0381689822875309E-002  0.13404782776706470        0.0000000000000000     
  -1.4245503564570439E-002  0.10549636136355504        0.0000000000000000     
  -1.4699136859687089E-002  0.11244186891662336        0.0000000000000000     
  -1.5128554670395880E-002  0.11952378780544803        0.0000000000000000     
  -1.5533756996696816E-002  0.12674211803002902        0.0000000000000000     
  -1.5914743838589901E-002  0.13409685959036635        0.0000000000000000     
  -1.9445847664859673E-002  0.10555164189021128        0.0000000000000000     
  -2.0016908250437289E-002  0.11249856839932423        0.0000000000000000     
  -2.0558826744684205E-002  0.11958107759630780        0.0000000000000000     
  -2.1071603147600416E-002  0.12679916948116202        0.0000000000000000     
  -2.1555237459185927E-002  0.13415284405388686        0.0000000000000000     
   3.6209939390957147E-004  0.13397062204111798        0.0000000000000000     
   3.3888746545989779E-004  0.14145796411922421        0.0000000000000000     
   3.1301917009857801E-004  0.14905625070514161        0.0000000000000000     
   2.8449450782560941E-004  0.15676548179887026        0.0000000000000000     
   2.5331347864099470E-004  0.16458565740041009        0.0000000000000000     
  -4.9560754120421520E-003  0.13400574858398193        0.0000000000000000     
  -5.0995526434320657E-003  0.14148966177437500        0.0000000000000000     
  -5.2394056591498032E-003  0.14908510298158292        0.0000000000000000     
  -5.3756344591953708E-003  0.15679207220560562        0.0000000000000000     
  -5.5082390435687613E-003  0.16461056944644309        0.0000000000000000     
  -1.0381689822875309E-002  0.13404782776706470        0.0000000000000000     
  -1.0637399536682687E-002  0.14152924011535142        0.0000000000000000     
  -1.0882619763189274E-002  0.14912312719356358        0.0000000000000000     
  -1.1117350502395080E-002  0.15682948900170113        0.0000000000000000     
  -1.1341591754300101E-002  0.16464832553976413        0.0000000000000000     
  -1.5914743838589901E-002  0.13409685959036635        0.0000000000000000     
  -1.6274653214291963E-002  0.14157669914215340        0.0000000000000000     
  -1.6616623142019830E-002  0.14917032334108357        0.0000000000000000     
  -1.6940653621773518E-002  0.15687773218715687        0.0000000000000000     
  -1.7246744653553019E-002  0.16469892568037325        0.0000000000000000     
  -2.1555237459185927E-002  0.13415284405388686        0.0000000000000000     
  -2.2011313676259896E-002  0.14163203885478093        0.0000000000000000     
  -2.2441415795641479E-002  0.14922669142414294        0.0000000000000000     
  -2.2845543817330692E-002  0.15693680176197275        0.0000000000000000     
  -2.3223697741327518E-002  0.16476236986827045        0.0000000000000000     
   2.5331347864099470E-004  0.16458565740041009        0.0000000000000000     
   2.2335804396873523E-004  0.17250689852120316        0.0000000000000000     
   1.9851016523283116E-004  0.18051932617269145        0.0000000000000000     
   1.7876984243328454E-004  0.18862294035487498        0.0000000000000000     
   1.6413707557009355E-004  0.19681774106775377        0.0000000000000000     
  -5.5082390435687613E-003  0.16461056944644309        0.0000000000000000     
  -5.6320669297026489E-003  0.17253023332255732        0.0000000000000000     
  -5.7419656350296928E-003  0.18054070245241052        0.0000000000000000     
  -5.8379351595498983E-003  0.18864197683600256        0.0000000000000000     
  -5.9199755032632653E-003  0.19683405647333352        0.0000000000000000     
  -1.1341591754300101E-002  0.16464832553976413        0.0000000000000000     
  -1.1550192151024029E-002  0.17256807208699343        0.0000000000000000     
  -1.1738000324686563E-002  0.18057716392263004        0.0000000000000000     
  -1.1905016275287696E-002  0.18867560104667389        0.0000000000000000     
  -1.2051240002827437E-002  0.19686338345912505        0.0000000000000000     
  -1.7246744653553019E-002  0.16469892568037325        0.0000000000000000     
  -1.7531017619995409E-002  0.17262041481451140        0.0000000000000000     
  -1.7789593903737778E-002  0.18062871058334995        0.0000000000000000     
  -1.8022473504780104E-002  0.18872381298688892        0.0000000000000000     
  -1.8229656423122419E-002  0.19690572202512832        0.0000000000000000     
  -2.3223697741327518E-002  0.16476236986827045        0.0000000000000000     
  -2.3574543336616790E-002  0.17268726150511124        0.0000000000000000     
  -2.3896746372183329E-002  0.18069534243457031        0.0000000000000000     
  -2.4190306848027133E-002  0.18878661265664770        0.0000000000000000     
  -2.4455224764148201E-002  0.19696107217134337        0.0000000000000000     
   1.6413707557009355E-004  0.19681774106775377        0.0000000000000000     
   1.5299350324682044E-004  0.20508312704745779        0.0000000000000000     
   1.4372076406702228E-004  0.21339849703011701        0.0000000000000000     
   1.3631885803070342E-004  0.22176385101573151        0.0000000000000000     
   1.3078778513786037E-004  0.23017918900430123        0.0000000000000000     
  -5.9199755032632653E-003  0.19683405647333352        0.0000000000000000     
  -5.9902248976149066E-003  0.20509691576945477        0.0000000000000000     
  -6.0508215740499374E-003  0.21341052912941777        0.0000000000000000     
  -6.1017655325683560E-003  0.22177489655322258        0.0000000000000000     
  -6.1430567731701659E-003  0.23019001804086911        0.0000000000000000     
  -1.2051240002827437E-002  0.19686338345912505        0.0000000000000000     
  -1.2178604030996593E-002  0.20512208595754119        0.0000000000000000     
  -1.2289040883485990E-002  0.21343328333948031        0.0000000000000000     
  -1.2382550560295627E-002  0.22179697560494227        0.0000000000000000     
  -1.2459133061425497E-002  0.23021316275392709        0.0000000000000000     
  -1.8229656423122419E-002  0.19690572202512832        0.0000000000000000     
  -1.8412143896898242E-002  0.20515863761171718        0.0000000000000000     
  -1.8570937164241137E-002  0.21346675966030462        0.0000000000000000     
  -1.8706036225151101E-002  0.22183008817089064        0.0000000000000000     
  -1.8817441079628138E-002  0.23024862314347525        0.0000000000000000     
  -2.4455224764148201E-002  0.19696107217134337        0.0000000000000000     
  -2.4690844495319848E-002  0.20520657073198265        0.0000000000000000     
  -2.4896510416315378E-002  0.21351095809189075        0.0000000000000000     
  -2.5072222527134785E-002  0.22187423425106770        0.0000000000000000     
  -2.5217980827778076E-002  0.23029639920951350        0.0000000000000000     
   1.3078778513786037E-004  0.23017918900430123        0.0000000000000000     
   1.2654592230224937E-004  0.23861358561197188        0.0000000000000000     
   1.2301164643761949E-004  0.24703611545488929        0.0000000000000000     
   1.2018495754397522E-004  0.25544677853305336        0.0000000000000000     
   1.1806585562131305E-004  0.26384557484646415        0.0000000000000000     
  -6.1430567731701659E-003  0.23019001804086911        0.0000000000000000     
  -6.1769981736017479E-003  0.23862510801123965        0.0000000000000000     
  -6.2058926116094820E-003  0.24704938088321649        0.0000000000000000     
  -6.2297400871933733E-003  0.25546283665679964        0.0000000000000000     
  -6.2485406003534175E-003  0.26386547533198901        0.0000000000000000     
  -1.2459133061425497E-002  0.23021316275392709        0.0000000000000000     
  -1.2522689150256569E-002  0.23865157203733375        0.0000000000000000     
  -1.2577119590169798E-002  0.24708193070606110        0.0000000000000000     
  -1.2622424381165192E-002  0.25550423876010919        0.0000000000000000     
  -1.2658603523242738E-002  0.26391849619947810        0.0000000000000000     
  -1.8817441079628138E-002  0.23024862314347525        0.0000000000000000     
  -1.8910527007662215E-002  0.23869297769025413        0.0000000000000000     
  -1.8990669289243332E-002  0.24713376492342312        0.0000000000000000     
  -1.9057867924371478E-002  0.25557098484298219        0.0000000000000000     
  -1.9112122913046658E-002  0.26400463744893127        0.0000000000000000     
  -2.5217980827778076E-002  0.23029639920951350        0.0000000000000000     
  -2.5340511745818695E-002  0.23874932497000084        0.0000000000000000     
  -2.5446541708830078E-002  0.24720488353530251        0.0000000000000000     
  -2.5536070716812242E-002  0.25566307490541845        0.0000000000000000     
  -2.5609098769765169E-002  0.26412389908034867        0.0000000000000000     
   1.1806585562131305E-004  0.26384557484646415        0.0000000000000000     
   1.1636189233526009E-004  0.27217228208614325        0.0000000000000000     
   1.1478061935144132E-004  0.28036667794311215        0.0000000000000000     
   1.1332203666985835E-004  0.28842876241737098        0.0000000000000000     
   1.1198614429050718E-004  0.29635853550891966        0.0000000000000000     
  -6.2485406003534175E-003  0.26386547533198901        0.0000000000000000     
  -6.2663596323140084E-003  0.27219743002787267        0.0000000000000000     
  -6.2872626642995408E-003  0.28039883386353831        0.0000000000000000     
  -6.3112496963100119E-003  0.28846968683898611        0.0000000000000000     
  -6.3383207283454236E-003  0.29640998895421589        0.0000000000000000     
  -1.2658603523242738E-002  0.26391849619947810        0.0000000000000000     
  -1.2692951370700725E-002  0.27226586080080850        0.0000000000000000     
  -1.2732762277837420E-002  0.28048749034074116        0.0000000000000000     
  -1.2778036244652817E-002  0.28858338481927615        0.0000000000000000     
  -1.2828773271146926E-002  0.29655354423641339        0.0000000000000000     
  -1.9112122913046658E-002  0.26400463744893127        0.0000000000000000     
  -1.9163413322824889E-002  0.27237757440495075        0.0000000000000000     
  -1.9221718221262191E-002  0.28063264737472071        0.0000000000000000     
  -1.9287037608358565E-002  0.28876985635824126        0.0000000000000000     
  -1.9359371484114006E-002  0.29678920135551212        0.0000000000000000     
  -2.5609098769765169E-002  0.26412389908034867        0.0000000000000000     
  -2.5677745488686496E-002  0.27253257084029942        0.0000000000000000     
  -2.5754130494573858E-002  0.28083430496547690        0.0000000000000000     
  -2.5838253787427237E-002  0.28902910145588118        0.0000000000000000     
  -2.5930115367246653E-002  0.29711696031151213        0.0000000000000000     
  -1.3999156143495034E-002   5.5829729716046814E-002   0.0000000000000000     
  -1.4787754682684551E-002   6.1401175484834550E-002   0.0000000000000000     
  -1.5541263762161880E-002   6.7167618732936349E-002   0.0000000000000000     
  -1.6259683381927029E-002   7.3129059460352211E-002   0.0000000000000000     
  -1.6943013541979992E-002   7.9285497667082122E-002   0.0000000000000000     
  -1.8634918672925327E-002   5.5489066468334944E-002   0.0000000000000000     
  -1.9471107312126763E-002   6.1203192892352917E-002   0.0000000000000000     
  -2.0279067980368770E-002   6.7080377596558147E-002   0.0000000000000000     
  -2.1058800677651354E-002   7.3120620580950674E-002   0.0000000000000000     
  -2.1810305403974516E-002   7.9323921845530443E-002   0.0000000000000000     
  -2.2763673007979227E-002   5.5573024469365469E-002   0.0000000000000000     
  -2.3752735866886161E-002   6.1320235081550580E-002   0.0000000000000000     
  -2.4705885779724497E-002   6.7223826608615173E-002   0.0000000000000000     
  -2.5623122746494236E-002   7.3283799050559262E-002   0.0000000000000000     
  -2.6504446767195378E-002   7.9500152407382826E-002   0.0000000000000000     
  -2.6385419148656730E-002   5.6081603719138395E-002   0.0000000000000000     
  -2.7632640346962740E-002   6.1752302052427550E-002   0.0000000000000000     
  -2.8821717160229056E-002   6.7597965769107426E-002   0.0000000000000000     
  -2.9952649588455674E-002   7.3618594869177961E-002   0.0000000000000000     
  -3.1025437631642581E-002   7.9814189352639217E-002   0.0000000000000000     
  -2.9500157094957839E-002   5.7014804217653696E-002   0.0000000000000000     
  -3.1110820752356515E-002   6.2499393804983851E-002   0.0000000000000000     
  -3.2626562121882453E-002   6.8202795078034895E-002   0.0000000000000000     
  -3.4047381203535662E-002   7.4125008036806841E-002   0.0000000000000000     
  -3.5373277997316134E-002   8.0266032681299684E-002   0.0000000000000000     
  -1.6943013541979992E-002   7.9285497667082122E-002   0.0000000000000000     
  -1.7598779747307627E-002   8.5617584390817889E-002   0.0000000000000000     
  -1.8234507502896787E-002   9.2105970669251344E-002   0.0000000000000000     
  -1.8850196808747468E-002   9.8750656502382461E-002   0.0000000000000000     
  -1.9445847664859673E-002  0.10555164189021128        0.0000000000000000     
  -2.1810305403974516E-002   7.9323921845530443E-002   0.0000000000000000     
  -2.2543918746694414E-002   8.5682942434760004E-002   0.0000000000000000     
  -2.3269977293167231E-002   9.2190343393101837E-002   0.0000000000000000     
  -2.3988481043392955E-002   9.8846124720555942E-002   0.0000000000000000     
  -2.4699429997371593E-002  0.10565028641712232        0.0000000000000000     
  -2.6504446767195378E-002   7.9500152407382826E-002   0.0000000000000000     
  -2.7365187329485459E-002   8.5866804185284640E-002   0.0000000000000000     
  -2.8220673921022021E-002   9.2377671890463448E-002   0.0000000000000000     
  -2.9070906541805056E-002   9.9032755522919305E-002   0.0000000000000000     
  -2.9915885191834576E-002  0.10583205508265217        0.0000000000000000     
  -3.1025437631642581E-002   7.9814189352639217E-002   0.0000000000000000     
  -3.2062585495680758E-002   8.6169169642391769E-002   0.0000000000000000     
  -3.3086597386461157E-002   9.2667956161336218E-002   0.0000000000000000     
  -3.4097473303983772E-002   9.9310548909472551E-002   0.0000000000000000     
  -3.5095213248248602E-002  0.10609694788680077        0.0000000000000000     
  -3.5373277997316134E-002   8.0266032681299684E-002   0.0000000000000000     
  -3.6636113245280308E-002   8.6590038806081432E-002   0.0000000000000000     
  -3.7867747689484629E-002   9.3061196205720106E-002   0.0000000000000000     
  -3.9068181329929091E-002   9.9679504880215666E-002   0.0000000000000000     
  -4.0237414166613694E-002  0.10644496482956818        0.0000000000000000     
  -1.9445847664859673E-002  0.10555164189021128        0.0000000000000000     
  -2.0016908250437289E-002  0.11249856839932423        0.0000000000000000     
  -2.0558826744684205E-002  0.11958107759630780        0.0000000000000000     
  -2.1071603147600416E-002  0.12679916948116202        0.0000000000000000     
  -2.1555237459185927E-002  0.13415284405388686        0.0000000000000000     
  -2.4699429997371593E-002  0.10565028641712232        0.0000000000000000     
  -2.5389491501883066E-002  0.11259615527550038        0.0000000000000000     
  -2.6045332903707297E-002  0.11967705808838941        0.0000000000000000     
  -2.6666954202844279E-002  0.12689299485578948        0.0000000000000000     
  -2.7254355399294015E-002  0.13424396557770055        0.0000000000000000     
  -2.9915885191834576E-002  0.10583205508265217        0.0000000000000000     
  -3.0738111264181030E-002  0.11277100781888254        0.0000000000000000     
  -3.1520086151914886E-002  0.11984505098083093        0.0000000000000000     
  -3.2261809855036148E-002  0.12705418456849732        0.0000000000000000     
  -3.2963282373544810E-002  0.13439840858188176        0.0000000000000000     
  -3.5095213248248602E-002  0.10609694788680077        0.0000000000000000     
  -3.6062767537331175E-002  0.11302312602947077        0.0000000000000000     
  -3.6983086489306982E-002  0.12008505627363239        0.0000000000000000     
  -3.7856170104176030E-002  0.12728273861928563        0.0000000000000000     
  -3.8682018381938306E-002  0.13461617306643045        0.0000000000000000     
  -4.0237414166613694E-002  0.10644496482956818        0.0000000000000000     
  -4.1363460321333506E-002  0.11335250990726504        0.0000000000000000     
  -4.2434333915883575E-002  0.12039707396679376        0.0000000000000000     
  -4.3450034950263908E-002  0.12757865700815429        0.0000000000000000     
  -4.4410563424474504E-002  0.13489725903134669        0.0000000000000000     
  -2.1555237459185927E-002  0.13415284405388686        0.0000000000000000     
  -2.2011313676259896E-002  0.14163203885478093        0.0000000000000000     
  -2.2441415795641479E-002  0.14922669142414294        0.0000000000000000     
  -2.2845543817330692E-002  0.15693680176197275        0.0000000000000000     
  -2.3223697741327518E-002  0.16476236986827045        0.0000000000000000     
  -2.7254355399294015E-002  0.13424396557770055        0.0000000000000000     
  -2.7807746922260772E-002  0.14172073558514692        0.0000000000000000     
  -2.8327339200948796E-002  0.14931407020915291        0.0000000000000000     
  -2.8813132235358089E-002  0.15702396944971844        0.0000000000000000     
  -2.9265126025488648E-002  0.16485043330684354        0.0000000000000000     
  -3.2963282373544810E-002  0.13439840858188176        0.0000000000000000     
  -3.3624318951968879E-002  0.14186826566516425        0.0000000000000000     
  -3.4244734834836338E-002  0.14945429846252486        0.0000000000000000     
  -3.4824530022147200E-002  0.15715650697396355        0.0000000000000000     
  -3.5363704513901459E-002  0.16497489119948039        0.0000000000000000     
  -3.8682018381938306E-002  0.13461617306643045        0.0000000000000000     
  -3.9461029765384216E-002  0.14207462909483287        0.0000000000000000     
  -4.0193602697304119E-002  0.14964737618425875        0.0000000000000000     
  -4.0879737177698029E-002  0.15733441433470813        0.0000000000000000     
  -4.1519433206565946E-002  0.16513574354618099        0.0000000000000000     
  -4.4410563424474504E-002  0.13489725903134669        0.0000000000000000     
  -4.5317879362506780E-002  0.14233982587415281        0.0000000000000000     
  -4.6173942788352129E-002  0.14989330337435464        0.0000000000000000     
  -4.6978753702010587E-002  0.15755769153195215        0.0000000000000000     
  -4.7732312103482118E-002  0.16533299034694529        0.0000000000000000     
  -2.3223697741327518E-002  0.16476236986827045        0.0000000000000000     
  -2.3574543336616790E-002  0.17268726150511124        0.0000000000000000     
  -2.3896746372183329E-002  0.18069534243457031        0.0000000000000000     
  -2.4190306848027133E-002  0.18878661265664770        0.0000000000000000     
  -2.4455224764148201E-002  0.19696107217134337        0.0000000000000000     
  -2.9265126025488648E-002  0.16485043330684354        0.0000000000000000     
  -2.9684460200775597E-002  0.17277523614185669        0.0000000000000000     
  -3.0072274390654054E-002  0.18078015231608632        0.0000000000000000     
  -3.0428568595124012E-002  0.18886518182953235        0.0000000000000000     
  -3.0753342814185479E-002  0.19703032468219489        0.0000000000000000     
  -3.5363704513901459E-002  0.16497489119948039        0.0000000000000000     
  -3.5864459112359262E-002  0.17289096270781151        0.0000000000000000     
  -3.6328994619780779E-002  0.18088623306769305        0.0000000000000000     
  -3.6757311036165988E-002  0.18896070227912509        0.0000000000000000     
  -3.7149408361514917E-002  0.19711437034210752        0.0000000000000000     
  -4.1519433206565946E-002  0.16513574354618099        0.0000000000000000     
  -4.2114540071367799E-002  0.17303444120297568        0.0000000000000000     
  -4.2666907059563497E-002  0.18101358468939066        0.0000000000000000     
  -4.3176534171153080E-002  0.18907317400542581        0.0000000000000000     
  -4.3643421406136508E-002  0.19721320915108126        0.0000000000000000     
  -4.7732312103482118E-002  0.16533299034694529        0.0000000000000000     
  -4.8434703077801178E-002  0.17320567162734923        0.0000000000000000     
  -4.9086011710002223E-002  0.18116220718117901        0.0000000000000000     
  -4.9686238000085252E-002  0.18920259700843464        0.0000000000000000     
  -5.0235381948050266E-002  0.19732684110911608        0.0000000000000000     
  -2.4455224764148201E-002  0.19696107217134337        0.0000000000000000     
  -2.4690844495319848E-002  0.20520657073198265        0.0000000000000000     
  -2.4896510416315378E-002  0.21351095809189075        0.0000000000000000     
  -2.5072222527134785E-002  0.22187423425106770        0.0000000000000000     
  -2.5217980827778076E-002  0.23029639920951350        0.0000000000000000     
  -3.0753342814185479E-002  0.19703032468219489        0.0000000000000000     
  -3.1044222245385854E-002  0.20526694885586552        0.0000000000000000     
  -3.1298832086272543E-002  0.21356642233233583        0.0000000000000000     
  -3.1517172336845534E-002  0.22192874511160585        0.0000000000000000     
  -3.1699242997104832E-002  0.23035391719367559        0.0000000000000000     
  -3.7149408361514917E-002  0.19711437034210752        0.0000000000000000     
  -3.7501793566220680E-002  0.20534083552089372        0.0000000000000000     
  -3.7810973620676445E-002  0.21363369607973712        0.0000000000000000     
  -3.8076948524882186E-002  0.22199295201863756        0.0000000000000000     
  -3.8299718278837928E-002  0.23041860333759517        0.0000000000000000     
  -4.3643421406136508E-002  0.19721320915108126        0.0000000000000000     
  -4.4063558457824337E-002  0.20542823072706734        0.0000000000000000     
  -4.4432935019527088E-002  0.21371277933409455        0.0000000000000000     
  -4.4751551091244762E-002  0.22206685497216289        0.0000000000000000     
  -4.5019406672977366E-002  0.23049045764127229        0.0000000000000000     
  -5.0235381948050266E-002  0.19732684110911608        0.0000000000000000     
  -5.0729516920196817E-002  0.20552913447438631        0.0000000000000000     
  -5.1164716282824478E-002  0.21380367209540815        0.0000000000000000     
  -5.1540980035933236E-002  0.22215045397218169        0.0000000000000000     
  -5.1858308179523124E-002  0.23056948010470685        0.0000000000000000     
  -2.5217980827778076E-002  0.23029639920951350        0.0000000000000000     
  -2.5340511745818695E-002  0.23874932497000084        0.0000000000000000     
  -2.5446541708830078E-002  0.24720488353530251        0.0000000000000000     
  -2.5536070716812242E-002  0.25566307490541845        0.0000000000000000     
  -2.5609098769765169E-002  0.26412389908034867        0.0000000000000000     
  -3.1699242997104832E-002  0.23035391719367559        0.0000000000000000     
  -3.1852786421834180E-002  0.23881611121012639        0.0000000000000000     
  -3.1985544965817306E-002  0.24728949979253961        0.0000000000000000     
  -3.2097518629054189E-002  0.25577408294091519        0.0000000000000000     
  -3.2188707411544858E-002  0.26426986065525326        0.0000000000000000     
  -3.8299718278837928E-002  0.23041860333759517        0.0000000000000000     
  -3.8487494092816883E-002  0.23888883374418313        0.0000000000000000     
  -3.8648487177092260E-002  0.24738182694597458        0.0000000000000000     
  -3.8782697531664079E-002  0.25589758294296960        0.0000000000000000     
  -3.8890125156532313E-002  0.26443610173516813        0.0000000000000000     
  -4.5019406672977366E-002  0.23049045764127229        0.0000000000000000     
  -4.5244634758766798E-002  0.23896749257217104        0.0000000000000000     
  -4.5435368342654957E-002  0.24748186499560748        0.0000000000000000     
  -4.5591607424641883E-002  0.25603357491158152        0.0000000000000000     
  -4.5713352004727544E-002  0.26462262232009320        0.0000000000000000     
  -5.1858308179523124E-002  0.23056948010470685        0.0000000000000000     
  -5.2124208419683911E-002  0.23905208769409020        0.0000000000000000     
  -5.2346188462505404E-002  0.24758961394143830        0.0000000000000000     
  -5.2524248307987617E-002  0.25618205884675105        0.0000000000000000     
  -5.2658387956130530E-002  0.26482942241002855        0.0000000000000000     
  -2.5609098769765169E-002  0.26412389908034867        0.0000000000000000     
  -2.5677745488686496E-002  0.27253257084029942        0.0000000000000000     
  -2.5754130494573858E-002  0.28083430496547690        0.0000000000000000     
  -2.5838253787427237E-002  0.28902910145588118        0.0000000000000000     
  -2.5930115367246653E-002  0.29711696031151213        0.0000000000000000     
  -3.2188707411544858E-002  0.26426986065525326        0.0000000000000000     
  -3.2273793483510789E-002  0.27272444313709965        0.0000000000000000     
  -3.2367459015173475E-002  0.28108544058800033        0.0000000000000000     
  -3.2469704006532915E-002  0.28935285300795538        0.0000000000000000     
  -3.2580528457589110E-002  0.29752668039696473        0.0000000000000000     
  -3.8890125156532313E-002  0.26443610173516813        0.0000000000000000     
  -3.8989402922522988E-002  0.27294678432559660        0.0000000000000000     
  -3.9099163700462097E-002  0.28137903171728174        0.0000000000000000     
  -3.9219407490349634E-002  0.28973284391022319        0.0000000000000000     
  -3.9350134292185618E-002  0.29800822090442125        0.0000000000000000     
  -4.5713352004727544E-002  0.26462262232009320        0.0000000000000000     
  -4.5824573805723107E-002  0.27319959440579034        0.0000000000000000     
  -4.5949244550439736E-002  0.28171507835332088        0.0000000000000000     
  -4.6087364238877410E-002  0.29016907416268461        0.0000000000000000     
  -4.6238932871036149E-002  0.29856158183388176        0.0000000000000000     
  -5.2658387956130530E-002  0.26482942241002855        0.0000000000000000     
  -5.2779306133111131E-002  0.27348287337768079        0.0000000000000000     
  -5.2917701565106355E-002  0.28209358049611777        0.0000000000000000     
  -5.3073574252116243E-002  0.29066154376533965        0.0000000000000000     
  -5.3246924194140746E-002  0.29918676318534615        0.0000000000000000     
  -2.9500157094957839E-002   5.7014804217653696E-002   0.0000000000000000     
  -3.1110820752356515E-002   6.2499393804983851E-002   0.0000000000000000     
  -3.2626562121882453E-002   6.8202795078034895E-002   0.0000000000000000     
  -3.4047381203535662E-002   7.4125008036806841E-002   0.0000000000000000     
  -3.5373277997316134E-002   8.0266032681299684E-002   0.0000000000000000     
  -3.2626663445784972E-002   5.8058844957651769E-002   0.0000000000000000     
  -3.4605442114280363E-002   6.3351025026653005E-002   0.0000000000000000     
  -3.6454442507184846E-002   6.8905348601093000E-002   0.0000000000000000     
  -3.8173664624498421E-002   7.4721815680971790E-002   0.0000000000000000     
  -3.9763108466221088E-002   8.0800426266289305E-002   0.0000000000000000     
  -3.6283714800040549E-002   5.8899944931872963E-002   0.0000000000000000     
  -3.8534669463947187E-002   6.4096710404868598E-002   0.0000000000000000     
  -4.0639380158636385E-002   6.9572660403977193E-002   0.0000000000000000     
  -4.2597846884108170E-002   7.5327794929198735E-002   0.0000000000000000     
  -4.4410069640362530E-002   8.1362113980533238E-002   0.0000000000000000     
  -4.0471311157724572E-002   5.9538104140317294E-002   0.0000000000000000     
  -4.2898502801356979E-002   6.4736449939630625E-002   0.0000000000000000     
  -4.5181375076237096E-002   7.0204730486687433E-002   0.0000000000000000     
  -4.7319927982364923E-002   7.5942945781487733E-002   0.0000000000000000     
  -4.9314161519740468E-002   8.1951095824031456E-002   0.0000000000000000     
  -4.5189452518837034E-002   5.9973322582984753E-002   0.0000000000000000     
  -4.7696942126509746E-002   6.5270243630939084E-002   0.0000000000000000     
  -5.0080427259986966E-002   7.0801558849223747E-002   0.0000000000000000     
  -5.2339907919268687E-002   7.6567268237838715E-002   0.0000000000000000     
  -5.4475384104354881E-002   8.2567371796784000E-002   0.0000000000000000     
  -3.5373277997316134E-002   8.0266032681299684E-002   0.0000000000000000     
  -3.6636113245280308E-002   8.6590038806081432E-002   0.0000000000000000     
  -3.7867747689484629E-002   9.3061196205720106E-002   0.0000000000000000     
  -3.9068181329929091E-002   9.9679504880215666E-002   0.0000000000000000     
  -4.0237414166613694E-002  0.10644496482956818        0.0000000000000000     
  -3.9763108466221088E-002   8.0800426266289305E-002   0.0000000000000000     
  -4.1262105753218425E-002   8.7086008393008923E-002   0.0000000000000000     
  -4.2709988206355978E-002   9.3523390097093928E-002   0.0000000000000000     
  -4.4106755825633781E-002  0.10011257137854428        0.0000000000000000     
  -4.5452408611051799E-002  0.10685355223736004        0.0000000000000000     
  -4.4410069640362530E-002   8.1362113980533238E-002   0.0000000000000000     
  -4.6116898194429420E-002   8.7613675119829537E-002   0.0000000000000000     
  -4.7759182313338769E-002   9.4020535908936428E-002   0.0000000000000000     
  -4.9336921997090590E-002  0.10058269634785395        0.0000000000000000     
  -5.0850117245684862E-002  0.10730015643658206        0.0000000000000000     
  -4.9314161519740468E-002   8.1951095824031456E-002   0.0000000000000000     
  -5.1200490568913293E-002   8.8173038986543259E-002   0.0000000000000000     
  -5.3015330010432966E-002   9.4552633641247649E-002   0.0000000000000000     
  -5.4758679844299510E-002  0.10108987978814464        0.0000000000000000     
  -5.6430540070512916E-002  0.10778477742723423        0.0000000000000000     
  -5.4475384104354881E-002   8.2567371796784000E-002   0.0000000000000000     
  -5.6512882876670043E-002   8.8764099993150117E-002   0.0000000000000000     
  -5.8478431297638599E-002   9.5119683294027577E-002   0.0000000000000000     
  -6.0372029367260563E-002  0.10163412169941638        0.0000000000000000     
  -6.2193677085535914E-002  0.10830741520931654        0.0000000000000000     
  -4.0237414166613694E-002  0.10644496482956818        0.0000000000000000     
  -4.1363460321333506E-002  0.11335250990726504        0.0000000000000000     
  -4.2434333915883575E-002  0.12039707396679376        0.0000000000000000     
  -4.3450034950263908E-002  0.12757865700815429        0.0000000000000000     
  -4.4410563424474504E-002  0.13489725903134669        0.0000000000000000     
  -4.5452408611051799E-002  0.10685355223736004        0.0000000000000000     
  -4.6740905237698561E-002  0.11373949008918001        0.0000000000000000     
  -4.7966204380662590E-002  0.12076354234964298        0.0000000000000000     
  -4.9128306039943892E-002  0.12792570901874900        0.0000000000000000     
  -5.0227210215542453E-002  0.13522599009649805        0.0000000000000000     
  -5.0850117245684862E-002  0.10730015643658206        0.0000000000000000     
  -5.2295817907936894E-002  0.11416439721213026        0.0000000000000000     
  -5.3671073832661967E-002  0.12116689971150800        0.0000000000000000     
  -5.4975885019860074E-002  0.12830766393471532        0.0000000000000000     
  -5.6210251469531215E-002  0.13558668988175215        0.0000000000000000     
  -5.6430540070512916E-002  0.10778477742723423        0.0000000000000000     
  -5.8028198332048517E-002  0.11462723127611582        0.0000000000000000     
  -5.9548942271881705E-002  0.12160714605238883        0.0000000000000000     
  -6.0992771890012447E-002  0.12872452175605323        0.0000000000000000     
  -6.2359687186440776E-002  0.13597935838710906        0.0000000000000000     
  -6.2193677085535914E-002  0.10830741520931654        0.0000000000000000     
  -6.3938046510033417E-002  0.11512799228113667        0.0000000000000000     
  -6.5599809698321770E-002  0.12208428137228541        0.0000000000000000     
  -6.7178966650401031E-002  0.12917628248276275        0.0000000000000000     
  -6.8675517366271158E-002  0.13640399561256869        0.0000000000000000     
  -4.4410563424474504E-002  0.13489725903134669        0.0000000000000000     
  -4.5317879362506780E-002  0.14233982587415281        0.0000000000000000     
  -4.6173942788352129E-002  0.14989330337435464        0.0000000000000000     
  -4.6978753702010587E-002  0.15755769153195215        0.0000000000000000     
  -4.7732312103482118E-002  0.16533299034694529        0.0000000000000000     
  -5.0227210215542453E-002  0.13522599009649805        0.0000000000000000     
  -5.1266693545001019E-002  0.14264912055476589        0.0000000000000000     
  -5.2250532665862291E-002  0.15017983536542839        0.0000000000000000     
  -5.3178727578126278E-002  0.15781813452848550        0.0000000000000000     
  -5.4051278281793000E-002  0.16556401804393725        0.0000000000000000     
  -5.6210251469531215E-002  0.13558668988175215        0.0000000000000000     
  -5.7379298114531352E-002  0.14298777768831392        0.0000000000000000     
  -5.8488149887716473E-002  0.15049472749009593        0.0000000000000000     
  -5.9536806789086572E-002  0.15810753928709823        0.0000000000000000     
  -6.0525268818641634E-002  0.16582621307932080        0.0000000000000000     
  -6.2359687186440776E-002  0.13597935838710906        0.0000000000000000     
  -6.3655693071097808E-002  0.14335579727479683        0.0000000000000000     
  -6.4886794453914695E-002  0.15083797974835728        0.0000000000000000     
  -6.6052991334891439E-002  0.15842590580779026        0.0000000000000000     
  -6.7154283714028040E-002  0.16611957545309586        0.0000000000000000     
  -6.8675517366271158E-002  0.13640399561256869        0.0000000000000000     
  -7.0095878414700385E-002  0.14375317931421475        0.0000000000000000     
  -7.1446466364456965E-002  0.15120959214021240        0.0000000000000000     
  -7.2727281215540895E-002  0.15877323409056165        0.0000000000000000     
  -7.3938322967952178E-002  0.16644410516526251        0.0000000000000000     
  -4.7732312103482118E-002  0.16533299034694529        0.0000000000000000     
  -4.8434703077801178E-002  0.17320567162734923        0.0000000000000000     
  -4.9086011710002223E-002  0.18116220718117901        0.0000000000000000     
  -4.9686238000085252E-002  0.18920259700843464        0.0000000000000000     
  -5.0235381948050266E-002  0.19732684110911608        0.0000000000000000     
  -5.4051278281793000E-002  0.16556401804393725        0.0000000000000000     
  -5.4866247866704854E-002  0.17340754299477651        0.0000000000000000     
  -5.5621699422704222E-002  0.18133876646399613        0.0000000000000000     
  -5.6317632949791148E-002  0.18935768845159603        0.0000000000000000     
  -5.6954048447965602E-002  0.19746430895757636        0.0000000000000000     
  -6.0525268818641634E-002  0.16582621307932080        0.0000000000000000     
  -6.1450474173124194E-002  0.17364294431910193        0.0000000000000000     
  -6.2309361049276764E-002  0.18154992845877985        0.0000000000000000     
  -6.3101929447099359E-002  0.18954716549835471        0.0000000000000000     
  -6.3828179366591950E-002  0.19763465543782635        0.0000000000000000     
  -6.7154283714028040E-002  0.16611957545309586        0.0000000000000000     
  -6.8187381997059246E-002  0.17391187560032542        0.0000000000000000     
  -6.9148996589719874E-002  0.18179569316553032        0.0000000000000000     
  -7.0039127492009884E-002  0.18977102814871055        0.0000000000000000     
  -7.0857774703929330E-002  0.19783788054986609        0.0000000000000000     
  -7.3938322967952178E-002  0.16644410516526251        0.0000000000000000     
  -7.5076971338510004E-002  0.17421433683844709        0.0000000000000000     
  -7.6140606044033526E-002  0.18207606058424741        0.0000000000000000     
  -7.7129227084522758E-002  0.19002927640266359        0.0000000000000000     
  -7.8042834459977700E-002  0.19807398429369555        0.0000000000000000     
  -5.0235381948050266E-002  0.19732684110911608        0.0000000000000000     
  -5.0729516920196817E-002  0.20552913447438631        0.0000000000000000     
  -5.1164716282824478E-002  0.21380367209540815        0.0000000000000000     
  -5.1540980035933236E-002  0.22215045397218169        0.0000000000000000     
  -5.1858308179523124E-002  0.23056948010470685        0.0000000000000000     
  -5.6954048447965602E-002  0.19746430895757636        0.0000000000000000     
  -5.7527598195193562E-002  0.20565191804744276        0.0000000000000000     
  -5.8034934469441003E-002  0.21391380578670086        0.0000000000000000     
  -5.8476057270707926E-002  0.22224997217535086        0.0000000000000000     
  -5.8850966598994331E-002  0.23066041721339259        0.0000000000000000     
  -6.3828179366591950E-002  0.19763465543782635        0.0000000000000000     
  -6.4485731524670048E-002  0.20580495273082872        0.0000000000000000     
  -6.5072206638249100E-002  0.21405061183099561        0.0000000000000000     
  -6.5587604707329106E-002  0.22237163273832705        0.0000000000000000     
  -6.6031925731910093E-002  0.23076801545282299        0.0000000000000000     
  -7.0857774703929330E-002  0.19783788054986609        0.0000000000000000     
  -7.1603916908626233E-002  0.20598823852454426        0.0000000000000000     
  -7.2276532789248712E-002  0.21421409022829233        0.0000000000000000     
  -7.2875622345796767E-002  0.22251543566111029        0.0000000000000000     
  -7.3401185578270398E-002  0.23089227482299818        0.0000000000000000     
  -7.8042834459977700E-002  0.19807398429369555        0.0000000000000000     
  -7.8882154347062153E-002  0.20620177542858936        0.0000000000000000     
  -7.9647912922439890E-002  0.21440424097859104        0.0000000000000000     
  -8.0340110186110925E-002  0.22268138094370060        0.0000000000000000     
  -8.0958746138075258E-002  0.23103319532391803        0.0000000000000000     
  -5.1858308179523124E-002  0.23056948010470685        0.0000000000000000     
  -5.2124208419683911E-002  0.23905208769409020        0.0000000000000000     
  -5.2346188462505404E-002  0.24758961394143830        0.0000000000000000     
  -5.2524248307987617E-002  0.25618205884675105        0.0000000000000000     
  -5.2658387956130530E-002  0.26482942241002855        0.0000000000000000     
  -5.8850966598994331E-002  0.23066041721339259        0.0000000000000000     
  -5.9165385186118441E-002  0.23914454740499075        0.0000000000000000     
  -5.9425035763898508E-002  0.24770176925430995        0.0000000000000000     
  -5.9629918332334532E-002  0.25633208276135022        0.0000000000000000     
  -5.9780032891426513E-002  0.26503548792611153        0.0000000000000000     
  -6.6031925731910093E-002  0.23076801545282299        0.0000000000000000     
  -6.6407335168620601E-002  0.23924679999992274        0.0000000000000000     
  -6.6715998474089211E-002  0.24781502640506536        0.0000000000000000     
  -6.6957915648315908E-002  0.25647269466825096        0.0000000000000000     
  -6.7133086691300706E-002  0.26521980478947949        0.0000000000000000     
  -7.3401185578270398E-002  0.23089227482299818        0.0000000000000000     
  -7.3850058367190372E-002  0.23935884547888614        0.0000000000000000     
  -7.4219076593077471E-002  0.24792938539370454        0.0000000000000000     
  -7.4508240255931751E-002  0.25660389456745331        0.0000000000000000     
  -7.4717549355753102E-002  0.26538237300013245        0.0000000000000000     
  -8.0958746138075258E-002  0.23103319532391803        0.0000000000000000     
  -8.1493554781827793E-002  0.23948068384188106        0.0000000000000000     
  -8.1934270120863351E-002  0.24804484622022743        0.0000000000000000     
  -8.2280892155182001E-002  0.25672568245895722        0.0000000000000000     
  -8.2533420884783715E-002  0.26552319255807028        0.0000000000000000     
  -5.2658387956130530E-002  0.26482942241002855        0.0000000000000000     
  -5.2779306133111131E-002  0.27348287337768079        0.0000000000000000     
  -5.2917701565106355E-002  0.28209358049611777        0.0000000000000000     
  -5.3073574252116243E-002  0.29066154376533965        0.0000000000000000     
  -5.3246924194140746E-002  0.29918676318534615        0.0000000000000000     
  -5.9780032891426513E-002  0.26503548792611153        0.0000000000000000     
  -5.9912152816401290E-002  0.27376806775009727        0.0000000000000000     
  -6.0063051482485724E-002  0.28248590523481082        0.0000000000000000     
  -6.0232728889679815E-002  0.29118900038025219        0.0000000000000000     
  -6.0421185037983563E-002  0.29987735318642128        0.0000000000000000     
  -6.7133086691300706E-002  0.26521980478947949        0.0000000000000000     
  -6.7281666767307846E-002  0.27402662403186911        0.0000000000000000     
  -6.7443811040601556E-002  0.28286341965853817        0.0000000000000000     
  -6.7619519511181864E-002  0.29173019166948644        0.0000000000000000     
  -6.7808792179048755E-002  0.30062694006471402        0.0000000000000000     
  -7.4717549355753102E-002  0.26538237300013245        0.0000000000000000     
  -7.4887847985830758E-002  0.27425854222299634        0.0000000000000000     
  -7.5059980239453844E-002  0.28322612376729966        0.0000000000000000     
  -7.5233946116622374E-002  0.29228511763304232        0.0000000000000000     
  -7.5409745617336349E-002  0.30143552382022426        0.0000000000000000     
  -8.2533420884783715E-002  0.26552319255807028        0.0000000000000000     
  -8.2730696471970053E-002  0.27446382232347899        0.0000000000000000     
  -8.2911559079042588E-002  0.28357401756109557        0.0000000000000000     
  -8.3076008706001361E-002  0.29285377827091985        0.0000000000000000     
  -8.3224045352846332E-002  0.30230310445295211        0.0000000000000000     
  -4.5189452518837034E-002   5.9973322582984753E-002   0.0000000000000000     
  -4.7696942126509746E-002   6.5270243630939084E-002   0.0000000000000000     
  -5.0080427259986966E-002   7.0801558849223747E-002   0.0000000000000000     
  -5.2339907919268687E-002   7.6567268237838715E-002   0.0000000000000000     
  -5.4475384104354881E-002   8.2567371796784000E-002   0.0000000000000000     
  -5.0167020006024868E-002   6.0414271675436879E-002   0.0000000000000000     
  -5.2741511551231746E-002   6.5821131879240019E-002   0.0000000000000000     
  -5.5213236500561175E-002   7.1424346880032880E-002   0.0000000000000000     
  -5.7582194854013155E-002   7.7223916677815460E-002   0.0000000000000000     
  -5.9848386611587694E-002   8.3219841272587719E-002   0.0000000000000000     
  -5.5132894741934987E-002   6.1069622833235172E-002   0.0000000000000000     
  -5.7843735187349220E-002   6.6512155084979499E-002   0.0000000000000000     
  -6.0456502588634921E-002   7.2134295967561685E-002   0.0000000000000000     
  -6.2971196945792118E-002   7.7936045480981694E-002   0.0000000000000000     
  -6.5387818258820798E-002   8.3917403625239570E-002   0.0000000000000000     
  -6.0087076726567414E-002   6.1939376056379683E-002   0.0000000000000000     
  -6.3003613034862155E-002   6.7343313248157524E-002   0.0000000000000000     
  -6.5810225524208191E-002   7.2931406111810107E-002   0.0000000000000000     
  -6.8506914194605542E-002   7.8703654647337445E-002   0.0000000000000000     
  -7.1093679046054209E-002   8.4660058854739512E-002   0.0000000000000000     
  -6.5029565959922125E-002   6.3023531344870362E-002   0.0000000000000000     
  -6.8221145093770558E-002   6.8314606368774067E-002   0.0000000000000000     
  -7.1274405307280991E-002   7.3815677312778161E-002   0.0000000000000000     
  -7.4189346600453440E-002   7.9526744176882658E-002   0.0000000000000000     
  -7.6965968973287918E-002   8.5447806961087558E-002   0.0000000000000000     
  -5.4475384104354881E-002   8.2567371796784000E-002   0.0000000000000000     
  -5.6512882876670043E-002   8.8764099993150117E-002   0.0000000000000000     
  -5.8478431297638599E-002   9.5119683294027577E-002   0.0000000000000000     
  -6.0372029367260563E-002  0.10163412169941638        0.0000000000000000     
  -6.2193677085535914E-002  0.10830741520931654        0.0000000000000000     
  -5.9848386611587694E-002   8.3219841272587719E-002   0.0000000000000000     
  -6.2027919730619080E-002   8.9393479233904657E-002   0.0000000000000000     
  -6.4136902168441631E-002   9.5726189131321235E-002   0.0000000000000000     
  -6.6175333925055327E-002  0.10221797096483747        0.0000000000000000     
  -6.8143215000460181E-002  0.10886882473445335        0.0000000000000000     
  -6.5387818258820798E-002   8.3917403625239570E-002   0.0000000000000000     
  -6.7719445743679829E-002   9.0067797803061470E-002   0.0000000000000000     
  -6.9979158616328016E-002   9.6376655417173690E-002   0.0000000000000000     
  -7.2166956876765401E-002  0.10284397646757619        0.0000000000000000     
  -7.4282840524991955E-002  0.10946976095426897        0.0000000000000000     
  -7.1093679046054209E-002   8.4660058854739512E-002   0.0000000000000000     
  -7.3587460915852276E-002   9.0787055700620581E-002   0.0000000000000000     
  -7.6005200641297802E-002   9.7071082151584914E-002   0.0000000000000000     
  -7.8346898222390812E-002  0.10351213820763253        0.0000000000000000     
  -8.0612553659131281E-002  0.11011022386876342        0.0000000000000000     
  -7.6965968973287918E-002   8.5447806961087558E-002   0.0000000000000000     
  -7.9631965247136421E-002   9.1551252926581964E-002   0.0000000000000000     
  -8.2215028243350946E-002   9.7809469334554935E-002   0.0000000000000000     
  -8.4715157961931534E-002  0.10422245618500653        0.0000000000000000     
  -8.7132354402878143E-002  0.11079021347793669        0.0000000000000000     
  -6.2193677085535914E-002  0.10830741520931654        0.0000000000000000     
  -6.3938046510033417E-002  0.11512799228113667        0.0000000000000000     
  -6.5599809698321770E-002  0.12208428137228541        0.0000000000000000     
  -6.7178966650401031E-002  0.12917628248276275        0.0000000000000000     
  -6.8675517366271158E-002  0.13640399561256869        0.0000000000000000     
  -6.8143215000460181E-002  0.10886882473445335        0.0000000000000000     
  -7.0031763893796325E-002  0.11566625280655868        0.0000000000000000     
  -7.1832199104203909E-002  0.12259775754754330        0.0000000000000000     
  -7.3544520631682958E-002  0.12966333895740720        0.0000000000000000     
  -7.5168728476233432E-002  0.13686299703615035        0.0000000000000000     
  -7.4282840524991955E-002  0.10946976095426897        0.0000000000000000     
  -7.6315751935241996E-002  0.11624158543174769        0.0000000000000000     
  -7.8254633481749811E-002  0.12314702645450798        0.0000000000000000     
  -8.0099485164515358E-002  0.13018608402254980        0.0000000000000000     
  -8.1850306983538693E-002  0.13735875813587323        0.0000000000000000     
  -8.0612553659131281E-002  0.11011022386876342        0.0000000000000000     
  -8.2790010634370442E-002  0.11685399015670367        0.0000000000000000     
  -8.4867112830959421E-002  0.12373208809317941        0.0000000000000000     
  -8.6843860248898272E-002  0.13074451767819062        0.0000000000000000     
  -8.8720252888186982E-002  0.13789127891173736        0.0000000000000000     
  -8.7132354402878143E-002  0.11079021347793669        0.0000000000000000     
  -8.9454539991181622E-002  0.11750346698142665        0.0000000000000000     
  -9.1669637151832808E-002  0.12435294246355764        0.0000000000000000     
  -9.3777645884831673E-002  0.13133863992432968        0.0000000000000000     
  -9.5778566190178244E-002  0.13846055936374271        0.0000000000000000     
  -6.8675517366271158E-002  0.13640399561256869        0.0000000000000000     
  -7.0095878414700385E-002  0.14375317931421475        0.0000000000000000     
  -7.1446466364456965E-002  0.15120959214021240        0.0000000000000000     
  -7.2727281215540895E-002  0.15877323409056165        0.0000000000000000     
  -7.3938322967952178E-002  0.16644410516526251        0.0000000000000000     
  -7.5168728476233432E-002  0.13686299703615035        0.0000000000000000     
  -7.6711572707991463E-002  0.14418422473250136        0.0000000000000000     
  -7.8179803397093212E-002  0.15161451499518880        0.0000000000000000     
  -7.9573420543538637E-002  0.15915386782421267        0.0000000000000000     
  -8.0892424147327752E-002  0.16680228321957294        0.0000000000000000     
  -8.1850306983538693E-002  0.13735875813587323        0.0000000000000000     
  -8.3514494513623472E-002  0.14465323445559050        0.0000000000000000     
  -8.5099443329573338E-002  0.15205769864281396        0.0000000000000000     
  -8.6605153431388318E-002  0.15957215069754357        0.0000000000000000     
  -8.8031624819068385E-002  0.16719659061977937        0.0000000000000000     
  -8.8720252888186982E-002  0.13789127891173736        0.0000000000000000     
  -9.0504643831596385E-002  0.14516020848348224        0.0000000000000000     
  -9.2205386161897399E-002  0.15253914308308794        0.0000000000000000     
  -9.3822479879089940E-002  0.16002808271055452        0.0000000000000000     
  -9.5355924983174106E-002  0.16762702736588189        0.0000000000000000     
  -9.5778566190178244E-002  0.13846055936374271        0.0000000000000000     
  -9.7682020661910229E-002  0.14570514681617647        0.0000000000000000     
  -9.9497631894065339E-002  0.15305884831601069        0.0000000000000000     
 -0.10122539988664356       0.16052166386324535        0.0000000000000000     
 -0.10286532463964490       0.16809359345788044        0.0000000000000000     
  -7.3938322967952178E-002  0.16644410516526251        0.0000000000000000     
  -7.5076971338510004E-002  0.17421433683844709        0.0000000000000000     
  -7.6140606044033526E-002  0.18207606058424741        0.0000000000000000     
  -7.7129227084522758E-002  0.19002927640266359        0.0000000000000000     
  -7.8042834459977700E-002  0.19807398429369555        0.0000000000000000     
  -8.0892424147327752E-002  0.16680228321957294        0.0000000000000000     
  -8.2135201903545244E-002  0.17455070105046500        0.0000000000000000     
  -8.3300141507275785E-002  0.18239006118608417        0.0000000000000000     
  -8.4387242958519390E-002  0.19032036362643048        0.0000000000000000     
  -8.5396506257276031E-002  0.19834160837150389        0.0000000000000000     
  -8.8031624819068385E-002  0.16719659061977937        0.0000000000000000     
  -8.9378033398233789E-002  0.17492134125337733        0.0000000000000000     
  -9.0643555074504736E-002  0.18273672544219347        0.0000000000000000     
  -9.1828189847881214E-002  0.19064274318622770        0.0000000000000000     
  -9.2931937718363278E-002  0.19863939448548013        0.0000000000000000     
  -9.5355924983174106E-002  0.16762702736588189        0.0000000000000000     
  -9.6805465822575640E-002  0.17532625744718419        0.0000000000000000     
  -9.8170846745720353E-002  0.18311605335257533        0.0000000000000000     
  -9.9452067752608300E-002  0.19099641508205542        0.0000000000000000     
 -0.10064912884323939       0.19896734263562435        0.0000000000000000     
 -0.10286532463964490       0.16809359345788044        0.0000000000000000     
 -0.10441749917657081       0.17576544963188540        0.0000000000000000     
 -0.10588201652092270       0.18352804491722977        0.0000000000000000     
 -0.10725887667270055       0.19138137931391347        0.0000000000000000     
 -0.10854807963190441       0.19932545282193653        0.0000000000000000     
  -7.8042834459977700E-002  0.19807398429369555        0.0000000000000000     
  -7.8882154347062153E-002  0.20620177542858936        0.0000000000000000     
  -7.9647912922439890E-002  0.21440424097859104        0.0000000000000000     
  -8.0340110186110925E-002  0.22268138094370060        0.0000000000000000     
  -8.0958746138075258E-002  0.23103319532391803        0.0000000000000000     
  -8.5396506257276031E-002  0.19834160837150389        0.0000000000000000     
  -8.6330461170135681E-002  0.20644538075313734        0.0000000000000000     
  -8.7191637463688215E-002  0.21462326610316385        0.0000000000000000     
  -8.7980035137933676E-002  0.22287526442158326        0.0000000000000000     
  -8.8695654192872037E-002  0.23120137570839569        0.0000000000000000     
  -9.2931937718363278E-002  0.19863939448548013        0.0000000000000000     
  -9.3958854708004691E-002  0.20671887180836152        0.0000000000000000     
  -9.4912996838859287E-002  0.21487336762328266        0.0000000000000000     
  -9.5794364110927108E-002  0.22310288193024358        0.0000000000000000     
  -9.6602956524208083E-002  0.23140741472924420        0.0000000000000000     
 -0.10064912884323939       0.19896734263562435        0.0000000000000000     
 -0.10176733496066918       0.20702224859426188        0.0000000000000000     
 -0.10281199104795309       0.21515454553894758        0.0000000000000000     
 -0.10378309710509118       0.22336423346968151        0.0000000000000000     
 -0.10468065313208340       0.23165131238646364        0.0000000000000000     
 -0.10854807963190441       0.19932545282193653        0.0000000000000000     
 -0.10975590192812916       0.20735551111083847        0.0000000000000000     
 -0.11088862009096966       0.21546679985015862        0.0000000000000000     
 -0.11194623412042594       0.22365931903989714        0.0000000000000000     
 -0.11292874401649797       0.23193306868005389        0.0000000000000000     
  -8.0958746138075258E-002  0.23103319532391803        0.0000000000000000     
  -8.1493554781827793E-002  0.23948068384188106        0.0000000000000000     
  -8.1934270120863351E-002  0.24804484622022743        0.0000000000000000     
  -8.2280892155182001E-002  0.25672568245895722        0.0000000000000000     
  -8.2533420884783715E-002  0.26552319255807028        0.0000000000000000     
  -8.8695654192872037E-002  0.23120137570839569        0.0000000000000000     
  -8.9324624108488987E-002  0.23962726121587505        0.0000000000000000     
  -8.9853074364770233E-002  0.24817858219629543        0.0000000000000000     
  -9.0281004961715761E-002  0.25685533864965665        0.0000000000000000     
  -9.0608415899325528E-002  0.26565753057595887        0.0000000000000000     
  -9.6602956524208083E-002  0.23140741472924420        0.0000000000000000     
  -9.7330066043130242E-002  0.23981352372783579        0.0000000000000000     
  -9.7966984632121556E-002  0.24834776663356969        0.0000000000000000     
  -9.8513712291181998E-002  0.25701014344644563        0.0000000000000000     
  -9.8970249020311582E-002  0.26580065416646376        0.0000000000000000     
 -0.10468065313208340       0.23165131238646364        0.0000000000000000     
 -0.10550988058575153       0.24003947137776338        0.0000000000000000     
 -0.10627600092291729       0.24855239953205016        0.0000000000000000     
 -0.10697901414358077       0.25719009684932403        0.0000000000000000     
 -0.10761892024774188       0.26595256332958495        0.0000000000000000     
 -0.11292874401649797       0.23193306868005389        0.0000000000000000     
 -0.11386406773635283       0.24030510416565762        0.0000000000000000     
 -0.11478012323715751       0.24879248089173700        0.0000000000000000     
 -0.11567691051891203       0.25739519885829198        0.0000000000000000     
 -0.11655442958161638       0.26611325806532260        0.0000000000000000     
  -8.2533420884783715E-002  0.26552319255807028        0.0000000000000000     
  -8.2730696471970053E-002  0.27446382232347899        0.0000000000000000     
  -8.2911559079042588E-002  0.28357401756109557        0.0000000000000000     
  -8.3076008706001361E-002  0.29285377827091985        0.0000000000000000     
  -8.3224045352846332E-002  0.30230310445295211        0.0000000000000000     
  -9.0608415899325528E-002  0.26565753057595887        0.0000000000000000     
  -9.0865489573215025E-002  0.27464823601392191        0.0000000000000000     
  -9.1082408378999682E-002  0.28389053300226574        0.0000000000000000     
  -9.1259172316679460E-002  0.29338442154099031        0.0000000000000000     
  -9.1395781386254427E-002  0.30312990163009568        0.0000000000000000     
  -9.8970249020311582E-002  0.26580065416646376        0.0000000000000000     
  -9.9347504637054981E-002  0.27481755497493005        0.0000000000000000     
  -9.9656388958956926E-002  0.28415910205315037        0.0000000000000000     
  -9.9896901986017375E-002  0.29382529540112479        0.0000000000000000     
 -0.10006904371823634       0.30381613501885318        0.0000000000000000     
 -0.10761892024774188       0.26595256332958495        0.0000000000000000     
 -0.10817674166348996       0.27497177920650340        0.0000000000000000     
 -0.10863350081891435       0.28437972471374945        0.0000000000000000     
 -0.10898919771401509       0.29417639985132321        0.0000000000000000     
 -0.10924383234879208       0.30436180461922469        0.0000000000000000     
 -0.11655442958161638       0.26611325806532260        0.0000000000000000     
 -0.11735320065251992       0.27511090870864197        0.0000000000000000     
 -0.11801374395887197       0.28455240098406298        0.0000000000000000     
 -0.11853605950067256       0.29443773489158570        0.0000000000000000     
 -0.11892014727792165       0.30476691043121013        0.0000000000000000     
 </DataArray>
 <DataArray  type="Float64" Name="stress" NumberOfComponents="3" format="ascii">
   6066090532.9992018        49688979.261916637        20112165.571157120     
   5840933916.5545759        15064649.158529997        14848859.587284897     
   5618551007.9515324       -10313988.139577627        11193811.160881994     
   5398941807.1900702       -26446932.632444143        9147020.2919714693     
   5182106314.2701731       -33334184.320063114        8708486.9805379529     
   5702608310.9037952        36212921.204219103        180588505.09670666     
   5487528551.1992092        13546983.118638515        175135335.24970937     
   5273805654.7568617       -4596077.4261596203        173065707.17960721     
   5061439621.5767536       -18216260.430157185        174379620.88639885     
   4850430451.6588774       -27313565.893379450        179077076.37010098     
   5329163215.1415749        19748001.046483755        345328004.59961241     
   5129232552.8039246        10562127.166754723        338031985.54692972     
   4929241909.1491728        1176315.5633592606        335894792.49056017     
   4729191284.1773167       -8409433.7637062073        338916425.43050194     
   4529080677.8883638       -18195120.814450264        347096884.36675692     
   4945755245.7125406        294218.78869724274        514330664.07986164     
   4766045921.3687220        6110081.3029038906        503538810.47893852     
   4584859771.1284685        7003190.8289771080        499681067.09373611     
   4402196794.9917688        2973547.3669111729        502757433.92427063     
   4218056992.9586315       -5978849.0832858086        512767910.97052556     
   4552384402.6167021       -22148425.569127321        687596483.53746700     
   4397968656.8936119        190845.52707076073        671655810.04573476     
   4240659240.6947446        12884548.370685339        664424530.98914564     
   4080456154.0200944        15932682.961696148        665902646.36769676     
   3917359396.8696680        9335249.3001029491        676090156.18139362     
   5182106314.2701731       -33334184.320063114        8708486.9805379529     
   5025676105.0153217       -19253467.167571783       -277082.24654442706     
   4868348924.4511461       -8162654.3794817924       -2502167.0343171000     
   4710124772.5776577       -61745.955764532089        2033232.6172455540     
   4551003649.3948545        5049258.1035511494        13329116.708143534     
   4850430451.6588774       -27313565.893379450        179077076.37010098     
   4709070798.5646467       -14307763.603045702        172015525.93596971     
   4567150932.3442945       -3169338.3997750282        170034283.84656793     
   4424670852.9978304        6101709.7164535522        173133350.10188219     
   4281630560.5252504        13505380.745620728        181312724.70192596     
   4529080677.8883638       -18195120.814450264        347096884.36675692     
   4397991077.8273058       -7704384.3245022297        342352237.27266669     
   4266678022.8233266        2041502.3557097912        341007722.42868966     
   4135141512.8764329        11042539.226207733        343063339.83482307     
   4003381547.9866242        19298726.286977053        348519089.49107987     
   4218056992.9586315       -5978849.0832858086        512767910.97052556     
   4092436942.8032918        556670.66802382469        510733051.76353204     
   3966930195.8882365        7469867.8869450092        510418148.71204656     
   3841536752.2134690        14760742.573481560        511823201.81607151     
   3716256611.7789841        22429294.727638721        514948211.07559925     
   3917359396.8696680        9335249.3001029491        676090156.18139362     
   3792408393.4926052        10475401.374548197        677157969.40856707     
   3667907451.5390301        13115758.193948269        678265562.69663978     
   3543856571.0089383        17256319.758291721        679412936.04561746     
   3420255751.9023342        22897086.067591190        680600089.45550203     
   4551003649.3948545        5049258.1035511494        13329116.708143534     
   4348007664.3674879       -3299421.6920814514        9219521.1325410213     
   4145712677.9231210       -9311439.5443603992        8249294.8085911311     
   3944118690.0617690       -12986795.453278542        10418437.736268885     
   3743225700.7834158       -14325489.418845654        15726949.915595423     
   4281630560.5252504        13505380.745620728        181312724.70192596     
   4087949936.8507214        5559949.4738578796        175168810.28827742     
   3894726007.8801141       -863166.11819052696        172958131.85044208     
   3701958773.6134052       -5763966.0305585861        174680689.38842160     
   3509648234.0506144       -9142450.2631998062        180336482.90218806     
   4003381547.9866242        19298726.286977053        348519089.49107987     
   3821284476.3054061        12437000.731219292        340055835.04711562     
   3639399795.4489980        6283244.5915076733        336319683.30313075     
   3457727505.4174109        837457.86785960197        337310634.25910634     
   3276267606.2106476       -3900359.4397203922        343028687.91504043     
   3716256611.7789841        22429294.727638721        514948211.07559925     
   3548011282.7315288        17331732.080005646        503880595.40904838     
   3379734040.6297946        12127792.584795713        498333949.16663074     
   3211424885.4737921        6817476.2420033216        498308272.34833950     
   3043083817.2635050        1400783.0516147614        503803564.95416909     
   3420255751.9023342        22897086.067591190        680600089.45550203     
   3268130356.1291013        20244143.520245194        666643091.37407851     
   3115728743.4225006        16670477.861655116        659000929.44095135     
   2963050913.7825294        12176089.091841459        657673603.65611470     
   2810096867.2091918        6760977.2107989788        662661114.01956677     
   3743225700.7834158       -14325489.418845654        15726949.915595423     
   3573147250.5090127       -7054105.4571802616        8840159.2809061166     
   3401949592.5698590       -3513413.7113175392        6635057.3318172060     
   3229632726.9659710       -3703414.1812469959        9111644.0683139618     
   3056196653.6973610       -7624106.8669261932        16269919.490432890     
   3509648234.0506144       -9142450.2631998062        180336482.90218806     
   3350634994.1604786       -2870558.5670089722        172158483.92458591     
   3190941665.7381077        1134371.3550879955        168041148.61823735     
   3030568248.7835093        2872339.5030615330        167984476.98316222     
   2869514743.2966795        2343345.8769608736        171988469.01932919     
   3276267606.2106476       -3900359.4397203922        343028687.91504043     
   3126545219.5209532        839732.83587801456        334071786.24912149     
   2976581863.4315233        4776593.7790316343        328554523.24011153     
   2826377537.9423757        7910223.3897752762        326476898.88802040     
   2675932243.0534868        10240621.668068051        327838913.19284308     
   3043083817.2635050        1400783.0516147614        503803564.95416909     
   2900877926.5904226        4076768.7514503002        494580066.25451213     
   2758870185.6501150        7413253.5605473518        488175181.19742781     
   2617060594.4425721        11410237.478871465        484588909.78291720     
   2475449152.9678168        16067720.506452084        483821252.01098257     
   2810096867.2091918        6760977.2107989788        662661114.01956677     
   2673633115.3688860        6840549.1797307730        653683323.94075346     
   2537806632.3938622        9044350.6995965242        646903122.49018037     
   2402617418.2841148        13372381.770381451        642320509.66783893     
   2268065473.0396380        19824642.392090201        639935485.47372878     
   3056196653.6973610       -7624106.8669261932        16269919.490432890     
   2890319294.9540806       -9792103.4041637182        11038857.994750427     
   2725221637.3640656       -9361096.0972244740        6646781.7047794349     
   2560903680.9272842       -6331084.9461510181        3093690.6205237554     
   2397365425.6437392       -702069.95095837116        379584.74197186122     
   2869514743.2966795        2343345.8769608736        171988469.01932919     
   2706876571.5626278        979801.77312719822        165369644.73151585     
   2544681685.7650905        1093877.4576866627        160217874.68352315     
   2382930085.9040537        2685572.9305530787        156533158.87536579     
   2221621771.9795179        5754888.1917982101        154315497.30702779     
   2675932243.0534868        10240621.668068051        327838913.19284308     
   2518327741.2832713        10219874.884030223        319439841.69337142     
   2360830110.2328277        10555363.832556367        313135893.46783590     
   2203439349.9021487        11247088.513640881        308927068.51624137     
   2046155460.2912433        12295048.927292109        306813366.83859265     
   2475449152.9678168        16067720.506452084        483821252.01098257     
   2324672804.1160383        17928115.928572178        473249448.88032860     
   2173666910.7673016        19023363.027481079        465400838.05772072     
   2022431472.9215868        19353461.803125262        460275419.54316849     
   1870966490.5789187        18918412.255594254        457873193.33667636     
   2268065473.0396380        19824642.392090201        639935485.47372878     
   2125911760.0609241        24104524.906756163        626798466.29236305     
   1983192087.3684940        26497875.042401552        617012708.45316589     
   1839906454.9623699        27004692.799044728        610578211.95613730     
   1696054862.8425360        25624978.176665664        607494976.80127227     
   2397365425.6437392       -702069.95095837116        379584.74197186122     
   2254153122.1957788        7189223.0834846497       -6476835.6104770973     
   2107632211.5430868        4051825.4354993105       -11141876.965309754     
   1957802693.6856799       -10114262.894875050       -13615539.322509456     
   1804664568.6235418       -35309041.907685995       -13897822.682090294     
   2221621771.9795179        5754888.1917982101        154315497.30702779     
   2082737324.6595476        12925364.859381557        143913895.03270584     
   1941678163.7712240        12846796.299127221        134816376.09771580     
   1798444289.3145342        5519182.5109812021        127022940.50205757     
   1653035701.2894921       -9057476.5049821138        120533588.24573889     
   2046155460.2912433        12295048.927292109        306813366.83859265     
   1909063738.6469979        17984170.092376351        294189458.55149788     
   1770931197.0707688        20203891.484162450        281982337.94544220     
   1631757835.5625310        18954213.102606535        270192005.02042627     
   1491543654.1223092        14235134.947748303        258818459.77643913     
   1870966490.5789187        18918412.255594254        457873193.33667636     
   1733132364.1581345        22365638.782487035        444349854.94589800     
   1595391311.4417162        26123110.990612566        430356008.57786644     
   1457743332.4296670        30190828.879960537        415891654.23257762     
   1320188427.1219933        34568792.450562239        400956791.91003215     
   1696054862.8425360        25624978.176665664        607494976.80127227     
   1554943201.1929336        26069770.929679692        594395084.21591175     
   1415058506.8840783        30604454.818495452        579937387.99499893     
   1276400779.9159470        39229029.843076468        564121888.13853395     
   1138970020.2885573        51943496.003446817        546948584.64651680     
   1804664568.6235418       -35309041.907685995       -13897822.682090294     
   1773228049.6884947       -16744089.691865802       -8248211.4858890735     
   1749879862.8310292        28781969.449226975       -41409792.973605528     
   1734620008.0511851        101269135.51572412       -113382567.14520635     
   1727448485.3489139        200717408.50746453       -224166534.00070947     
   1653035701.2894921       -9057476.5049821138        120533588.24573889     
   1529830622.9201627       -13926519.293251276        136109133.65643427     
   1410808981.1946530       -4850773.2687882781        125312517.18713678     
   1295970776.1128800        18169761.568137169        88143738.837862402     
   1185316007.6749222        55135085.217789888        24602798.608586162     
   1491543654.1223092        14235134.947748303        258818459.77643913     
   1312110104.3299122       -3405876.4411423206        279764228.06219208     
   1132955095.7474737       -20118417.130177617        286776865.27186537     
   954078628.37502623       -35902487.119247794        279856371.40547991     
   775480702.21254218       -50758086.408434600        259002746.46300769     
   1320188427.1219933        34568792.450562239        400956791.91003215     
   1120066493.9176972        14817838.864315689        422717071.73139393     
   916318206.48956692       -17020962.134711802        442983251.28059888     
   708943564.83759320       -60947610.546539813        461755330.55764484     
   497942568.96177846       -116962106.37117079        479033309.56253946     
   1138970020.2885573        51943496.003446817        546948584.64651680     
   953699791.68354654        40744626.623216331        564967664.66403663     
   760898313.42089999        4441591.7175108492        593931675.21332383     
   560565585.50058675       -56965608.713730931        633840616.29436815     
   352701607.92264915       -143476974.67040339        684694487.90717471     
   1727448485.3489139        200717408.50746453       -224166534.00070947     
   1456812823.6181142        184540729.75471848       -96663308.686796039     
   1153966383.6321321        60994790.151387334        60012013.466748111     
   818909165.39100122       -169920410.30243981        245859432.45992681     
   451641168.89472318       -508204871.60677993        460878948.29273367     
   1185316007.6749222        55135085.217789888        24602798.608586162     
   978108543.51343644        12049560.317496002        155860213.88925672     
   733035198.86230469       -157255566.21495107        312946187.26381326     
   450095973.72157699       -452780294.37938488        495860718.73225713     
   129290868.09120440       -874524624.17596817        704603808.29461527     
   775480702.21254218       -50758086.408434600        259002746.46300769     
   622148467.77542484       -123618347.80974668        387416732.43687296     
   425295250.61420149       -341548551.62471735        538315737.75887764     
   184921050.72888941       -704548697.85332847        711699762.42905915     
  -98974131.880528629       -1212618786.4956205        907568806.44740248     
   497942568.96177846       -116962106.37117079        479033309.56253946     
   388932596.40407705       -222462994.62698022        598006246.95604372     
   230746538.88780111       -491884166.07802689        736120664.95197237     
   23384396.412962854       -925225620.72426069        893376563.55032635     
  -233153831.02042735       -1522487358.5657229        1069773942.7511160     
   352701607.92264915       -143476974.67040339        684694487.90717471     
   278460929.39939421       -284484380.13422096        787628757.44678056     
   149389063.68311301       -608262409.57479274        906360968.84307420     
  -34513989.226200998       -1114811062.9921432        1040891122.0960749     
  -273248229.32855684       -1804130340.3862941        1191219217.2057557     
   4552384402.6167021       -22148425.569127321        687596483.53746700     
   4397968656.8936119        190845.52707076073        671655810.04573476     
   4240659240.6947446        12884548.370685339        664424530.98914564     
   4080456154.0200944        15932682.961696148        665902646.36769676     
   3917359396.8696680        9335249.3001029491        676090156.18139362     
   4170744800.8296642       -4682921.1058645248        814178072.75410366     
   4032238478.8774595        4209110.5959770679        798020461.28804982     
   3892375046.8607130        8577442.0826590061        788494682.76315355     
   3751154504.7794137        8422073.3541824818        785600737.17942607     
   3608576852.6335688        3743004.4105494022        789338624.53686011     
   3798537955.4840989        15612410.289843082        932855617.16971982     
   3670005167.3199949        9276435.6024842262        918273721.54244113     
   3541651829.5025759        3538628.7374091148        908246097.36234570     
   3413477942.0318413       -1601010.3053901196        902772744.62943876     
   3285483504.9077859       -6142481.5259127617        901853663.34371841     
   3435763866.5800271        38737568.617996931        1043629116.7843120     
   3311268722.2212267        15392820.546602964        1032415590.8089101     
   3188489588.6203432       -2231891.6650750637        1023678774.7867153     
   3067426465.7773728       -14136568.017033935        1017418668.7177361     
   2948079353.6923170       -20321208.509283781        1013635272.6019644     
   3082422534.1174302        64692553.878593206        1146498571.5978832     
   2956029143.5811434        22558265.428322315        1140446069.0874636     
   2832888324.2140040       -8734119.1247870922        1134792715.0362730     
   2713000076.0160079       -29184599.780750871        1129538509.4443161     
   2596364398.9871616       -38793176.539554119        1124683452.3115952     
   3917359396.8696680        9335249.3001029491        676090156.18139362     
   3792408393.4926052        10475401.374548197        677157969.40856707     
   3667907451.5390301        13115758.193948269        678265562.69663978     
   3543856571.0089383        17256319.758291721        679412936.04561746     
   3420255751.9023342        22897086.067591190        680600089.45550203     
   3608576852.6335688        3743004.4105494022        789338624.53686011     
   3486296379.5039139        3689066.9658811092        787013880.96408653     
   3364407727.0722799        4941198.5146250725        786979170.48667336     
   3242910895.3386765        7499399.0567972660        789234493.10462070     
   3121805884.3030915        11363668.592380762        793779848.81792092     
   3285483504.9077859       -6142481.5259127617        901853663.34371841     
   3172302856.4096975       -5461720.1744484901        896068415.45796156     
   3059455787.8841729       -3669025.5810981989        894823453.70202243     
   2946942299.3312178       -764397.74584925175        898118778.07589817     
   2834762390.7508283        3252163.3312804699        905954388.57958674     
   2948079353.6923170       -20321208.509283781        1013635272.6019644     
   2850427824.2099543       -16976960.046436906        1004321572.8901899     
   2753051633.9747005       -12714914.093231559        1001798412.3426870     
   2655950782.9865546       -7535070.6496678591        1006065790.9594579     
   2559125271.2455177       -1437429.7157320976        1017123708.7404996     
   2596364398.9871616       -38793176.539554119        1124683452.3115952     
   2520671282.9046893       -30856652.650081873        1111773353.2607694     
   2445195265.3438654       -22196467.021779180        1107904046.4086702     
   2369936346.3046951       -12812619.654631972        1113075531.7553022     
   2294894525.7871685       -2705110.5486731529        1127287809.3006632     
   3420255751.9023342        22897086.067591190        680600089.45550203     
   3268130356.1291013        20244143.520245194        666643091.37407851     
   3115728743.4225006        16670477.861655116        659000929.44095135     
   2963050913.7825294        12176089.091841459        657673603.65611470     
   2810096867.2091918        6760977.2107989788        662661114.01956677     
   3121805884.3030915        11363668.592380762        793779848.81792092     
   2985336823.7400708        11043383.481784344        783026402.34449625     
   2848755938.2232184        10350348.525084853        777463148.93753552     
   2712063227.7525368        9284563.7222856283        777090088.59704351     
   2575258692.3280287        7846029.0733999014        781907221.32301044     
   2834762390.7508283        3252163.3312804699        905954388.57958674     
   2710736399.4499383        4300555.8729939461        898596284.35695565     
   2586762975.1747594        5524171.8337492943        895303730.11896181     
   2462842117.9252968        6923011.2135491371        896076725.86561155     
   2338973827.7015443        8497074.0123981237        900915271.59690285     
   2559125271.2455177       -1437429.7157320976        1017123708.7404996     
   2444329083.2586937        15660.693869352341        1013352737.4114585     
   2329749854.2771268        2191947.7876695395        1012522672.9852331     
   2215387584.3008146        5091431.5656448603        1014633515.4618247     
   2101242273.3297622        8714112.0278134346        1019685264.8412361     
   2294894525.7871685       -2705110.5486731529        1127287809.3006632     
   2186114875.1663456       -1811302.0555845499        1127295761.5080082     
   2077716575.5303183        353676.38682520390        1129119977.5363452     
   1969699626.8790898        3789824.7785623074        1132760457.3856816     
   1862064029.2126579        8497143.1196222305        1138217201.0560086     
   2810096867.2091918        6760977.2107989788        662661114.01956677     
   2673633115.3688860        6840549.1797307730        653683323.94075346     
   2537806632.3938622        9044350.6995965242        646903122.49018037     
   2402617418.2841148        13372381.770381451        642320509.66783893     
   2268065473.0396380        19824642.392090201        639935485.47372878     
   2575258692.3280287        7846029.0733999014        781907221.32301044     
   2445727971.4080663        9082053.9504144192        773384976.53131139     
   2316633744.7877927        11773059.826376915        767731370.07131028     
   2187976012.4671946        15919046.701260805        764946401.94301879     
   2059754774.4462736        21520014.575074077        765030072.14642465     
   2338973827.7015443        8497074.0123981237        900915271.59690285     
   2218293422.5689964        11464737.257624745        892614335.09910476     
   2097848737.1705387        15218132.949801683        887853086.63647890     
   1977639771.5061538        19757261.088897109        886631526.20903659     
   1857666525.5758541        25082121.674938202        888949653.81677032     
   2101242273.3297622        8714112.0278134346        1019685264.8412361     
   1991329468.8516867        13988599.101358652        1011371399.6441396     
   1881451609.5421023        19379570.069869995        1007268272.1856931     
   1771608695.4009931        24887024.933304310        1007375882.4658989     
   1661800726.4283676        30510963.691677332        1011694230.4847519     
   1862064029.2126579        8497143.1196222305        1138217201.0560086     
   1764836110.2561269        16653639.481631160        1129656170.1664171     
   1667442361.9024835        24257371.186596215        1125976926.7189512     
   1569882784.1517127        31308338.234469414        1127179470.7136030     
   1472157377.0038304        37806540.625314355        1133263802.1503808     
   2268065473.0396380        19824642.392090201        639935485.47372878     
   2125911760.0609241        24104524.906756163        626798466.29236305     
   1983192087.3684940        26497875.042401552        617012708.45316589     
   1839906454.9623699        27004692.799044728        610578211.95613730     
   1696054862.8425360        25624978.176665664        607494976.80127227     
   2059754774.4462736        21520014.575074077        765030072.14642465     
   1926292710.7655342        25625466.675507069        753527465.08741128     
   1792444745.2628713        28444579.369528413        745399733.93410254     
   1658210877.9382668        29977352.657078147        740646878.68652153     
   1523591108.7917254        30223786.538171530        739268899.34464252     
   1857666525.5758541        25082121.674938202        888949653.81677032     
   1732963581.3746650        29033384.415644288        879291526.42049325     
   1608054793.2433147        32298500.722461879        873031889.49348152     
   1482940161.1817985        34877470.595395505        870170743.03573179     
   1357619685.1901119        36770294.034436345        870708087.04724419     
   1661800726.4283676        30510963.691677332        1011694230.4847519     
   1545924371.8882971        34328278.127116680        1004090650.2916162     
   1430022231.3098302        38059639.101230085        999909175.13129127     
   1314094304.6929595        41705046.614008248        999149805.00378072     
   1198140592.0376933        45264500.665453196        1001812539.9090711     
   1472157377.0038304        37806540.625314355        1133263802.1503808     
   1365175082.3064342        41510147.809937358        1127924836.7007842     
   1258347059.4624095        45727994.505800843        1126031590.8475461     
   1151673308.4717579        50460080.712908089        1127584064.5906682     
   1045153829.3344713        55706406.431242228        1132582257.9301386     
   1696054862.8425360        25624978.176665664        607494976.80127227     
   1554943201.1929336        26069770.929679692        594395084.21591175     
   1415058506.8840783        30604454.818495452        579937387.99499893     
   1276400779.9159470        39229029.843076468        564121888.13853395     
   1138970020.2885573        51943496.003446817        546948584.64651680     
   1523591108.7917254        30223786.538171530        739268899.34464252     
   1380485251.0614393        27876678.171668649        730276758.15951061     
   1237733834.2701335        26711039.601766288        721752708.49852610     
   1095336858.4178104        26726870.828462958        713696750.36167932     
   953294323.50446796        27924171.851771832        706108883.74898314     
   1357619685.1901119        36770294.034436345        870708087.04724419     
   1217736474.6925414        33196337.542411506        864805749.79363716     
   1077335178.7322030        27895429.507834196        861197399.22386038     
   936415797.30908728        20867569.930666566        859883035.33791947     
   794978330.42320693        12112758.810942024        860862658.13581681     
   1198140592.0376933        45264500.665453196        1001812539.9090711     
   1066696872.0862557        42028749.041963875        997982059.11827242     
   933862540.27029300        34157624.536715090        998271460.17100382     
   799637596.58980060        21651127.149711221        1002680743.0672646     
   664022041.04478717        4509256.8809596002        1011209907.8070501     
   1045153829.3344713        55706406.431242228        1132582257.9301386     
   927366443.24256766        54373912.670268863        1129805686.1334372     
   807315918.88439679        45497624.688400179        1132974891.3399556     
   685002256.25993955        29077542.485585243        1142089873.5496962     
   560425455.36920381        5113666.0618413687        1157150632.7626643     
   1138970020.2885573        51943496.003446817        546948584.64651680     
   953699791.68354654        40744626.623216331        564967664.66403663     
   760898313.42089999        4441591.7175108492        593931675.21332383     
   560565585.50058675       -56965608.713730931        633840616.29436815     
   352701607.92264915       -143476974.67040339        684694487.90717471     
   953294323.50446796        27924171.851771832        706108883.74898314     
   793744556.40937281        11285713.354414910        723839231.18740213     
   625543475.93606901       -34190456.403637737        751664908.28257644     
   448691082.08457088       -108504337.42234054        789585915.03448260     
   263187374.85486475       -211655929.70173144        837602251.44313431     
   794978330.42320693        12112758.810942024        860862658.13581681     
   658721593.76653600       -10693518.125010341        876997531.98783863     
   512693480.01110375       -66071052.056825697        902378134.62157834     
   356893989.15692043       -154019842.98448700        937004466.03704143     
   191323121.20397532       -274539890.90801096        980876526.23422897     
   664022041.04478717        4509256.8809596002        1011209907.8070501     
   548630903.75505888       -25193067.815015227        1024442567.0653464     
   422348325.64601946       -91200195.242023170        1046071354.2303407     
   285174306.71764964       -193512125.40012294        1076096269.3020430     
   137108846.96998858       -332128858.28921640        1114517312.2804432     
   560425455.36920381        5113666.0618413687        1157150632.7626643     
   463472486.37493026       -32212935.715615571        1166174336.4199142     
   354508012.84078401       -109577885.95930929        1182744567.1088524     
   233532034.76677746       -226981184.66920692        1206861324.8294706     
   100544552.15290421       -384422831.84533781        1238524609.5817797     
   352701607.92264915       -143476974.67040339        684694487.90717471     
   278460929.39939421       -284484380.13422096        787628757.44678056     
   149389063.68311301       -608262409.57479274        906360968.84307420     
  -34513989.226200998       -1114811062.9921432        1040891122.0960749     
  -273248229.32855684       -1804130340.3862941        1191219217.2057557     
   263187374.85486475       -211655929.70173144        837602251.44313431     
   224269843.34215000       -351111014.23826367        886507852.87362385     
   141072188.96221849       -638166508.33219612        946428936.08768690     
   13594411.715077341       -1072822411.9835025        1017365501.0853392     
  -158163488.39931738       -1655078725.1922817        1099317547.8665612     
   191323121.20397532       -274539890.90801096        980876526.23422897     
   174064565.06435204       -416541906.00847590        988063034.60236621     
   123076950.38331813       -670974116.24697614        1001482564.6809739     
   38360277.160855412       -1037836521.6235287        1021135116.4700598     
  -80085454.603000402       -1517129122.1381457        1047020689.9695971     
   137108846.96998858       -332128858.28921640        1114517312.2804432     
   127845094.56599569       -480777055.44484055        1092294302.6330080     
   95403347.946389884       -706685233.31916380        1071521854.6229348     
   39783607.111179233       -1009853391.9122028        1052199968.2502292     
  -39014127.939646542       -1390281531.2238920        1034328643.5148723     
   100544552.15290421       -384422831.84533781        1238524609.5817797     
   85611431.847076535       -543816462.54738748        1199201656.9655488     
   58051381.651439130       -745299859.54879153        1156546805.9135787     
   17864401.566028297       -988873022.84945440        1110560056.4258492     
  -34949508.409206808       -1274535952.4495261        1061241408.5023806     
   3082422534.1174302        64692553.878593206        1146498571.5978832     
   2956029143.5811434        22558265.428322315        1140446069.0874636     
   2832888324.2140040       -8734119.1247870922        1134792715.0362730     
   2713000076.0160079       -29184599.780750871        1129538509.4443161     
   2596364398.9871616       -38793176.539554119        1124683452.3115952     
   2719846859.0663362        13969447.122614861        1209131765.5204728     
   2606186045.5297413        13385660.283537269        1211345931.9971759     
   2491454641.3776245        9233238.0593943596        1213366662.7195220     
   2375652646.6099896        1512180.4501807690        1215193957.6875036     
   2258780061.2268329       -9777512.5440988541        1216827816.9011285     
   2378100152.8847022       -30504968.972524166        1288798622.4756329     
   2275478818.5946679        9953816.4736467600        1294235769.1906867     
   2167463731.9044533        32433427.252536178        1298886895.9377887     
   2054054892.8140464        36933863.364130020        1302752002.7169378     
   1935252301.3234563        23455124.808443904        1305831089.5281279     
   2057182415.5725150       -68730694.406828165        1385499142.4633689     
   1963907462.7759256        12262733.998657584        1389115580.6679966     
   1860915595.7944810        60866448.454638720        1391353414.6910784     
   1748206814.6281850        77080448.961111188        1392212644.5326095     
   1625781119.2770357        60904735.518072546        1391693270.1925943     
   1757093647.1297858       -100707729.18029809        1499233325.4836800     
   1671471978.0735106        20312412.858566642        1495985366.4291034     
   1571810233.0477145        94532301.665703058        1490766218.9793873     
   1458108412.0523989        121951937.24110591        1483575883.1345263     
   1330366515.0875690        102571319.58479071        1474414358.8945243     
   2596364398.9871616       -38793176.539554119        1124683452.3115952     
   2520671282.9046893       -30856652.650081873        1111773353.2607694     
   2445195265.3438654       -22196467.021779180        1107904046.4086702     
   2369936346.3046951       -12812619.654631972        1113075531.7553022     
   2294894525.7871685       -2705110.5486731529        1127287809.3006632     
   2258780061.2268329       -9777512.5440988541        1216827816.9011285     
   2202551501.7033205       -4022164.0968706608        1207844319.4655910     
   2146636500.0592513        2778377.2818249464        1205296113.8248920     
   2091035056.2946250        10624111.592002749        1209183199.9790297     
   2035747170.4094391        19515038.833645582        1219505577.9280002     
   1935252301.3234563        23455124.808443904        1305831089.5281279     
   1891044011.4906430        24796011.752944469        1300886729.6253092     
   1847245738.8950608        27503622.821555614        1299772161.1134319     
   1803857483.5367167        31577958.014289021        1302487383.9925008     
   1760879245.4156044        37019017.331131220        1309032398.2625134     
   1625781119.2770357        60904735.518072546        1391693270.1925943     
   1586148812.2666543        55597874.899366319        1390900583.7399139     
   1547022981.8513026        51979269.597421288        1391332188.2742856     
   1508403628.0309744        50048919.612223566        1392988083.7957077     
   1470290750.8056760        49806824.943791091        1395868270.3041844     
   1330366515.0875690        102571319.58479071        1474414358.8945243     
   1287865904.0313566        88383425.342395484        1477885881.8094110     
   1245968228.9279668        76205317.609407008        1479976195.3074532     
   1204673489.7773943        66036996.385809302        1480685299.3886585     
   1163981686.5796416        57878461.671612501        1480013194.0530217     
   2294894525.7871685       -2705110.5486731529        1127287809.3006632     
   2186114875.1663456       -1811302.0555845499        1127295761.5080082     
   2077716575.5303183        353676.38682520390        1129119977.5363452     
   1969699626.8790898        3789824.7785623074        1132760457.3856816     
   1862064029.2126579        8497143.1196222305        1138217201.0560086     
   2035747170.4094391        19515038.833645582        1219505577.9280002     
   1932093563.5577068        15121180.827429056        1215287410.9118388     
   1828934045.6674874        12374286.026251674        1214416321.3968985     
   1726268616.7387731        11274354.430089355        1216892309.3831859     
   1624097276.7715678        11821386.038965166        1222715374.8706915     
   1760879245.4156044        37019017.331131220        1309032398.2625134     
   1666725435.7050536        28649618.837244451        1300719639.6623383     
   1573178452.9327233        22302976.804092348        1297284772.2436140     
   1480238297.0986133        17979091.231677055        1298727796.0063424     
   1387904968.2027206        15677962.119982600        1305048710.9505291     
   1470290750.8056760        49806824.943791091        1395868270.3041844     
   1390010491.6083839        38774011.973848641        1383592447.7594926     
   1310449797.3260286        30139748.720356762        1377725330.0764806     
   1231608667.9586043        23904035.183303177        1378266917.2551577     
   1153487103.5061045        20066871.362665176        1385217209.2955136     
   1163981686.5796416        57878461.671612501        1480013194.0530217     
   1101948731.2676997        45494360.237255037        1463905835.2033076     
   1040748078.8474021        35884601.775042415        1455737994.8955097     
   980379729.31874847        29049186.284973860        1455509673.1296251     
   920843682.68173075        24988113.767027199        1463220869.9056518     
   1862064029.2126579        8497143.1196222305        1138217201.0560086     
   1764836110.2561269        16653639.481631160        1129656170.1664171     
   1667442361.9024835        24257371.186596215        1125976926.7189512     
   1569882784.1517127        31308338.234469414        1127179470.7136030     
   1472157377.0038304        37806540.625314355        1133263802.1503808     
   1624097276.7715678        11821386.038965166        1222715374.8706915     
   1538838823.4976697        18043951.309079111        1214566856.6966486     
   1453482985.2094698        23941899.864864290        1211190124.1652551     
   1368029761.9069579        29515231.706271648        1212585177.2765105     
   1282479153.5901418        34763946.833332181        1218752016.0304024     
   1387904968.2027206        15677962.119982600        1305048710.9505291     
   1314301689.7558074        19872309.041518807        1297392557.2719822     
   1240669470.6774006        23970187.191412866        1294398187.4366050     
   1167008310.9675012        27971596.569656849        1296065601.4443989     
   1093318210.6261075        31876537.176259577        1302394799.2953589     
   1153487103.5061045        20066871.362665176        1385217209.2955136     
   1091224709.0305343        22138712.678928554        1378133271.8924112     
   1029001818.3062772        24342233.166246712        1375601116.5329995     
   966818431.33334267        26677432.824628115        1377620743.2172844     
   904674548.11172557        29144311.654072762        1384192151.9452605     
   920843682.68173075        24988113.767027199        1463220869.9056518     
   869607881.32185042        24843162.221315175        1456789000.5579329     
   818480028.09610403        25058037.789377153        1454798911.4544387     
   767460123.00448704        25632740.471206456        1457250602.5951564     
   716548166.04699802        26567270.266795546        1464144073.9801011     
   1472157377.0038304        37806540.625314355        1133263802.1503808     
   1365175082.3064342        41510147.809937358        1127924836.7007842     
   1258347059.4624095        45727994.505800843        1126031590.8475461     
   1151673308.4717579        50460080.712908089        1127584064.5906682     
   1045153829.3344713        55706406.431242228        1132582257.9301386     
   1282479153.5901418        34763946.833332181        1218752016.0304024     
   1184680927.1594703        36456634.611297607        1214105025.9712191     
   1087058058.1068649        38733846.982822537        1213541042.5377700     
   989610546.43233740        41595583.947943091        1217060065.7300591     
   892338392.13589478        45041845.506668359        1224662095.5480766     
   1093318210.6261075        31876537.176259577        1302394799.2953589     
   1006524872.5460931        32104551.572722256        1298464384.4054108     
   919927977.36885774        32987375.645118624        1299254263.1705754     
   833527525.09440422        34525009.393450975        1304764435.5908582     
   747323515.72272766        36717452.817710727        1314994901.6662531     
   904674548.11172557        29144311.654072762        1384192151.9452605     
   830706918.46631181        28453898.694224805        1381002912.0033617     
   756956817.24838519        28488580.492665231        1383171252.7459631     
   683424244.45793891        29248357.049379289        1390697174.1730611     
   610109200.09498274        30733228.364383012        1403580676.2846475     
   716548166.04699802        26567270.266795546        1464144073.9801011     
   657227064.92012680        25504675.975819618        1461720608.7650790     
   598144577.74544656        25237461.525476962        1465292011.2639372     
   539300704.52295518        25765626.915768266        1474858281.4766665     
   480695445.25265181        27089172.146686211        1490419419.4032719     
   1045153829.3344713        55706406.431242228        1132582257.9301386     
   927366443.24256766        54373912.670268863        1129805686.1334372     
   807315918.88439679        45497624.688400179        1132974891.3399556     
   685002256.25993955        29077542.485585243        1142089873.5496962     
   560425455.36920381        5113666.0618413687        1157150632.7626643     
   892338392.13589478        45041845.506668359        1224662095.5480766     
   789928963.07572424        43713222.515132248        1221917907.8765874     
   685212065.34884906        34693037.301244587        1225056247.6641042     
   578187698.95524776        17981289.864935219        1234077114.9106388     
   468855863.89493167       -6422019.7937512398        1248980509.6161771     
   747323515.72272766        36717452.817710727        1314994901.6662531     
   660111330.71084356        35338486.700604409        1312231379.3194518     
   570547346.63180089        26120190.359638900        1315287134.8874583     
   478631563.48560113        9062563.7948187590        1324162168.3702605     
   384363981.27224541       -15834392.993861496        1338856479.7678611     
   610109200.09498274        30733228.364383012        1403580676.2846475     
   537913546.14791322        29249705.226644993        1400746100.4620342     
   463321762.73325181        19779083.863596231        1403667553.0100114     
   386333849.85099256        2321364.2752237171        1412345033.9285762     
   306949807.50112551       -23123453.538508460        1426778543.2177367     
   480695445.25265181        27089172.146686211        1490419419.4032719     
   423335609.38694310        25446878.093283638        1487462071.3043301     
   363535313.65319151        15669717.813076898        1490197502.0317686     
   301294558.05140984       -2242308.6938993931        1498625711.5855846     
   236613342.58158696       -28289201.427674383        1512746699.9657750     
   560425455.36920381        5113666.0618413687        1157150632.7626643     
   463472486.37493026       -32212935.715615571        1166174336.4199142     
   354508012.84078401       -109577885.95930929        1182744567.1088524     
   233532034.76677746       -226981184.66920692        1206861324.8294706     
   100544552.15290421       -384422831.84533781        1238524609.5817797     
   468855863.89493167       -6422019.7937512398        1248980509.6161771     
   391077299.43794322       -40260508.347667202        1246976816.1678898     
   303143900.30070716       -107948445.83573356        1251371188.4342582     
   205055666.48323268       -209485832.25793356        1262163626.4152644     
   96812597.985516250       -344872667.61427057        1279354130.1109059     
   384363981.27224541       -15834392.993861496        1338856479.7678611     
   322478503.30384421       -47169163.738845736        1327991504.0502830     
   252294860.51483276       -106164483.88587549        1322376132.7302949     
   173813052.90519071       -192820353.43500224        1322010365.8079071     
   87033080.474938884       -307136772.38616014        1326894203.2831209     
   306949807.50112551       -23123453.538508460        1426778543.2177367     
   257676097.97263110       -52938901.889158517        1409218400.0670705     
   201960893.48313913       -104226000.10979399        1395759399.9969661     
   139804194.03265184       -176984748.20041686        1386401543.0074179     
   71205999.621174842       -271215146.16100568        1381144829.0984297     
   236613342.58158696       -28289201.427674383        1512746699.9657750     
   196670083.44430059       -57569722.798613161        1490657504.2182658     
   152141999.20564729       -102132994.50743359        1471520990.2342730     
   103029089.86561450       -161979016.55418980        1455337158.0137942     
   49331355.424225420       -237107788.93880028        1442106007.5568306     
   100544552.15290421       -384422831.84533781        1238524609.5817797     
   85611431.847076535       -543816462.54738748        1199201656.9655488     
   58051381.651439130       -745299859.54879153        1156546805.9135787     
   17864401.566028297       -988873022.84945440        1110560056.4258492     
  -34949508.409206808       -1274535952.4495261        1061241408.5023806     
   96812597.985516250       -344872667.61427057        1279354130.1109059     
   79870365.384586662       -485548443.87999260        1224302965.4120278     
   51536247.675955564       -664197170.50472784        1166718723.2827439     
   11810244.859609604       -880818847.48850322        1106601403.7230501     
  -39307643.064445317       -1135413474.8313248        1043951006.7329657     
   87033080.474938884       -307136772.38616014        1326894203.2831209     
   70364081.308484644       -428409990.49666148        1257555712.0806863     
   43538241.816409558       -583539343.02589619        1186482964.4531977     
   6555561.9987084270       -772524829.97387683        1113675960.4006681     
  -40583958.144614935       -995366451.34061611        1039134699.9230739     
   71205999.621174842       -271215146.16100568        1381144829.0984297     
   57092579.618761018       -372401102.39742017        1298959896.9715407     
   34057364.072809279       -503326377.11229420        1215839529.4249566     
   2100352.9833239913       -663990970.30560541        1131783726.4586537     
  -38778453.649693578       -854394881.97737360        1046792488.0726641     
   49331355.424225420       -237107788.93880028        1442106007.5568306     
   40055860.315411553       -317521779.58227986        1348515520.0845947     
   23093614.445163041       -423558272.76387763        1254788418.1980073     
  -1555382.1865425408       -555217268.48366153        1160924701.8970561     
  -33891129.579697102       -712498766.74160862        1066924371.1817672     
   1757093647.1297858       -100707729.18029809        1499233325.4836800     
   1671471978.0735106        20312412.858566642        1495985366.4291034     
   1571810233.0477145        94532301.665703058        1490766218.9793873     
   1458108412.0523989        121951937.24110591        1483575883.1345263     
   1330366515.0875690        102571319.58479071        1474414358.8945243     
   1519695077.9437275        221309502.54142123        1705383021.5238135     
   1398114104.3055544        210973164.07508475        1654615647.6711454     
   1273329678.1860609        189958650.67101988        1608471492.6518230     
   1145341799.5852506        158265962.32922906        1566950556.4658442     
   1014150468.5031223        115895099.04971269        1530052839.1132078     
   1165845384.5214360        508391396.99226892        1858838781.1199470     
   1027146269.8113271        372350927.07372159        1773194719.8720911     
   896080326.10809827        261754360.51144570        1698768284.6860600     
   772647553.41175246        176601697.30544406        1635559475.5618601     
   656847951.72228897        116892937.45571698        1583568292.4994965     
   695544566.86290944        760537954.17224598        1959600604.2720873     
   558568474.59082568        504445701.85447282        1851722583.0319321     
   440062176.81382453        309919431.18697560        1761656595.0820973     
   340025673.53190833        176959142.16976023        1689402640.4225802     
   258458964.74507064        105564834.80280831        1634960719.0533779     
   108792624.96814936        977749174.08135486        2007668490.9802172     
  -7619281.3559454381        607257488.41734815        1890199237.1506743     
  -94724769.696757510        334453862.69761801        1797136423.8399351     
  -152523840.05428851        159338296.92215848        1728480051.0479970     
  -181016492.42853469        81910791.090980232        1684230118.7748663     
   1330366515.0875690        102571319.58479071        1474414358.8945243     
   1287865904.0313566        88383425.342395484        1477885881.8094110     
   1245968228.9279668        76205317.609407008        1479976195.3074532     
   1204673489.7773943        66036996.385809302        1480685299.3886585     
   1163981686.5796416        57878461.671612501        1480013194.0530217     
   1014150468.5031223        115895099.04971269        1530052839.1132078     
   971724234.37120450        96659651.964785188        1522012827.0088987     
   930197642.02358651        80423010.827527255        1516576057.2268543     
   889570691.46027040        67185175.637938797        1513742529.7670782     
   849843382.68125868        56946146.396034032        1513512244.6295667     
   656847951.72228897        116892937.45571698        1583568292.4994965     
   625880242.34068322        96025181.876062587        1564362902.1793873     
   596108880.57486022        79145251.682350472        1551745205.9206514     
   567533866.42482042        66253146.874583766        1545715203.7232864     
   540155199.89056611        57348867.452767640        1546272895.5872962     
   258458964.74507064        105564834.80280831        1634960719.0533779     
   250333927.93979138        86480015.076219589        1604936107.3208685     
   243701944.58178148        72372040.173862934        1585483641.3888373     
   238563014.67103720        63240910.095723726        1576603321.2572842     
   234917138.20755768        59086624.841800667        1578295146.9262092     
  -181016492.42853469        81910791.090980232        1684230118.7748663     
  -154914708.83146089        68024151.565290093        1643732442.4333484     
  -127023165.95564473        60103376.302075312        1617791363.6314166     
  -97341863.801078245        58148465.301360920        1606406882.3690696     
  -65870802.367760703        62159418.563150704        1609578998.6463106     
   1163981686.5796416        57878461.671612501        1480013194.0530217     
   1101948731.2676997        45494360.237255037        1463905835.2033076     
   1040748078.8474021        35884601.775042415        1455737994.8955097     
   980379729.31874847        29049186.284973860        1455509673.1296251     
   920843682.68173075        24988113.767027199        1463220869.9056518     
   849843382.68125868        56946146.396034032        1513512244.6295667     
   808768840.55480063        48453388.334861547        1499422648.3581800     
   768212529.95281112        41688068.688585460        1492617387.5245209     
   728174450.87529051        36650187.457203954        1493096462.1285820     
   688654603.32223415        33339744.640702933        1500859872.1703706     
   540155199.89056611        57348867.452767640        1546272895.5872962     
   518167119.22333372        52185867.246894389        1533834645.2992043     
   496383198.71339709        47703400.898674503        1528025547.3446434     
   474803438.36075795        43901468.408111528        1528845601.7236218     
   453427838.16541457        40780069.775201678        1536294808.4361300     
   234917138.20755768        59086624.841800667        1578295146.9262092     
   230143567.27329880        56691796.973356806        1567141826.0263736     
   225260085.12916258        53930598.405320957        1561962474.3558853     
   220266691.77515209        50803029.137703843        1562757091.9147410     
   215163387.21125951        47309089.170479849        1569525678.7029421     
  -65870802.367760703        62159418.563150704        1609578998.6463106     
  -55301815.295301408        61971177.514252976        1599344190.5396967     
  -45156810.799892783        60369661.208520293        1594428168.5582383     
  -35435788.881531909        57354869.645960838        1594830932.7019386     
  -26138749.540217411        52926802.826581433        1600552482.9707961     
   920843682.68173075        24988113.767027199        1463220869.9056518     
   869607881.32185042        24843162.221315175        1456789000.5579329     
   818480028.09610403        25058037.789377153        1454798911.4544387     
   767460123.00448704        25632740.471206456        1457250602.5951564     
   716548166.04699802        26567270.266795546        1464144073.9801011     
   688654603.32223415        33339744.640702933        1500859872.1703706     
   648231674.39235461        30763610.560534298        1493509646.8561726     
   607953305.02549958        28669341.690445542        1490596277.5980208     
   567819495.22166324        27056938.030418634        1492119764.3959091     
   527830244.98084623        25926399.580459327        1498080107.2498398     
   453427838.16541457        40780069.775201678        1536294808.4361300     
   423803712.55645680        35768532.427839503        1528068940.4891639     
   394360757.93941289        31360898.386856765        1524275004.4100609     
   365098974.31428653        27557167.652265206        1524913000.1988232     
   336018361.68107241        24357340.224046394        1529982927.8554544     
   215163387.21125951        47309089.170479849        1569525678.7029421     
   196323995.81415060        39857927.823205546        1560466881.4569092     
   177702386.83785462        33132707.878642768        1555835091.8905647     
   159298560.28235817        27133429.336742833        1555630310.0039113     
   141112516.14767328        21860092.197550882        1559852535.7969460     
  -26138749.540217411        52926802.826581433        1600552482.9707961     
  -34207475.834554046        43031796.746668711        1590703469.7594049     
  -42021808.279181525        33984770.165783741        1585276540.0395262     
  -49581746.874120139        25785723.083863381        1584271693.8111627     
  -56887291.619355500        18434655.500953168        1587688931.0743115     
   716548166.04699802        26567270.266795546        1464144073.9801011     
   657227064.92012680        25504675.975819618        1461720608.7650790     
   598144577.74544656        25237461.525476962        1465292011.2639372     
   539300704.52295518        25765626.915768266        1474858281.4766665     
   480695445.25265181        27089172.146686211        1490419419.4032719     
   527830244.98084623        25926399.580459327        1498080107.2498398     
   484321096.11492610        24268499.719681889        1494987272.6412926     
   441015920.54974592        23290510.861365721        1498199988.7280161     
   397914718.28530186        22992433.005506620        1507718255.5100155     
   355017489.32159287        23374266.152096450        1523542072.9872866     
   336018361.68107241        24357340.224046394        1529982927.8554544     
   309208830.73723853        22370434.491798148        1526180309.7600164     
   282568632.44269550        20947970.923850372        1528993925.3412523     
   256097766.79743195        20089949.520166911        1538423774.5991573     
   229796233.80145729        19796370.280780382        1554469857.5337331     
   141112516.14767328        21860092.197550882        1559852535.7969460     
   131890268.78706436        19810480.292171765        1555299720.1212573     
   122802713.42429432        18209841.712919381        1557673821.1036396     
   113849850.05935699        17058176.459778890        1566974838.7440956     
   105031678.69225258        16355484.532745251        1583202773.0426135     
  -56887291.619355500        18434655.500953168        1587688931.0743115     
  -47634589.735598356        16588637.120795462        1582345503.7250175     
  -38281836.505450465        15076123.228606967        1584239676.0151865     
  -28829031.928934172        13897113.824313100        1593371447.9448271     
  -19276176.006025203        13051608.907994848        1609740819.5139341     
   480695445.25265181        27089172.146686211        1490419419.4032719     
   423335609.38694310        25446878.093283638        1487462071.3043301     
   363535313.65319151        15669717.813076898        1490197502.0317686     
   301294558.05140984       -2242308.6938993931        1498625711.5855846     
   236613342.58158696       -28289201.427674383        1512746699.9657750     
   355017489.32159287        23374266.152096450        1523542072.9872866     
   312455144.60387427        21458224.536132947        1518309695.7215972     
   268107503.48452058        13591194.914716333        1518830397.6424236     
   221974565.96353638       -226822.71213535964        1525104178.7497635     
   174056332.04093280       -19995828.344382167        1537131039.0436163     
   229796233.80145729        19796370.280780382        1554469857.5337331     
   202203666.97498178        17658267.125243492        1547726808.4787712     
   173480967.21327507        11753054.185601726        1546797138.9704618     
   143628134.51634485        2080731.4618794620        1551680849.0087969     
   112645168.88418762       -11358701.045930572        1562377938.5937855     
   105031678.69225258        16355484.532745251        1583202773.0426135     
   92581176.500261217        14047005.860598110        1575713409.5758522     
   79655704.839449972        10155295.625714067        1574097726.0158732     
   66255263.709810913        4680353.8280717935        1578355722.3626900     
   52379853.111353844       -2377819.5322955810        1588487398.6162815     
  -19276176.006025203        13051608.907994848        1609740819.5139341     
  -16412326.820281785        10624440.742219318        1602269499.0128403     
  -13368283.636960473        8797919.2350374795        1600732158.7786694     
  -10144046.456061581        7572044.3864475675        1605128798.8114240     
  -6739615.2775700614        6946816.1964990599        1615459419.1110966     
   236613342.58158696       -28289201.427674383        1512746699.9657750     
   196670083.44430059       -57569722.798613161        1490657504.2182658     
   152141999.20564729       -102132994.50743359        1471520990.2342730     
   103029089.86561450       -161979016.55418980        1455337158.0137942     
   49331355.424225420       -237107788.93880028        1442106007.5568306     
   174056332.04093280       -19995828.344382167        1537131039.0436163     
   144001177.70865422       -42282946.351120442        1510823706.4565394     
   110537669.50224215       -75931243.938300818        1487556064.2565298     
   73665807.421708554       -120940721.10588638        1467328112.4435782     
   33385591.467041090       -177311377.85392082        1450139851.0176835     
   112645168.88418762       -11358701.045930572        1562377938.5937855     
   92726715.424185067       -26577836.868294518        1533225018.9322639     
   70576379.317298442       -49236581.513608776        1507198798.2813439     
   46194160.563524097       -79334934.981879637        1484299276.6410310     
   19580059.162864625       -116872897.27310239        1464526454.0113199     
   52379853.111353844       -2377819.5322955810        1588487398.6162815     
   42846696.590901785       -10454394.350102847        1557861441.6454206     
   32258128.650806382       -22049007.233384989        1530449192.3087161     
   20614149.291069560       -37161658.182140708        1506250650.6061554     
   7914758.5116842091       -55792347.196390137        1485265816.5377522     
  -6739615.2775700614        6946816.1964990599        1615459419.1110966     
  -5638878.7911967672        6087381.2034475738        1584732974.5960217     
  -4417082.4972341480        5631478.9023625888        1557307246.3386397     
  -3074226.3956636735        5579109.2933017071        1533182234.3389566     
  -1610310.4865041473        5930272.3762064101        1512357938.5969677     
   49331355.424225420       -237107788.93880028        1442106007.5568306     
   40055860.315411553       -317521779.58227986        1348515520.0845947     
   23093614.445163041       -423558272.76387763        1254788418.1980073     
  -1555382.1865425408       -555217268.48366153        1160924701.8970561     
  -33891129.579697102       -712498766.74160862        1066924371.1817672     
   33385591.467041090       -177311377.85392082        1450139851.0176835     
   29238194.000355825       -236699312.51699880        1349155926.5155735     
   19362585.488147065       -315181283.99848980        1247401140.1570673     
   3758765.9304118752       -412757292.29840499        1144875491.9421329     
  -17573264.672845453       -529427337.41672862        1041578981.8708208     
   19580059.162864625       -116872897.27310239        1464526454.0113199     
   18748623.789581843       -155778416.62043986        1358434055.4812574     
   14147517.086703613       -207249507.06643093        1250936547.6527305     
   5776739.0542271286       -271286168.61108041        1142033930.5257466     
  -6363710.3078425378       -347888401.25437659        1031726204.1003164     
   7914758.5116842091       -55792347.196390137        1485265816.5377522     
   8587149.6830896176       -74759091.892599747        1376349906.9816349     
   7448409.2408331856       -99762941.967686504        1265394640.6850131     
   4498537.1849028096       -130803897.42168267        1152400017.6478813     
  -262466.48469975591       -167881958.25458926        1037366037.8702574     
  -1610310.4865041473        5930272.3762064101        1512357938.5969677     
  -1246228.3191170469        6358661.6665327111        1402903481.0167108     
  -734738.04947370989        7278411.2977103591        1290775419.2539055     
  -75839.677572946064        8689521.2697488740        1175973753.3085413     
   730466.79658021266        10591991.582625926        1058498483.1806238     
   108792624.96814936        977749174.08135486        2007668490.9802172     
  -7619281.3559454381        607257488.41734815        1890199237.1506743     
  -94724769.696757510        334453862.69761801        1797136423.8399351     
  -152523840.05428851        159338296.92215848        1728480051.0479970     
  -181016492.42853469        81910791.090980232        1684230118.7748663     
  -731197433.22137940        224046851.37689555        1498024631.1712453     
  -731414957.42416823        67095375.396621972        1472018946.4889288     
  -716705521.66611433       -40099567.380845040        1461708605.3002586     
  -687069125.94721997       -97537976.955507725        1467093607.6052334     
  -642505770.26748204       -105219853.32736024        1488173953.4038579     
  -1371140880.3849983       -469641488.01978403        1065492594.3294661     
  -1280052871.1097889       -420519408.90931940        1114174444.4348626     
  -1188417359.8961782       -369572323.33751774        1169840541.0087469     
  -1096234346.7441661       -316800231.30437648        1232490884.0511227     
  -1003503831.6537534       -262203132.80990121        1302125473.5619850     
  -1811037716.5227098       -1103315844.1086948        710072380.45488083     
  -1653533022.4128094       -855586864.50047958        816665730.98847938     
  -1509860284.3869498       -653964405.17240071        921532230.96540499     
  -1380019502.4451289       -498448466.12445116        1024671880.3856623     
  -1264010676.5873485       -389039047.35663599        1126084679.2492547     
  -2050887941.6345139       -1676976216.8898332        431763989.54749602     
  -1851855411.3332322       -1238106991.3768687        579492806.14977622     
  -1681034295.1384315       -893275812.88550568        716783675.17022920     
  -1538424593.0501084       -642482681.41573226        843636596.60885727     
  -1424026305.0682685       -485727596.96757483        960051570.46565866     
  -181016492.42853469        81910791.090980232        1684230118.7748663     
  -154914708.83146089        68024151.565290093        1643732442.4333484     
  -127023165.95564473        60103376.302075312        1617791363.6314166     
  -97341863.801078245        58148465.301360920        1606406882.3690696     
  -65870802.367760703        62159418.563150704        1609578998.6463106     
  -642505770.26748204       -105219853.32736024        1488173953.4038579     
  -577068491.43689430       -84315652.757619500        1480329062.5248008     
  -511839117.62450653       -64104468.915212065        1480156991.9560709     
  -446817648.83031791       -44586301.800134867        1487657741.6976657     
  -382004085.05432951       -25761151.412391365        1502831311.7495887     
  -1003503831.6537534       -262203132.80990121        1302125473.5619850     
  -918398992.53038979       -212408472.62694192        1324602759.7989500     
  -835499722.72217226       -169965710.16113767        1347869089.1169813     
  -754806022.22910452       -134874845.41249818        1371924461.5160804     
  -676317891.05118549       -107135878.38102126        1396768876.9962454     
  -1264010676.5873485       -389039047.35663599        1126084679.2492547     
  -1178906212.1119497       -316254308.04268330        1176553534.2557991     
  -1098004981.2486453       -257480347.43570858        1220927655.1141515     
  -1021306983.9974368       -212717165.53572345        1259207041.8243141     
  -948812220.35832870       -181964762.34273812        1291391694.3862803     
  -1424026305.0682685       -485727596.96757483        960051570.46565866     
  -1358590150.1815760       -395853159.00484794        1036181385.8953454     
  -1299354893.2039213       -326648380.73891544        1099332689.9475803     
  -1246320534.1353176       -278113262.16981947        1149505482.6223636     
  -1199487072.9757578       -250247803.29753751        1186699763.9196954     
  -65870802.367760703        62159418.563150704        1609578998.6463106     
  -55301815.295301408        61971177.514252976        1599344190.5396967     
  -45156810.799892783        60369661.208520293        1594428168.5582383     
  -35435788.881531909        57354869.645960838        1594830932.7019386     
  -26138749.540217411        52926802.826581433        1600552482.9707961     
  -382004085.05432951       -25761151.412391365        1502831311.7495887     
  -356351558.18436182       -19686235.443077415        1499481823.4801767     
  -331151735.09617615       -15120332.079703525        1500970928.0794876     
  -306404615.78976083       -12063441.322230995        1507298625.5475204     
  -282110200.26512289       -10515563.170682594        1518464915.8842778     
  -676317891.05118549       -107135878.38102126        1396768876.9962454     
  -636953805.11638105       -95209399.613312066        1400271200.4918532     
  -598071144.16808081       -84887670.800616637        1408131923.5997519     
  -559669908.20628166       -76170691.942923591        1420351046.3199403     
  -521750097.23098272       -69058463.040232942        1436928568.6524186     
  -948812220.35832870       -181964762.34273812        1291391694.3862803     
  -897108556.09135103       -164598314.99642199        1301712321.5747297     
  -845915038.01560450       -148932354.95421070        1315911155.1190329     
  -795231666.13108671       -134966882.21609491        1333988195.0191936     
  -745058440.43779659       -122701896.78206944        1355943441.2752149     
  -1199487072.9757578       -250247803.29753751        1186699763.9196954     
  -1136815811.1092777       -227852981.59242892        1203805186.7288034     
  -1074683416.6387517       -207254384.54050088        1224308622.6373346     
  -1013089889.5641795       -188452012.14175481        1248210071.6452901     
  -952035229.88556254       -171445864.39618832        1275509533.7526667     
  -26138749.540217411        52926802.826581433        1600552482.9707961     
  -34207475.834554046        43031796.746668711        1590703469.7594049     
  -42021808.279181525        33984770.165783741        1585276540.0395262     
  -49581746.874120139        25785723.083863381        1584271693.8111627     
  -56887291.619355500        18434655.500953168        1587688931.0743115     
  -282110200.26512289       -10515563.170682594        1518464915.8842778     
  -276340165.20736820       -14477093.280076176        1514978730.6308074     
  -270085840.07390559       -16824323.137110487        1516346399.2403910     
  -263347224.86473060       -17557252.741768390        1522567921.7130263     
  -256124319.57985288       -16675882.094086915        1533643298.0487120     
  -521750097.23098272       -69058463.040232942        1436928568.6524186     
  -500907671.18817294       -66716428.289223224        1440073423.6205485     
  -479351058.84364223       -61993772.532474324        1448503902.8232670     
  -457080260.19740212       -54890495.770031586        1462220006.2605751     
  -434095275.24944460       -45406598.001858637        1481221733.9324744     
  -745058440.43779659       -122701896.78206944        1355943441.2752149     
  -707909993.77696145       -113686208.28075291        1365987548.7286201     
  -669817464.58841193       -101523578.02038516        1381749050.7881505     
  -630780852.87213004       -86214006.000908479        1403227947.4538088     
  -590800158.62812841       -67757492.222369626        1430424238.7255962     
  -952035229.88556254       -171445864.39618832        1275509533.7526667     
  -897347132.97374451       -155386433.25469759        1292721105.9550231     
  -841485057.30819416       -135413739.60076562        1316081843.1350429     
  -784449002.88891363       -111527783.43440020        1345591745.2927253     
  -726238969.71589899       -83728564.755586684        1381250812.4280784     
  -56887291.619355500        18434655.500953168        1587688931.0743115     
  -47634589.735598356        16588637.120795462        1582345503.7250175     
  -38281836.505450465        15076123.228606967        1584239676.0151865     
  -28829031.928934172        13897113.824313100        1593371447.9448271     
  -19276176.006025203        13051608.907994848        1609740819.5139341     
  -256124319.57985288       -16675882.094086915        1533643298.0487120     
  -227208286.65372410       -9435862.8374314085        1534738268.6675775     
  -198874976.56158698       -4138253.0274161696        1541624500.9941516     
  -171124389.30345342       -783052.66407931596        1554301995.0284338     
  -143956524.87930956        629738.25262368470        1572770750.7704201     
  -434095275.24944460       -45406598.001858637        1481221733.9324744     
  -389648305.37169188       -30320259.335625887        1487958532.6423941     
  -346466832.50831008       -19452244.050629407        1499040255.1282623     
  -304550856.65930378       -12802552.146884590        1514466901.3900769     
  -263900377.82466948       -10371183.624380127        1534238471.4278347     
  -590800158.62812841       -67757492.222369626        1430424238.7255962     
  -534954645.88949472       -46064552.373770058        1442006295.6494639     
  -481057404.34561253       -30865849.841006100        1456486938.4175162     
  -429108433.99648148       -22161384.624081314        1473866167.0297539     
  -379107734.84210652       -19951156.723008767        1494143981.4861825     
  -726238969.71589899       -83728564.755586684        1381250812.4280784     
  -663127308.20713568       -56668741.951862305        1396881557.6887851     
  -602646692.07349467       -38379070.398549974        1413964550.8619151     
  -544797121.31498909       -28859550.095687002        1432499791.9474702     
  -489578595.93161172       -28110181.043251157        1452487280.9454470     
  -19276176.006025203        13051608.907994848        1609740819.5139341     
  -16412326.820281785        10624440.742219318        1602269499.0128403     
  -13368283.636960473        8797919.2350374795        1600732158.7786694     
  -10144046.456061581        7572044.3864475675        1605128798.8114240     
  -6739615.2775700614        6946816.1964990599        1615459419.1110966     
  -143956524.87930956        629738.25262368470        1572770750.7704201     
  -125705562.47381657       -311115.06204132736        1567338506.5258570     
  -106659947.75680070        1396872.6617035717        1567465527.2177651     
  -86819680.728266835        5753701.4238423482        1573151812.8461485     
  -66184761.388214186        12759371.224375650        1584397363.4110057     
  -263900377.82466948       -10371183.624380127        1534238471.4278347     
  -231332917.42926681       -10146906.656846628        1531562171.4727209     
  -197356346.40841186       -5225594.2711416334        1534070421.1236298     
  -161970664.76210847        4392753.5327262282        1541763220.3805676     
  -125175872.49034566        18708136.754789382        1554640569.2435262     
  -379107734.84210652       -19951156.723008767        1494143981.4861825     
  -333294391.68664676       -18882934.042242527        1494940493.8534346     
  -285457479.59180588       -11069481.563535020        1500546840.4962687     
  -235596998.55757597        3489200.7131323516        1510963021.4146814     
  -183712948.58395541        24793112.787771292        1526189036.6086743     
  -489578595.93161172       -28110181.043251157        1452487280.9454470     
  -431589985.24595183       -26519197.218215942        1457473473.6680019     
  -370963347.30697250       -16134789.215448529        1466894785.3356833     
  -307698682.11467940        3043042.9650322795        1480751215.9484966     
  -241795989.66905132        31014299.323294044        1499042765.5064385     
  -6739615.2775700614        6946816.1964990599        1615459419.1110966     
  -5638878.7911967672        6087381.2034475738        1584732974.5960217     
  -4417082.4972341480        5631478.9023625888        1557307246.3386397     
  -3074226.3956636735        5579109.2933017071        1533182234.3389566     
  -1610310.4865041473        5930272.3762064101        1512357938.5969677     
  -66184761.388214186        12759371.224375650        1584397363.4110057     
  -54266279.557734653        20187084.480029128        1554508714.9988632     
  -41140049.132389449        31640626.385235928        1527728274.0747917     
  -26806070.112191904        47119996.939950824        1504056040.6387906     
  -11264342.497130241        66625196.144211076        1483492014.6908612     
  -125175872.49034566        18708136.754789382        1554640569.2435262     
  -102989670.37182282        34257990.742357261        1526857520.5194633     
  -78509030.871174514        57455969.337006181        1501990170.5138390     
  -51733953.988407686        88302072.538720101        1480038519.2266657     
  -22664439.723522477        126796300.34749255        1461002566.6579330     
  -183712948.58395541        24793112.787771292        1526189036.6086743     
  -151809051.23346344        48300099.990417160        1501779391.1578171     
  -116524027.71358612        83077507.757682204        1480092935.6557868     
  -77857878.024325073        129125336.08955905        1461129670.1025758     
  -35810602.165678285        186443584.98605493        1444889594.4981766     
  -241795989.66905132        31014299.323294044        1499042765.5064385     
  -200724422.14266118        62313412.224203244        1479274326.9139333     
  -155185039.65961632        108505241.64729266        1462036569.5006311     
  -105177842.21993956        169589787.59249049        1447329493.2665210     
  -50702829.823613644        245567050.05985016        1435153098.2116065     
  -1610310.4865041473        5930272.3762064101        1512357938.5969677     
  -1246228.3191170469        6358661.6665327111        1402903481.0167108     
  -734738.04947370989        7278411.2977103591        1290775419.2539055     
  -75839.677572946064        8689521.2697488740        1175973753.3085413     
   730466.79658021266        10591991.582625926        1058498483.1806238     
  -11264342.497130241        66625196.144211076        1483492014.6908612     
  -11233529.191976119        86465507.321008161        1375032099.1433713     
  -9121418.5923306346        113243476.14610805        1264509752.8336837     
  -4928010.6981981620        146959102.61949858        1151924975.7618117     
   1346694.4904145598        187612386.74115697        1037277767.9277347     
  -22664439.723522477        126796300.34749255        1461002566.6579330     
  -21220685.508138925        166572396.34250247        1355793397.2008109     
  -15761744.806035951        219732447.29324621        1249132970.4018571     
  -6287617.6172145009        286276453.19971472        1141021286.2610590     
   7201696.0583237410        366204414.06191045        1031458344.7784448     
  -35810602.165678285        186443584.98605493        1444889594.4981766     
  -31207697.267615154        246679328.73098445        1345187375.1890266     
  -20655716.690585732        326745324.73913354        1244645071.9583991     
  -4154660.4346153736        426641573.01041698        1143262684.8063052     
   18295471.500309229        546368073.54488683        1041040213.7327331     
  -50702829.823613644        245567050.05985016        1435153098.2116065     
  -41194564.470396206        326786304.48648161        1343214033.1080191     
  -23803334.245982766        434282108.48376501        1251046057.5033326     
   1470860.8495984972        568054462.05161643        1158649171.3975279     
   34628020.816369861        728103365.19008577        1066023374.7906204     
  -2050887941.6345139       -1676976216.8898332        431763989.54749602     
  -1851855411.3332322       -1238106991.3768687        579492806.14977622     
  -1681034295.1384315       -893275812.88550568        716783675.17022920     
  -1538424593.0501084       -642482681.41573226        843636596.60885727     
  -1424026305.0682685       -485727596.96757483        960051570.46565866     
  -1875288077.3978305       -809023460.03343701        923327152.01149940     
  -1760103484.9357047       -605733832.63333130        969721825.48490059     
  -1657140398.5803411       -443182558.92243916        1016420555.4591271     
  -1566398818.3317430       -321369638.90076596        1063423341.9341837     
  -1487878744.1899095       -240295072.56830508        1110730184.9100702     
  -1937171856.1491988       -12315796.073454499        1324630092.4649875     
  -1875143761.2900691       -35398334.715364695        1288345515.4758387     
  -1809347264.5379806       -45919533.714096785        1263106999.0701745     
  -1739782365.8929439       -43879393.069657862        1248914543.2479956     
  -1666449065.3549562       -29277912.782051921        1245768148.0093050     
  -2236539277.8886237        713146774.99011183        1635672810.9079533     
  -2196976240.3963237        472899502.37703419        1535363876.1225936     
  -2137654893.0113511        298513262.73952472        1456843006.0033736     
  -2058575235.7337136        189988056.07757199        1400110200.5502951     
  -1959737268.5634112        147323882.39117110        1365165459.7633626     
  -2773390342.6160946        1367364253.1572611        1856455307.3403988     
  -2725600922.2544622        919159678.64387417        1710776907.4251609     
  -2642063284.0004492        590115830.43843293        1597628576.2587216     
  -2522777427.8540511        380232708.54093421        1517010313.8410819     
  -2367743353.8152704        289510312.95138299        1468922120.1722395     
  -1424026305.0682685       -485727596.96757483        960051570.46565866     
  -1358590150.1815760       -395853159.00484794        1036181385.8953454     
  -1299354893.2039213       -326648380.73891544        1099332689.9475803     
  -1246320534.1353176       -278113262.16981947        1149505482.6223636     
  -1199487072.9757578       -250247803.29753751        1186699763.9196954     
  -1487878744.1899095       -240295072.56830508        1110730184.9100702     
  -1460999684.4160297       -199048902.63673687        1144620541.0683875     
  -1437944893.5401187       -170550295.69840175        1173052012.6784146     
  -1418714371.5621769       -154799251.75329423        1196024599.7401495     
  -1403308118.4822016       -151795770.80140966        1213538302.2535956     
  -1666449065.3549562       -29277912.782051921        1245768148.0093050     
  -1656642452.6105781       -30214616.456674218        1240191778.7425103     
  -1648283479.7530892       -35976786.420919955        1236676151.7565846     
  -1641372146.7824931       -46564422.674812555        1235221267.0515294     
  -1635908453.6987817       -61977525.218319237        1235827124.6273460     
  -1959737268.5634112        147323882.39117110        1365165459.7633626     
  -1945518454.7652152        110649699.53537333        1322895098.9177108     
  -1930370651.8428319        77072147.093530059        1290205107.1820903     
  -1914293859.7962573        46591225.065657973        1267095484.5565040     
  -1897288078.6255023        19206933.451722145        1253566231.0409486     
  -2367743353.8152704        289510312.95138299        1468922120.1722395     
  -2327627690.8799415        223544045.33938932        1392730501.5939918     
  -2284206409.8093462        168596504.84495127        1333638878.9549363     
  -2237479510.6034865        124667691.46805620        1291647252.2550702     
  -2187446993.2623572        91757605.208733320        1266755621.4943998     
  -1199487072.9757578       -250247803.29753751        1186699763.9196954     
  -1136815811.1092777       -227852981.59242892        1203805186.7288034     
  -1074683416.6387517       -207254384.54050088        1224308622.6373346     
  -1013089889.5641795       -188452012.14175481        1248210071.6452901     
  -952035229.88556254       -171445864.39618832        1275509533.7526667     
  -1403308118.4822016       -151795770.80140966        1213538302.2535956     
  -1333631029.9444842       -138547466.20737505        1220517658.1624639     
  -1264109734.2638559       -125818471.13697267        1231598833.1292658     
  -1194744231.4403167       -113608785.59020585        1246781827.1539993     
  -1125534521.4738667       -101918409.56705797        1266066640.2366588     
  -1635908453.6987817       -61977525.218319237        1235827124.6273460     
  -1557214664.3226616       -57272475.485205710        1233127333.9313221     
  -1478293593.2647686       -51809820.146180630        1235233168.2517345     
  -1399145240.5251014       -45589559.201237917        1242144627.5885823     
  -1319769606.1036575       -38611692.650381923        1253861711.9418707     
  -1897288078.6255023        19206933.451722145        1253566231.0409486     
  -1807566714.2438209        15971990.574059129        1241634214.0353692     
  -1717234993.6414974        14771568.431864977        1235211628.0047321     
  -1626292916.8185387        15605667.025124431        1234298472.9490447     
  -1534740483.7749407        18474286.353847265        1238894748.8682957     
  -2187446993.2623572        91757605.208733320        1266755621.4943998     
  -2084687179.7079515        81185931.970440626        1246038298.4746084     
  -1980933935.3940392        73925694.597162604        1231534212.3882685     
  -1876187260.3206239        69976893.088895321        1223243363.2353795     
  -1770447154.4877083        69339527.445634484        1221165751.0159397     
  -952035229.88556254       -171445864.39618832        1275509533.7526667     
  -897347132.97374451       -155386433.25469759        1292721105.9550231     
  -841485057.30819416       -135413739.60076562        1316081843.1350429     
  -784449002.88891363       -111527783.43440020        1345591745.2927253     
  -726238969.71589899       -83728564.755586684        1381250812.4280784     
  -1125534521.4738667       -101918409.56705797        1266066640.2366588     
  -1057177063.9540629       -90375381.218258023        1276467454.4283156     
  -988592388.48288274       -78074959.698202103        1292276243.2159915     
  -919780495.06033039       -65017145.006904185        1313493006.5996885     
  -850741383.68641019       -51201937.144379079        1340117744.5794055     
  -1319769606.1036575       -38611692.650381923        1253861711.9418707     
  -1239860474.7805693       -32220373.135673165        1256347213.8534086     
  -1160670886.3084600       -28227529.790905714        1263499499.9793196     
  -1082200840.6873395       -26633162.616092682        1275318570.3196101     
  -1004450337.9172044       -27437271.611233056        1291804424.8742695     
  -1534740483.7749407        18474286.353847265        1238894748.8682957     
  -1445397365.4532609        19078590.993068635        1232360384.2302976     
  -1357720550.7849321        14128550.121112645        1229751613.4250326     
  -1271710039.7699401        3624163.7380415201        1231068436.4524951     
  -1187365832.4082928       -12434568.156186879        1236310853.3126898     
  -1770447154.4877083        69339527.445634484        1221165751.0159397     
  -1673787735.9721470        63521511.167932153        1204506965.5589910     
  -1579741381.9122858        48993280.037887096        1191032583.5531240     
  -1488308092.3081250        25754834.055510581        1180742604.9983411     
  -1399487867.1596715       -6193826.7792211771        1173637029.8946483     
  -726238969.71589899       -83728564.755586684        1381250812.4280784     
  -663127308.20713568       -56668741.951862305        1396881557.6887851     
  -602646692.07349467       -38379070.398549974        1413964550.8619151     
  -544797121.31498909       -28859550.095687002        1432499791.9474702     
  -489578595.93161172       -28110181.043251157        1452487280.9454470     
  -850741383.68641019       -51201937.144379079        1340117744.5794055     
  -787029103.49572456       -40555576.456457824        1343927347.7539465     
  -724579732.12651443       -34118911.840119779        1350534439.4134986     
  -663393269.57878149       -31891943.295367926        1359939019.5580564     
  -603469715.85251832       -33874670.822192460        1372141088.1876245     
  -1004450337.9172044       -27437271.611233056        1291804424.8742695     
  -936293894.55151379       -32051309.691221774        1285389045.2752535     
  -868032223.45363975       -36314588.663934588        1283116394.7338247     
  -799665324.62357843       -40227108.529353499        1284986473.2499902     
  -731193198.06133544       -43788869.287503570        1290999280.8237476     
  -1187365832.4082928       -12434568.156186879        1236310853.3126898     
  -1110921681.3745015       -31155941.656157732        1221266650.2527089     
  -1033004166.0548588       -44966100.869964123        1211710416.8229010     
  -953613286.44938016       -53865045.797645509        1207642153.0232708     
  -872749042.55806112       -57852776.439195603        1209061858.8538120     
  -1399487867.1596715       -6193826.7792211771        1173637029.8946483     
  -1310912463.9646759       -37869472.351223171        1151560162.6863043     
  -1219495559.9301789       -60073448.458225667        1136316505.6807199     
  -1125237155.0561831       -72805755.100228310        1127906058.8778920     
  -1028137249.3426907       -76066392.277245432        1126328822.2778275     
  -489578595.93161172       -28110181.043251157        1452487280.9454470     
  -431589985.24595183       -26519197.218215942        1457473473.6680019     
  -370963347.30697250       -16134789.215448529        1466894785.3356833     
  -307698682.11467940        3043042.9650322795        1480751215.9484966     
  -241795989.66905132        31014299.323294044        1499042765.5064385     
  -603469715.85251832       -33874670.822192460        1372141088.1876245     
  -532968617.57931685       -30996387.919134140        1375439475.4117322     
  -460091810.22147137       -20199074.733931050        1383630665.1246576     
  -384839293.77899319       -1482731.2666214854        1396714657.3264058     
  -307211068.25186443        25152642.482858181        1414691452.0169780     
  -731193198.06133544       -43788869.287503570        1290999280.8237476     
  -646871944.93289876       -39230987.126107454        1292303824.6859436     
  -560437300.88850546       -27628468.578186631        1298958854.5806589     
  -471889265.92814791       -8981313.6437206566        1310964370.5078819     
  -381227840.05183518        16710477.677265033        1328320372.4676194     
  -872749042.55806112       -57852776.439195603        1209061858.8538120     
  -773299967.30670261       -51222994.839158982        1208066521.4906437     
  -671999819.30806708       -38422970.748190850        1212879353.7036815     
  -568848598.56214762       -19452704.166283399        1223500355.4929225     
  -463846305.06895757        5687804.9065313935        1239929526.8583622     
  -1028137249.3426907       -76066392.277245432        1126328822.2778275     
  -912252684.70072412       -66972411.058262497        1122727565.8258379     
  -794779365.48016119       -52582581.243958175        1125392162.4937353     
  -675717291.68099868       -32896902.834320694        1134322612.2815318     
  -555066463.30323505       -7915375.8293487430        1149518915.1892183     
  -241795989.66905132        31014299.323294044        1499042765.5064385     
  -200724422.14266118        62313412.224203244        1479274326.9139333     
  -155185039.65961632        108505241.64729266        1462036569.5006311     
  -105177842.21993956        169589787.59249049        1447329493.2665210     
  -50702829.823613644        245567050.05985016        1435153098.2116065     
  -307211068.25186443        25152642.482858181        1414691452.0169780     
  -257880618.68074647        56564237.610732302        1398867785.3042963     
  -202179358.96445960        109211866.55583584        1386840466.1636882     
  -140107289.10301304        183095529.31814235        1378609494.5951364     
  -71664409.096379191        278215225.89772797        1374174870.5986536     
  -381227840.05183518        16710477.677265033        1328320372.4676194     
  -320022318.74207973        49319411.940266952        1318661638.6880424     
  -250542992.09862858        109507697.31558798        1314064918.8733974     
  -172789860.12148750        197275333.80320725        1314530213.0236886     
  -86762922.810647845        312622321.40315807        1320057521.1389148     
  -463846305.06895757        5687804.9065313935        1239929526.8583622     
  -387149522.32665104        40578935.212833554        1238655887.0651703     
  -300275939.06212229        109392733.92654607        1243709927.6297786     
  -203225555.27538097        212129201.04763645        1255091648.5521934     
  -95998370.966416195        348788336.57613009        1272801049.8324084     
  -555066463.30323505       -7915375.8293487430        1149518915.1892183     
  -459262229.43446165        30342807.428441674        1158850530.4356861     
  -351378199.85494995        108866976.38869059        1175775492.4328208     
  -231414374.56468853        227657131.05144140        1200293801.1806314     
  -99370753.563688725        386713271.41665077        1232405456.6791139     
  -50702829.823613644        245567050.05985016        1435153098.2116065     
  -41194564.470396206        326786304.48648161        1343214033.1080191     
  -23803334.245982766        434282108.48376501        1251046057.5033326     
   1470860.8495984972        568054462.05161643        1158649171.3975279     
   34628020.816369861        728103365.19008577        1066023374.7906204     
  -71664409.096379191        278215225.89772797        1374174870.5986536     
  -57481379.909741074        380400531.91242474        1293755999.5977690     
  -34277799.540074825        512654341.87055176        1212323691.6803086     
  -2053667.9873508215        674976655.77219927        1129877946.8462744     
   39191014.748395115        867367473.61725616        1046418765.0956426     
  -86762922.810647845        312622321.40315807        1320057521.1389148     
  -70146633.834801704        435101227.79262310        1252486028.2712367     
  -43372207.364058226        591440592.49841201        1183116572.0715067     
  -6439643.3984172046        781640415.52052712        1111949152.5397263     
   40651058.062116086        1005700696.8589485        1038983769.6758993     
  -95998370.966416195        348788336.57613009        1272801049.8324084     
  -79190326.245556891        490888392.12712806        1219404119.1284266     
  -51086557.717943996        670640860.36730778        1163424698.6769216     
  -11687065.383585691        888045741.29662764        1104862788.4778976     
   39008150.757526577        1143103034.9151411        1043718388.5313429     
  -99370753.563688725        386713271.41665077        1232405456.6791139     
  -84612457.142019629        547762024.91591430        1194510272.1693339     
  -57420850.601748437        750255145.47718453        1153248071.4965632     
  -17795933.942864478        994192633.10050750        1108618854.6607902     
   34262292.834628582        1279574487.7858412        1060622621.6620389     
  -2773390342.6160946        1367364253.1572611        1856455307.3403988     
  -2725600922.2544622        919159678.64387417        1710776907.4251609     
  -2642063284.0004492        590115830.43843293        1597628576.2587216     
  -2522777427.8540511        380232708.54093421        1517010313.8410819     
  -2367743353.8152704        289510312.95138299        1468922120.1722395     
  -3715298530.0914917        695145526.62305260        1306581757.8391442     
  -3532572217.7769909        473652270.55626678        1263749513.2986743     
  -3330738896.6351151        315849043.91406965        1239866812.6393244     
  -3109798566.6658583        221735846.69646347        1234933655.8610897     
  -2869751227.8692317        191312678.90344501        1248950042.9639695     
  -4435385187.4085569        89473259.136340141        838042599.85429358     
  -4156523482.7631340        83050871.629572153        878641766.77942395     
  -3875195978.3553410        84847816.664042234        924609952.71798575     
  -3591402674.1851807        94864094.239737988        975947157.66998422     
  -3305143570.2526407        113099704.35667276        1032653381.6354173     
  -4933650314.5672846       -449652549.30286717        450837833.38586211     
  -4597454717.2128897       -252644518.13620186        555453667.86741233     
  -4275434529.1611295       -102887851.31165457        651857996.49471092     
  -3967589750.4120049       -382548.82923817635        740050819.26776624     
  -3673920380.9655190        54871389.311059713        820032136.18657053     
  -5210093911.5676765       -922231898.69457746        144967458.43383974     
  -4855365921.1262541       -533433898.74106145        294185216.56263512     
  -4531454549.0524740       -247357960.01301956        421610943.96949792     
  -4238359795.3463407       -64004082.510466337        527244640.65443504     
  -3976081660.0078502        16627733.766614437        611086306.61744082     
  -2367743353.8152704        289510312.95138299        1468922120.1722395     
  -2327627690.8799415        223544045.33938932        1392730501.5939918     
  -2284206409.8093462        168596504.84495127        1333638878.9549363     
  -2237479510.6034865        124667691.46805620        1291647252.2550702     
  -2187446993.2623572        91757605.208733320        1266755621.4943998     
  -2869751227.8692317        191312678.90344501        1248950042.9639695     
  -2784832189.1978621        147241204.43880486        1197112202.4574094     
  -2697334324.1675148        111765817.83741629        1157585856.6207592     
  -2607257632.7781968        84886519.099264979        1130371005.4540200     
  -2514602115.0299087        66603308.224354029        1115467648.9571929     
  -3305143570.2526407        113099704.35667276        1032653381.6354173     
  -3189102588.0431771        86818593.380011320        1004321395.4615328     
  -3071209571.2510362        66710931.012272716        983512402.68828058     
  -2951464519.8762155        52776717.253471613        970226403.31565487     
  -2829867433.9187131        45015952.103601933        964463397.34365976     
  -3673920380.9655190        54871389.311059713        820032136.18657053     
  -3540438887.4159074        42276212.162985325        814358080.60636032     
  -3405832151.0599146        33431844.369523525        811418517.15749621     
  -3270100171.8975315        28338285.930688620        811213445.83997893     
  -3133242949.9287601        26995536.846477151        813742866.65381193     
  -3976081660.0078502        16627733.766614437        611086306.61744082     
  -3838841087.3160415        13614060.787743568        627222257.89189219     
  -3701202063.5941415        11928557.909170389        641304200.02840757     
  -3563164588.8421464        11571225.130923033        653332133.02699041     
  -3424728663.0600605        12542062.452976227        663306056.88763797     
  -2187446993.2623572        91757605.208733320        1266755621.4943998     
  -2084687179.7079515        81185931.970440626        1246038298.4746084     
  -1980933935.3940392        73925694.597162604        1231534212.3882685     
  -1876187260.3206239        69976893.088895321        1223243363.2353795     
  -1770447154.4877083        69339527.445634484        1221165751.0159397     
  -2514602115.0299087        66603308.224354029        1115467648.9571929     
  -2394967467.0606446        60921572.552408338        1099433547.9432170     
  -2274939511.7338557        56550861.405532718        1089038404.7226834     
  -2154518249.0495505        53491174.783711076        1084282219.2955859     
  -2033703679.0077310        51742512.686938047        1085164991.6619260     
  -2829867433.9187131        45015952.103601933        964463397.34365976     
  -2694998749.0774770        43731914.735136867        952412374.36652172     
  -2560336880.2807093        41758490.551789045        945426030.04281068     
  -2425881827.5284152        39095679.553532124        943504364.37252438     
  -2291633590.8205819        35743481.740395069        946647377.35566378     
  -3133242949.9287601        26995536.846477151        813742866.65381193     
  -2984781025.7584543        29616958.518625617        804974777.74452484     
  -2837126041.0345979        29548582.035929322        800697088.34865201     
  -2690277995.7571959        26790407.398388505        800909798.46619356     
  -2544236889.9262486        21342434.606006384        805612908.09714532     
  -3424728663.0600605        12542062.452976227        663306056.88763797     
  -3264314297.1035762        18576703.902862310        657120758.07722223     
  -3105306993.9955201        19921135.857973099        654851579.64020622     
  -2947706753.7359157        16575358.318251133        656498521.57659113     
  -2791513576.3247380        8539371.2837742567        662061583.88637829     
  -1770447154.4877083        69339527.445634484        1221165751.0159397     
  -1673787735.9721470        63521511.167932153        1204506965.5589910     
  -1579741381.9122858        48993280.037887096        1191032583.5531240     
  -1488308092.3081250        25754834.055510581        1180742604.9983411     
  -1399487867.1596715       -6193826.7792211771        1173637029.8946483     
  -2033703679.0077310        51742512.686938047        1085164991.6619260     
  -1929427944.8666439        43205358.134646654        1067972867.7805926     
  -1826750029.0843558        29342142.386347055        1054082538.2234863     
  -1725669931.6608844        10152865.441991091        1043494002.9906048     
  -1626187652.5962236       -14362472.698398471        1036207262.0819485     
  -2291633590.8205819        35743481.740395069        946647377.35566378     
  -2179406138.5592656        24587809.661946893        930106368.82965243     
  -2067761258.5598779        11490230.043757558        916984545.50100851     
  -1956698950.8223987       -3549257.1141417027        907281907.36973155     
  -1846219215.3468482       -20530651.811794162        900998454.43582177     
  -2544236889.9262486        21342434.606006384        805612908.09714532     
  -2423722317.0500269        7668865.7497937679        790907468.70616639     
  -2302775070.3388357       -4562456.9898492098        779738605.38569355     
  -2181395149.7926731       -15351533.612915754        772106318.13572991     
  -2059582555.4115365       -24698364.119413853        768010606.95627415     
  -2791513576.3247380        8539371.2837742567        662061583.88637829     
  -2662376480.3389282       -7551473.6018114090        650376167.41013145     
  -2531791464.4212465       -18815918.714500904        642344717.87753868     
  -2399758528.5716958       -25253964.054293156        637967235.28859186     
  -2266277672.7902951       -26865609.621248126        637243719.64329720     
  -1399487867.1596715       -6193826.7792211771        1173637029.8946483     
  -1310912463.9646759       -37869472.351223171        1151560162.6863043     
  -1219495559.9301789       -60073448.458225667        1136316505.6807199     
  -1125237155.0561831       -72805755.100228310        1127906058.8778920     
  -1028137249.3426907       -76066392.277245432        1126328822.2778275     
  -1626187652.5962236       -14362472.698398471        1036207262.0819485     
  -1518318417.6373689       -35713741.208639383        1018699319.9024569     
  -1408424122.8723080       -50314810.364865601        1006817028.0166153     
  -1296504768.3010349       -58165680.167044759        1000560386.4244218     
  -1182560353.9235590       -59266350.615221024        999929395.12588358     
  -1846219215.3468482       -20530651.811794162        900998454.43582177     
  -1722506319.7930114       -32592594.610937119        887106922.74634230     
  -1597584805.4662611       -40625808.167031825        877633481.44140363     
  -1471454672.3665965       -44630292.480070591        872578130.52101040     
  -1344115920.4940147       -44606047.550059557        871940869.98515451     
  -2059582555.4115365       -24698364.119413853        768010606.95627415     
  -1923476170.4316025       -28506032.558127761        756782971.21796310     
  -1786977607.7120430       -31006441.864753723        748765865.95508742     
  -1650086867.2528615       -32199592.039302528        743959291.16764748     
  -1512803949.0540569       -32085483.081783950        742363246.85563934     
  -2266277672.7902951       -26865609.621248126        637243719.64329720     
  -2121227969.5531423       -23454055.050186515        627727465.31731904     
  -1976602529.6096578       -21456711.458032370        620214181.55766857     
  -1832401352.9598415       -20873578.844759107        614703868.36433768     
  -1688624439.6036897       -21704657.210379004        611196525.73734105     
  -1028137249.3426907       -76066392.277245432        1126328822.2778275     
  -912252684.70072412       -66972411.058262497        1122727565.8258379     
  -794779365.48016119       -52582581.243958175        1125392162.4937353     
  -675717291.68099868       -32896902.834320694        1134322612.2815318     
  -555066463.30323505       -7915375.8293487430        1149518915.1892183     
  -1182560353.9235590       -59266350.615221024        999929395.12588358     
  -1052983431.6054764       -51109503.296946406        994442667.56355917     
  -922419855.65341938       -39663810.532100290        993438931.37852204     
  -790869626.06739748       -24929272.320693105        996918186.57076442     
  -658332742.84740639       -6905888.6627344191        1004880433.1402940     
  -1344115920.4940147       -44606047.550059557        871940869.98515451     
  -1205940531.1929784       -38914501.340428531        863866220.21043015     
  -1067380589.2026047       -31941112.833002210        858491700.07038128     
  -928436094.52289760       -23685882.027796388        855817309.56500506     
  -789107047.15385580       -14148808.924803466        855843048.69430387     
  -1512803949.0540569       -32085483.081783950        742363246.85563934     
  -1371123983.4632437       -30387405.188746393        730998223.76644313     
  -1229661566.1277246       -29414488.146690369        720550468.56931567     
  -1088416697.0475061       -29166731.955631912        711019981.26424396     
  -947389376.22258329       -29644136.615565956        702406761.85123813     
  -1688624439.6036897       -21704657.210379004        611196525.73734105     
  -1548533788.4162769       -25528214.841911197        595838678.23160744     
  -1409262786.4287796       -32083936.473162353        579615236.87532234     
  -1270811433.6412189       -41371822.104207873        562526201.66849148     
  -1133179730.0535848       -53391871.734997332        544571572.61111546     
  -555066463.30323505       -7915375.8293487430        1149518915.1892183     
  -459262229.43446165        30342807.428441674        1158850530.4356861     
  -351378199.85494995        108866976.38869059        1175775492.4328208     
  -231414374.56468853        227657131.05144140        1200293801.1806314     
  -99370753.563688725        386713271.41665077        1232405456.6791139     
  -658332742.84740639       -6905888.6627344191        1004880433.1402940     
  -543988191.45961952        23727356.161315441        1018421646.2697916     
  -418717616.31083083        90780680.188729852        1040390896.5325576     
  -282521017.40100384        194254083.41958642        1070788183.9286047     
  -135398394.73016211        334147565.85383809        1109613508.4579151     
  -789107047.15385580       -14148808.924803466        855843048.69430387     
  -653837348.58249164        9574946.3648615777        872247792.43215501     
  -508795398.19984150        65872874.358843505        897915263.68588448     
  -353981196.00587833        154744975.05719033        932845462.45548522     
  -189394742.00062293        276191248.45984924        977038388.74095833     
  -947389376.22258329       -29644136.615565956        702406761.85123813     
  -788809700.80307257       -12114421.960898191        720328968.92278183     
  -621611545.52199244        34143558.899011761        748348593.89279211     
  -445794910.37931997        109129805.96422410        786465636.76127613     
  -261359795.37508929        212844319.23464203        834680097.52823186     
  -1133179730.0535848       -53391871.734997332        544571572.61111546     
  -948905248.12135732       -41340748.815965801        562665175.74166715     
  -757166058.27727604       -4407266.1907497644        591690887.15328789     
  -557962160.52133524        57408576.140669972        631648706.84598005     
  -351293554.85353845        144106778.17825997        682538634.81974387     
  -99370753.563688725        386713271.41665077        1232405456.6791139     
  -84612457.142019629        547762024.91591430        1194510272.1693339     
  -57420850.601748437        750255145.47718453        1153248071.4965632     
  -17795933.942864478        994192633.10050750        1108618854.6607902     
   34262292.834628582        1279574487.7858412        1060622621.6620389     
  -135398394.73016211        334147565.85383809        1109613508.4579151     
  -126480943.96769246        484056344.83051014        1088513233.6624923     
  -94548737.989369214        710680974.52670789        1068857780.1820416     
  -39601776.795195162        1014021454.9424134        1050647148.0165597     
   38359939.614828587        1394077786.0776050        1033881337.1660666     
  -189394742.00062293        276191248.45984924        977038388.74095833     
  -172570029.81745386        419084485.03789604        985078042.94000256     
  -122149117.32118094        673965055.99295568        999374355.93199122     
  -38132004.511809766        1040832961.3250078        1019927327.7169152     
   79481308.610660076        1519688201.0340588        1046736958.2947856     
  -261359795.37508929        212844319.23464203        834680097.52823186     
  -222879714.69130063        352846445.53806138        884204700.00187659     
  -140221988.59717160        640107389.87596560        944797798.74642158     
  -13386617.092700243        1074627152.2483394        1016459393.7618756     
   157626399.82211566        1656405732.6551995        1099189485.0482523     
  -351293554.85353845        144106778.17825997        682538634.81974387     
  -277409998.58924842        285342226.33097649        785893204.84810078     
  -148767351.81735730        609107976.17568541        905128108.62533259     
   34634385.462130964        1115404027.7123795        1040243346.1514297     
   272795213.24920279        1804230380.9410298        1191238917.4264207     
  -5210093911.5676765       -922231898.69457746        144967458.43383974     
  -4855365921.1262541       -533433898.74106145        294185216.56263512     
  -4531454549.0524740       -247357960.01301956        421610943.96949792     
  -4238359795.3463407       -64004082.510466337        527244640.65443504     
  -3976081660.0078502        16627733.766614437        611086306.61744082     
  -5193346403.0411491       -505555680.67193556        248833250.77611783     
  -4930436632.9573879       -286895994.00841165        318750330.00242293     
  -4684865583.0646524       -126032041.31497288        379092727.35783410     
  -4456633253.3629379       -22963822.591610193        429860442.84235805     
  -4245739643.8522511        22308662.161668062        471053476.45599318     
  -5340366720.7111559       -138009810.50825453        289993533.08613032     
  -5134368459.9820833       -79016423.833834887        296334147.94932842     
  -4932231021.2674227       -32892443.874104500        305317429.79268003     
  -4733954404.5671654        362129.37094712257        316943378.61618161     
  -4539538609.8813066        20747295.901320457        331211994.41983211     
  -5651154864.5776873        180405711.79646754        268448305.36386335     
  -5467161402.2003498        90204811.782664299        226936670.40335742     
  -5273550863.6607876        32060832.309585810        200285051.27403086     
  -5070323248.9590139        5973773.3772196770        188493447.97590217     
  -4857478558.0950260        11943634.985574722        191561860.50896227     
  -6125710834.6407738        449690886.24222660        184197567.60933009     
  -5928815459.6121778        220767712.84111166        110557897.36449768     
  -5708825110.2447529        68827787.236093283        63995591.801897682     
  -5465739786.5384865       -6128890.5727899075        44510650.921524331     
  -5199559488.4933872       -4102320.5855603218        52103074.723380826     
  -3976081660.0078502        16627733.766614437        611086306.61744082     
  -3838841087.3160415        13614060.787743568        627222257.89189219     
  -3701202063.5941415        11928557.909170389        641304200.02840757     
  -3563164588.8421464        11571225.130923033        653332133.02699041     
  -3424728663.0600605        12542062.452976227        663306056.88763797     
  -4245739643.8522511        22308662.161668062        471053476.45599318     
  -4111549412.4453759        18085073.781309843        479920612.32876569     
  -3977483137.5744028        13448296.947952032        488774552.21294570     
  -3843540819.2393174        8398331.6616218090        497615296.10852498     
  -3709722457.4401350        2935177.9222903252        506442844.01551336     
  -4539538609.8813066        20747295.901320457        331211994.41983211     
  -4402567825.0469732        17063060.533196926        332200839.39727563     
  -4266243404.3145223        11224278.158779383        335217301.53545868     
  -4130565347.6839600        3230948.7780854702        340261380.83438879     
  -3995533655.1552815       -6916927.6089117527        347333077.29405767     
  -4857478558.0950260        11943634.985574722        191561860.50896227     
  -4711896325.1208239        10548021.043406725        184062939.09741673     
  -4567482863.8145018        5256501.5416486263        180632447.99594706     
  -4424238174.1760616       -3930923.5197083950        181270387.20456561     
  -4282162256.2054887       -17014254.140644550        185976756.72326842     
  -5199559488.4933872       -4102320.5855603218        52103074.723380826     
  -5039534912.6669283       -1460044.6880497932        35506911.429188639     
  -4881201516.0743399       -4455032.9034397602        25019991.594415929     
  -4724559298.7156134       -13087285.231703281        20642315.219065022     
  -4569608260.5907621       -27356801.672883749        22373882.303143684     
  -3424728663.0600605        12542062.452976227        663306056.88763797     
  -3264314297.1035762        18576703.902862310        657120758.07722223     
  -3105306993.9955201        19921135.857973099        654851579.64020622     
  -2947706753.7359157        16575358.318251133        656498521.57659113     
  -2791513576.3247380        8539371.2837742567        662061583.88637829     
  -3709722457.4401350        2935177.9222903252        506442844.01551336     
  -3539241661.7780476        7276926.0531463623        498914727.83312166     
  -3369424049.1110625        9408064.2003295422        495604566.43218005     
  -3200269619.4391837        9328592.3638268709        496512359.81269670     
  -3031778372.7624083        7038510.5436390638        501638107.97466636     
  -3995533655.1552815       -6916927.6089117527        347333077.29405767     
  -3814124045.7645755       -4009357.5901911259        339330003.56857306     
  -3632633739.5156431       -832798.04402542114        335846719.03260136     
  -3451062736.4084749        2612751.0295727253        336883223.68613994     
  -3269411036.4430833        6327289.6306011677        342439517.52918345     
  -4282162256.2054887       -17014254.140644550        185976756.72326842     
  -4088961449.0631518       -15282147.027133942        178366585.28358206     
  -3894936065.2092543       -10801450.875079632        175578037.44146454     
  -3700086104.6437902       -3572165.6844739914        177611113.19690666     
  -3504411567.3667703        6405708.5446536541        184465812.54991817     
  -4569608260.5907621       -27356801.672883749        22373882.303143684     
  -4363753871.6737804       -26541442.257692337        16024472.978148907     
  -4156331026.1919117       -20497894.292867661        14798521.658776060     
  -3947339724.1451311       -9226157.7783350945        18696028.345019057     
  -3736779965.5334616        7273767.2858181000        27716993.036880780     
  -2791513576.3247380        8539371.2837742567        662061583.88637829     
  -2662376480.3389282       -7551473.6018114090        650376167.41013145     
  -2531791464.4212465       -18815918.714500904        642344717.87753868     
  -2399758528.5716958       -25253964.054293156        637967235.28859186     
  -2266277672.7902951       -26865609.621248126        637243719.64329720     
  -3031778372.7624083        7038510.5436390638        501638107.97466636     
  -2891665981.6584177       -3446858.7767705917        492148379.11951822     
  -2750680493.8197989       -11021905.648406506        486153646.74273890     
  -2608821909.2465501       -15686630.071284533        483653910.84432691     
  -2466090227.9386640       -17441032.045368075        484649171.42428315     
  -3269411036.4430833        6327289.6306011677        342439517.52918345     
  -3118777551.5502934        1311135.4765330553        334474849.23169273     
  -2967845793.1201067       -2710773.5528458357        329846206.94728565     
  -2816615761.1525254       -5738437.4575891495        328553590.67597288     
  -2665087455.6475444       -7771856.2376614809        330597000.41774321     
  -3504411567.3667703        6405708.5446536541        184465812.54991817     
  -3343711190.0145488        6722509.1581532955        177355577.74664435     
  -3183287362.3221765        6117477.5721629858        173422398.49117810     
  -3023140084.2896194        4590613.7867826223        172666274.78352547     
  -2863269355.9169073        2141917.8019236326        175087206.62367052     
  -3736779965.5334616        7273767.2858181000        27716993.036880780     
  -3566466897.0511971        12787262.268002748        20790564.664390478     
  -3397005201.4259896        15462847.726685524        16882221.374418058     
  -3228394878.6578541        15300523.661784887        15991963.166986581     
  -3060635928.7467804        12300290.073342443        18119790.042070426     
  -2266277672.7902951       -26865609.621248126        637243719.64329720     
  -2121227969.5531423       -23454055.050186515        627727465.31731904     
  -1976602529.6096578       -21456711.458032370        620214181.55766857     
  -1832401352.9598415       -20873578.844759107        614703868.36433768     
  -1688624439.6036897       -21704657.210379004        611196525.73734105     
  -2466090227.9386640       -17441032.045368075        484649171.42428315     
  -2316254279.1760435       -16152045.419752598        475095104.04459232     
  -2166690037.0183702       -15768747.477316976        467709616.79787809     
  -2017397501.4656789       -16291138.218136072        462492709.68415153     
  -1868376672.5179532       -17719217.642179132        459444382.70340985     
  -2665087455.6475444       -7771856.2376614809        330597000.41774321     
  -2509992091.1689820       -8463486.5002981424        321183102.78780955     
  -2355015876.6066809       -9552283.1504745483        314103394.85751843     
  -2200158811.9606647       -11038246.188264489        309357876.62687355     
  -2045420897.2309196       -12921375.613616705        306946548.09586382     
  -2863269355.9169073        2141917.8019236326        175087206.62367052     
  -2702441405.5319610       -388378.29183542728        165991461.54697996     
  -2541580048.3745923       -2807318.4775224924        159395515.73659840     
  -2380685284.4447894       -5114902.7551076412        155299369.19250622     
  -2219757113.7425814       -7311131.1246496439        153703021.91471311     
  -3060635928.7467804        12300290.073342443        18119790.042070426     
  -2893602222.2650061        8073279.2055479288        9520180.3221154008     
  -2726382552.3220978        4466146.5415549278        3585979.4351015785     
  -2558976918.9180779        1478892.0812606812        317187.38105250022     
  -2391385322.0529270       -888484.17527461052       -286195.84004224278     
  -1688624439.6036897       -21704657.210379004        611196525.73734105     
  -1548533788.4162769       -25528214.841911197        595838678.23160744     
  -1409262786.4287796       -32083936.473162353        579615236.87532234     
  -1270811433.6412189       -41371822.104207873        562526201.66849148     
  -1133179730.0535848       -53391871.734997332        544571572.61111546     
  -1868376672.5179532       -17719217.642179132        459444382.70340985     
  -1730112308.5508871       -22621167.983989477        444907336.88027620     
  -1591739049.9064815       -27160136.067996085        430079908.44056070     
  -1453256896.5847266       -31336121.894172847        414962097.38426560     
  -1314665848.5856235       -35149125.462536752        399553903.71139580     
  -2045420897.2309196       -12921375.613616705        306946548.09586382     
  -1907339359.8157139       -18408680.465144277        294313605.14548361     
  -1768220383.8459094       -20437856.801322699        281965490.81248528     
  -1628063969.3214872       -19008904.622114122        269902205.09688443     
  -1486870116.2424510       -14121823.927522779        258123747.99866477     
  -2219757113.7425814       -7311131.1246496439        153703021.91471311     
  -2080214942.2107725       -12890752.285396218        144057483.02723679     
  -1938706788.2470827       -11917098.673205376        135271983.99110708     
  -1795232651.8515084       -4390170.2880734205        127346524.80633830     
  -1649792533.0240302        9690032.8700839281        120281105.47292955     
  -2391385322.0529270       -888484.17527461052       -286195.84004224278     
  -2248739055.7360187       -6067383.4446510077       -5861029.4744661972     
  -2103198263.1099803       -1597861.6835752726       -10000612.023577509     
  -1954762944.1747639        12520081.108084440       -12704943.487359688     
  -1803433098.9303982        36286444.930240631       -13974023.865812249     
  -1133179730.0535848       -53391871.734997332        544571572.61111546     
  -948905248.12135732       -41340748.815965801        562665175.74166715     
  -757166058.27727604       -4407266.1907497644        591690887.15328789     
  -557962160.52133524        57408576.140669972        631648706.84598005     
  -351293554.85353845        144106778.17825997        682538634.81974387     
  -1314665848.5856235       -35149125.462536752        399553903.71139580     
  -1115676349.3047113       -15176614.274818242        421179775.97436738     
  -913059934.12651110        16885616.570544302        441364771.39324701     
  -706816603.05100095        61037567.073592335        460108889.96804327     
  -496946356.07820857        117279237.23425934        477412131.69874692     
  -1486870116.2424510       -14121823.927522779        258123747.99866477     
  -1308516985.6847353        3166659.7073267698        278804465.37706935     
  -1130374731.2442901        19752222.951300263        285671320.78622615     
  -952443352.92111492        35634865.804359853        278724314.22613031     
  -774722850.71520734        50814588.266530126        257963445.69679245     
  -1649792533.0240302        9690032.8700839281        120281105.47292955     
  -1527427157.2614088        13689073.130517602        135539243.94977215     
  -1409110449.6306291        4192552.9514622688        124610535.33221045     
  -1294842410.1316664       -18799527.666987062        87494979.620239258     
  -1184623038.7645333       -55287168.724842370        24192576.813851774     
  -1803433098.9303982        36286444.930240631       -13974023.865812249     
  -1772406864.0347638        16390625.994624138       -8615888.3075098805     
  -1749267089.2855074       -29793393.428907514       -41817584.968784288     
  -1734013774.6826549       -102265613.34045756       -113579113.84962825     
  -1726646920.2261949       -201026033.73998201       -223900474.95004421     
  -351293554.85353845        144106778.17825997        682538634.81974387     
  -277409998.58924842        285342226.33097649        785893204.84810078     
  -148767351.81735730        609107976.17568541        905128108.62533259     
   34634385.462130964        1115404027.7123795        1040243346.1514297     
   272795213.24920279        1804230380.9410298        1191238917.4264207     
  -496946356.07820857        117279237.23425934        477412131.69874692     
  -388085469.08711749        223157704.66686779        596748650.29732704     
  -230144065.94954371        492637892.58776093        735269777.41074252     
  -23122146.665454566        925719800.99702573        892975513.03899598     
   232980288.76511338        1522403429.8945923        1069865857.1821003     
  -774722850.71520734        50814588.266530126        257963445.69679245     
  -621443847.95171332        124168310.49270448        386656909.44430506     
  -424762903.40282863        342195172.00352585        537839256.47263002     
  -184680017.06852746        704895172.79902565        711510486.78175581     
   98804811.051151454        1212268312.8791928        907670600.37168455     
  -1184623038.7645333       -55287168.724842370        24192576.813851774     
  -977485135.18303668       -11625956.191478729        155617982.28904420     
  -732623864.17722130        157779814.42292908        312836545.81100506     
  -450039225.74711955        452930143.11832321        495848267.37971741     
  -129731219.89266390        873825029.89485109        704653146.99522102     
  -1726646920.2261949       -201026033.73998201       -223900474.95004421     
  -1456209330.7810657       -184225095.38566029       -96368131.168464214     
  -1153726948.2727232       -60608180.153983891        60261645.425848790     
  -819199772.70116711        169824711.95507163        245988854.83289850     
  -452627804.06640434        507073580.94150496        460813497.05266494     
 </DataArray>
 <DataArray  type="Float64" Name="VM" NumberOfComponents="1" format="ascii">
   6041499731.0369396     
   5833472877.0170794     
   5623748516.7801619     
   5412236924.9574013     
   5198875438.0659666     
   5693187283.2666492     
   5489155747.5891542     
   5284613632.4425526     
   5079559836.6246958     
   4874023999.4134188     
   5352838922.3566380     
   5157301562.1099348     
   4962872633.2160101     
   4769662857.2735491     
   4577853073.3048954     
   5025201289.3991337     
   4842185883.5232315     
   4662394559.0359974     
   4486039504.4214363     
   4313473363.8023548     
   4716342780.3294477     
   4549137675.6808348     
   4387835195.2080603     
   4232687404.5155072     
   4084178737.8138642     
   5198875438.0659666     
   5035330468.6709919     
   4872437307.0692015     
   4710156962.3870049     
   4548539712.4586420     
   4874023999.4134188     
   4725642474.1254549     
   4578218813.4029102     
   4431780319.6736488     
   4286413479.0775127     
   4577853073.3048954     
   4441608250.9382257     
   4306355057.9589691     
   4172161570.7257276     
   4039130198.7059326     
   4313473363.8023548     
   4186682105.3893814     
   4060608155.5722675     
   3935328135.3394027     
   3810935350.1855350     
   4084178737.8138642     
   3964640324.6158004     
   3845223300.3529124     
   3725972231.1480470     
   3606939040.2316780     
   4548539712.4586420     
   4349687626.1516533     
   4150400825.9880357     
   3950669309.4153790     
   3750507887.9643025     
   4286413479.0775127     
   4096423945.3978453     
   3906660564.1087809     
   3717177690.0211468     
   3528082317.1787162     
   4039130198.7059326     
   3860279565.3764033     
   3682626223.1357493     
   3506325697.0658484     
   3331625624.7952113     
   3810935350.1855350     
   3645391369.0641384     
   3482351322.0214124     
   3322098111.5908265     
   3165051733.7051387     
   3606939040.2316780     
   3456611691.2169075     
   3310430409.3868604     
   3168808026.6468081     
   3032334145.3628392     
   3750507887.9643025     
   3576712294.4110808     
   3403727060.5563064     
   3231524562.8310485     
   3060145587.0287075     
   3528082317.1787162     
   3365307850.5462651     
   3203623537.6534648     
   3043074710.4685392     
   2883771174.7209005     
   3331625624.7952113     
   3179225082.8275599     
   3028149386.5677395     
   2878519893.5273886     
   2730521944.4357724     
   3165051733.7051387     
   3022765535.4573994     
   2881998000.6901498     
   2742946280.9318810     
   2605874299.9511619     
   3032334145.3628392     
   2900340906.4954195     
   2770025711.1033025     
   2641656198.9196916     
   2515572041.5486264     
   3060145587.0287075     
   2895290898.4483161     
   2729938498.1409588     
   2564080684.5985436     
   2397716627.8471570     
   2883771174.7209005     
   2721501587.2524471     
   2559224845.6529613     
   2396971289.6814308     
   2234791052.8048596     
   2730521944.4357724     
   2573415532.1886725     
   2417203563.5545716     
   2262033817.0064044     
   2108115053.9340034     
   2605874299.9511619     
   2456551074.6992183     
   2309465975.6652999     
   2164953337.6943340     
   2023467663.0317740     
   2515572041.5486264     
   2376439921.1332355     
   2241275677.7881503     
   2110619853.6441348     
   1985182059.3960483     
   2397716627.8471570     
   2250595081.7000155     
   2105697657.0454943     
   1963021030.3484194     
   1822734582.7065403     
   2234791052.8048596     
   2091213838.0160303     
   1949323255.3337770     
   1809118808.4579902     
   1670678436.2440269     
   2108115053.9340034     
   1967271504.9444039     
   1827393749.8518505     
   1688512768.4142127     
   1550688160.5873463     
   2023467663.0317740     
   1886219971.7537818     
   1749256456.7857151     
   1612704013.1630640     
   1476737692.2533917     
   1985182059.3960483     
   1854159520.4428377     
   1723079289.6450410     
   1592283397.3562534     
   1462274602.0965953     
   1822734582.7065403     
   1781716382.9375136     
   1737149176.1554182     
   1697664678.6315856     
   1681781397.5664327     
   1670678436.2440269     
   1554817670.0962520     
   1429810724.1189215     
   1296005736.4308889     
   1159515980.7770422     
   1550688160.5873463     
   1400327633.3348598     
   1246398080.1732132     
   1086631298.6556337     
   918997218.36196244     
   1476737692.2533917     
   1332006277.2078042     
   1201760320.9199598     
   1090494365.6619067     
   1004134494.4976233     
   1462274602.0965953     
   1352741905.0509696     
   1278229586.5462170     
   1246865508.6331584     
   1265704646.2225406     
   1681781397.5664327     
   1384033586.3514674     
   1129503061.9029922     
   1009938181.2620785     
   1152825396.2132268     
   1159515980.7770422     
   1008926635.4530007     
   985469294.04123867     
   1161475150.4721487     
   1544013301.3282514     
   918997218.36196244     
   964123618.24896431     
   1145487643.2021186     
   1476624598.0854251     
   1957361929.6791484     
   1004134494.4976233     
   1166240057.9741189     
   1426294312.9001091     
   1809030175.2125664     
   2334652773.1870470     
   1265704646.2225406     
   1448712122.9925530     
   1716868841.9958966     
   2110895859.2928965     
   2663378517.8351870     
   4716342780.3294477     
   4549137675.6808348     
   4387835195.2080603     
   4232687404.5155072     
   4084178737.8138642     
   4404920339.2017765     
   4260575395.3366728     
   4120975861.4490190     
   3986369790.4754043     
   3857136293.2785802     
   4120738868.3343081     
   3995579970.0223422     
   3873694687.5679688     
   3755302267.8170204     
   3640692338.4285698     
   3865276963.9163642     
   3756516149.4259782     
   3649293343.0000176     
   3543739563.0525093     
   3440038191.6512289     
   3639983646.0518937     
   3545953467.3337984     
   3451570489.6023788     
   3356779812.2164588     
   3261605866.6055131     
   4084178737.8138642     
   3964640324.6158004     
   3845223300.3529124     
   3725972231.1480470     
   3606939040.2316780     
   3857136293.2785802     
   3741602253.1317701     
   3627760770.4067945     
   3515804415.5642467     
   3405963195.6206636     
   3640692338.4285698     
   3534073752.6580753     
   3431273151.6453643     
   3332652720.3625445     
   3238661658.9019346     
   3440038191.6512289     
   3346580951.1809888     
   3259641078.4484191     
   3179724711.8178439     
   3107478833.3130908     
   3261605866.6055131     
   3184436417.1320572     
   3117066151.5315061     
   3060055385.1109295     
   3014148231.3407311     
   3606939040.2316780     
   3456611691.2169075     
   3310430409.3868604     
   3168808026.6468081     
   3032334145.3628392     
   3405963195.6206636     
   3273954906.2923918     
   3146327820.2248302     
   3023540945.3125267     
   2906191674.0440521     
   3238661658.9019346     
   3123920372.7882085     
   3013600801.4559851     
   2908169430.7975817     
   2808191822.6862826     
   3107478833.3130908     
   3009212139.2281308     
   2915173920.7169051     
   2825797602.3006325     
   2741579596.5851717     
   3014148231.3407311     
   2931799523.2190752     
   2853227510.2143831     
   2778795589.4410558     
   2708901551.5729022     
   3032334145.3628392     
   2900340906.4954195     
   2770025711.1033025     
   2641656198.9196916     
   2515572041.5486264     
   2906191674.0440521     
   2784569720.1220188     
   2666062830.1914997     
   2551096028.8457842     
   2440192599.5665708     
   2808191822.6862826     
   2699223231.0863876     
   2595019245.5890255     
   2496141634.5445042     
   2403259094.7107005     
   2741579596.5851717     
   2646950915.4606380     
   2558816546.7536597     
   2477810559.6630630     
   2404659036.0433202     
   2708901551.5729022     
   2629429992.1908479     
   2558119778.3781075     
   2495588592.7810373     
   2442515104.4145689     
   2515572041.5486264     
   2376439921.1332355     
   2241275677.7881503     
   2110619853.6441348     
   1985182059.3960483     
   2440192599.5665708     
   2316313675.7241993     
   2197622399.8087020     
   2084832506.9035225     
   1978825451.6841662     
   2403259094.7107005     
   2296334618.3101916     
   2195791359.0635304     
   2102426722.5852973     
   2017166554.2726293     
   2404659036.0433202     
   2315725755.4565592     
   2234153321.4338026     
   2160712796.0060787     
   2096244645.3218486     
   2442515104.4145689     
   2371792737.5738525     
   2309075164.4062376     
   2255021412.1484275     
   2210306693.5663724     
   1985182059.3960483     
   1854159520.4428377     
   1723079289.6450410     
   1592283397.3562534     
   1462274602.0965953     
   1978825451.6841662     
   1862242123.0987580     
   1749976652.2285070     
   1642952034.2160802     
   1542303193.0240877     
   2017166554.2726293     
   1920215269.7548399     
   1832036952.7049839     
   1753843146.4005435     
   1686938479.1717012     
   2096244645.3218486     
   2020564591.5163696     
   1957295375.2539406     
   1907532966.8089817     
   1872321497.8669240     
   2210306693.5663724     
   2154512280.2368927     
   2113763085.8907588     
   2088842562.3161197     
   2080439802.7061877     
   1462274602.0965953     
   1352741905.0509696     
   1278229586.5462170     
   1246865508.6331584     
   1265704646.2225406     
   1542303193.0240877     
   1480888082.3455482     
   1452192014.7033596     
   1460177920.1909292     
   1508145745.6888530     
   1686938479.1717012     
   1657843947.4404016     
   1656488176.6864982     
   1685228855.6221216     
   1746670775.0410545     
   1872321497.8669240     
   1861155548.1557817     
   1872968143.8751528     
   1909949097.8841631     
   1975118410.9693019     
   2080439802.7061877     
   2076213374.6406732     
   2091215822.4197907     
   2128052588.5121253     
   2190518515.7163033     
   1265704646.2225406     
   1448712122.9925530     
   1716868841.9958966     
   2110895859.2928965     
   2663378517.8351870     
   1508145745.6888530     
   1615551930.0631785     
   1790075024.7686577     
   2066594980.5526760     
   2475484894.7300992     
   1746670775.0410545     
   1790283915.7562602     
   1885958013.9766717     
   2060713136.6014016     
   2339946891.1738100     
   1975118410.9693019     
   1971871310.2175035     
   2005094314.4394445     
   2093546402.3260710     
   2256030018.6601667     
   2190518515.7163033     
   2159600984.0773616     
   2148233942.7895703     
   2166999200.2136230     
   2227065095.2760324     
   3639983646.0518937     
   3545953467.3337984     
   3451570489.6023788     
   3356779812.2164588     
   3261605866.6055131     
   3427209682.0180922     
   3340595195.4213700     
   3255948903.7001910     
   3173361692.7395458     
   3092940029.0150390     
   3272894808.8114333     
   3190672642.6481361     
   3112872336.6643233     
   3039100158.2625875     
   2969165628.8474035     
   3183855932.1267066     
   3101923002.1942601     
   3026720540.4110770     
   2956718457.8457079     
   2891070102.9937763     
   3165055249.9731555     
   3078018224.1843553     
   2999681430.5206337     
   2926794402.3782492     
   2857556927.9065485     
   3261605866.6055131     
   3184436417.1320572     
   3117066151.5315061     
   3060055385.1109295     
   3014148231.3407311     
   3092940029.0150390     
   3039205820.4779620     
   2993377353.8742175     
   2955790439.4516706     
   2926858598.7842340     
   2969165628.8474035     
   2933716209.1799054     
   2903530666.5315967     
   2878776998.8041396     
   2859646405.4806223     
   2891070102.9937763     
   2869596831.7267432     
   2850085016.3778024     
   2832585361.8699226     
   2817152779.2790780     
   2857556927.9065485     
   2846932429.0570240     
   2834481132.2962327     
   2820165411.8953090     
   2803952741.6306758     
   3014148231.3407311     
   2931799523.2190752     
   2853227510.2143831     
   2778795589.4410558     
   2708901551.5729022     
   2926858598.7842340     
   2852151665.9643240     
   2783332915.4769807     
   2720872757.3861642     
   2665282591.4988232     
   2859646405.4806223     
   2794039758.7107453     
   2736630162.4236989     
   2687916849.3257446     
   2648437820.9807620     
   2817152779.2790780     
   2760927469.4985819     
   2715340071.4396253     
   2680830092.0718522     
   2657869156.0612969     
   2803952741.6306758     
   2755955219.8175306     
   2721142548.1328115     
   2699821153.5614080     
   2692324885.5668116     
   2708901551.5729022     
   2629429992.1908479     
   2558119778.3781075     
   2495588592.7810373     
   2442515104.4145689     
   2665282591.4988232     
   2601173143.8404393     
   2545453085.2879100     
   2498617077.3878584     
   2461188067.5838170     
   2648437820.9807620     
   2598335616.1210575     
   2556657237.2548552     
   2523768185.1066175     
   2500041252.5431080     
   2657869156.0612969     
   2620087235.7971458     
   2590603091.8733859     
   2569664193.4813390     
   2557515015.0972376     
   2692324885.5668116     
   2664945368.4346628     
   2645628011.7361984     
   2634524231.7965102     
   2631779620.9867840     
   2442515104.4145689     
   2371792737.5738525     
   2309075164.4062376     
   2255021412.1484275     
   2210306693.5663724     
   2461188067.5838170     
   2404945227.6415572     
   2357781834.2425098     
   2320258909.7854471     
   2292922970.9575257     
   2500041252.5431080     
   2457608240.6099019     
   2425117432.5881076     
   2403000886.9907289     
   2391659584.2197523     
   2557515015.0972376     
   2527598442.6172919     
   2508329870.7403202     
   2500010203.7279162     
   2502906967.2106295     
   2631779620.9867840     
   2612607309.6224179     
   2604718842.6785622     
   2608301084.6146746     
   2623514899.8758936     
   2210306693.5663724     
   2154512280.2368927     
   2113763085.8907588     
   2088842562.3161197     
   2080439802.7061877     
   2292922970.9575257     
   2251803364.5864725     
   2224687736.1591616     
   2212027748.0256920     
   2214212050.6601214     
   2391659584.2197523     
   2362101187.6517439     
   2345473187.9497533     
   2342018150.8643341     
   2351952930.7965016     
   2502906967.2106295     
   2482084130.2425284     
   2473204800.6784921     
   2476392112.5830550     
   2491774799.6559629     
   2623514899.8758936     
   2608968810.2470670     
   2605527346.5719757     
   2613253930.3218918     
   2632240013.7688508     
   2080439802.7061877     
   2076213374.6406732     
   2091215822.4197907     
   2128052588.5121253     
   2190518515.7163033     
   2214212050.6601214     
   2198899923.5361562     
   2198650167.2344384     
   2215414059.8911347     
   2252096540.0305376     
   2351952930.7965016     
   2326394777.5291071     
   2312519028.5009036     
   2311717885.5263648     
   2326066098.2860498     
   2491774799.6559629     
   2457748987.5355797     
   2432515929.1855450     
   2417010496.2955713     
   2412596777.8143067     
   2632240013.7688508     
   2592198877.6979384     
   2558366496.1374731     
   2531315759.8968778     
   2511843893.6183782     
   2190518515.7163033     
   2159600984.0773616     
   2148233942.7895703     
   2166999200.2136230     
   2227065095.2760324     
   2252096540.0305376     
   2185788359.2872429     
   2135823455.6702838     
   2111891098.1406908     
   2124989302.4222293     
   2326066098.2860498     
   2227772431.4347496     
   2142672512.3542686     
   2079116244.2395501     
   2047292918.3353281     
   2412596777.8143067     
   2285846435.1578879     
   2169432321.9575748     
   2070044986.4617257     
   1996418245.1939707     
   2511843893.6183782     
   2360217253.6086226     
   2216573558.4980483     
   2085819635.0143628     
   1974750251.2237630     
   3165055249.9731555     
   3078018224.1843553     
   2999681430.5206337     
   2926794402.3782492     
   2857556927.9065485     
   3278280313.5839720     
   3149210534.8561945     
   3029375248.9263086     
   2919176162.8630400     
   2819145765.8633986     
   3375025385.3887253     
   3200605310.0034389     
   3048665842.3846803     
   2918370423.0672083     
   2809163205.4758792     
   3471788554.4920602     
   3251357610.9463530     
   3076300185.4099159     
   2940919106.2582359     
   2840765821.2936234     
   3599118738.3135653     
   3330466340.4277267     
   3137134235.4228735     
   3005974877.5027876     
   2926464903.4780545     
   2857556927.9065485     
   2846932429.0570240     
   2834481132.2962327     
   2820165411.8953090     
   2803952741.6306758     
   2819145765.8633986     
   2794500614.8542976     
   2774335061.0410876     
   2758683243.6978669     
   2747587901.5826778     
   2809163205.4758792     
   2771739619.5077038     
   2745572824.2525401     
   2730675692.4734416     
   2727078811.9319634     
   2840765821.2936234     
   2788540247.5793338     
   2754680793.5590234     
   2739134695.5405807     
   2741868622.4319935     
   2926464903.4780545     
   2853897829.4195223     
   2806978537.5730987     
   2785703892.6675100     
   2790077222.1115909     
   2803952741.6306758     
   2755955219.8175306     
   2721142548.1328115     
   2699821153.5614080     
   2692324885.5668116     
   2747587901.5826778     
   2713313843.4057574     
   2691390548.7968402     
   2681959110.9270697     
   2685170050.5373931     
   2727078811.9319634     
   2702244564.2556915     
   2688787635.2937102     
   2686750397.3364029     
   2696177704.6254287     
   2741868622.4319935     
   2722302936.4225054     
   2713057780.0881395     
   2714136572.3014517     
   2725543398.5842814     
   2790077222.1115909     
   2772008541.7742162     
   2763152780.6115298     
   2763518554.8439279     
   2773116058.4007230     
   2692324885.5668116     
   2664945368.4346628     
   2645628011.7361984     
   2634524231.7965102     
   2631779620.9867840     
   2685170050.5373931     
   2663254015.7471976     
   2649269959.7394767     
   2643303193.7440319     
   2645434601.5509048     
   2696177704.6254287     
   2677818925.6400609     
   2667279376.6121593     
   2664596505.9302392     
   2669805308.3399315     
   2725543398.5842814     
   2708777835.5670338     
   2699751220.5425839     
   2698471219.4639640     
   2704944671.0658770     
   2773116058.4007230     
   2755994644.8052793     
   2746571321.4241619     
   2744841007.0105753     
   2750798633.7902451     
   2631779620.9867840     
   2612607309.6224179     
   2604718842.6785622     
   2608301084.6146746     
   2623514899.8758936     
   2645434601.5509048     
   2632178370.4592776     
   2630318540.1507568     
   2639954310.4940276     
   2661170202.2316232     
   2669805308.3399315     
   2660239165.0283041     
   2662298232.9598827     
   2676020891.5064402     
   2701440113.7087970     
   2704944671.0658770     
   2696673199.8496552     
   2700410910.5173321     
   2716162943.3231158     
   2743934105.0973468     
   2750798633.7902451     
   2741311056.6699038     
   2744397198.5418797     
   2760058440.7889175     
   2788295181.3958201     
   2623514899.8758936     
   2608968810.2470670     
   2605527346.5719757     
   2613253930.3218918     
   2632240013.7688508     
   2661170202.2316232     
   2647107277.1056933     
   2643664082.8732162     
   2650877472.9089785     
   2668799605.4380679     
   2701440113.7087970     
   2687750433.3591871     
   2684388015.2544513     
   2691370448.3834524     
   2708721455.9591985     
   2743934105.0973468     
   2730583518.5246415     
   2727451225.4588213     
   2734542361.4471993     
   2751863096.0793972     
   2788295181.3958201     
   2775312461.2207284     
   2772616825.2960362     
   2780207264.0409622     
   2798082897.9717898     
   2632240013.7688508     
   2592198877.6979384     
   2558366496.1374731     
   2531315759.8968778     
   2511843893.6183782     
   2668799605.4380679     
   2622284842.7999563     
   2581636404.6572247     
   2547178414.2020431     
   2519363080.2618184     
   2708721455.9591985     
   2657838591.1716599     
   2612627960.2255006     
   2573232552.8437691     
   2539851222.9211154     
   2751863096.0793972     
   2698738572.7649474     
   2651237861.0775743     
   2609395534.4703708     
   2573258760.7330723     
   2798082897.9717898     
   2744856823.4945455     
   2697349379.9238949     
   2655560396.5738149     
   2619489819.4346781     
   2511843893.6183782     
   2360217253.6086226     
   2216573558.4980483     
   2085819635.0143628     
   1974750251.2237630     
   2519363080.2618184     
   2350418524.2441039     
   2184913199.5232353     
   2025871132.3437812     
   1877753627.3257818     
   2539851222.9211154     
   2358721752.5982785     
   2177294494.3487606     
   1996978017.1086323     
   1819953256.6010892     
   2573258760.7330723     
   2385229931.8551250     
   2194179114.9840465     
   2000448880.7861347     
   1804584508.1315901     
   2619489819.4346781     
   2429910377.1855183     
   2235701771.6339149     
   2036864987.6596582     
   1833401784.5132339     
   3599118738.3135653     
   3330466340.4277267     
   3137134235.4228735     
   3005974877.5027876     
   2926464903.4780545     
   2735123863.2641101     
   2662529535.4135733     
   2626082888.8591914     
   2621383846.1075068     
   2645801516.7847943     
   2205100724.1158910     
   2236344992.9000883     
   2283701826.6076541     
   2347744912.1936383     
   2428835280.7981458     
   2002904194.4301078     
   2013029546.0906847     
   2065821288.7259195     
   2148230314.3877249     
   2249783317.5544920     
   2034296120.9073462     
   1917529137.1782908     
   1914034277.0732322     
   1981487115.3088853     
   2082592229.5695786     
   2926464903.4780545     
   2853897829.4195223     
   2806978537.5730987     
   2785703892.6675100     
   2790077222.1115909     
   2645801516.7847943     
   2620225880.8420520     
   2608806557.2152944     
   2611721400.2211428     
   2629116914.0169516     
   2428835280.7981458     
   2440740820.9926815     
   2456663401.8071384     
   2476418622.5015264     
   2499863188.6777096     
   2249783317.5544920     
   2295612583.3560095     
   2336918779.3271790     
   2372314090.4689536     
   2400787982.9422598     
   2082592229.5695786     
   2164643229.3452573     
   2235215251.5639806     
   2290880213.9529462     
   2329376136.4915714     
   2790077222.1115909     
   2772008541.7742162     
   2763152780.6115298     
   2763518554.8439279     
   2773116058.4007230     
   2629116914.0169516     
   2620247312.1928253     
   2619851933.3571849     
   2627961274.6048403     
   2644605319.6733880     
   2499863188.6777096     
   2497280379.7413511     
   2502525261.9146914     
   2515669537.2487688     
   2536779870.1701775     
   2400787982.9422598     
   2401582543.7467012     
   2409696139.2861190     
   2425253190.2560673     
   2448365903.8424234     
   2329376136.4915714     
   2330811249.3961086     
   2339222260.9685121     
   2354789078.8601046     
   2377670282.5497680     
   2773116058.4007230     
   2755994644.8052793     
   2746571321.4241619     
   2744841007.0105753     
   2750798633.7902451     
   2644605319.6733880     
   2637812452.3133054     
   2639432631.2442956     
   2649467039.4006739     
   2667919029.9029517     
   2536779870.1701775     
   2538380429.0115981     
   2549194883.5710626     
   2569262152.6082354     
   2598623318.7401390     
   2448365903.8424234     
   2455880180.3204632     
   2473590816.0401177     
   2501615720.3879910     
   2540067966.8534799     
   2377670282.5497680     
   2388163483.4442201     
   2410124394.6333075     
   2443800781.7949162     
   2489415189.8760948     
   2750798633.7902451     
   2741311056.6699038     
   2744397198.5418797     
   2760058440.7889175     
   2788295181.3958201     
   2667919029.9029517     
   2667551947.8993235     
   2677417354.9641185     
   2697538553.1304512     
   2727936589.4376798     
   2598623318.7401390     
   2604417913.2632637     
   2618213734.1956182     
   2640046607.0938621     
   2669958253.0849557     
   2540067966.8534799     
   2549863219.8451447     
   2565459663.8219042     
   2586882288.1973333     
   2614183581.4787579     
   2489415189.8760948     
   2501840290.9713411     
   2517819338.6288962     
   2537337411.3426232     
   2560443935.1079350     
   2788295181.3958201     
   2775312461.2207284     
   2772616825.2960362     
   2780207264.0409622     
   2798082897.9717898     
   2727936589.4376798     
   2717611609.1987247     
   2717052046.4507179     
   2726259374.1876116     
   2745238189.2442856     
   2669958253.0849557     
   2662389644.6876321     
   2664218778.7434592     
   2675456367.2188129     
   2696123643.1938744     
   2614183581.4787579     
   2609538154.7701502     
   2614071747.5500708     
   2627806675.1026573     
   2650788352.2015624     
   2560443935.1079350     
   2558947936.6699061     
   2566559887.2396932     
   2583311163.9898143     
   2609274603.9910965     
   2798082897.9717898     
   2744856823.4945455     
   2697349379.9238949     
   2655560396.5738149     
   2619489819.4346781     
   2745238189.2442856     
   2693313917.9213662     
   2646857829.2056713     
   2605907842.1145759     
   2570517839.6883583     
   2696123643.1938744     
   2647487557.1393509     
   2604207957.4741669     
   2566434088.0980544     
   2534373738.2358170     
   2650788352.2015624     
   2607438455.4900904     
   2569471840.9978056     
   2537220598.3753142     
   2511142785.1728215     
   2609274603.9910965     
   2573215630.5774260     
   2542704655.6568317     
   2518322487.0354862     
   2500863479.5397787     
   2619489819.4346781     
   2429910377.1855183     
   2235701771.6339149     
   2036864987.6596582     
   1833401784.5132339     
   2570517839.6883583     
   2383424764.9042449     
   2193375246.3612061     
   2000784578.2376542     
   1806317543.5644300     
   2534373738.2358170     
   2355049610.6948123     
   2175544456.2195354     
   1997393918.5260794     
   1822975368.8567820     
   2511142785.1728215     
   2344804923.3377519     
   2182054625.8468537     
   2026070468.4928513     
   1881528876.8377788     
   2500863479.5397787     
   2352577292.3848815     
   2212431609.0310035     
   2085487044.6397533     
   1978721389.8223433     
   2034296120.9073462     
   1917529137.1782908     
   1914034277.0732322     
   1981487115.3088853     
   2082592229.5695786     
   2282908533.4511504     
   2284689208.7072573     
   2303788530.9817367     
   2333687702.4931664     
   2369632794.2354007     
   2998810315.9655313     
   2903539685.0816813     
   2824726467.7935309     
   2762569473.6112218     
   2717523572.8493114     
   3889979906.1708431     
   3627852561.4113078     
   3415255712.0651350     
   3247438666.2429347     
   3121221041.2887068     
   4867534564.0611897     
   4422588636.8717966     
   4067568027.9426804     
   3791066635.4568086     
   3584509382.8287196     
   2082592229.5695786     
   2164643229.3452573     
   2235215251.5639806     
   2290880213.9529462     
   2329376136.4915714     
   2369632794.2354007     
   2411182014.8375492     
   2445339253.9229150     
   2471542409.6708775     
   2489442714.1478848     
   2717523572.8493114     
   2703617810.7693543     
   2692013471.1858978     
   2682751564.9072165     
   2675902496.5355949     
   3121221041.2887068     
   3043470186.2382512     
   2979083153.5849814     
   2927878740.8157449     
   2889774546.9622025     
   3584509382.8287196     
   3436167147.8308249     
   3311632663.7293067     
   3210273488.6197195     
   3131783536.2348967     
   2329376136.4915714     
   2330811249.3961086     
   2339222260.9685121     
   2354789078.8601046     
   2377670282.5497680     
   2489442714.1478848     
   2466168280.1520429     
   2450563692.5249557     
   2442945367.1874757     
   2443619619.6333570     
   2675902496.5355949     
   2626941410.3873410     
   2586280924.4180331     
   2554343208.0986476     
   2531567047.4284377     
   2889774546.9622025     
   2814496319.7411847     
   2748039987.8308396     
   2690897570.4875255     
   2643615608.0811815     
   3131783536.2348967     
   3029784379.8093147     
   2937011360.3271713     
   2853986358.3738790     
   2781328898.2647533     
   2377670282.5497680     
   2388163483.4442201     
   2410124394.6333075     
   2443800781.7949162     
   2489415189.8760948     
   2443619619.6333570     
   2432767099.5298634     
   2432315761.8513937     
   2442583370.4451694     
   2463852601.4029636     
   2531567047.4284377     
   2496711506.6635480     
   2470725356.4662795     
   2454049290.7372875     
   2447118698.5612803     
   2643615608.0811815     
   2583263446.0527229     
   2529753826.9501457     
   2483637842.1409740     
   2445530910.6905017     
   2781328898.2647533     
   2695261208.8767037     
   2613628843.6543865     
   2537028717.7765155     
   2466213312.3897219     
   2489415189.8760948     
   2501840290.9713411     
   2517819338.6288962     
   2537337411.3426232     
   2560443935.1079350     
   2463852601.4029636     
   2451033107.4209490     
   2444031062.0935082     
   2443000867.0451241     
   2448100151.3371382     
   2447118698.5612803     
   2409219602.0686817     
   2379588095.5463963     
   2358492174.4986806     
   2346184192.2264166     
   2445530910.6905017     
   2382222188.8013268     
   2329677185.8984265     
   2288255236.8955202     
   2258326507.7012687     
   2466213312.3897219     
   2376668770.9193802     
   2300253146.8257809     
   2237420797.5511279     
   2188720049.6815381     
   2560443935.1079350     
   2558947936.6699061     
   2566559887.2396932     
   2583311163.9898143     
   2609274603.9910965     
   2448100151.3371382     
   2438031474.9674439     
   2438462732.9556942     
   2449483286.1740594     
   2471192865.6575060     
   2346184192.2264166     
   2324812354.6733856     
   2315437667.8775048     
   2318276234.6221704     
   2333514397.0293975     
   2258326507.7012687     
   2222449112.0027647     
   2200106550.2273083     
   2191748355.0709443     
   2197748781.7915478     
   2188720049.6815381     
   2134747306.8242736     
   2095750504.0662453     
   2072561319.8659503     
   2065901517.8184464     
   2609274603.9910965     
   2573215630.5774260     
   2542704655.6568317     
   2518322487.0354862     
   2500863479.5397787     
   2471192865.6575060     
   2440242198.9106631     
   2417615260.1120815     
   2404266927.6391306     
   2401571850.7203803     
   2333514397.0293975     
   2310245777.7253075     
   2298368975.1311951     
   2299310790.9279156     
   2315176046.0710506     
   2197748781.7915478     
   2184043666.6167059     
   2185274254.6363688     
   2203446082.3272967     
   2241521724.2861128     
   2065901517.8184464     
   2062663676.5134182     
   2078681352.6573420     
   2116643366.7789073     
   2180440166.3665757     
   2500863479.5397787     
   2352577292.3848815     
   2212431609.0310035     
   2085487044.6397533     
   1978721389.8223433     
   2401571850.7203803     
   2278439900.6104984     
   2165813543.3993716     
   2070472507.8224173     
   2001211121.8730140     
   2315176046.0710506     
   2220567105.0918536     
   2139305886.5385671     
   2079742639.6613092     
   2051990600.2983656     
   2241521724.2861128     
   2178750869.2966390     
   2132440109.7028015     
   2112180347.1446211     
   2128769614.6872640     
   2180440166.3665757     
   2152699320.7726398     
   2144575382.0400169     
   2166456915.8258295     
   2229216152.6963272     
   4867534564.0611897     
   4422588636.8717966     
   4067568027.9426804     
   3791066635.4568086     
   3584509382.8287196     
   4689436138.1620741     
   4378106017.0072317     
   4105776668.4736195     
   3871014225.2796798     
   3674332738.8269277     
   4710036283.3568325     
   4465962591.7846498     
   4232948810.7651691     
   4013139181.4824347     
   3809159401.1762042     
   4788990358.7548113     
   4578698912.2594805     
   4373190207.8167181     
   4169325655.5947704     
   3964801768.5247111     
   4822211332.3553715     
   4639908189.1963596     
   4472990308.6849384     
   4304704250.0771599     
   4122607730.3405862     
   3584509382.8287196     
   3436167147.8308249     
   3311632663.7293067     
   3210273488.6197195     
   3131783536.2348967     
   3674332738.8269277     
   3533588150.2789602     
   3407284678.0737090     
   3295380848.9399042     
   3198115827.3143468     
   3809159401.1762042     
   3671616889.3559742     
   3541687700.4356952     
   3419607378.5588088     
   3305772865.8831544     
   3964801768.5247111     
   3830888720.5898767     
   3699982920.2028108     
   3572286241.4036336     
   3448051054.8542585     
   4122607730.3405862     
   3996169632.8633447     
   3870013209.2951155     
   3744066584.3708587     
   3618259478.6725564     
   3131783536.2348967     
   3029784379.8093147     
   2937011360.3271713     
   2853986358.3738790     
   2781328898.2647533     
   3198115827.3143468     
   3084112217.4161172     
   2977450505.3636737     
   2878725707.1043725     
   2788656676.1484199     
   3305772865.8831544     
   3178687808.8200092     
   3057037070.4868541     
   2941406817.9403796     
   2832524818.1854296     
   3448051054.8542585     
   3307891813.5575709     
   3171330607.9399533     
   3038874229.0102530     
   2911173909.9717417     
   3618259478.6725564     
   3465855766.8249598     
   3315370476.3104963     
   3167188038.4152689     
   3021826494.2106791     
   2781328898.2647533     
   2695261208.8767037     
   2613628843.6543865     
   2537028717.7765155     
   2466213312.3897219     
   2788656676.1484199     
   2688795020.3954434     
   2593211788.8248491     
   2502438708.7720404     
   2417129073.1546893     
   2832524818.1854296     
   2720164714.2217693     
   2611916857.4797864     
   2508230438.3819027     
   2409655049.9165721     
   2911173909.9717417     
   2787414528.7161832     
   2667632734.5717168     
   2552190668.3618903     
   2441545180.6284838     
   3021826494.2106791     
   2887415480.9295058     
   2756901210.6842451     
   2630566844.3205967     
   2508802502.1097336     
   2466213312.3897219     
   2376668770.9193802     
   2300253146.8257809     
   2237420797.5511279     
   2188720049.6815381     
   2417129073.1546893     
   2316373538.6844096     
   2226289981.3563576     
   2147617060.7289219     
   2081214030.3530080     
   2409655049.9165721     
   2296263361.6177397     
   2190832279.3745155     
   2094200812.9661493     
   2007367492.7109303     
   2441545180.6284838     
   2316010339.8620195     
   2195630551.4937263     
   2081133739.0943699     
   1973417287.8108804     
   2508802502.1097336     
   2373295621.3000665     
   2240313248.9445724     
   2110323242.5040572     
   1983924432.7274711     
   2188720049.6815381     
   2134747306.8242736     
   2095750504.0662453     
   2072561319.8659503     
   2065901517.8184464     
   2081214030.3530080     
   2006070159.6919332     
   1943349596.1147640     
   1894180044.7482944     
   1859639043.9283504     
   2007367492.7109303     
   1909888182.0758400     
   1821332542.4889419     
   1742938202.2517033     
   1676045097.1932571     
   1973417287.8108804     
   1855347590.5667372     
   1741936235.0642164     
   1634137169.2354875     
   1533123166.0245845     
   1983924432.7274711     
   1850445479.2858930     
   1717468413.3727052     
   1585372109.5274811     
   1454688626.0847688     
   2065901517.8184464     
   2062663676.5134182     
   2078681352.6573420     
   2116643366.7789073     
   2180440166.3665757     
   1859639043.9283504     
   1849578733.1759746     
   1862475958.7397928     
   1900577712.1717074     
   1966966390.0377152     
   1676045097.1932571     
   1648121369.8485911     
   1647872346.5201669     
   1677685154.0885766     
   1740193432.7794597     
   1533123166.0245845     
   1472899521.4019778     
   1445291520.9400916     
   1454261504.0488377     
   1503101190.9449406     
   1454688626.0847688     
   1346357335.1415241     
   1272901075.9889116     
   1242412812.6128745     
   1261893288.5343690     
   2180440166.3665757     
   2152699320.7726398     
   2144575382.0400169     
   2166456915.8258295     
   2229216152.6963272     
   1966966390.0377152     
   1966243895.6448083     
   2002141794.0373788     
   2093213594.4616418     
   2257914851.5678930     
   1740193432.7794597     
   1785740713.2384069     
   1883539447.4606149     
   2060395984.2217863     
   2341358041.7063274     
   1503101190.9449406     
   1611915677.3781028     
   1788039554.7449086     
   2066145550.9163454     
   2476304773.8379588     
   1261893288.5343690     
   1445827675.8756526     
   1715089009.7208049     
   2110216342.0579662     
   2663574583.0625067     
   4822211332.3553715     
   4639908189.1963596     
   4472990308.6849384     
   4304704250.0771599     
   4122607730.3405862     
   4978620450.7434502     
   4825121501.3622637     
   4669533201.7139177     
   4507117255.8193045     
   4334419650.2151260     
   5296586558.1524439     
   5121105879.1499157     
   4944229750.6063738     
   4765857536.1979799     
   4585970840.2286730     
   5762273129.4223852     
   5526812438.3020506     
   5301017198.9716501     
   5083806825.2767744     
   4874766084.9339952     
   6370480177.2423306     
   6045258581.0744305     
   5744617786.3303528     
   5463221911.1559772     
   5198292953.9106588     
   4122607730.3405862     
   3996169632.8633447     
   3870013209.2951155     
   3744066584.3708587     
   3618259478.6725564     
   4334419650.2151260     
   4203628753.5612869     
   4073173827.5443130     
   3943097619.9495769     
   3813448712.7433062     
   4585970840.2286730     
   4448492787.0642471     
   4311143257.8478041     
   4173998035.1507587     
   4037155064.6540775     
   4874766084.9339952     
   4727940028.9845381     
   4580810033.8880787     
   4433405507.2745905     
   4285802998.1020131     
   5198292953.9106588     
   5039180344.4426947     
   4879167979.7297745     
   4718164739.0178442     
   4556156269.7933540     
   3618259478.6725564     
   3465855766.8249598     
   3315370476.3104963     
   3167188038.4152689     
   3021826494.2106791     
   3813448712.7433062     
   3646750198.5907378     
   3481620075.6224742     
   3318318887.7525492     
   3157212571.2945628     
   4037155064.6540775     
   3857162257.1782670     
   3678502736.8213210     
   3501332392.6780019     
   3325893795.6368699     
   4285802998.1020131     
   4093017845.3222876     
   3901417127.7286167     
   3711073934.0689859     
   3522140345.5450425     
   4556156269.7933540     
   4350632405.8113546     
   4146199309.9300904     
   3942867720.9779038     
   3740730220.3552990     
   3021826494.2106791     
   2887415480.9295058     
   2756901210.6842451     
   2630566844.3205967     
   2508802502.1097336     
   3157212571.2945628     
   3013039486.5081849     
   2871425260.2735200     
   2732588062.0284925     
   2596834323.0417809     
   3325893795.6368699     
   3172772375.9083667     
   3021004204.3766818     
   2870720586.9063721     
   2722117190.9910164     
   3522140345.5450425     
   3361144573.8510747     
   3200477390.7328234     
   3040183553.4827108     
   2880349886.6838508     
   3740730220.3552990     
   3573059155.9836006     
   3404888521.0131421     
   3236190810.1125431     
   3066965157.2160935     
   2508802502.1097336     
   2373295621.3000665     
   2240313248.9445724     
   2110323242.5040572     
   1983924432.7274711     
   2596834323.0417809     
   2450515987.2388210     
   2305837209.9504256     
   2163097523.9457126     
   2022697854.4949183     
   2722117190.9910164     
   2566780941.3162494     
   2412400894.2729158     
   2259124085.4810605     
   2107162192.9124312     
   2880349886.6838508     
   2717498781.5110240     
   2555136550.1694293     
   2393295906.1295538     
   2232043910.4468389     
   3066965157.2160935     
   2897694214.1441264     
   2728625435.9702473     
   2559716744.3297839     
   2390941255.1635094     
   1983924432.7274711     
   1850445479.2858930     
   1717468413.3727052     
   1585372109.5274811     
   1454688626.0847688     
   2022697854.4949183     
   1883743817.9081149     
   1745292299.2269635     
   1607475894.5465269     
   1470476917.7100115     
   2107162192.9124312     
   1965459795.2454891     
   1824663259.5818772     
   1684798953.8501971     
   1545919939.1766195     
   2232043910.4468389     
   2088756212.9218097     
   1946925216.0524356     
   1806557384.3532827     
   1667722541.5620131     
   2390941255.1635094     
   2245734455.9889030     
   2102471142.2313864     
   1961176421.8766606     
   1822008135.0702288     
   1454688626.0847688     
   1346357335.1415241     
   1272901075.9889116     
   1242412812.6128745     
   1261893288.5343690     
   1470476917.7100115     
   1326728709.0732810     
   1197409592.2401419     
   1086995047.2026763     
   1001378360.2476546     
   1545919939.1766195     
   1396268651.5555196     
   1243096499.7201195     
   1084167932.2294073     
   917485835.54627502     
   1667722541.5620131     
   1552173583.5503576     
   1427620735.1675584     
   1294447363.9274268     
   1158727665.8026674     
   1822008135.0702288     
   1780721287.2627549     
   1736073882.2365661     
   1696653379.3208811     
   1680777897.0982368     
   1261893288.5343690     
   1445827675.8756526     
   1715089009.7208049     
   2110216342.0579662     
   2663574583.0625067     
   1001378360.2476546     
   1164191053.8480544     
   1425096841.8556645     
   1808621633.5364161     
   2334767843.8521514     
   917485835.54627502     
   962956154.25467777     
   1144851986.9614000     
   1476450298.6166110     
   1957339180.5810699     
   1158727665.8026674     
   1008414112.4740599     
   985304809.04026437     
   1161513608.6043749     
   1543817000.8447840     
   1680777897.0982368     
   1383500866.6689627     
   1129481442.8184030     
   1010237900.6565262     
   1152631070.2658405     
 </DataArray>
 <DataArray  type="Float64" Name="strain" NumberOfComponents="3" format="ascii">
  0.10085306398701044       -2.9502303010630726E-002   8.7152717475014185E-004
   9.7273575363450271E-002  -2.8953592096797376E-002   6.4345058211567885E-004
   9.3694086739890103E-002  -2.8264654842083958E-002   4.8506515030488639E-004
   9.0114598116330047E-002  -2.7435491246491084E-002   3.9637087931876369E-004
   8.6535109492769879E-002  -2.6466101310018586E-002   3.7736776915664461E-004
   9.4862407242375490E-002  -2.7909492867781993E-002   7.8255018875239557E-003
   9.1391074271060302E-002  -2.7211859704018737E-002   7.5891978608207400E-003
   8.7919741299745169E-002  -2.6445629564220308E-002   7.4995139777829789E-003
   8.4448408328430008E-002  -2.5610802448386386E-002   7.5564502384106169E-003
   8.0977075357114847E-002  -2.4707378356517373E-002   7.7600066427043757E-003
   8.8720646913793832E-002  -2.6316682724933149E-002   1.4964213532649873E-002
   8.5434398577564963E-002  -2.5470127311240376E-002   1.4648052707033621E-002
   8.2148150241336093E-002  -2.4626604286356546E-002   1.4555441007924275E-002
   7.8861901905107140E-002  -2.3786113650281687E-002   1.4686378435321751E-002
   7.5575653568878326E-002  -2.2948655403015994E-002   1.5040864989226133E-002
   8.2427783001265520E-002  -2.4723872582084416E-002   2.2287662110127338E-002
   7.9403548282964170E-002  -2.3728394918461876E-002   2.1820015120754002E-002
   7.6379313564662932E-002  -2.2807579008492729E-002   2.1652846240728565E-002
   7.3355078846361582E-002  -2.1961424852176989E-002   2.1786155470051728E-002
   7.0330844128060288E-002  -2.1189932449514587E-002   2.2219942808722776E-002
   7.5983815504790664E-002  -2.3131062439235628E-002   2.9795847619956906E-002
   7.3298523387258174E-002  -2.1986662525683542E-002   2.9105085101981842E-002
   7.0613231269725657E-002  -2.0988553730628967E-002   2.8791729676196309E-002
   6.7927939152193098E-002  -2.0136736054072207E-002   2.8855781342600195E-002
   6.5242647034660622E-002  -1.9431209496013291E-002   2.9297240101193722E-002
   8.6535109492769879E-002  -2.6466101310018586E-002   3.7736776915664461E-004
   8.3857535752759893E-002  -2.5449271644536142E-002  -1.2006897350258505E-005
   8.1179962012749851E-002  -2.4477788861913763E-002  -1.0842723815374100E-004
   7.8502388272739781E-002  -2.3551652962151032E-002   8.8106746747307341E-005
   7.5824814532729823E-002  -2.2670863945248421E-002   5.7759505735288652E-004
   8.0977075357114847E-002  -2.4707378356517373E-002   7.7600066427043757E-003
   7.8556052127426002E-002  -2.3783816719540662E-002   7.4540061238920208E-003
   7.6135028897737128E-002  -2.2888576968384394E-002   7.3681523000179439E-003
   7.3714005668048227E-002  -2.2021659103048256E-002   7.5024451710815621E-003
   7.1292982438359409E-002  -2.1183063123532575E-002   7.8568847370834582E-003
   7.5575653568878326E-002  -2.2948655403015994E-002   1.5040864989226133E-002
   7.3338373218744285E-002  -2.2118361794544905E-002   1.4835263615148891E-002
   7.1101092868610230E-002  -2.1299365074854804E-002   1.4777001305243218E-002
   6.8863812518476175E-002  -2.0491665243945370E-002   1.4866078059509000E-002
   6.6626532168342190E-002  -1.9695262301816840E-002   1.5102493877946793E-002
   7.0330844128060288E-002  -2.1189932449514587E-002   2.2219942808722776E-002
   6.8204499026714743E-002  -2.0452906869549398E-002   2.2131765576419722E-002
   6.6078153925369226E-002  -1.9710153181325435E-002   2.2118119777522018E-002
   6.3951808824023737E-002  -1.8961671384842650E-002   2.2179005412029766E-002
   6.1825463722678206E-002  -1.8207461480100939E-002   2.2314422479942635E-002
   6.5242647034660622E-002  -1.9431209496013291E-002   2.9297240101193722E-002
   6.3154429551337349E-002  -1.8787451944553890E-002   2.9343512007704575E-002
   6.1066212068014089E-002  -1.8120941287796011E-002   2.9391507716854393E-002
   5.8977994584690850E-002  -1.7431677525739833E-002   2.9441227228643424E-002
   5.6889777101367611E-002  -1.6719660658385149E-002   2.9492670543071753E-002
   7.5824814532729823E-002  -2.2670863945248421E-002   5.7759505735288652E-004
   7.2483291514585213E-002  -2.1795028683372131E-002   3.9951258241011089E-004
   6.9141768496440492E-002  -2.0883754048688280E-002   3.5746944170561568E-004
   6.5800245478295882E-002  -1.9937040041196820E-002   4.5146563523831840E-004
   6.2458722460151161E-002  -1.8954886660897841E-002   6.8150116300913499E-004
   7.1292982438359409E-002  -2.1183063123532575E-002   7.8568847370834582E-003
   6.8104699200142726E-002  -2.0347083859689308E-002   7.5906484458253543E-003
   6.4916415961926183E-002  -1.9488016141370412E-002   7.4948523801858236E-003
   6.1728132723709542E-002  -1.8605859968576333E-002   7.5694965401649356E-003
   5.8539849485492901E-002  -1.7700615341306403E-002   7.8145809257614829E-003
   6.6626532168342190E-002  -1.9695262301816840E-002   1.5102493877946793E-002
   6.3625889601434005E-002  -1.8899139036006707E-002   1.4735752852041678E-002
   6.0625247034525764E-002  -1.8092278234053197E-002   1.4573852943135665E-002
   5.7624604467617552E-002  -1.7274679895956064E-002   1.4616794151227942E-002
   5.4623961900709395E-002  -1.6446344021715242E-002   1.4864576476318420E-002
   6.1825463722678206E-002  -1.8207461480100939E-002   2.2314422479942635E-002
   5.9046862718458784E-002  -1.7451194212324217E-002   2.1834825801058763E-002
   5.6268261714239265E-002  -1.6696540326735711E-002   2.1594471130553999E-002
   5.3489660710019857E-002  -1.5943499823335573E-002   2.1593358468428046E-002
   5.0711059705800338E-002  -1.5192072702123943E-002   2.1831487814680660E-002
   5.6889777101367611E-002  -1.6719660658385149E-002   2.9492670543071753E-002
   5.4367618551217134E-002  -1.6003249388641422E-002   2.8887867292876734E-002
   5.1845460001066740E-002  -1.5300802419418252E-002   2.8556706942441223E-002
   4.9323301450916276E-002  -1.4612319750715287E-002   2.8499189491764970E-002
   4.6801142900765869E-002  -1.3937801382532644E-002   2.8715314940847891E-002
   6.2458722460151161E-002  -1.8954886660897841E-002   6.8150116300913499E-004
   5.9587724702436118E-002  -1.7983304676831402E-002   3.8307356883926502E-004
   5.6716726944720908E-002  -1.7068304858037925E-002   2.8751915104541226E-004
   5.3845729187005753E-002  -1.6209887204517305E-002   3.9483790962693832E-004
   5.0974731429290654E-002  -1.5408051716268911E-002   7.0502984458542528E-004
   5.8539849485492901E-002  -1.7700615341306403E-002   7.8145809257614829E-003
   5.5858269362176360E-002  -1.6801017613585878E-002   7.4602009700653893E-003
   5.3176689238859681E-002  -1.5935802139439070E-002   7.2817831067902850E-003
   5.0495109115543182E-002  -1.5104968918866521E-002   7.2793273359370303E-003
   4.7813528992226517E-002  -1.4308517951867383E-002   7.4528336575042653E-003
   5.4623961900709395E-002  -1.6446344021715242E-002   1.4864576476318420E-002
   5.2104888327836496E-002  -1.5618730550340132E-002   1.4476444070795264E-002
   4.9585814754963570E-002  -1.4803299420840424E-002   1.4237362673738166E-002
   4.7066741182090713E-002  -1.4000050633215622E-002   1.4147332285147550E-002
   4.4547667609217773E-002  -1.3208984187466299E-002   1.4206352905023201E-002
   5.0711059705800338E-002  -1.5192072702123943E-002   2.1831487814680660E-002
   4.8327581599416455E-002  -1.4436443487094608E-002   2.1431802871028860E-002
   4.5944103493032511E-002  -1.3670796702241451E-002   2.1154257851888538E-002
   4.3560625386648510E-002  -1.2895132347565003E-002   2.0998852757259746E-002
   4.1177147280264684E-002  -1.2109450423064883E-002   2.0965587587142578E-002
   4.6801142900765869E-002  -1.3937801382532644E-002   2.8715314940847891E-002
   4.4526349176916113E-002  -1.3254156423848917E-002   2.8326277370765984E-002
   4.2251555453066386E-002  -1.2538293983642701E-002   2.8032468641241148E-002
   3.9976761729216673E-002  -1.1790214061914217E-002   2.7833888752273023E-002
   3.7701968005366848E-002  -1.1009916658663355E-002   2.7730537703861580E-002
   5.0974731429290654E-002  -1.5408051716268911E-002   7.0502984458542528E-004
   4.8220948766255489E-002  -1.4614798198173129E-002   4.7835051310585186E-004
   4.5467166103220547E-002  -1.3782126455107402E-002   2.8802720720710884E-004
   4.2713383440185493E-002  -1.2910036487072271E-002   1.3405992688936275E-004
   3.9959600777150439E-002  -1.1998528294068000E-002   1.6448672152113986E-005
   4.7813528992226517E-002  -1.4308517951867383E-002   7.4528336575042653E-003
   4.5109710517178159E-002  -1.3518052828261018E-002   7.1660179383656875E-003
   4.2405892042129745E-002  -1.2705177137864010E-002   6.9427745696193366E-003
   3.9702073567081470E-002  -1.1869890880677719E-002   6.7831035512658511E-003
   3.6998255092032972E-002  -1.1012194056700952E-002   6.6870048833045370E-003
   4.4547667609217773E-002  -1.3208984187466299E-002   1.4206352905023201E-002
   4.1921029646967700E-002  -1.2421307458349184E-002   1.3842393140046094E-002
   3.9294391684717683E-002  -1.1628227820621534E-002   1.3569222050272889E-002
   3.6667753722467611E-002  -1.0829745274283396E-002   1.3386839635703793E-002
   3.4041115760217594E-002  -1.0025859819334682E-002   1.3295245896339014E-002
   4.1177147280264684E-002  -1.2109450423064883E-002   2.0965587587142578E-002
   3.8654906155624447E-002  -1.1324562088437323E-002   2.0507476118147572E-002
   3.6132665030984286E-002  -1.0551278503378489E-002   2.0167369649167897E-002
   3.3610423906344153E-002  -9.7895996678891810E-003   1.9945268180203968E-002
   3.1088182781704006E-002  -9.0395255819680220E-003   1.9841171711255975E-002
   3.7701968005366848E-002  -1.1009916658663355E-002   2.7730537703861580E-002
   3.5311340043148287E-002  -1.0227816718525351E-002   2.7161266872669065E-002
   3.2920712080929559E-002  -9.4743291861357770E-003   2.6737217366303856E-002
   3.0530084118710943E-002  -8.7494540614944383E-003   2.6458389184765951E-002
   2.8139456156492271E-002  -8.0531913446015846E-003   2.6324782328055130E-002
   3.9959600777150439E-002  -1.1998528294068000E-002   1.6448672152113986E-005
   3.7533272587845556E-002  -1.1150945226254150E-002  -2.8066287645400756E-004
   3.5106944398540618E-002  -1.0470630633790445E-002  -4.8281466849675603E-004
   3.2680616209235708E-002  -9.9575845166763183E-003  -5.9000670397540977E-004
   3.0254288019930797E-002  -9.6118068749124763E-003  -6.0223898289057942E-004
   3.6998255092032972E-002  -1.1012194056700952E-002   6.6870048833045370E-003
   3.4647661920028883E-002  -1.0198263875641378E-002   6.2362687847505871E-003
   3.2297068748024765E-002  -9.4942775472039997E-003   5.8420429642343508E-003
   2.9946475576020662E-002  -8.9002350713896505E-003   5.5043274217558280E-003
   2.7595882404016447E-002  -8.4161364481971646E-003   5.2231221573153519E-003
   3.4041115760217594E-002  -1.0025859819334682E-002   1.3295245896339014E-002
   3.1727808126988083E-002  -9.2455825250287171E-003   1.2748209870564908E-002
   2.9414500493758669E-002  -8.5179244606178040E-003   1.2219234644302496E-002
   2.7101192860529151E-002  -7.8428856261025456E-003   1.1708320217551804E-002
   2.4787885227299744E-002  -7.2204660214824079E-003   1.1215466590312362E-002
   3.1088182781704006E-002  -9.0395255819680220E-003   1.9841171711255975E-002
   2.8773711208723143E-002  -8.2929011744158898E-003   1.9255160380988914E-002
   2.6459239635742208E-002  -7.5415713740317053E-003   1.8648760371707547E-002
   2.4144768062761314E-002  -6.7855361808156593E-003   1.8021971683411697E-002
   2.1830296489780410E-002  -6.0247955947672627E-003   1.7374794316101394E-002
   2.8139456156492271E-002  -8.0531913446015846E-003   2.6324782328055130E-002
   2.5785371165233828E-002  -7.3402198238033400E-003   2.5757120316022841E-002
   2.3431286173975496E-002  -6.5652182874454679E-003   2.5130620146449956E-002
   2.1077201182717067E-002  -5.7281867355284607E-003   2.4445281819336473E-002
   1.8723116191458722E-002  -4.8291251680520064E-003   2.3701105334682393E-002
   3.0254288019930797E-002  -9.6118068749124763E-003  -6.0223898289057942E-004
   2.9637521276600909E-002  -9.1452084099735709E-003  -3.5742249772185986E-004
   2.9020754533271020E-002  -8.2696998233346974E-003  -1.7944243621895728E-003
   2.8403987789941132E-002  -6.9852811149938576E-003  -4.9132445762922750E-003
   2.7787221046611243E-002  -5.2919522849534939E-003  -9.7138831400307435E-003
   2.7595882404016447E-002  -8.4161364481971646E-003   5.2231221573153519E-003
   2.5566809645135635E-002  -7.8812617694883347E-003   5.8980624584454855E-003
   2.3537736886254823E-002  -7.1348911271197357E-003   5.4302090781092605E-003
   2.1508664127373983E-002  -6.1770245210954478E-003   3.8195620163073707E-003
   1.9479591368493088E-002  -5.0076619514114462E-003   1.0661212730387337E-003
   2.4787885227299744E-002  -7.2204660214824079E-003   1.1215466590312362E-002
   2.1885531121037582E-002  -6.6173151290019327E-003   1.2123116549361657E-002
   1.8983177014775449E-002  -6.0000824309069944E-003   1.2426997495114167E-002
   1.6080822908513343E-002  -5.3687679271959277E-003   1.2127109427570795E-002
   1.3178468802251209E-002  -4.7233716178699536E-003   1.1223452346730334E-002
   2.1830296489780410E-002  -6.0247955947672627E-003   1.7374794316101394E-002
   1.8593685704306709E-002  -5.3533684885165578E-003   1.8317739775027070E-002
   1.5357074918833008E-002  -4.8652737346930319E-003   1.9195940888825952E-002
   1.2120464133359252E-002  -4.5605113332969627E-003   2.0009397657497943E-002
   8.8838533478854953E-003  -4.4390812843284055E-003   2.0758110081043377E-002
   1.8723116191458722E-002  -4.8291251680520064E-003   2.3701105334682393E-002
   1.5691273394943028E-002  -4.0894218480307942E-003   2.4481932135441586E-002
   1.2659430598427446E-002  -3.7304650384793192E-003   2.5737039259244032E-002
   9.6275878019117661E-003  -3.7522547393984487E-003   2.7466426706089286E-002
   6.5957450053961697E-003  -4.1547909507866354E-003   2.9670094475977571E-002
   2.7787221046611243E-002  -5.2919522849534939E-003  -9.7138831400307435E-003
   2.3357510078194976E-002  -4.2083852888452622E-003  -4.1887433764278281E-003
   1.8927799109778598E-002  -4.7532520823042046E-003   2.6005205835590850E-003
   1.4498088141362220E-002  -6.9265526653290027E-003   1.0653908739930162E-002
   1.0068377172945953E-002  -1.0728287037919948E-002   1.9971421092685127E-002
   1.9479591368493088E-002  -5.0076619514114462E-003   1.0661212730387337E-003
   1.6241561256969794E-002  -4.6897167122755823E-003   6.7539426018677906E-003
   1.3003531145446501E-002  -6.2861020978940418E-003   1.3561001448098575E-002
   9.7655010339232073E-003  -9.7968181082642991E-003   2.1487297811731143E-002
   6.5274709223999139E-003  -1.5221864743388824E-002   3.0532831692766660E-002
   1.3178468802251209E-002  -4.7233716178699536E-003   1.1223452346730334E-002
   1.0987232868639146E-002  -5.1710481357062354E-003   1.6788058405597828E-002
   8.7959969350269451E-003  -7.8189521134829632E-003   2.3327015302884696E-002
   6.6047610014147995E-003  -1.2667083551199922E-002   3.0840323038592563E-002
   4.4135250678026261E-003  -1.9715442448857701E-002   3.9327981612720775E-002
   8.8838533478854953E-003  -4.4390812843284055E-003   2.0758110081043377E-002
   7.5945249132028519E-003  -5.6523795591367221E-003   2.5913604034761895E-002
   6.3051964785201531E-003  -9.3518021290727865E-003   3.1898562147918801E-002
   5.0158680438373501E-003  -1.5537348994135825E-002   3.8712984420514143E-002
   3.7265396091548247E-003  -2.4209020154326577E-002   4.6356870852548360E-002
   6.5957450053961697E-003  -4.1547909507866354E-003   2.9670094475977571E-002
   6.0634373906610084E-003  -6.1337109825673197E-003   3.4130579489360491E-002
   5.5311297759258471E-003  -1.0884652144662110E-002   3.9275641983199883E-002
   4.9988221611906997E-003  -1.8407614437071382E-002   4.5105281957496579E-002
   4.4665145464555245E-003  -2.8702597859795453E-002   5.1619499412249414E-002
   7.5983815504790664E-002  -2.3131062439235628E-002   2.9795847619956906E-002
   7.3298523387258174E-002  -2.1986662525683542E-002   2.9105085101981842E-002
   7.0613231269725657E-002  -2.0988553730628967E-002   2.8791729676196309E-002
   6.7927939152193098E-002  -2.0136736054072207E-002   2.8855781342600195E-002
   6.5242647034660622E-002  -1.9431209496013291E-002   2.9297240101193722E-002
   6.9535827952690393E-002  -2.0931772689246064E-002   3.5281049819344490E-002
   6.7182929094977778E-002  -2.0091040551121014E-002   3.4580886655815490E-002
   6.4830030237265260E-002  -1.9318917866259250E-002   3.4168102919736654E-002
   6.2477131379552651E-002  -1.8615404634660694E-002   3.4042698611108466E-002
   6.0124232521840071E-002  -1.7980500856325354E-002   3.4204673729930607E-002
   6.3230903873285768E-002  -1.8732482939256445E-002   4.0423743410687857E-002
   6.1120370610654159E-002  -1.8195418576558570E-002   3.9791861266839118E-002
   5.9009837348022558E-002  -1.7649282001889394E-002   3.9357330885701647E-002
   5.6899304085390970E-002  -1.7094073215249042E-002   3.9120152267275679E-002
   5.4788770822759326E-002  -1.6529792216637473E-002   3.9080325411561131E-002
   5.7069043266577135E-002  -1.6533193189266854E-002   4.5223928393986854E-002
   5.5110847934287430E-002  -1.6299796601996083E-002   4.4738008935052774E-002
   5.3152652601997766E-002  -1.5979646137519635E-002   4.4359413574090997E-002
   5.1194457269708053E-002  -1.5572741795837432E-002   4.4088142311101898E-002
   4.9236261937418369E-002  -1.5079083576949648E-002   4.3924195146085122E-002
   5.1050246132564203E-002  -1.4333903439277262E-002   4.9681604769241605E-002
   4.9154361065877450E-002  -1.4404174627433680E-002   4.9419329660456757E-002
   4.7258475999190669E-002  -1.4310010273149806E-002   4.9174350984905163E-002
   4.5362590932503888E-002  -1.4051410376425887E-002   4.8946668742587032E-002
   4.3466705865817135E-002  -1.3628374937261711E-002   4.8736282933502462E-002
   6.5242647034660622E-002  -1.9431209496013291E-002   2.9297240101193722E-002
   6.3154429551337349E-002  -1.8787451944553890E-002   2.9343512007704575E-002
   6.1066212068014089E-002  -1.8120941287796011E-002   2.9391507716854393E-002
   5.8977994584690850E-002  -1.7431677525739833E-002   2.9441227228643424E-002
   5.6889777101367611E-002  -1.6719660658385149E-002   2.9492670543071753E-002
   6.0124232521840071E-002  -1.7980500856325354E-002   3.4204673729930607E-002
   5.8086494323569160E-002  -1.7369997448088217E-002   3.4103934841777081E-002
   5.6048756125298207E-002  -1.6739685326784312E-002   3.4102430721089178E-002
   5.4011017927027283E-002  -1.6089564492413427E-002   3.4200161367866896E-002
   5.1973279728756289E-002  -1.5419634944975780E-002   3.4397126782109905E-002
   5.4788770822759326E-002  -1.6529792216637473E-002   3.9080325411561131E-002
   5.2899022874367201E-002  -1.5952542951622628E-002   3.8829631336511669E-002
   5.1009274925975040E-002  -1.5358429365772502E-002   3.8775682993754307E-002
   4.9119526977582872E-002  -1.4747451459086909E-002   3.8918480383288920E-002
   4.7229779029190733E-002  -1.4119609231566133E-002   3.9258023505115425E-002
   4.9236261937418369E-002  -1.5079083576949648E-002   4.3924195146085122E-002
   4.7592015203731422E-002  -1.4535088455157053E-002   4.3520601491908228E-002
   4.5947768470044496E-002  -1.3977173404760693E-002   4.3411264534849774E-002
   4.4303521736357585E-002  -1.3405338425760572E-002   4.3596184274909841E-002
   4.2659275002670624E-002  -1.2819583518156458E-002   4.4075360712088320E-002
   4.3466705865817135E-002  -1.3628374937261711E-002   4.8736282933502462E-002
   4.2165471311661901E-002  -1.3117633958691477E-002   4.8176845307966676E-002
   4.0864236757506653E-002  -1.2595917443748980E-002   4.8009175344375710E-002
   3.9563002203351412E-002  -1.2063225392434009E-002   4.8233273042729757E-002
   3.8261767649196171E-002  -1.1519557804747060E-002   4.8849138403028736E-002
   5.6889777101367611E-002  -1.6719660658385149E-002   2.9492670543071753E-002
   5.4367618551217134E-002  -1.6003249388641422E-002   2.8887867292876734E-002
   5.1845460001066740E-002  -1.5300802419418252E-002   2.8556706942441223E-002
   4.9323301450916276E-002  -1.4612319750715287E-002   2.8499189491764970E-002
   4.6801142900765869E-002  -1.3937801382532644E-002   2.8715314940847891E-002
   5.1973279728756289E-002  -1.5419634944975780E-002   3.4397126782109905E-002
   4.9700396811592260E-002  -1.4742627727337282E-002   3.3931144101594840E-002
   4.7427513894428217E-002  -1.4071273882364677E-002   3.3690069787293206E-002
   4.5154630977264180E-002  -1.3405573410057922E-002   3.3673903839205217E-002
   4.2881748060100144E-002  -1.2745526310416810E-002   3.3882646257330451E-002
   4.7229779029190733E-002  -1.4119609231566133E-002   3.9258023505115425E-002
   4.5157437211467338E-002  -1.3482006066033128E-002   3.8939172322134744E-002
   4.3085095393743909E-002  -1.2841745345311309E-002   3.8796494971821679E-002
   4.1012753576020536E-002  -1.2198827069400665E-002   3.8829991454176503E-002
   3.8940411758297086E-002  -1.1553251238301088E-002   3.9039661769199124E-002
   4.2659275002670624E-002  -1.2819583518156458E-002   4.4075360712088320E-002
   4.0738739750842218E-002  -1.2221384404728981E-002   4.3911951954496535E-002
   3.8818204499013770E-002  -1.1612216808257809E-002   4.3875982496026769E-002
   3.6897669247185350E-002  -1.0992080728743326E-002   4.3967452336679071E-002
   3.4977133995356971E-002  -1.0360976166185254E-002   4.4186361476453564E-002
   3.8261767649196171E-002  -1.1519557804747060E-002   4.8849138403028736E-002
   3.6444304429717023E-002  -1.0960762743424807E-002   4.8849482998680360E-002
   3.4626841210237846E-002  -1.0382688271204504E-002   4.8928532359908294E-002
   3.2809377990758684E-002  -9.7853343880860769E-003   4.9086286486712871E-002
   3.0991914771279522E-002  -9.1687010940695868E-003   4.9322745379093702E-002
   4.6801142900765869E-002  -1.3937801382532644E-002   2.8715314940847891E-002
   4.4526349176916113E-002  -1.3254156423848917E-002   2.8326277370765984E-002
   4.2251555453066386E-002  -1.2538293983642701E-002   2.8032468641241148E-002
   3.9976761729216673E-002  -1.1790214061914217E-002   2.7833888752273023E-002
   3.7701968005366848E-002  -1.1009916658663355E-002   2.7730537703861580E-002
   4.2881748060100144E-002  -1.2745526310416810E-002   3.3882646257330451E-002
   4.0716722587049031E-002  -1.2077272291200092E-002   3.3513348983023494E-002
   3.8551697113998001E-002  -1.1386951060166017E-002   3.3268359369756778E-002
   3.6386671640946944E-002  -1.0674562617314962E-002   3.3147677417530816E-002
   3.4221646167895858E-002  -9.9401069626467997E-003   3.3151303126345066E-002
   3.8940411758297086E-002  -1.1553251238301088E-002   3.9039661769199124E-002
   3.6914233356528492E-002  -1.0900388158551239E-002   3.8679954520961207E-002
   3.4888054954759974E-002  -1.0235608136689334E-002   3.8473633754247422E-002
   3.2861876552991415E-002  -9.5589111727158171E-003   3.8420699469058253E-002
   3.0835698151222876E-002  -8.8702972666303004E-003   3.8521151665393383E-002
   3.4977133995356971E-002  -1.0360976166185254E-002   4.4186361476453564E-002
   3.3118881485354648E-002  -9.7235040259024547E-003   4.3826093984579387E-002
   3.1260628975352353E-002  -9.0842652132126778E-003   4.3648291794713370E-002
   2.9402376465350034E-002  -8.4432597281165617E-003   4.3652954906855619E-002
   2.7544123955347742E-002  -7.8004875706138843E-003   4.3840083321005918E-002
   3.0991914771279522E-002  -9.1687010940695868E-003   4.9322745379093702E-002
   2.9330666973527292E-002  -8.5466198932534487E-003   4.8951767373878075E-002
   2.7669419175775076E-002  -7.9329222897358137E-003   4.8792333491154555E-002
   2.6008171378022867E-002  -7.3276082835174068E-003   4.8844443730922796E-002
   2.4346923580270602E-002  -6.7306778745972462E-003   4.9108098093183172E-002
   3.7701968005366848E-002  -1.1009916658663355E-002   2.7730537703861580E-002
   3.5311340043148287E-002  -1.0227816718525351E-002   2.7161266872669065E-002
   3.2920712080929559E-002  -9.4743291861357770E-003   2.6737217366303856E-002
   3.0530084118710943E-002  -8.7494540614944383E-003   2.6458389184765951E-002
   2.8139456156492271E-002  -8.0531913446015846E-003   2.6324782328055130E-002
   3.4221646167895858E-002  -9.9401069626467997E-003   3.3151303126345066E-002
   3.1976751179381369E-002  -9.2043724425692197E-003   3.2652856820454490E-002
   2.9731856190866879E-002  -8.4881474034888826E-003   3.2300655137144446E-002
   2.7486961202352389E-002  -7.7914318454066975E-003   3.2094698076415934E-002
   2.5242066213837899E-002  -7.1142257683224353E-003   3.2034985638267843E-002
   3.0835698151222876E-002  -8.8702972666303004E-003   3.8521151665393383E-002
   2.8737559434166199E-002  -8.1809281666125888E-003   3.8102632811554710E-002
   2.6639420717109605E-002  -7.5019656208422103E-003   3.7831381878050865E-002
   2.4541282000052997E-002  -6.8334096293190677E-003   3.7707398864881711E-002
   2.2443143282996347E-002  -6.1752601920432859E-003   3.7730683772047247E-002
   2.7544123955347742E-002  -7.8004875706138843E-003   4.3840083321005918E-002
   2.5593764807502702E-002  -7.1574838906562077E-003   4.3510594845970037E-002
   2.3643405659657685E-002  -6.5157838381953159E-003   4.3329397589022621E-002
   2.1693046511812621E-002  -5.8753874132313269E-003   4.3296491550163831E-002
   1.9742687363967625E-002  -5.2362946157642476E-003   4.3411876729393083E-002
   2.4346923580270602E-002  -6.7306778745972462E-003   4.9108098093183172E-002
   2.2545367299390884E-002  -6.1340396146998821E-003   4.8876742923700645E-002
   2.0743811018511152E-002  -5.5296020555486991E-003   4.8794702270060331E-002
   1.8942254737631427E-002  -4.9173651971436555E-003   4.8861976132262286E-002
   1.7140698456751646E-002  -4.2973290394849872E-003   4.9078564510306011E-002
   2.8139456156492271E-002  -8.0531913446015846E-003   2.6324782328055130E-002
   2.5785371165233828E-002  -7.3402198238033400E-003   2.5757120316022841E-002
   2.3431286173975496E-002  -6.5652182874454679E-003   2.5130620146449956E-002
   2.1077201182717067E-002  -5.7281867355284607E-003   2.4445281819336473E-002
   1.8723116191458722E-002  -4.8291251680520064E-003   2.3701105334682393E-002
   2.5242066213837899E-002  -7.1142257683224353E-003   3.2034985638267843E-002
   2.2868704126832312E-002  -6.4378149524460526E-003   3.1645326186912126E-002
   2.0495342039826725E-002  -5.7434851779878948E-003   3.1275950701602800E-002
   1.8121979952821193E-002  -5.0312364449480035E-003   3.0926859182339436E-002
   1.5748617865815606E-002  -4.3010687533261427E-003   3.0598051629122602E-002
   2.2443143282996347E-002  -6.1752601920432859E-003   3.7730683772047247E-002
   2.0129626223830299E-002  -5.5354100810891815E-003   3.7474915824390942E-002
   1.7816109164664216E-002  -4.9217520685304467E-003   3.7318553966367282E-002
   1.5502592105498123E-002  -4.3342861543676607E-003   3.7261598197976510E-002
   1.3189075046332072E-002  -3.7730123386003345E-003   3.7304048519218730E-002
   1.9742687363967625E-002  -5.2362946157642476E-003   4.3411876729393083E-002
   1.7568137456227775E-002  -4.6330052097318802E-003   4.3245889228458470E-002
   1.5393587548487976E-002  -4.1000189590728806E-003   4.3258429940743498E-002
   1.3219037640748121E-002  -3.6373358637871497E-003   4.3449498866248132E-002
   1.1044487733008323E-002  -3.2449559238746095E-003   4.3819096004972170E-002
   1.7140698456751646E-002  -4.2973290394849872E-003   4.9078564510306011E-002
   1.5184237824024782E-002  -3.7306003383750230E-003   4.8958246399115612E-002
   1.3227777191297946E-002  -3.2782858496153144E-003   4.9095578624731406E-002
   1.1271316558571068E-002  -2.9403855732066109E-003   4.9490561187153503E-002
   9.3148559258441899E-003  -2.7168995091486625E-003   5.0143194086382126E-002
   1.8723116191458722E-002  -4.8291251680520064E-003   2.3701105334682393E-002
   1.5691273394943028E-002  -4.0894218480307942E-003   2.4481932135441586E-002
   1.2659430598427446E-002  -3.7304650384793192E-003   2.5737039259244032E-002
   9.6275878019117661E-003  -3.7522547393984487E-003   2.7466426706089286E-002
   6.5957450053961697E-003  -4.1547909507866354E-003   2.9670094475977571E-002
   1.5748617865815606E-002  -4.3010687533261427E-003   3.0598051629122602E-002
   1.3172647373384139E-002  -3.7806275594732819E-003   3.1366366684787428E-002
   1.0596676880952671E-002  -3.6975583197409734E-003   3.2572146025578314E-002
   8.0207063885212176E-003  -4.0518610341285302E-003   3.4215389651494246E-002
   5.4447358960897363E-003  -4.8435357026365145E-003   3.6296097562535823E-002
   1.3189075046332072E-002  -3.7730123386003345E-003   3.7304048519218730E-002
   1.1032160820067319E-002  -3.4718332709161859E-003   3.8003226386139677E-002
   8.8752465938025243E-003  -3.6646516010026137E-003   3.9103052500268395E-002
   6.7183323675377750E-003  -4.3514673288593854E-003   4.0603526861605128E-002
   4.5614181412729771E-003  -5.5322804544867266E-003   4.2504649470149924E-002
   1.1044487733008323E-002  -3.2449559238746095E-003   4.3819096004972170E-002
   9.2698137349927247E-003  -3.1630389823588817E-003   4.4392511239498340E-002
   7.4951397369771074E-003  -3.6317448822638168E-003   4.5329758683314764E-002
   5.7204657389614425E-003  -4.6510736235902978E-003   4.6630838336421863E-002
   3.9457917409458920E-003  -6.2210252063368832E-003   4.8295750198819209E-002
   9.3148559258441899E-003  -2.7168995091486625E-003   5.0143194086382126E-002
   7.8856061181602488E-003  -2.8542446938015775E-003   5.0534221244862954E-002
   6.4563563104762800E-003  -3.5988381635257416E-003   5.1252264574716933E-002
   5.0271065027923251E-003  -4.9506799183206690E-003   5.2297324075943730E-002
   3.5978566951084257E-003  -6.9097699581868177E-003   5.3669399748543789E-002
   6.5957450053961697E-003  -4.1547909507866354E-003   2.9670094475977571E-002
   6.0634373906610084E-003  -6.1337109825673197E-003   3.4130579489360491E-002
   5.5311297759258471E-003  -1.0884652144662110E-002   3.9275641983199883E-002
   4.9988221611906997E-003  -1.8407614437071382E-002   4.5105281957496579E-002
   4.4665145464555245E-003  -2.8702597859795453E-002   5.1619499412249414E-002
   5.4447358960897363E-003  -4.8435357026365145E-003   3.6296097562535823E-002
   5.4933857935604846E-003  -6.9731994540151443E-003   3.8415340291190370E-002
   5.5420356910312885E-003  -1.1341469417014360E-002   4.1011920563799764E-002
   5.5906855885021339E-003  -1.7948345591633760E-002   4.4085838380364700E-002
   5.6393354859727851E-003  -2.6793827977874773E-002   4.7637093740884318E-002
   4.5614181412729771E-003  -5.5322804544867266E-003   4.2504649470149924E-002
   4.9837856144482467E-003  -7.8126879254630244E-003   4.2816064832769202E-002
   5.4061530876235164E-003  -1.1798286689366194E-002   4.3397577802842202E-002
   5.8285205607985675E-003  -1.7489076746196423E-002   4.4249188380369259E-002
   6.2508880339740558E-003  -2.4885058095954093E-002   4.5370896565349206E-002
   3.9457917409458920E-003  -6.2210252063368832E-003   4.8295750198819209E-002
   4.5346368533241317E-003  -8.6521763969106547E-003   4.7332753114097015E-002
   5.1234819657023176E-003  -1.2255103961718014E-002   4.6432613700327176E-002
   5.7123270780806675E-003  -1.7029807900759277E-002   4.5595331957509935E-002
   6.3011721904586843E-003  -2.2976288214033302E-002   4.4820907885644468E-002
   3.5978566951084257E-003  -6.9097699581868177E-003   5.3669399748543789E-002
   4.1459395101882124E-003  -9.4916648683585070E-003   5.1965405135173781E-002
   4.6940223252679436E-003  -1.2711921234070389E-002   5.0117028256255081E-002
   5.2421051403477442E-003  -1.6570539055321049E-002   4.8124269111786799E-002
   5.7901879554275171E-003  -2.1067518332112734E-002   4.5987127701769825E-002
   5.1050246132564203E-002  -1.4333903439277262E-002   4.9681604769241605E-002
   4.9154361065877450E-002  -1.4404174627433680E-002   4.9419329660456757E-002
   4.7258475999190669E-002  -1.4310010273149806E-002   4.9174350984905163E-002
   4.5362590932503888E-002  -1.4051410376425887E-002   4.8946668742587032E-002
   4.3466705865817135E-002  -1.3628374937261711E-002   4.8736282933502462E-002
   4.5260933748825866E-002  -1.3366410176621435E-002   5.2395709839220483E-002
   4.3369505790744667E-002  -1.2807835889589753E-002   5.2491657053210961E-002
   4.1478077832663440E-002  -1.2303385905898218E-002   5.2579222051179292E-002
   3.9586649874582255E-002  -1.1853060225546934E-002   5.2658404833125158E-002
   3.7695221916501043E-002  -1.1456858848535811E-002   5.2729205399048906E-002
   3.9787527392940988E-002  -1.2398916913965580E-002   5.5847940307277424E-002
   3.7874877894209569E-002  -1.1211497151745894E-002   5.6083549998263094E-002
   3.5962228395478205E-002  -1.0296761538646663E-002   5.6285098823970849E-002
   3.4049578896746792E-002  -9.6547100746680655E-003   5.6452586784400641E-002
   3.2136929398015386E-002  -9.2853427598098837E-003   5.6586013879552213E-002
   3.4630027064909391E-002  -1.1431423651309711E-002   6.0038296173412650E-002
   3.2670477376272142E-002  -9.6151584139020016E-003   6.0195008495613191E-002
   3.0710927687634823E-002  -8.2901371713950921E-003   6.0291981303280069E-002
   2.8751377998997529E-002  -7.4563599237890714E-003   6.0329214596413078E-002
   2.6791828310360234E-002  -7.1138266710839698E-003   6.0306708375012424E-002
   2.9788432764731254E-002  -1.0463930388653897E-002   6.4966777437626133E-002
   2.7756304236932344E-002  -8.0188196760581087E-003   6.4826032545261147E-002
   2.5724175709133393E-002  -6.2835128041435206E-003   6.4599869489106787E-002
   2.3692047181334455E-002  -5.2580097729102299E-003   6.4288288269162802E-002
   2.1659918653535531E-002  -4.9423105823580005E-003   6.3891288885429387E-002
   4.3466705865817135E-002  -1.3628374937261711E-002   4.8736282933502462E-002
   4.2165471311661901E-002  -1.3117633958691477E-002   4.8176845307966676E-002
   4.0864236757506653E-002  -1.2595917443748980E-002   4.8009175344375710E-002
   3.9563002203351412E-002  -1.2063225392434009E-002   4.8233273042729757E-002
   3.8261767649196171E-002  -1.1519557804747060E-002   4.8849138403028736E-002
   3.7695221916501043E-002  -1.1456858848535811E-002   5.2729205399048906E-002
   3.6729302515539700E-002  -1.1079793576797781E-002   5.2339920510175608E-002
   3.5763383114578398E-002  -1.0686876212265842E-002   5.2229498265745328E-002
   3.4797463713617076E-002  -1.0278106754939748E-002   5.2397938665757954E-002
   3.3831544312655754E-002  -9.8534852048197674E-003   5.2845241710213348E-002
   3.2136929398015386E-002  -9.2853427598098837E-003   5.6586013879552213E-002
   3.1393420132745993E-002  -9.0419531949041398E-003   5.6371758283763396E-002
   3.0649910867476569E-002  -8.7778349807827102E-003   5.6323460314915384E-002
   2.9906401602207165E-002  -8.4929881174454335E-003   5.6441119973008366E-002
   2.9162892336937751E-002  -8.1874126048925022E-003   5.6724737258042252E-002
   2.6791828310360234E-002  -7.1138266710839698E-003   6.0306708375012424E-002
   2.6157824163280739E-002  -7.0041128130104990E-003   6.0272358628729608E-002
   2.5523820016201272E-002  -6.8687937492994920E-003   6.0291061491885706E-002
   2.4889815869121788E-002  -6.7078694799511457E-003   6.0362816964480669E-002
   2.4255811722042310E-002  -6.5213400049651954E-003   6.0487625046514663E-002
   2.1659918653535531E-002  -4.9423105823580005E-003   6.3891288885429387E-002
   2.1022514607143966E-002  -4.9662724311168582E-003   6.4041721545074481E-002
   2.0385110560752415E-002  -4.9597525178163848E-003   6.4132301796656299E-002
   1.9747706514360856E-002  -4.9227508424568162E-003   6.4163029640175201E-002
   1.9110302467969298E-002  -4.8552674050379996E-003   6.4133905075630937E-002
   3.8261767649196171E-002  -1.1519557804747060E-002   4.8849138403028736E-002
   3.6444304429717023E-002  -1.0960762743424807E-002   4.8849482998680360E-002
   3.4626841210237846E-002  -1.0382688271204504E-002   4.8928532359908294E-002
   3.2809377990758684E-002  -9.7853343880860769E-003   4.9086286486712871E-002
   3.0991914771279522E-002  -9.1687010940695868E-003   4.9322745379093702E-002
   3.3831544312655754E-002  -9.8534852048197674E-003   5.2845241710213348E-002
   3.2125953488491302E-002  -9.4084481373313822E-003   5.2662454472846343E-002
   3.0420362664326864E-002  -8.9384321278999090E-003   5.2624707260532269E-002
   2.8714771840162440E-002  -8.4434371765257088E-003   5.2732000073271383E-002
   2.7009181015997974E-002  -7.9234632832084206E-003   5.2984332911063303E-002
   2.9162892336937751E-002  -8.1874126048925022E-003   5.6724737258042252E-002
   2.7635509167564673E-002  -7.8561335312378605E-003   5.6364517718701324E-002
   2.6108125998191595E-002  -7.4941759845954109E-003   5.6215673463889934E-002
   2.4580742828818503E-002  -7.1015399649651152E-003   5.6278204493608174E-002
   2.3053359659445431E-002  -6.6782254723472267E-003   5.6552110807856257E-002
   2.4255811722042310E-002  -6.5213400049651954E-003   6.0487625046514663E-002
   2.2972971466937157E-002  -6.3038189251444429E-003   5.9955672736244678E-002
   2.1690131211832029E-002  -6.0499198412908642E-003   5.9701430969980832E-002
   2.0407290956726887E-002  -5.7596427534046344E-003   5.9724899747723499E-002
   1.9124450701621748E-002  -5.4329876614861022E-003   6.0026079069472257E-002
   1.9110302467969298E-002  -4.8552674050379996E-003   6.4133905075630937E-002
   1.8138340386608720E-002  -4.7515043190509143E-003   6.3435919525476669E-002
   1.7166378305248156E-002  -4.6056636979863036E-003   6.3081979778805419E-002
   1.6194416223887606E-002  -4.4177455418441779E-003   6.3072085835617089E-002
   1.5222454142527042E-002  -4.1877498506248667E-003   6.3406237695911583E-002
   3.0991914771279522E-002  -9.1687010940695868E-003   4.9322745379093702E-002
   2.9330666973527292E-002  -8.5466198932534487E-003   4.8951767373878075E-002
   2.7669419175775076E-002  -7.9329222897358137E-003   4.8792333491154555E-002
   2.6008171378022867E-002  -7.3276082835174068E-003   4.8844443730922796E-002
   2.4346923580270602E-002  -6.7306778745972462E-003   4.9108098093183172E-002
   2.7009181015997974E-002  -7.9234632832084206E-003   5.2984332911063303E-002
   2.5557093968415767E-002  -7.3934615956703642E-003   5.2631230456854777E-002
   2.4105006920833505E-002  -6.8683832616329432E-003   5.2484905380494384E-002
   2.2652919873251270E-002  -6.3482282810969279E-003   5.2545357681982124E-002
   2.1200832825669036E-002  -5.8329966540618394E-003   5.2812587361317442E-002
   2.3053359659445431E-002  -6.6782254723472267E-003   5.6552110807856257E-002
   2.1805666617389197E-002  -6.2403032980870576E-003   5.6220344148452561E-002
   2.0557973575332945E-002  -5.8038442335301213E-003   5.6090588122252878E-002
   1.9310280533276734E-002  -5.3688482786765582E-003   5.6162842729257284E-002
   1.8062587491220493E-002  -4.9353154335262106E-003   5.6437107969465550E-002
   1.9124450701621748E-002  -5.4329876614861022E-003   6.0026079069472257E-002
   1.8076384920447594E-002  -5.0871450005038621E-003   5.9719108448671156E-002
   1.7028319139273388E-002  -4.7393052054272751E-003   5.9609381716429981E-002
   1.5980253358099238E-002  -4.3894682762562450E-003   5.9696898872748996E-002
   1.4932187576925061E-002  -4.0376342129907483E-003   5.9981659917627952E-002
   1.5222454142527042E-002  -4.1877498506248667E-003   6.3406237695911583E-002
   1.4369248877590932E-002  -3.9339867029206665E-003   6.3127523357510429E-002
   1.3516043612654849E-002  -3.6747661773242346E-003   6.3041286163025678E-002
   1.2662838347718752E-002  -3.4100882738356611E-003   6.3147526112456775E-002
   1.1809633082782656E-002  -3.1399529924550640E-003   6.3446243205804387E-002
   2.4346923580270602E-002  -6.7306778745972462E-003   4.9108098093183172E-002
   2.2545367299390884E-002  -6.1340396146998821E-003   4.8876742923700645E-002
   2.0743811018511152E-002  -5.5296020555486991E-003   4.8794702270060331E-002
   1.8942254737631427E-002  -4.9173651971436555E-003   4.8861976132262286E-002
   1.7140698456751646E-002  -4.2973290394849872E-003   4.9078564510306011E-002
   2.1200832825669036E-002  -5.8329966540618394E-003   5.2812587361317442E-002
   1.9562398946268017E-002  -5.3157940589423913E-003   5.2611217792086162E-002
   1.7923965066866970E-002  -4.7897261741539493E-003   5.2586778509970039E-002
   1.6285531187465910E-002  -4.2547929996959687E-003   5.2739269514969225E-002
   1.4647097308064905E-002  -3.7109945355683349E-003   5.3068690807083319E-002
   1.8062587491220493E-002  -4.9353154335262106E-003   5.6437107969465550E-002
   1.6614891784571276E-002  -4.4975485031850948E-003   5.6266789990901137E-002
   1.5167196077922034E-002  -4.0498502927589775E-003   5.6301018070724934E-002
   1.3719500371272815E-002  -3.5922208022478377E-003   5.6539792208937192E-002
   1.2271804664623576E-002  -3.1246600316517936E-003   5.6983112405537634E-002
   1.4932187576925061E-002  -4.0376342129907483E-003   5.9981659917627952E-002
   1.3702845814300740E-002  -3.6793029474278122E-003   5.9843459520145678E-002
   1.2473504051676427E-002  -3.3099744113641721E-003   5.9937420952325064E-002
   1.1244162289052086E-002  -2.9296486048000399E-003   6.0263544214165979E-002
   1.0014820526427798E-002  -2.5383255277351968E-003   6.0821829305668054E-002
   1.1809633082782656E-002  -3.1399529924550640E-003   6.3446243205804387E-002
   1.0826261035456350E-002  -2.8610573916703075E-003   6.3341226379820093E-002
   9.8428889881300580E-003  -2.5700985299692836E-003   6.3495987154770617E-002
   8.8595169408037452E-003  -2.2670764073519714E-003   6.3910525530655543E-002
   7.8761448934774325E-003  -1.9519910238184890E-003   6.4584841507475121E-002
   1.7140698456751646E-002  -4.2973290394849872E-003   4.9078564510306011E-002
   1.5184237824024782E-002  -3.7306003383750230E-003   4.8958246399115612E-002
   1.3227777191297946E-002  -3.2782858496153144E-003   4.9095578624731406E-002
   1.1271316558571068E-002  -2.9403855732066109E-003   4.9490561187153503E-002
   9.3148559258441899E-003  -2.7168995091486625E-003   5.0143194086382126E-002
   1.4647097308064905E-002  -3.7109945355683349E-003   5.3068690807083319E-002
   1.2946916605353076E-002  -3.2210911067930836E-003   5.2949776007985450E-002
   1.1246735902641261E-002  -2.8478430383901687E-003   5.3085770732111182E-002
   9.5465551999294532E-003  -2.5912503303606518E-003   5.3476674979461014E-002
   7.8463744972176175E-003  -2.4513129827038460E-003   5.4122488750034337E-002
   1.2271804664623576E-002  -3.1246600316517936E-003   5.6983112405537634E-002
   1.0825163078344371E-002  -2.7115818752108112E-003   5.6863359770509575E-002
   9.3785214920651533E-003  -2.4174002271650230E-003   5.6995775845123192E-002
   7.9318799057859248E-003  -2.2421150875143597E-003   5.7380360629377958E-002
   6.4852383195067309E-003  -2.1857264562589185E-003   5.8017114123273983E-002
   1.0014820526427798E-002  -2.5383255277351968E-003   6.0821829305668054E-002
   8.8189772429986615E-003  -2.2020726436288163E-003   6.0698997686688148E-002
   7.6231339595695495E-003  -1.9869574159396552E-003   6.0825593963767161E-002
   6.4272906761404245E-003  -1.8929798446679011E-003   6.1201618136904966E-002
   5.2314473927113012E-003  -1.9201399298141020E-003   6.1827070206101925E-002
   7.8761448934774325E-003  -1.9519910238184890E-003   6.4584841507475121E-002
   6.9283590993159672E-003  -1.6925634120466548E-003   6.4456689756520968E-002
   5.9805733051544741E-003  -1.5565146047146761E-003   6.4575225088043309E-002
   5.0327875109929948E-003  -1.5438446018220392E-003   6.4940447502042004E-002
   4.0850017168314878E-003  -1.6545534033691744E-003   6.5552356998516914E-002
   9.3148559258441899E-003  -2.7168995091486625E-003   5.0143194086382126E-002
   7.8856061181602488E-003  -2.8542446938015775E-003   5.0534221244862954E-002
   6.4563563104762800E-003  -3.5988381635257416E-003   5.1252264574716933E-002
   5.0271065027923251E-003  -4.9506799183206690E-003   5.2297324075943730E-002
   3.5978566951084257E-003  -6.9097699581868177E-003   5.3669399748543789E-002
   7.8463744972176175E-003  -2.4513129827038460E-003   5.4122488750034337E-002
   6.7192575323707232E-003  -2.6263949696508360E-003   5.4035662033941889E-002
   5.5921405675237873E-003  -3.3148602654324288E-003   5.4226084832151189E-002
   4.4650236026768791E-003  -4.5167088700483887E-003   5.4693757144661459E-002
   3.3379066378299571E-003  -6.2319407834987572E-003   5.5438678971472588E-002
   6.4852383195067309E-003  -2.1857264562589185E-003   5.8017114123273983E-002
   5.6104875404249660E-003  -2.3985452454999834E-003   5.7546298508845600E-002
   4.7357367613432566E-003  -3.0308823673387553E-003   5.7302965751646118E-002
   3.8609859822615229E-003  -4.0827378217759905E-003   5.7287115851675979E-002
   2.9862352031797823E-003  -5.5541116088106968E-003   5.7498748808935241E-002
   5.2314473927113012E-003  -1.9201399298141020E-003   6.1827070206101925E-002
   4.5592961423229772E-003  -2.1706955213491308E-003   6.1066130669573060E-002
   3.8871448919346220E-003  -2.7469044692455952E-003   6.0482907333201864E-002
   3.2149936415462816E-003  -3.6487667735035402E-003   6.0077400196988109E-002
   2.5428423911579429E-003  -4.8762824341226363E-003   5.9849609260931955E-002
   4.0850017168314878E-003  -1.6545534033691744E-003   6.5552356998516914E-002
   3.5656833380647429E-003  -1.9428457971983892E-003   6.4595158516124851E-002
   3.0463649592979564E-003  -2.4629265711521298E-003   6.3765909576818491E-002
   2.5270465805311906E-003  -3.2147957252312356E-003   6.3064610180597752E-002
   2.0077282017644249E-003  -4.1984532594344648E-003   6.2491260327462661E-002
   3.5978566951084257E-003  -6.9097699581868177E-003   5.3669399748543789E-002
   4.1459395101882124E-003  -9.4916648683585070E-003   5.1965405135173781E-002
   4.6940223252679436E-003  -1.2711921234070389E-002   5.0117028256255081E-002
   5.2421051403477442E-003  -1.6570539055321049E-002   4.8124269111786799E-002
   5.7901879554275171E-003  -2.1067518332112734E-002   4.5987127701769825E-002
   3.3379066378299571E-003  -6.2319407834987572E-003   5.5438678971472588E-002
   3.7589149758097407E-003  -8.4918258915894773E-003   5.3053128501187874E-002
   4.1799233137895658E-003  -1.1327634080125243E-002   5.0557811342252235E-002
   4.6009316517693424E-003  -1.4739365349106436E-002   4.7952727494665504E-002
   5.0219399897492023E-003  -1.8727019698533187E-002   4.5237876958428513E-002
   2.9862352031797823E-003  -5.5541116088106968E-003   5.7498748808935241E-002
   3.3147846409580517E-003  -7.4919869148201146E-003   5.4494080856829746E-002
   3.6433340787363072E-003  -9.9433469261803187E-003   5.1414261792971899E-002
   3.9718835165145246E-003  -1.2908191642891489E-002   4.8259291617362282E-002
   4.3004329542928321E-003  -1.6386521064953863E-002   4.5029170329999868E-002
   2.5428423911579429E-003  -4.8762824341226363E-003   5.9849609260931955E-002
   2.8135485056331178E-003  -6.4921479380508074E-003   5.6288262202100099E-002
   3.0842546201082927E-003  -8.5590597722356165E-003   5.2686379608414782E-002
   3.3549607345834268E-003  -1.1077017936676710E-002   4.9043961479874991E-002
   3.6256668490586424E-003  -1.4046022431374428E-002   4.5361007816482113E-002
   2.0077282017644249E-003  -4.1984532594344648E-003   6.2491260327462661E-002
   2.2552065698349250E-003  -5.4923089612817222E-003   5.8435672536999106E-002
   2.5026849379054389E-003  -7.1747726182904425E-003   5.4374164788580315E-002
   2.7501633059759320E-003  -9.2458442304616459E-003   5.0306737082205760E-002
   2.9976416740464251E-003  -1.1705523797794992E-002   4.6233389417876580E-002
   2.9788432764731254E-002  -1.0463930388653897E-002   6.4966777437626133E-002
   2.7756304236932344E-002  -8.0188196760581087E-003   6.4826032545261147E-002
   2.5724175709133393E-002  -6.2835128041435206E-003   6.4599869489106787E-002
   2.3692047181334455E-002  -5.2580097729102299E-003   6.4288288269162802E-002
   2.1659918653535531E-002  -4.9423105823580005E-003   6.3891288885429387E-002
   2.4221703786355020E-002  -3.9099836806949506E-003   7.3899930932698588E-002
   2.2247035918050481E-002  -3.4743511202763588E-003   7.1700011399082969E-002
   2.0272368049745915E-002  -3.2006708797466393E-003   6.9700431348245662E-002
   1.8297700181441362E-002  -3.0889429591057678E-003   6.7901190780186582E-002
   1.6323032313136809E-002  -3.1391673583537338E-003   6.6302289694905675E-002
   1.6888799423729256E-002   2.6439630272639680E-003   8.0549680515197702E-002
   1.5257349861486844E-002   1.0701174355053911E-003   7.6838437861123945E-002
   1.3625900299244410E-002  -1.1782895534973026E-004   7.3613292336395936E-002
   1.1994450737001987E-002  -9.1987614530136125E-004   7.0874243941013937E-002
   1.0363001174759565E-002  -1.3360241343494950E-003   6.8621292674978185E-002
   7.7897196768539276E-003   9.1979097352228867E-003   8.4916026185123783E-002
   6.7872460672413967E-003   5.6145859912870855E-003   8.0241311931383730E-002
   5.7847724576288641E-003   2.9650129690471372E-003   7.6338452453557554E-002
   4.7822988480163376E-003   1.2491906685031286E-003   7.3207447751645144E-002
   3.7798252384038025E-003   4.6711908965478555E-004   7.0848297825646375E-002
  -3.0755354542709515E-003   1.5751856443181833E-002   8.6998967942476080E-002
  -3.1632754646858316E-003   1.0159054547068863E-002   8.1908633609862558E-002
  -3.2510154751007152E-003   6.0478548934440879E-003   7.7875911699730516E-002
  -3.3387554855156005E-003   3.4182574823074172E-003   7.4900802212079870E-002
  -3.4264954959304789E-003   2.2702623136590105E-003   7.2983305146910871E-002
   2.1659918653535531E-002  -4.9423105823580005E-003   6.3891288885429387E-002
   2.1022514607143966E-002  -4.9662724311168582E-003   6.4041721545074481E-002
   2.0385110560752415E-002  -4.9597525178163848E-003   6.4132301796656299E-002
   1.9747706514360856E-002  -4.9227508424568162E-003   6.4163029640175201E-002
   1.9110302467969298E-002  -4.8552674050379996E-003   6.4133905075630937E-002
   1.6323032313136809E-002  -3.1391673583537338E-003   6.6302289694905675E-002
   1.5712105646362814E-002  -3.2476269724429352E-003   6.5953889170385610E-002
   1.5101178979588806E-002  -3.3106046963258112E-003   6.5718295813163685E-002
   1.4490252312814814E-002  -3.3281005300023724E-003   6.5595509623240053E-002
   1.3879325646040809E-002  -3.3001144734723931E-003   6.5585530600614561E-002
   1.0363001174759565E-002  -1.3360241343494950E-003   6.8621292674978185E-002
   9.9512114629644079E-003  -1.5289815137690399E-003   6.7789059094440121E-002
   9.5394217511692511E-003  -1.6614568748351266E-003   6.7242292256561559E-002
   9.1276320393740892E-003  -1.7334502175477065E-003   6.6980992161342415E-002
   8.7158423275789307E-003  -1.7449615419067033E-003   6.7005158808782841E-002
   3.7798252384038025E-003   4.6711908965478555E-004   7.0848297825646375E-002
   3.7398320569487584E-003   1.8966394490470273E-004   6.9547231317237640E-002
   3.6998388754937101E-003  -1.2309053344525256E-005   6.8704291126849615E-002
   3.6598456940386682E-003  -1.3879990509312393E-004   6.8319477254482314E-002
   3.6198525125836246E-003  -1.8980861034111063E-004   6.8392789700135737E-002
  -3.4264954959304789E-003   2.2702623136590105E-003   7.2983305146910871E-002
  -2.9220325716841321E-003   1.9083094035788062E-003   7.1228405838778430E-002
  -2.4175696474377888E-003   1.6368387681461455E-003   7.0104292424028047E-002
  -1.9131067231914420E-003   1.4558504073614066E-003   6.9610964902659681E-002
  -1.4086437989450987E-003   1.3653443212246485E-003   6.9748423274673454E-002
   1.9110302467969298E-002  -4.8552674050379996E-003   6.4133905075630937E-002
   1.8138340386608720E-002  -4.7515043190509143E-003   6.3435919525476669E-002
   1.7166378305248156E-002  -4.6056636979863036E-003   6.3081979778805419E-002
   1.6194416223887606E-002  -4.4177455418441779E-003   6.3072085835617089E-002
   1.5222454142527042E-002  -4.1877498506248667E-003   6.3406237695911583E-002
   1.3879325646040809E-002  -3.3001144734723931E-003   6.5585530600614561E-002
   1.3237213734239035E-002  -3.2362877305263105E-003   6.4974981428854467E-002
   1.2595101822437258E-002  -3.1462615049542980E-003   6.4680086792729241E-002
   1.1952989910635490E-002  -3.0300357967563869E-003   6.4700846692238551E-002
   1.1310877998833721E-002  -2.8876106059327888E-003   6.5037261127382728E-002
   8.7158423275789307E-003  -1.7449615419067033E-003   6.7005158808782841E-002
   8.3751893174877565E-003  -1.7210711420017621E-003   6.6466167962965519E-002
   8.0345363073965788E-003  -1.6868593119224104E-003   6.6214440384934542E-002
   7.6938832973054080E-003  -1.6423260516685977E-003   6.6249976074690284E-002
   7.3532302872142338E-003  -1.5874713612403779E-003   6.6572775032232301E-002
   3.6198525125836246E-003  -1.8980861034111063E-004   6.8392789700135737E-002
   3.5522671363548627E-003  -2.0585455347721382E-004   6.7909479127809522E-002
   3.4846817601261052E-003  -2.2745711889046380E-004   6.7685040555421697E-002
   3.4170963838973493E-003  -2.5461630658069664E-004   6.7719473982972109E-002
   3.3495110076685927E-003  -2.8733211654830004E-004   6.8012779410460827E-002
  -1.4086437989450987E-003   1.3653443212246485E-003   6.9748423274673454E-002
  -1.2315528091596216E-003   1.3093620350473900E-003   6.9304914923386862E-002
  -1.0544618193741480E-003   1.2319450741414689E-003   6.9091887304190330E-002
  -8.7737082958866917E-004   1.1330934385070067E-003   6.9109340417084011E-002
  -7.0027983980319730E-004   1.0128071281441109E-003   6.9357274262067836E-002
   1.5222454142527042E-002  -4.1877498506248667E-003   6.3406237695911583E-002
   1.4369248877590932E-002  -3.9339867029206665E-003   6.3127523357510429E-002
   1.3516043612654849E-002  -3.6747661773242346E-003   6.3041286163025678E-002
   1.2662838347718752E-002  -3.4100882738356611E-003   6.3147526112456775E-002
   1.1809633082782656E-002  -3.1399529924550640E-003   6.3446243205804387E-002
   1.1310877998833721E-002  -2.8876106059327888E-003   6.5037261127382728E-002
   1.0650043187069906E-002  -2.7284315292862016E-003   6.4718751363767479E-002
   9.9892083753060981E-003  -2.5619441636200724E-003   6.4592505362580904E-002
   9.3283735635422936E-003  -2.3881485089346718E-003   6.4658523123822725E-002
   8.6675387517784752E-003  -2.2070445652299098E-003   6.4916804647493054E-002
   7.3532302872142338E-003  -1.5874713612403779E-003   6.6572775032232301E-002
   6.8845525471350824E-003  -1.5228763556516256E-003   6.6216320754530433E-002
   6.4158748070559310E-003  -1.4491221499161183E-003   6.6051916857769302E-002
   5.9471970669767830E-003  -1.3662087440336791E-003   6.6079563341949005E-002
   5.4785193268976420E-003  -1.2741361380045890E-003   6.6299260207069693E-002
   3.3495110076685927E-003  -2.8733211654830004E-004   6.8012779410460827E-002
   3.0727769577864822E-003  -3.1732118201732717E-004   6.7620231529799402E-002
   2.7960429079043631E-003  -3.3630013621189364E-004   6.7419520648591136E-002
   2.5193088580222553E-003  -3.4426897913274364E-004   6.7410646766836155E-002
   2.2425748081401336E-003  -3.4122771077918501E-004   6.7593609884534334E-002
  -7.0027983980319730E-004   1.0128071281441109E-003   6.9357274262067836E-002
  -7.8528358097591094E-004   8.8823399161724881E-004   6.8930483689574218E-002
  -8.7028732214861071E-004   7.7652187749230328E-004   6.8695316735046141E-002
  -9.5529106332131915E-004   6.7767078576832368E-004   6.8651773398483718E-002
  -1.0402948044940241E-003   5.9168071644599696E-004   6.8799853679886835E-002
   1.1809633082782656E-002  -3.1399529924550640E-003   6.3446243205804387E-002
   1.0826261035456350E-002  -2.8610573916703075E-003   6.3341226379820093E-002
   9.8428889881300580E-003  -2.5700985299692836E-003   6.3495987154770617E-002
   8.8595169408037452E-003  -2.2670764073519714E-003   6.3910525530655543E-002
   7.8761448934774325E-003  -1.9519910238184890E-003   6.4584841507475121E-002
   8.6675387517784752E-003  -2.2070445652299098E-003   6.4916804647493054E-002
   7.9506757699836922E-003  -2.0171304852465988E-003   6.4782781814456014E-002
   7.2338127881889369E-003  -1.8169044217259678E-003   6.4921999511547368E-002
   6.5169498063941643E-003  -1.6063663746680654E-003   6.5334457738767338E-002
   5.8000868245993986E-003  -1.3855163440730234E-003   6.6020156496115756E-002
   5.4785193268976420E-003  -1.2741361380045890E-003   6.6299260207069693E-002
   5.0416283398283177E-003  -1.1732035788228901E-003   6.6134480089600711E-002
   4.6047373527590071E-003  -1.0637103134826381E-003   6.6256403431454267E-002
   4.1678463656896984E-003  -9.4565634198437790E-004   6.6665030232630151E-002
   3.7309553786203861E-003  -8.1904166432761327E-004   6.7360360493128435E-002
   2.2425748081401336E-003  -3.4122771077918501E-004   6.7593609884534334E-002
   2.0991187449902141E-003  -3.2927667239912584E-004   6.7396321205254489E-002
   1.9556626818403085E-003  -3.1051620523948192E-004   6.7499198914491049E-002
   1.8122066186903887E-003  -2.8494630930047012E-004   6.7902243012244137E-002
   1.6687505555404835E-003  -2.5256698458217541E-004   6.8605453498513255E-002
  -1.0402948044940241E-003   5.9168071644599696E-004   6.8799853679886835E-002
  -8.7685301453061665E-004   5.1465023402458288E-004   6.8568305161417431E-002
  -7.1341122456720918E-004   4.4267790300403509E-004   6.8650385960658089E-002
  -5.4996943460380171E-004   3.7576372338322256E-004   6.9046096077609170E-002
  -3.8652764464039424E-004   3.1390769516337347E-004   6.9755435512270481E-002
   7.8761448934774325E-003  -1.9519910238184890E-003   6.4584841507475121E-002
   6.9283590993159672E-003  -1.6925634120466548E-003   6.4456689756520968E-002
   5.9805733051544741E-003  -1.5565146047146761E-003   6.4575225088043309E-002
   5.0327875109929948E-003  -1.5438446018220392E-003   6.4940447502042004E-002
   4.0850017168314878E-003  -1.6545534033691744E-003   6.5552356998516914E-002
   5.8000868245993986E-003  -1.3855163440730234E-003   6.6020156496115756E-002
   5.1002946207172398E-003  -1.2046386474171555E-003   6.5793420147935877E-002
   4.4005024168350948E-003  -1.1140176021773307E-003   6.5815983897838354E-002
   3.7007102129529498E-003  -1.1136532083532713E-003   6.6087847745823089E-002
   3.0009180090707910E-003  -1.2035454659443667E-003   6.6609011691890041E-002
   3.7309553786203861E-003  -8.1904166432761327E-004   6.7360360493128435E-002
   3.2817697806234794E-003  -7.1671388278751746E-004   6.7068161700746753E-002
   2.8325841826265762E-003  -6.7152059963968003E-004   6.7027876022053345E-002
   2.3833985846296833E-003  -6.8346181488373320E-004   6.7239503457047864E-002
   1.9342129866327801E-003  -7.5253752851978106E-004   6.7703044005730711E-002
   1.6687505555404835E-003  -2.5256698458217541E-004   6.8605453498513255E-002
   1.4727845790346965E-003  -2.2878911815800429E-004   6.8280914414953597E-002
   1.2768186025289294E-003  -2.2902359710201547E-004   6.8210901460687839E-002
   1.0808526260231563E-003  -2.5327042141452469E-004   6.8395414635716564E-002
   8.8488664951737531E-004  -3.0152959109502886E-004   6.8834453940038870E-002
  -3.8652764464039424E-004   3.1390769516337347E-004   6.9755435512270481E-002
  -3.2666098404912636E-004   2.5913564647173093E-004   6.9431678290556409E-002
  -2.6679432345786194E-004   2.1347340543542703E-004   6.9365060213742336E-002
  -2.0692766286659753E-004   1.7692097205443402E-004   6.9555581281828371E-002
  -1.4706100227532964E-004   1.4947834632950130E-004   7.0003241494814183E-002
   4.0850017168314878E-003  -1.6545534033691744E-003   6.5552356998516914E-002
   3.5656833380647429E-003  -1.9428457971983892E-003   6.4595158516124851E-002
   3.0463649592979564E-003  -2.4629265711521298E-003   6.3765909576818491E-002
   2.5270465805311906E-003  -3.2147957252312356E-003   6.3064610180597752E-002
   2.0077282017644249E-003  -4.1984532594344648E-003   6.2491260327462661E-002
   3.0009180090707910E-003  -1.2035454659443667E-003   6.6609011691890041E-002
   2.6114343602331724E-003  -1.4247216610619451E-003   6.5469027279783376E-002
   2.2219507113955400E-003  -1.8182090798162243E-003   6.4460762784449621E-002
   1.8324670625579076E-003  -2.3840077222066491E-003   6.3584218205888388E-002
   1.4429834137202890E-003  -3.1221175882338859E-003   6.2839393544099620E-002
   1.9342129866327801E-003  -7.5253752851978106E-004   6.7703044005730711E-002
   1.6783344414112236E-003  -9.0659752492583401E-004   6.6439750820398102E-002
   1.4224558961896845E-003  -1.1734915884799718E-003   6.5311947925524902E-002
   1.1665773509681333E-003  -1.5532197191822812E-003   6.4319635321111346E-002
   9.1069880574658896E-004  -2.0457819170326963E-003   6.3462813007157198E-002
   8.8488664951737531E-004  -3.0152959109502886E-004   6.8834453940038870E-002
   7.6638358159887739E-004  -3.8847338878955640E-004   6.7507329137968225E-002
   6.4788051368036472E-004  -5.2877409714378182E-004   6.6319465000044361E-002
   5.2937744576186290E-004  -7.2243171615769299E-004   6.5270861526266738E-002
   4.1087437784335414E-004  -9.6944624583159000E-004   6.4361518716635924E-002
  -1.4706100227532964E-004   1.4947834632950130E-004   7.0003241494814183E-002
  -1.2441821920385066E-004   1.2965074734677673E-004   6.8671762232494271E-002
  -1.0177543613238207E-004   1.1594339419221389E-004   6.7483314008007722E-002
  -7.9132653060903085E-005   1.0835628686668014E-004   6.6437896821354786E-002
  -5.6489869989434505E-005   1.0688942536929424E-004   6.5535510672535269E-002
   2.0077282017644249E-003  -4.1984532594344648E-003   6.2491260327462661E-002
   2.2552065698349250E-003  -5.4923089612817222E-003   5.8435672536999106E-002
   2.5026849379054389E-003  -7.1747726182904425E-003   5.4374164788580315E-002
   2.7501633059759320E-003  -9.2458442304616459E-003   5.0306737082205760E-002
   2.9976416740464251E-003  -1.1705523797794992E-002   4.6233389417876580E-002
   1.4429834137202890E-003  -3.1221175882338859E-003   6.2839393544099620E-002
   1.6707997959242576E-003  -4.0911795119517591E-003   5.8463423482341514E-002
   1.8986161781282332E-003  -5.3498343274155646E-003   5.4054049406806248E-002
   2.1264325603322226E-003  -6.8980820346254759E-003   4.9611271317492434E-002
   2.3542489425362190E-003  -8.7359226335812501E-003   4.5135089214402235E-002
   9.1069880574658896E-004  -2.0457819170326963E-003   6.3462813007157198E-002
   1.0913691462618967E-003  -2.6900500626219070E-003   5.8865475737521156E-002
   1.2720394867772149E-003  -3.5248960365407006E-003   5.4207250398284987E-002
   1.4527098272925209E-003  -4.5503198387891429E-003   4.9488136989449018E-002
   1.6333801678078408E-003  -5.7663214693670639E-003   4.4708135511013714E-002
   4.1087437784335414E-004  -9.6944624583159000E-004   6.4361518716635924E-002
   5.1691462084782567E-004  -1.2889206132921105E-003   5.9641829302537509E-002
   6.2295486385231889E-004  -1.6999577456656076E-003   5.4833767763017238E-002
   7.2899510685679346E-004  -2.2025576429525583E-003   4.9937334098074854E-002
   8.3503534986128364E-004  -2.7967203051529888E-003   4.4952528307711154E-002
  -5.6489869989434505E-005   1.0688942536929424E-004   6.5535510672535269E-002
  -5.2563780317947673E-005   1.1220883603779708E-004   6.0792484177390804E-002
  -4.8637690646446963E-005   1.2498054520920787E-004   5.5933601501002572E-002
  -4.4711600974960131E-005   1.4520455288367928E-004   5.0958862643370129E-002
  -4.0785511303459421E-005   1.7288085906086437E-004   4.5868267604493695E-002
  -3.0755354542709515E-003   1.5751856443181833E-002   8.6998967942476080E-002
  -3.1632754646858316E-003   1.0159054547068863E-002   8.1908633609862558E-002
  -3.2510154751007152E-003   6.0478548934440879E-003   7.7875911699730516E-002
  -3.3387554855156005E-003   3.4182574823074172E-003   7.4900802212079870E-002
  -3.4264954959304789E-003   2.2702623136590105E-003   7.2983305146910871E-002
  -1.3306858143907467E-002   7.3901013557218231E-003   6.4914400684087298E-002
  -1.2525726167385913E-002   4.7753310437312069E-003   6.3787487681186916E-002
  -1.1744594190864347E-002   2.9152014853164876E-003   6.3340706229677871E-002
  -1.0963462214342794E-002   1.8097126804776376E-003   6.3574056329560119E-002
  -1.0182330237821235E-002   1.4588646292147400E-003   6.4487537980833842E-002
  -2.0504140566317719E-002  -9.7165373173807579E-004   4.6171345754276866E-002
  -1.9231617473949882E-002  -6.0839245960638000E-004   4.8280892592177382E-002
  -1.7959094381582049E-002  -2.1745192281107106E-004   5.0693090110379035E-002
  -1.6686571289214219E-002   2.0116787864788918E-004   5.3407938308881985E-002
  -1.5414048196846384E-002   6.4746694477041400E-004   5.6425437187686014E-002
  -2.4667382721501690E-002  -9.3334088191980302E-003   3.0769803153044839E-002
  -2.3280949384377757E-002  -5.9921159629439461E-003   3.5388848342834109E-002
  -2.1894516047253829E-002  -3.3501053309385950E-003   3.9933063341834218E-002
  -2.0508082710129893E-002  -1.4073769231818748E-003   4.4402448150045369E-002
  -1.9121649373005964E-002  -1.6393073967385652E-004   4.8797002767467706E-002
  -2.5796584609459397E-002  -1.7695163906657985E-002   1.8709772880391495E-002
  -2.4673721898669523E-002  -1.1375839466281651E-002   2.5111354933156971E-002
  -2.3550859187879664E-002  -6.4827587390662716E-003   3.1060625924043267E-002
  -2.2427996477089811E-002  -3.0159217250116631E-003   3.6557585853050481E-002
  -2.1305133766299937E-002  -9.7532842411823806E-004   4.1602234720178544E-002
  -3.4264954959304789E-003   2.2702623136590105E-003   7.2983305146910871E-002
  -2.9220325716841321E-003   1.9083094035788062E-003   7.1228405838778430E-002
  -2.4175696474377888E-003   1.6368387681461455E-003   7.0104292424028047E-002
  -1.9131067231914420E-003   1.4558504073614066E-003   6.9610964902659681E-002
  -1.4086437989450987E-003   1.3653443212246485E-003   6.9748423274673454E-002
  -1.0182330237821235E-002   1.4588646292147400E-003   6.4487537980833842E-002
  -9.1962299268268065E-003   1.4800815778908127E-003   6.4147592709408036E-002
  -8.2101296158323817E-003   1.4907877728689983E-003   6.4140136318096411E-002
  -7.2240293048379577E-003   1.4909832141493419E-003   6.4465168806898843E-002
  -6.2379289938435355E-003   1.4806679017317914E-003   6.5122690175815512E-002
  -1.5414048196846384E-002   6.4746694477041400E-004   5.6425437187686014E-002
  -1.4244607512371787E-002   1.0518537522029164E-003   5.7399452924621161E-002
  -1.3075166827897182E-002   1.3447367775918997E-003   5.8407660528402523E-002
  -1.1905726143422585E-002   1.5261160209372199E-003   5.9450059999030150E-002
  -1.0736285458947985E-002   1.5959914822389065E-003   6.0526651336503964E-002
  -1.9121649373005964E-002  -1.6393073967385652E-004   4.8797002767467706E-002
  -1.8067165328319080E-002   6.2362592651502707E-004   5.0983986484417959E-002
  -1.7012681283632210E-002   1.1986857823147491E-003   5.2906865054946565E-002
  -1.5958197238945329E-002   1.5612488277251266E-003   5.4565638479053609E-002
  -1.4903713194258454E-002   1.7113150627460078E-003   5.5960306756738812E-002
  -2.1305133766299937E-002  -9.7532842411823806E-004   4.1602234720178544E-002
  -2.0663903374668696E-002   1.9539810082708220E-004   4.4901193388798305E-002
  -2.0022672983037445E-002   1.0526347870376818E-003   4.7637749897728482E-002
  -1.9381442591406194E-002   1.5963816345129292E-003   4.9811904246969088E-002
  -1.8740212199774946E-002   1.8266386432531645E-003   5.1423656436520138E-002
  -1.4086437989450987E-003   1.3653443212246485E-003   6.9748423274673454E-002
  -1.2315528091596216E-003   1.3093620350473900E-003   6.9304914923386862E-002
  -1.0544618193741480E-003   1.2319450741414689E-003   6.9091887304190330E-002
  -8.7737082958866917E-004   1.1330934385070067E-003   6.9109340417084011E-002
  -7.0027983980319730E-004   1.0128071281441109E-003   6.9357274262067836E-002
  -6.2379289938435355E-003   1.4806679017317914E-003   6.5122690175815512E-002
  -5.8407614591906437E-003   1.4536538668705190E-003   6.4977545684140992E-002
  -5.4435939245377520E-003   1.4037531408191556E-003   6.5042073550111129E-002
  -5.0464263898848585E-003   1.3309657235782875E-003   6.5316273773725883E-002
  -4.6492588552319684E-003   1.2352916151475712E-003   6.5800146354985378E-002
  -1.0736285458947985E-002   1.5959914822389065E-003   6.0526651336503964E-002
  -1.0139849753873123E-002   1.5979456986933704E-003   6.0678418687980309E-002
  -9.5434140487982641E-003   1.5755612074967937E-003   6.1019050022655917E-002
  -8.9469783437234086E-003   1.5288380086493480E-003   6.1548545340530753E-002
  -8.3505426386485480E-003   1.4577761021510316E-003   6.2266904641604809E-002
  -1.4903713194258454E-002   1.7113150627460078E-003   5.5960306756738812E-002
  -1.4128817693207073E-002   1.7422375305163884E-003   5.6407533934904955E-002
  -1.3353922192155690E-002   1.7473692741745116E-003   5.7022816721824757E-002
  -1.2579026691104304E-002   1.7267102937205186E-003   5.7806155117498391E-002
  -1.1804131190052929E-002   1.6802605891544919E-003   5.8757549121925982E-002
  -1.8740212199774946E-002   1.8266386432531645E-003   5.1423656436520138E-002
  -1.7807665277192485E-002   1.8865293623392398E-003   5.2164891424914817E-002
  -1.6875118354610023E-002   1.9191773408520768E-003   5.3053373647617835E-002
  -1.5942571432027552E-002   1.9245825787916511E-003   5.4089103104629235E-002
  -1.5010024509445101E-002   1.9027450761580078E-003   5.5272079795948892E-002
  -7.0027983980319730E-004   1.0128071281441109E-003   6.9357274262067836E-002
  -7.8528358097591094E-004   8.8823399161724881E-004   6.8930483689574218E-002
  -8.7028732214861071E-004   7.7652187749230328E-004   6.8695316735046141E-002
  -9.5529106332131915E-004   6.7767078576832368E-004   6.8651773398483718E-002
  -1.0402948044940241E-003   5.9168071644599696E-004   6.8799853679886835E-002
  -4.6492588552319684E-003   1.2352916151475712E-003   6.5800146354985378E-002
  -4.5332839537224230E-003   1.1404159380355716E-003   6.5649078327334992E-002
  -4.4173090522128741E-003   1.0700238147510199E-003   6.5708343967083610E-002
  -4.3013341507033348E-003   1.0241152452941799E-003   6.5977943274231135E-002
  -4.1853592491937798E-003   1.0026902296644824E-003   6.6457876248777525E-002
  -8.3505426386485480E-003   1.4577761021510316E-003   6.2266904641604809E-002
  -8.0148790450234337E-003   1.3925978844538112E-003   6.2403181690223769E-002
  -7.6792154513983324E-003   1.3635257520103056E-003   6.2768502455674904E-002
  -7.3435518577732103E-003   1.3705597048198175E-003   6.3362866937958257E-002
  -7.0078882641481169E-003   1.4136997428829123E-003   6.4186275137073895E-002
  -1.1804131190052929E-002   1.6802605891544919E-003   5.8757549121925982E-002
  -1.1230068854878927E-002   1.6447798308722589E-003   5.9192793778240202E-002
  -1.0656006519704940E-002   1.6570276892689736E-003   5.9875792200819858E-002
  -1.0081944184530959E-002   1.7170041643455088E-003   6.0806544389665047E-002
  -9.5078818493569573E-003   1.8247092561011480E-003   6.1985050344775840E-002
  -1.5010024509445101E-002   1.9027450761580078E-003   5.5272079795948892E-002
  -1.4178853383288920E-002   1.8969617772904290E-003   5.6017914591384332E-002
  -1.3347682257132742E-002   1.9505296265282107E-003   5.7030213202518526E-002
  -1.2516511130976559E-002   2.0634486238712314E-003   5.8308975629351431E-002
  -1.1685340004820383E-002   2.2357187693197167E-003   5.9854201871883395E-002
  -1.0402948044940241E-003   5.9168071644599696E-004   6.8799853679886835E-002
  -8.7685301453061665E-004   5.1465023402458288E-004   6.8568305161417431E-002
  -7.1341122456720918E-004   4.4267790300403509E-004   6.8650385960658089E-002
  -5.4996943460380171E-004   3.7576372338322256E-004   6.9046096077609170E-002
  -3.8652764464039424E-004   3.1390769516337347E-004   6.9755435512270481E-002
  -4.1853592491937798E-003   1.0026902296644824E-003   6.6457876248777525E-002
  -3.7396254633749113E-003   9.7877705264476367E-004   6.6505324975595026E-002
  -3.2938916775560358E-003   9.2540399901766546E-004   6.6803728376413241E-002
  -2.8481578917371603E-003   8.4257106878261184E-004   6.7353086451232128E-002
  -2.4024241059182778E-003   7.3027826194027590E-004   6.8153399200051534E-002
  -7.0078882641481169E-003   1.4136997428829123E-003   6.4186275137073895E-002
  -6.3425371261834019E-003   1.4429038712646947E-003   6.4478203081170415E-002
  -5.6771859882186870E-003   1.4081300950310599E-003   6.4958411055558038E-002
  -5.0118348502539729E-003   1.3093784141817756E-003   6.5626899060236665E-002
  -4.3464837122892570E-003   1.1466488287170118E-003   6.6483667095206173E-002
  -9.5078818493569573E-003   1.8247092561011480E-003   6.1985050344775840E-002
  -8.6855880029560618E-003   1.9070306898846395E-003   6.2486939478143440E-002
  -7.8632941565551784E-003   1.8908561910446278E-003   6.3114433998092370E-002
  -7.0410003101542846E-003   1.7761857595810521E-003   6.3867533904622673E-002
  -6.2187064637533986E-003   1.5630193954937199E-003   6.4746239197734576E-002
  -1.1685340004820383E-002   2.2357187693197167E-003   5.9854201871883395E-002
  -1.0768778093692949E-002   2.3711575085046399E-003   6.0531534166514023E-002
  -9.8522161825654944E-003   2.3735822870583068E-003   6.1271797204016321E-002
  -8.9356542714380503E-003   2.2429931049801621E-003   6.2074990984390371E-002
  -8.0190923603106062E-003   1.9793899622705391E-003   6.2941115507636036E-002
  -3.8652764464039424E-004   3.1390769516337347E-004   6.9755435512270481E-002
  -3.2666098404912636E-004   2.5913564647173093E-004   6.9431678290556409E-002
  -2.6679432345786194E-004   2.1347340543542703E-004   6.9365060213742336E-002
  -2.0692766286659753E-004   1.7692097205443402E-004   6.9555581281828371E-002
  -1.4706100227532964E-004   1.4947834632950130E-004   7.0003241494814183E-002
  -2.4024241059182778E-003   7.3027826194027590E-004   6.8153399200051534E-002
  -2.0935371325867362E-003   6.2334256133506072E-004   6.7918001949453799E-002
  -1.7846501592551963E-003   5.5658094981239636E-004   6.7923506179436488E-002
  -1.4757631859236590E-003   5.2999342737203997E-004   6.8169911889999768E-002
  -1.1668762125921148E-003   5.4357999401399848E-004   6.8657219081143583E-002
  -4.3464837122892570E-003   1.1466488287170118E-003   6.6483667095206173E-002
  -3.8048140905368802E-003   9.8754947619889011E-004   6.6367694097151236E-002
  -3.2631444687844895E-003   8.9968849418969876E-004   6.6476384915357289E-002
  -2.7214748470321057E-003   8.8306588268931285E-004   6.6809739549824596E-002
  -2.1798052252797080E-003   9.3768164169821810E-004   6.7367758000552808E-002
  -6.2187064637533986E-003   1.5630193954937199E-003   6.4746239197734576E-002
  -5.4604918578995670E-003   1.3517563910625252E-003   6.4780754733648832E-002
  -4.7022772520457562E-003   1.2427960385667791E-003   6.5023696421504976E-002
  -3.9440626461919280E-003   1.2361383380067523E-003   6.5475064261302868E-002
  -3.1858480403381137E-003   1.3317832893826320E-003   6.6134858253042550E-002
  -8.0190923603106062E-003   1.9793899622705391E-003   6.2941115507636036E-002
  -7.0605704346747844E-003   1.7159633059261603E-003   6.3157183858946753E-002
  -6.1020485090389660E-003   1.5859035829440538E-003   6.3565440697879616E-002
  -5.1435265834031511E-003   1.5892107933239349E-003   6.4165886024434848E-002
  -4.1850046577673258E-003   1.7258849370668239E-003   6.4958519838612339E-002
  -1.4706100227532964E-004   1.4947834632950130E-004   7.0003241494814183E-002
  -1.2441821920385066E-004   1.2965074734677673E-004   6.8671762232494271E-002
  -1.0177543613238207E-004   1.1594339419221389E-004   6.7483314008007722E-002
  -7.9132653060903085E-005   1.0835628686668014E-004   6.6437896821354786E-002
  -5.6489869989434505E-005   1.0688942536929424E-004   6.5535510672535269E-002
  -1.1668762125921148E-003   5.4357999401399848E-004   6.8657219081143583E-002
  -1.0053734150290566E-003   6.0778280578915878E-004   6.7362044316617409E-002
  -8.4387061746600371E-004   7.3304401874921266E-004   6.6201558543240974E-002
  -6.8236781990295252E-004   9.1936363289347317E-004   6.5175761761014264E-002
  -5.2086502233989265E-004   1.1667416482225024E-003   6.4284653969937322E-002
  -2.1798052252797080E-003   9.3768164169821810E-004   6.7367758000552808E-002
  -1.8877844599088332E-003   1.0859148642317351E-003   6.6163825889176742E-002
  -1.5957636945379394E-003   1.3501446433059755E-003   6.5086240722266361E-002
  -1.3037429291670620E-003   1.7303709789207068E-003   6.4135002499822180E-002
  -1.0117221637961707E-003   2.2265938710758215E-003   6.3310111221843768E-002
  -3.1858480403381137E-003   1.3317832893826320E-003   6.6134858253042550E-002
  -2.7716513538431431E-003   1.5640469226742698E-003   6.5077106950172076E-002
  -2.3574546673481799E-003   1.9672452678626343E-003   6.4137360545084093E-002
  -1.9432579808532130E-003   2.5413783249476091E-003   6.3315619037778284E-002
  -1.5290612943582461E-003   3.2864460939293072E-003   6.2611882428254315E-002
  -4.1850046577673258E-003   1.7258849370668239E-003   6.4958519838612339E-002
  -3.6569740968320358E-003   2.0421789811166935E-003   6.4101887499603771E-002
  -3.1289435358967353E-003   2.5843458924196261E-003   6.3354918011694017E-002
  -2.6009129749614453E-003   3.3523856709745392E-003   6.2717611374882576E-002
  -2.0728824140261448E-003   4.3462983167822378E-003   6.2189967589169615E-002
  -5.6489869989434505E-005   1.0688942536929424E-004   6.5535510672535269E-002
  -5.2563780317947673E-005   1.1220883603779708E-004   6.0792484177390804E-002
  -4.8637690646446963E-005   1.2498054520920787E-004   5.5933601501002572E-002
  -4.4711600974960131E-005   1.4520455288367928E-004   5.0958862643370129E-002
  -4.0785511303459421E-005   1.7288085906086437E-004   4.5868267604493695E-002
  -5.2086502233989265E-004   1.1667416482225024E-003   6.4284653969937322E-002
  -6.1955302313797603E-004   1.4972594346433499E-003   5.9584724296212754E-002
  -7.1824102393605073E-004   1.9329983620634539E-003   5.4795422622792966E-002
  -8.1692902473412890E-004   2.4739584304826340E-003   4.9916748949678513E-002
  -9.1561702553220881E-004   3.1201396399005432E-003   4.4948703276868507E-002
  -1.0117221637961707E-003   2.2265938710758215E-003   6.3310111221843768E-002
  -1.1865400735148277E-003   2.8823100332490692E-003   5.8751047212035140E-002
  -1.3613579832334969E-003   3.7410161789176166E-003   5.4129095384080478E-002
  -1.5361758929521487E-003   4.8027123080813180E-003   4.9444255737979226E-002
  -1.7109938026708231E-003   6.0673984207402221E-003   4.4696528273732605E-002
  -1.5290612943582461E-003   3.2864460939293072E-003   6.2611882428254315E-002
  -1.7535249314485082E-003   4.2673606318544832E-003   5.8291452924857823E-002
  -1.9779885685387633E-003   5.5490339957718210E-003   5.3934619784863962E-002
  -2.2024522056290079E-003   7.1314661856800264E-003   4.9541383008273224E-002
  -2.4269158427192806E-003   9.0146572015799009E-003   4.5111742595085103E-002
  -2.0728824140261448E-003   4.3462983167822378E-003   6.2189967589169615E-002
  -2.3205075969390115E-003   5.6524112304600083E-003   5.8205941434680830E-002
  -2.5681327798518713E-003   7.3570518126259976E-003   5.4211995825144410E-002
  -2.8157579627647745E-003   9.4602200632789499E-003   5.0208130760559549E-002
  -3.0633831456775978E-003   1.1961915982419580E-002   4.6194346240926887E-002
  -2.5796584609459397E-002  -1.7695163906657985E-002   1.8709772880391495E-002
  -2.4673721898669523E-002  -1.1375839466281651E-002   2.5111354933156971E-002
  -2.3550859187879664E-002  -6.4827587390662716E-003   3.1060625924043267E-002
  -2.2427996477089811E-002  -3.0159217250116631E-003   3.6557585853050481E-002
  -2.1305133766299937E-002  -9.7532842411823806E-004   4.1602234720178544E-002
  -2.7209683989796660E-002  -4.1072839469014633E-003   4.0010843253831641E-002
  -2.6306388919095092E-002  -1.2950464525436634E-003   4.2021279104345693E-002
  -2.5403093848393492E-002   8.9932601086105401E-004   4.4044890736562176E-002
  -2.4499798777691886E-002   2.4758334433126160E-003   4.6081678150481295E-002
  -2.3596503706990301E-002   3.4344758448111301E-003   4.8131641346103038E-002
  -3.2224618622119373E-002   9.4805960128550859E-003   5.7400637340149455E-002
  -3.1075404347924329E-002   8.7857465611942687E-003   5.5828305670619680E-002
  -2.9926190073729191E-002   8.2814107607882895E-003   5.4734636626374226E-002
  -2.8776975799534109E-002   7.9675886116370876E-003   5.4119630207413144E-002
  -2.7627761525339009E-002   7.8442801137405815E-003   5.3983286413736550E-002
  -4.0841388506427621E-002   2.3068475972611649E-002   7.0879155139344646E-002
  -3.8980768185157229E-002   1.8866539574932187E-002   6.6532434631979054E-002
  -3.7120147863886808E-002   1.5663495510715501E-002   6.3129863593479524E-002
  -3.5259527542616423E-002   1.3459343779961434E-002   6.0671442023846119E-002
  -3.3398907221346044E-002   1.2254084382669908E-002   5.9157169923079046E-002
  -5.3059993642721209E-002   3.6656355932368156E-002   8.0446396651417285E-002
  -5.0022480430793742E-002   2.8947332588670216E-002   7.4133665988423636E-002
  -4.6984967218866316E-002   2.3045580260642795E-002   6.9230571637877936E-002
  -4.3947454006938856E-002   1.8951098948285824E-002   6.5737113599780211E-002
  -4.0909940795011424E-002   1.6663888651599401E-002   6.3653291874130380E-002
  -2.1305133766299937E-002  -9.7532842411823806E-004   4.1602234720178544E-002
  -2.0663903374668696E-002   1.9539810082708220E-004   4.4901193388798305E-002
  -2.0022672983037445E-002   1.0526347870376818E-003   4.7637749897728482E-002
  -1.9381442591406194E-002   1.5963816345129292E-003   4.9811904246969088E-002
  -1.8740212199774946E-002   1.8266386432531645E-003   5.1423656436520138E-002
  -2.3596503706990301E-002   3.4344758448111301E-003   4.8131641346103038E-002
  -2.3354750227083478E-002   3.9875167114678672E-003   4.9600223446296790E-002
  -2.3112996747176637E-002   4.3472195393938970E-003   5.0832253882731299E-002
  -2.2871243267269813E-002   4.5135843285893148E-003   5.1827732655406480E-002
  -2.2629489787362980E-002   4.4866110790541813E-003   5.2586659764322474E-002
  -2.7627761525339009E-002   7.8442801137405815E-003   5.3983286413736550E-002
  -2.7459634461226262E-002   7.7796353221083192E-003   5.3741643745508778E-002
  -2.7291507397113553E-002   7.6418042917501122E-003   5.3589299909452007E-002
  -2.7123380333000824E-002   7.4307870226655894E-003   5.3526254905566277E-002
  -2.6955253268888098E-002   7.1465835148552537E-003   5.3552508733851659E-002
  -3.3398907221346044E-002   1.2254084382669908E-002   5.9157169923079046E-002
  -3.2978556077097120E-002   1.1571753932748965E-002   5.7325454286434131E-002
  -3.2558204932848181E-002   1.0936389044106327E-002   5.5908887977890578E-002
  -3.2137853788599242E-002   1.0347989716742253E-002   5.4907470997448513E-002
  -3.1717502644350318E-002   9.8065559506562150E-003   5.4321203345107774E-002
  -4.0909940795011424E-002   1.6663888651599401E-002   6.3653291874130380E-002
  -3.9911515074695966E-002   1.5363872543389528E-002   6.0351655069072974E-002
  -3.8913089354380523E-002   1.4230973796462584E-002   5.7791018088047236E-002
  -3.7914663634065059E-002   1.3265192410818371E-002   5.5971380931053041E-002
  -3.6916237913749622E-002   1.2466528386457343E-002   5.4892743598090654E-002
  -1.8740212199774946E-002   1.8266386432531645E-003   5.1423656436520138E-002
  -1.7807665277192485E-002   1.8865293623392398E-003   5.2164891424914817E-002
  -1.6875118354610023E-002   1.9191773408520768E-003   5.3053373647617835E-002
  -1.5942571432027552E-002   1.9245825787916511E-003   5.4089103104629235E-002
  -1.5010024509445101E-002   1.9027450761580078E-003   5.5272079795948892E-002
  -2.2629489787362980E-002   4.4866110790541813E-003   5.2586659764322474E-002
  -2.1534446501371197E-002   4.3590307129328376E-003   5.2889098520373434E-002
  -2.0439403215379404E-002   4.2235741523697357E-003   5.3369282768934850E-002
  -1.9344359929387583E-002   4.0802413973648199E-003   5.4027212510006639E-002
  -1.8249316643395824E-002   3.9290324479183680E-003   5.4862887743588551E-002
  -2.6955253268888098E-002   7.1465835148552537E-003   5.3552508733851659E-002
  -2.5667215361284999E-002   6.8315320635265464E-003   5.3435517803690630E-002
  -2.4379177453681906E-002   6.5279709638874986E-003   5.3526770624241833E-002
  -2.3091139546078835E-002   6.2359002159382091E-003   5.3826267195505234E-002
  -2.1803101638475715E-002   5.9553198196785895E-003   5.4334007517481062E-002
  -3.1717502644350318E-002   9.8065559506562150E-003   5.4321203345107774E-002
  -3.0205971856933977E-002   9.3040334141200887E-003   5.3804149274866001E-002
  -2.8694441069517615E-002   8.8323677754052372E-003   5.3525837213538395E-002
  -2.7182910282101264E-002   8.3915590345114317E-003   5.3486267161125270E-002
  -2.5671379494684916E-002   7.9816071914388248E-003   5.3685439117626146E-002
  -3.6916237913749622E-002   1.2466528386457343E-002   5.4892743598090654E-002
  -3.5150715988318065E-002   1.1776534764713770E-002   5.3994992933899699E-002
  -3.3385194062886467E-002   1.1136764586922906E-002   5.3366482536824966E-002
  -3.1619672137454875E-002   1.0547217853084708E-002   5.3007212406866441E-002
  -2.9854150212023312E-002   1.0007894563199116E-002   5.2917182544024055E-002
  -1.5010024509445101E-002   1.9027450761580078E-003   5.5272079795948892E-002
  -1.4178853383288920E-002   1.8969617772904290E-003   5.6017914591384332E-002
  -1.3347682257132742E-002   1.9505296265282107E-003   5.7030213202518526E-002
  -1.2516511130976559E-002   2.0634486238712314E-003   5.8308975629351431E-002
  -1.1685340004820383E-002   2.2357187693197167E-003   5.9854201871883395E-002
  -1.8249316643395824E-002   3.9290324479183680E-003   5.4862887743588551E-002
  -1.7167740826476426E-002   3.7796289661326810E-003   5.5313589691893678E-002
  -1.6086165009557035E-002   3.6417126141110451E-003   5.5998637206026297E-002
  -1.5004589192637653E-002   3.5152833918532488E-003   5.6918030285986507E-002
  -1.3923013375718274E-002   3.4003412993590665E-003   5.8071768931774237E-002
  -2.1803101638475715E-002   5.9553198196785895E-003   5.4334007517481062E-002
  -2.0503239380664458E-002   5.6622961549749606E-003   5.4441712600314371E-002
  -1.9203377122853141E-002   5.3328956016938725E-003   5.4751644999103850E-002
  -1.7903514865041863E-002   4.9671181598351533E-003   5.5263804713849771E-002
  -1.6603652607230575E-002   4.5649638293988049E-003   5.5978191744551681E-002
  -2.5671379494684916E-002   7.9816071914388248E-003   5.3685439117626146E-002
  -2.4185349045853025E-002   7.5449633438174485E-003   5.3402283316646232E-002
  -2.2699318597021095E-002   7.0240785892765369E-003   5.3289236581751415E-002
  -2.1213288148189208E-002   6.4189529278170588E-003   5.3346298912941459E-002
  -1.9727257699357278E-002   5.7295863594383489E-003   5.3573470310216559E-002
  -2.9854150212023312E-002   1.0007894563199116E-002   5.2917182544024055E-002
  -2.8214069822042109E-002   9.4276305326596033E-003   5.2195301840889607E-002
  -2.6573989432060866E-002   8.7152615768595482E-003   5.1611411953968706E-002
  -2.4933909042079636E-002   7.8707876957991342E-003   5.1165512883261446E-002
  -2.3293828652098419E-002   6.8942088894780040E-003   5.0857604628768094E-002
  -1.1685340004820383E-002   2.2357187693197167E-003   5.9854201871883395E-002
  -1.0768778093692949E-002   2.3711575085046399E-003   6.0531534166514023E-002
  -9.8522161825654944E-003   2.3735822870583068E-003   6.1271797204016321E-002
  -8.9356542714380503E-003   2.2429931049801621E-003   6.2074990984390371E-002
  -8.0190923603106062E-003   1.9793899622705391E-003   6.2941115507636036E-002
  -1.3923013375718274E-002   3.4003412993590665E-003   5.8071768931774237E-002
  -1.2914373842646452E-002   3.2592192432043254E-003   5.8236851736004347E-002
  -1.1905734309574641E-002   3.0542501299639091E-003   5.8523159041251605E-002
  -1.0897094776502853E-002   2.7854339596377758E-003   5.8930690847515774E-002
  -9.8884552434310088E-003   2.4527707322260506E-003   5.9459447154797063E-002
  -1.6603652607230575E-002   4.5649638293988049E-003   5.5978191744551681E-002
  -1.5444641694069120E-002   4.1472809779038722E-003   5.5700191961927659E-002
  -1.4285630780907657E-002   3.7349179728692894E-003   5.5601710438465735E-002
  -1.3126619867746207E-002   3.3278748142953340E-003   5.5682747174166242E-002
  -1.1967608954584739E-002   2.9261515021816176E-003   5.5943302169029069E-002
  -1.9727257699357278E-002   5.7295863594383489E-003   5.3573470310216559E-002
  -1.8359581647960900E-002   5.0353427126032108E-003   5.2921554844284055E-002
  -1.6991905596564494E-002   4.4155858157748917E-003   5.2507451395659044E-002
  -1.5624229545168108E-002   3.8703156689528090E-003   5.2331159964341740E-002
  -1.4256553493771709E-002   3.3995322721370458E-003   5.2392680550331854E-002
  -2.3293828652098419E-002   6.8942088894780040E-003   5.0857604628768094E-002
  -2.1659193704321816E-002   5.9234044473029934E-003   4.9900940383073189E-002
  -2.0024558756545185E-002   5.0962536586804663E-003   4.9240381912831199E-002
  -1.8389923808768575E-002   4.4127565236104435E-003   4.8875929218041986E-002
  -1.6755288860991951E-002   3.8729130420926960E-003   4.8807582298705854E-002
  -8.0190923603106062E-003   1.9793899622705391E-003   6.2941115507636036E-002
  -7.0605704346747844E-003   1.7159633059261603E-003   6.3157183858946753E-002
  -6.1020485090389660E-003   1.5859035829440538E-003   6.3565440697879616E-002
  -5.1435265834031511E-003   1.5892107933239349E-003   6.4165886024434848E-002
  -4.1850046577673258E-003   1.7258849370668239E-003   6.4958519838612339E-002
  -9.8884552434310088E-003   2.4527707322260506E-003   5.9459447154797063E-002
  -8.7278283533929434E-003   2.1482366225776817E-003   5.9602377267841733E-002
  -7.5672014633548675E-003   1.9638078055418395E-003   5.9957328822068501E-002
  -6.4065745733167794E-003   1.8994842811179413E-003   6.0524301817477588E-002
  -5.2459476832786983E-003   1.9552660493069585E-003   6.1303296254069051E-002
  -1.1967608954584739E-002   2.9261515021816176E-003   5.5943302169029069E-002
  -1.0585044146584441E-002   2.5805099392293696E-003   5.5999832403057559E-002
  -9.2024793385841585E-003   2.3417120281394171E-003   5.6288217031828555E-002
  -7.8199145305838623E-003   2.2097577689120622E-003   5.6808456055341551E-002
  -6.4373497225835782E-003   2.1846471615469265E-003   5.7560549473596845E-002
  -1.4256553493771709E-002   3.3995322721370458E-003   5.2392680550331854E-002
  -1.2632217814249249E-002   3.0127832558808632E-003   5.2349549264594564E-002
  -1.1007882134726830E-002   2.7196162507371544E-003   5.2558105327159529E-002
  -9.3835464552043772E-003   2.5200312567060148E-003   5.3018348738026640E-002
  -7.7592107756819500E-003   2.4140282737869778E-003   5.3730279497195693E-002
  -1.6755288860991951E-002   3.8729130420926960E-003   4.8807582298705854E-002
  -1.4869349356387423E-002   3.4450565725325788E-003   4.8651527852452969E-002
  -1.2983409851782896E-002   3.0975204733348360E-003   4.8766993708061868E-002
  -1.1097470347178374E-002   2.8303047444996482E-003   4.9153979865533048E-002
  -9.2115308425738396E-003   2.6434093860270291E-003   4.9812486324866123E-002
  -4.1850046577673258E-003   1.7258849370668239E-003   6.4958519838612339E-002
  -3.6569740968320358E-003   2.0421789811166935E-003   6.4101887499603771E-002
  -3.1289435358967353E-003   2.5843458924196261E-003   6.3354918011694017E-002
  -2.6009129749614453E-003   3.3523856709745392E-003   6.2717611374882576E-002
  -2.0728824140261448E-003   4.3462983167822378E-003   6.2189967589169615E-002
  -5.2459476832786983E-003   1.9552660493069585E-003   6.1303296254069051E-002
  -4.5808314993994355E-003   2.2321403869159373E-003   6.0617604029852834E-002
  -3.9157153155201727E-003   2.8310945707528956E-003   6.0096420200426492E-002
  -3.2505991316409289E-003   3.7521286008174379E-003   5.9739744765789249E-002
  -2.5854829477616262E-003   4.9952424771106951E-003   5.9547577725941658E-002
  -6.4373497225835782E-003   2.1846471615469265E-003   5.7560549473596845E-002
  -5.5803023720693307E-003   2.4221017927148480E-003   5.7142004343148506E-002
  -4.7232550215550832E-003   3.0778432490862762E-003   5.6942813151180549E-002
  -3.8662076710408279E-003   4.1518715306608917E-003   5.6962975897693169E-002
  -3.0091603205265882E-003   5.6441866374392080E-003   5.7202492582686310E-002
  -7.7592107756819500E-003   2.4140282737869778E-003   5.3730279497195693E-002
  -6.6553867148416851E-003   2.6120631985138143E-003   5.3675088439490710E-002
  -5.5515626540014349E-003   3.3245919274197122E-003   5.3894096863957075E-002
  -4.4477385931611987E-003   4.5516144605041789E-003   5.4387304770595050E-002
  -3.3439145323209203E-003   6.2931307977675821E-003   5.5154712159404366E-002
  -9.2115308425738396E-003   2.6434093860270291E-003   4.9812486324866123E-002
  -7.8060845277165697E-003   2.8020246043130026E-003   5.0216856318879732E-002
  -6.4006382128592859E-003   3.5713406057529262E-003   5.0950271338755571E-002
  -4.9951918980020160E-003   4.9513573903474661E-003   5.2012731384494026E-002
  -3.5897455831447322E-003   6.9420749580959562E-003   5.3404236456094933E-002
  -2.0728824140261448E-003   4.3462983167822378E-003   6.2189967589169615E-002
  -2.3205075969390115E-003   5.6524112304600083E-003   5.8205941434680830E-002
  -2.5681327798518713E-003   7.3570518126259976E-003   5.4211995825144410E-002
  -2.8157579627647745E-003   9.4602200632789499E-003   5.0208130760559549E-002
  -3.0633831456775978E-003   1.1961915982419580E-002   4.6194346240926887E-002
  -2.5854829477616262E-003   4.9952424771106951E-003   5.9547577725941658E-002
  -2.8600256580578083E-003   6.6274157647557841E-003   5.6062759982569987E-002
  -3.1345683683540061E-003   8.7156280288762378E-003   5.2534026639480036E-002
  -3.4091110786501769E-003   1.1259879269473409E-002   4.8961377696671887E-002
  -3.6836537889463616E-003   1.4260169486545626E-002   4.5344813154144514E-002
  -3.0091603205265882E-003   5.6441866374392080E-003   5.7202492582686310E-002
  -3.3446167028764774E-003   7.6024202990510603E-003   5.4274394558420258E-002
  -3.6800730852263640E-003   1.0074204245127158E-002   5.1268384789765295E-002
  -4.0155294675762558E-003   1.3059538475667539E-002   4.8184463276721469E-002
  -4.3509858499261415E-003   1.6558422990671895E-002   4.5022630019288967E-002
  -3.3439145323209203E-003   6.2931307977675821E-003   5.5154712159404366E-002
  -3.7742807313949221E-003   8.5774248333465863E-003   5.2840845162231816E-002
  -4.2046469304689383E-003   1.1432780461378182E-002   5.0415070275999938E-002
  -4.6350131295429002E-003   1.4859197681861723E-002   4.7877387500708898E-002
  -5.0653793286169297E-003   1.8856676494798053E-002   4.5227796836358192E-002
  -3.5897455831447322E-003   6.9420749580959562E-003   5.3404236456094933E-002
  -4.1490177436132314E-003   9.5524293676420013E-003   5.1762111794004473E-002
  -4.7082899040817305E-003   1.2791356677628485E-002   4.9974083098184408E-002
  -5.2675620645502783E-003   1.6658856888056114E-002   4.8040150368634238E-002
  -5.8268342250187288E-003   2.1154929998924210E-002   4.5960313605355019E-002
  -5.3059993642721209E-002   3.6656355932368156E-002   8.0446396651417285E-002
  -5.0022480430793742E-002   2.8947332588670216E-002   7.4133665988423636E-002
  -4.6984967218866316E-002   2.3045580260642795E-002   6.9230571637877936E-002
  -4.3947454006938856E-002   1.8951098948285824E-002   6.5737113599780211E-002
  -4.0909940795011424E-002   1.6663888651599401E-002   6.3653291874130380E-002
  -6.5397369801306796E-002   3.0162251427508335E-002   5.6618542839696251E-002
  -6.1244464982397856E-002   2.5557065598156070E-002   5.4762478909609225E-002
  -5.7091560163488937E-002   2.1917845215076739E-002   5.3727561881037389E-002
  -5.2938655344579949E-002   1.9244590278270347E-002   5.3513791753980550E-002
  -4.8785750525671086E-002   1.7537300787736909E-002   5.4121168528438679E-002
  -7.4370452752490990E-002   2.3668146922648459E-002   3.6315179327019387E-002
  -6.9690645737533419E-002   2.2166798607641869E-002   3.8074476560441703E-002
  -6.5010838722575889E-002   2.0790110169510739E-002   4.0066431284446050E-002
  -6.0331031707618367E-002   1.9538081608254869E-002   4.2291043499032649E-002
  -5.5651224692660713E-002   1.8410712923874417E-002   4.4748313204201418E-002
  -7.9979242496273736E-002   1.7174042417788637E-002   1.9536306113387358E-002
  -7.5361022696200486E-002   1.8776531617127751E-002   2.4069658940921199E-002
  -7.0742802896127222E-002   1.9662375123944739E-002   2.8247179848104140E-002
  -6.6124583096053902E-002   1.9831572938239391E-002   3.2068868834936537E-002
  -6.1506363295980616E-002   1.9284125060011925E-002   3.5534725901418054E-002
  -8.2223739032655063E-002   1.0679937912928761E-002   6.2819231987997215E-003
  -7.8255595858398919E-002   1.5386264626613577E-002   1.2748026051047523E-002
  -7.4287452684142802E-002   1.8534640078378711E-002   1.8269807572011576E-002
  -7.0319309509886685E-002   2.0125064268223934E-002   2.2847267761692186E-002
  -6.6351166335630568E-002   2.0157537196149489E-002   2.6480406620089103E-002
  -4.0909940795011424E-002   1.6663888651599401E-002   6.3653291874130380E-002
  -3.9911515074695966E-002   1.5363872543389528E-002   6.0351655069072974E-002
  -3.8913089354380523E-002   1.4230973796462584E-002   5.7791018088047236E-002
  -3.7914663634065059E-002   1.3265192410818371E-002   5.5971380931053041E-002
  -3.6916237913749622E-002   1.2466528386457343E-002   5.4892743598090654E-002
  -4.8785750525671086E-002   1.7537300787736909E-002   5.4121168528438679E-002
  -4.7150075842158391E-002   1.6378181019969393E-002   5.1874862106487743E-002
  -4.5514401158645662E-002   1.5349435251461180E-002   5.0162053786899571E-002
  -4.3878726475132940E-002   1.4451063482212069E-002   4.8982743569674199E-002
  -4.2243051791620245E-002   1.3683065712222109E-002   4.8336931454811688E-002
  -5.5651224692660713E-002   1.8410712923874417E-002   4.4748313204201418E-002
  -5.3585802767619678E-002   1.7392489496549410E-002   4.3520593803333091E-002
  -5.1520380842578636E-002   1.6467896706459727E-002   4.2618870783158826E-002
  -4.9454958917537616E-002   1.5636934553605604E-002   4.2043144143678379E-002
  -4.7389536992496560E-002   1.4899603037986930E-002   4.1793413884891925E-002
  -6.1506363295980616E-002   1.9284125060011925E-002   3.5534725901418054E-002
  -5.9218695851080055E-002   1.8406797973129295E-002   3.5288850159608948E-002
  -5.6931028406179529E-002   1.7586358161458298E-002   3.5161469076824839E-002
  -5.4643360961278968E-002   1.6822805624999135E-002   3.5152582653065756E-002
  -5.2355693516378386E-002   1.6116140363751752E-002   3.5262190888331851E-002
  -6.6351166335630568E-002   2.0157537196149489E-002   2.6480406620089103E-002
  -6.4048755092539406E-002   1.9421106449709263E-002   2.7179631175315327E-002
  -6.1746343849448215E-002   1.8704819616456883E-002   2.7789848667897660E-002
  -5.9443932606357053E-002   1.8008676696392781E-002   2.8311059097836253E-002
  -5.7141521363265890E-002   1.7332677689516574E-002   2.8743262465130981E-002
  -3.6916237913749622E-002   1.2466528386457343E-002   5.4892743598090654E-002
  -3.5150715988318065E-002   1.1776534764713770E-002   5.3994992933899699E-002
  -3.3385194062886467E-002   1.1136764586922906E-002   5.3366482536824966E-002
  -3.1619672137454875E-002   1.0547217853084708E-002   5.3007212406866441E-002
  -2.9854150212023312E-002   1.0007894563199116E-002   5.2917182544024055E-002
  -4.2243051791620245E-002   1.3683065712222109E-002   4.8336931454811688E-002
  -4.0220732313772788E-002   1.2990196877843363E-002   4.7642120410872735E-002
  -3.8198412835925261E-002   1.2317211915428158E-002   4.7191664204649611E-002
  -3.6176093358077727E-002   1.1664110824976270E-002   4.6985562836142060E-002
  -3.4153773880230207E-002   1.1030893606487624E-002   4.7023816305350130E-002
  -4.7389536992496560E-002   1.4899603037986930E-002   4.1793413884891925E-002
  -4.5135305391633629E-002   1.4203858990972998E-002   4.1271202889215944E-002
  -4.2881073790770760E-002   1.3497659243933362E-002   4.0968461301855129E-002
  -4.0626842189907912E-002   1.2781003796867611E-002   4.0885189122809390E-002
  -3.8372610589045009E-002   1.2053892649776160E-002   4.1021386352078762E-002
  -5.2355693516378386E-002   1.6116140363751752E-002   3.5262190888331851E-002
  -4.9894435221900693E-002   1.5417521104102695E-002   3.4882240368929410E-002
  -4.7433176927422945E-002   1.4678106572438478E-002   3.4696873828441589E-002
  -4.4971918632945203E-002   1.3897896768759119E-002   3.4706091266868390E-002
  -4.2510660338467510E-002   1.3076891693064682E-002   3.4909892684209631E-002
  -5.7141521363265890E-002   1.7332677689516574E-002   2.8743262465130981E-002
  -5.4498121804573918E-002   1.6631183217232254E-002   2.8475232850012966E-002
  -5.1854722245881862E-002   1.5858553900943817E-002   2.8376901784408937E-002
  -4.9211322687189848E-002   1.5014789740650430E-002   2.8448269268318949E-002
  -4.6567923128497835E-002   1.4099890736353260E-002   2.8689335301743057E-002
  -2.9854150212023312E-002   1.0007894563199116E-002   5.2917182544024055E-002
  -2.8214069822042109E-002   9.4276305326596033E-003   5.2195301840889607E-002
  -2.6573989432060866E-002   8.7152615768595482E-003   5.1611411953968706E-002
  -2.4933909042079636E-002   7.8707876957991342E-003   5.1165512883261446E-002
  -2.3293828652098419E-002   6.8942088894780040E-003   5.0857604628768094E-002
  -3.4153773880230207E-002   1.1030893606487624E-002   4.7023816305350130E-002
  -3.2373159205117297E-002   1.0367229026577329E-002   4.6278824270492347E-002
  -3.0592544530004331E-002   9.6227858518608961E-003   4.5676909989684406E-002
  -2.8811929854891359E-002   8.7975640823376063E-003   4.5218073462926209E-002
  -2.7031315179778401E-002   7.8915637180078102E-003   4.4902314690217771E-002
  -3.8372610589045009E-002   1.2053892649776160E-002   4.1021386352078762E-002
  -3.6446374690964164E-002   1.1306827520495444E-002   4.0304609315951603E-002
  -3.4520138792883417E-002   1.0530310126862015E-002   3.9735996971710368E-002
  -3.2593902894802601E-002   9.7243404688762986E-003   3.9315549319355034E-002
  -3.0667666996721833E-002   8.8889185465376719E-003   3.9043266358885609E-002
  -4.2510660338467510E-002   1.3076891693064682E-002   3.4909892684209631E-002
  -4.0433716279582754E-002   1.2246426014413364E-002   3.4272656977267210E-002
  -3.8356772220698020E-002   1.1437834401863359E-002   3.3788672900046723E-002
  -3.6279828161813306E-002   1.0651116855414769E-002   3.3457940452548296E-002
  -3.4202884102928537E-002   9.8862733750674503E-003   3.3280459634771879E-002
  -4.6567923128497835E-002   1.4099890736353260E-002   2.8689335301743057E-002
  -4.4335183970973080E-002   1.3186024508331118E-002   2.8182967254439029E-002
  -4.2102444813448270E-002   1.2345358676864551E-002   2.7834937774693341E-002
  -3.9869705655923460E-002   1.1577893241953591E-002   2.7645246862505649E-002
  -3.7636966498398677E-002   1.0883628203597340E-002   2.7613894517876214E-002
  -2.3293828652098419E-002   6.8942088894780040E-003   5.0857604628768094E-002
  -2.1659193704321816E-002   5.9234044473029934E-003   4.9900940383073189E-002
  -2.0024558756545185E-002   5.0962536586804663E-003   4.9240381912831199E-002
  -1.8389923808768575E-002   4.4127565236104435E-003   4.8875929218041986E-002
  -1.6755288860991951E-002   3.8729130420926960E-003   4.8807582298705854E-002
  -2.7031315179778401E-002   7.8915637180078102E-003   4.4902314690217771E-002
  -2.5126738254579617E-002   6.9963630680428546E-003   4.4143637195773133E-002
  -2.3222161329380805E-002   6.2035404416137807E-003   4.3628737880719998E-002
  -2.1317584404182025E-002   5.5130958387210952E-003   4.3357616745058281E-002
  -1.9413007478983210E-002   4.9250292593641110E-003   4.3330273788788287E-002
  -3.0667666996721833E-002   8.8889185465376719E-003   3.9043266358885609E-002
  -2.8545475690162171E-002   8.0693216887827712E-003   3.8441299985674832E-002
  -2.6423284383602526E-002   7.3108272245474420E-003   3.8030784195794157E-002
  -2.4301093077042923E-002   6.6134351538318058E-003   3.7811718989243785E-002
  -2.2178901770483282E-002   5.9771454766357479E-003   3.7784104366023363E-002
  -3.4202884102928537E-002   9.8862733750674503E-003   3.3280459634771879E-002
  -3.1915406011069403E-002   9.1422803095225491E-003   3.2793928752778402E-002
  -2.9627927919210283E-002   8.4181140074809854E-003   3.2446520858053787E-002
  -2.7340449827351180E-002   7.7137744689425979E-003   3.2238235950598056E-002
  -2.5052971735492029E-002   7.0292616939072183E-003   3.2169074030411041E-002
  -3.7636966498398677E-002   1.0883628203597340E-002   2.7613894517876214E-002
  -3.5236529217301443E-002   1.0215238930262605E-002   2.7201523497083824E-002
  -3.2836091936204140E-002   9.5254007904144178E-003   2.6875947867498973E-002
  -3.0435654655106899E-002   8.8141137840532235E-003   2.6637167629121300E-002
  -2.8035217374009602E-002   8.0813779111787998E-003   2.6485182781951444E-002
  -1.6755288860991951E-002   3.8729130420926960E-003   4.8807582298705854E-002
  -1.4869349356387423E-002   3.4450565725325788E-003   4.8651527852452969E-002
  -1.2983409851782896E-002   3.0975204733348360E-003   4.8766993708061868E-002
  -1.1097470347178374E-002   2.8303047444996482E-003   4.9153979865533048E-002
  -9.2115308425738396E-003   2.6434093860270291E-003   4.9812486324866123E-002
  -1.9413007478983210E-002   4.9250292593641110E-003   4.3330273788788287E-002
  -1.7294176343606540E-002   4.4130921030782755E-003   4.3092515594420899E-002
  -1.5175345208229822E-002   3.9510357693987586E-003   4.3049020359735957E-002
  -1.3056514072853159E-002   3.5388602583254353E-003   4.3199788084733126E-002
  -1.0937682937476434E-002   3.1765655698581252E-003   4.3544818769412741E-002
  -2.2178901770483282E-002   5.9771454766357479E-003   3.7784104366023363E-002
  -1.9904436346514162E-002   5.3811276336244163E-003   3.7434202875785305E-002
  -1.7629970922545066E-002   4.8045510654629864E-003   3.7201307003049855E-002
  -1.5355505498575979E-002   4.2474157721512154E-003   3.7085416747816888E-002
  -1.3081040074606913E-002   3.7097217536892213E-003   3.7086532110086501E-002
  -2.5052971735492029E-002   7.0292616939072183E-003   3.2169074030411041E-002
  -2.2700129365110330E-002   6.3491631641704460E-003   3.1676589696545868E-002
  -2.0347286994728625E-002   5.6580663615271171E-003   3.1223853638003680E-002
  -1.7994444624346944E-002   4.9559712859769990E-003   3.0810865854783907E-002
  -1.5641602253965225E-002   4.2428779375201509E-003   3.0437626346886987E-002
  -2.8035217374009602E-002   8.0813779111787998E-003   2.6485182781951444E-002
  -2.5681255399395059E-002   7.3171986947161982E-003   2.5819676056702989E-002
  -2.3327293424780515E-002   6.5115816575911922E-003   2.5116660264597301E-002
  -2.0973331450165944E-002   5.6645267998026300E-003   2.4376135405634630E-002
  -1.8619369475551428E-002   4.7760341213513025E-003   2.3598101479815004E-002
  -9.2115308425738396E-003   2.6434093860270291E-003   4.9812486324866123E-002
  -7.8060845277165697E-003   2.8020246043130026E-003   5.0216856318879732E-002
  -6.4006382128592859E-003   3.5713406057529262E-003   5.0950271338755571E-002
  -4.9951918980020160E-003   4.9513573903474661E-003   5.2012731384494026E-002
  -3.5897455831447322E-003   6.9420749580959562E-003   5.3404236456094933E-002
  -1.0937682937476434E-002   3.1765655698581252E-003   4.3544818769412741E-002
  -9.1851066384669028E-003   3.1153968933200216E-003   4.4131604671690972E-002
  -7.4325303394574965E-003   3.6065994180329852E-003   4.5083605516410830E-002
  -5.6799540404479966E-003   4.6501731439981264E-003   4.6400821303572870E-002
  -3.9273777414385591E-003   6.2461180712147790E-003   4.8083252033176316E-002
  -1.3081040074606913E-002   3.7097217536892213E-003   3.7086532110086501E-002
  -1.0945163874865837E-002   3.4287691823268185E-003   3.7797404338726720E-002
  -8.8092876751249098E-003   3.6418582303132663E-003   3.8909661426388326E-002
  -6.6734114753839238E-003   4.3489888976492308E-003   4.0423303373071026E-002
  -4.5375352756429621E-003   5.5501611843339349E-003   4.2338330178774863E-002
  -1.5641602253965225E-002   4.2428779375201509E-003   3.0437626346886987E-002
  -1.3086256236913386E-002   3.7421414713337264E-003   3.1214255319987214E-002
  -1.0530910219861600E-002   3.6771170425934918E-003   3.2428439068687656E-002
  -7.9755642028097873E-003   4.0478046513003352E-003   3.4080177592988634E-002
  -5.4202181857580314E-003   4.8542042974528132E-003   3.6169470892890049E-002
  -1.8619369475551428E-002   4.7760341213513025E-003   2.3598101479815004E-002
  -1.5608383724609459E-002   4.0555137603406899E-003   2.4382157615472244E-002
  -1.2597397973667518E-002   3.7123758548738839E-003   2.5639938443309140E-002
  -9.5864122227256043E-003   3.7466204049511759E-003   2.7371443963325803E-002
  -6.5754264717836075E-003   4.1582474105720246E-003   2.9576674175522233E-002
  -3.5897455831447322E-003   6.9420749580959562E-003   5.3404236456094933E-002
  -4.1490177436132314E-003   9.5524293676420013E-003   5.1762111794004473E-002
  -4.7082899040817305E-003   1.2791356677628485E-002   4.9974083098184408E-002
  -5.2675620645502783E-003   1.6658856888056114E-002   4.8040150368634238E-002
  -5.8268342250187288E-003   2.1154929998924210E-002   4.5960313605355019E-002
  -3.9273777414385591E-003   6.2461180712147790E-003   4.8083252033176316E-002
  -4.5282974569474249E-003   8.7000104670136302E-003   4.7168906792041332E-002
  -5.1292171724563601E-003   1.2317426598725312E-002   4.6317170474555136E-002
  -5.7301368879653196E-003   1.7098366466349532E-002   4.5528043080717590E-002
  -6.3310566034742166E-003   2.3042830069885945E-002   4.4801524610529553E-002
  -4.5375352756429621E-003   5.5501611843339349E-003   4.2338330178774863E-002
  -4.9715895888137115E-003   7.8475915663855367E-003   4.2686715194066777E-002
  -5.4056439019844610E-003   1.1843496519821833E-002   4.3306222090386287E-002
  -5.8396982151552018E-003   1.7537876044642513E-002   4.4196850867732992E-002
  -6.2737525283259599E-003   2.4930730140847679E-002   4.5358601526107378E-002
  -5.4202181857580314E-003   4.8542042974528132E-003   3.6169470892890049E-002
  -5.4788941392119837E-003   6.9951726657575264E-003   3.8315537000081321E-002
  -5.5375700926660219E-003   1.1369566440918619E-002   4.0941237945678270E-002
  -5.5962460461200340E-003   1.7977385622935823E-002   4.4046573729681279E-002
  -5.6549219995740696E-003   2.6818630211809413E-002   4.7631544352090938E-002
  -6.5754264717836075E-003   4.1582474105720246E-003   2.9576674175522233E-002
  -6.0502111081423560E-003   6.1427537651291830E-003   3.4055372210084367E-002
  -5.5249957445010489E-003   1.0895636362014877E-002   3.9222218040431078E-002
  -4.9997803808597141E-003   1.8416895201229001E-002   4.5077211666561950E-002
  -4.4745650172184348E-003   2.8706530282771148E-002   5.1620353088478232E-002
  -8.2223739032655063E-002   1.0679937912928761E-002   6.2819231987997215E-003
  -7.8255595858398919E-002   1.5386264626613577E-002   1.2748026051047523E-002
  -7.4287452684142802E-002   1.8534640078378711E-002   1.8269807572011576E-002
  -7.0319309509886685E-002   2.0125064268223934E-002   2.2847267761692186E-002
  -6.6351166335630568E-002   2.0157537196149489E-002   2.6480406620089103E-002
  -8.4027994980659465E-002   1.7540804004006816E-002   1.0782774200298439E-002
  -8.0739463912581078E-002   1.9870583264646746E-002   1.3812514300104994E-002
  -7.7450932844502676E-002   2.1323793893407050E-002   1.6427351518839478E-002
  -7.4162401776424247E-002   2.1900435890287853E-002   1.8627285856502182E-002
  -7.0873870708345860E-002   2.1600509255289058E-002   2.0412317313093037E-002
  -8.8316062959311326E-002   2.4401670095084871E-002   1.2566386433732313E-002
  -8.5177725547198879E-002   2.4354901902679832E-002   1.2841146411137566E-002
  -8.2039388135086530E-002   2.4112947708435375E-002   1.3230421957682800E-002
  -7.8901050722974153E-002   2.3675807512351609E-002   1.3734213073367869E-002
  -7.5762713310861721E-002   2.3043481314428543E-002   1.4352519758192725E-002
  -9.5087942968610464E-002   3.1262536186162898E-002   1.1632759899100745E-002
  -9.1570380762252490E-002   2.8839220540712820E-002   9.8339223841454881E-003
  -8.8052818555894405E-002   2.6902101523463708E-002   8.6790188885413379E-003
  -8.4535256349536320E-002   2.5451179134415393E-002   8.1680494122890936E-003
  -8.1017694143178304E-002   2.4486453373568043E-002   8.3010139553883651E-003
 -0.10434363500855737        3.8123402277240981E-002   7.9818945964043042E-003
  -9.9917429557741855E-002   3.3323539178746087E-002   4.7908422191282329E-003
  -9.5491224106926342E-002   2.9691255338491984E-002   2.7731423114155662E-003
  -9.1065018656110830E-002   2.7226550756479270E-002   1.9287948732660543E-003
  -8.6638813205295317E-002   2.5929425432707598E-002   2.2577999046798358E-003
  -6.6351166335630568E-002   2.0157537196149489E-002   2.6480406620089103E-002
  -6.4048755092539406E-002   1.9421106449709263E-002   2.7179631175315327E-002
  -6.1746343849448215E-002   1.8704819616456883E-002   2.7789848667897660E-002
  -5.9443932606357053E-002   1.8008676696392781E-002   2.8311059097836253E-002
  -5.7141521363265890E-002   1.7332677689516574E-002   2.8743262465130981E-002
  -7.0873870708345860E-002   2.1600509255289058E-002   2.0412317313093037E-002
  -6.8616248909662822E-002   2.0859164958582047E-002   2.0796559867579847E-002
  -6.6358627110979812E-002   2.0111553970337884E-002   2.1180230595894314E-002
  -6.4101005312296733E-002   1.9357676290556947E-002   2.1563329498036084E-002
  -6.1843383513613709E-002   1.8597531919238852E-002   2.1945856574005579E-002
  -7.5762713310861721E-002   2.3043481314428543E-002   1.4352519758192725E-002
  -7.3461445720115537E-002   2.2297223467454816E-002   1.4395369707215278E-002
  -7.1160178129369270E-002   2.1518288324218933E-002   1.4526083066536542E-002
  -6.8858910538623086E-002   2.0706675884721221E-002   1.4744659836156849E-002
  -6.6557642947876805E-002   1.9862386148961214E-002   1.5051100016075833E-002
  -8.1017694143178304E-002   2.4486453373568043E-002   8.3010139553883651E-003
  -7.8584345523897439E-002   2.3735281976327564E-002   7.9760606942213923E-003
  -7.6150996904616602E-002   2.2925022678099986E-002   7.8274060798243731E-003
  -7.3717648285335807E-002   2.2055675478885164E-002   7.8550501121978436E-003
  -7.1284299666054929E-002   2.1127240378683368E-002   8.0589927913416320E-003
  -8.6638813205295317E-002   2.5929425432707598E-002   2.2577999046798358E-003
  -8.3984948321008557E-002   2.5173340485200479E-002   1.5386328285981743E-003
  -8.1331083436721796E-002   2.4331757031981038E-002   1.0841996357580236E-003
  -7.8677218552435035E-002   2.3404675073049677E-002   8.9450032615948430E-004
  -7.6023353668148275E-002   2.2392094608405744E-002   9.6953489980289298E-004
  -5.7141521363265890E-002   1.7332677689516574E-002   2.8743262465130981E-002
  -5.4498121804573918E-002   1.6631183217232254E-002   2.8475232850012966E-002
  -5.1854722245881862E-002   1.5858553900943817E-002   2.8376901784408937E-002
  -4.9211322687189848E-002   1.5014789740650430E-002   2.8448269268318949E-002
  -4.6567923128497835E-002   1.4099890736353260E-002   2.8689335301743057E-002
  -6.1843383513613709E-002   1.8597531919238852E-002   2.1945856574005579E-002
  -5.9023745659899859E-002   1.7817490409776010E-002   2.1619638206101938E-002
  -5.6204107806186024E-002   1.7003921315560805E-002   2.1476197878727801E-002
  -5.3384469952472202E-002   1.6156824636593035E-002   2.1515535591883524E-002
  -5.0564832098758339E-002   1.5276200372872695E-002   2.1737651345568876E-002
  -6.6557642947876805E-002   1.9862386148961214E-002   1.5051100016075833E-002
  -6.3548687308125310E-002   1.9003797602319697E-002   1.4704300154638167E-002
  -6.0539731668373932E-002   1.8149288730177793E-002   1.4553357824746059E-002
  -5.7530776028622443E-002   1.7298859532535252E-002   1.4598273026399398E-002
  -5.4521820388871059E-002   1.6452510009392102E-002   1.4839045759597949E-002
  -7.1284299666054929E-002   2.1127240378683368E-002   8.0589927913416320E-003
  -6.8072946749250199E-002   2.0190104794863530E-002   7.7292186956218895E-003
  -6.4861593832445510E-002   1.9294656144794947E-002   7.6083816224634636E-003
  -6.1650240915640801E-002   1.8440894428477718E-002   7.6964815718659554E-003
  -5.8438887998836106E-002   1.7628819645911412E-002   7.9935185438297883E-003
  -7.6023353668148275E-002   2.2392094608405744E-002   9.6953489980289298E-004
  -7.2596523983274541E-002   2.1376411987407362E-002   6.9439382905311930E-004
  -6.9169694298400863E-002   2.0440023559411769E-002   6.4126927188029592E-004
  -6.5742864613527185E-002   1.9582929324420073E-002   8.1016122828415915E-004
  -6.2316034928653452E-002   1.8805129282430944E-002   1.2010696982648339E-003
  -4.6567923128497835E-002   1.4099890736353260E-002   2.8689335301743057E-002
  -4.4335183970973080E-002   1.3186024508331118E-002   2.8182967254439029E-002
  -4.2102444813448270E-002   1.2345358676864551E-002   2.7834937774693341E-002
  -3.9869705655923460E-002   1.1577893241953591E-002   2.7645246862505649E-002
  -3.7636966498398677E-002   1.0883628203597340E-002   2.7613894517876214E-002
  -5.0564832098758339E-002   1.5276200372872695E-002   2.1737651345568876E-002
  -4.8177198733756449E-002   1.4400882262012582E-002   2.1326429761845789E-002
  -4.5789565368754614E-002   1.3569704041625552E-002   2.1066658025518686E-002
  -4.3401932003752745E-002   1.2782665711711341E-002   2.0958336136587499E-002
  -4.1014298638750890E-002   1.2039767272270518E-002   2.1001464095052269E-002
  -5.4521820388871059E-002   1.6452510009392102E-002   1.4839045759597949E-002
  -5.1986181536554224E-002   1.5615740015693685E-002   1.4493910133373353E-002
  -4.9450542684237549E-002   1.4794049406386435E-002   1.4293335634382377E-002
  -4.6914903831920818E-002   1.3987438181469478E-002   1.4237322262625491E-002
  -4.4379264979604101E-002   1.3195906340943364E-002   1.4325870018102205E-002
  -5.8438887998836106E-002   1.7628819645911412E-002   7.9935185438297883E-003
  -5.5762132379366586E-002   1.6830597769375302E-002   7.6854083690212557E-003
  -5.3085376759897093E-002   1.6018394771146933E-002   7.5149706012843844E-003
  -5.0408621140427573E-002   1.5192210651227809E-002   7.4822052406194372E-003
  -4.7731865520958081E-002   1.4352045409616598E-002   7.5871122870257227E-003
  -6.2316034928653452E-002   1.8805129282430944E-002   1.2010696982648339E-003
  -5.9505051262193298E-002   1.8045455523056031E-002   9.0092446879025401E-004
  -5.6694067595733255E-002   1.7242740135908041E-002   7.3156292622478247E-004
  -5.3883083929273157E-002   1.6396983120985684E-002   6.9298507056941849E-004
  -5.1072100262813058E-002   1.5508184478289611E-002   7.8519090182305185E-004
  -3.7636966498398677E-002   1.0883628203597340E-002   2.7613894517876214E-002
  -3.5236529217301443E-002   1.0215238930262605E-002   2.7201523497083824E-002
  -3.2836091936204140E-002   9.5254007904144178E-003   2.6875947867498973E-002
  -3.0435654655106899E-002   8.8141137840532235E-003   2.6637167629121300E-002
  -2.8035217374009602E-002   8.0813779111787998E-003   2.6485182781951444E-002
  -4.1014298638750890E-002   1.2039767272270518E-002   2.1001464095052269E-002
  -3.8523477759168631E-002   1.1312070638884342E-002   2.0587454508599001E-002
  -3.6032656879586247E-002   1.0570637727136567E-002   2.0267416727908050E-002
  -3.3541836000003968E-002   9.8154685370261258E-003   2.0041350752979900E-002
  -3.1051015120421660E-002   9.0465630685534482E-003   1.9909256583814428E-002
  -4.4379264979604101E-002   1.3195906340943364E-002   1.4325870018102205E-002
  -4.1790884086981540E-002   1.2408902347506606E-002   1.3917934454138414E-002
  -3.9202503194358973E-002   1.1615874663858827E-002   1.3611147110492466E-002
  -3.6614122301736426E-002   1.0816823289998917E-002   1.3405507987164521E-002
  -3.4025741409113908E-002   1.0011748225927652E-002   1.3301017084154099E-002
  -4.7731865520958081E-002   1.4352045409616598E-002   7.5871122870257227E-003
  -4.5038748200740178E-002   1.3505734056129218E-002   7.1929633337024651E-003
  -4.2345630880522261E-002   1.2661111600580921E-002   6.9071390152525974E-003
  -3.9652513560304282E-002   1.1818178042972152E-002   6.7296393316752696E-003
  -3.6959396240086442E-002   1.0976933383302079E-002   6.6604642829709015E-003
  -5.1072100262813058E-002   1.5508184478289611E-002   7.8519090182305185E-004
  -4.8267070100444509E-002   1.4602565764750830E-002   4.1254114729166735E-004
  -4.5462039938076071E-002   1.3706348537303070E-002   1.5539244218773507E-004
  -4.2657009775707605E-002   1.2819532795944735E-002   1.3744786512275009E-005
  -3.9851979613339084E-002   1.1942118540676727E-002  -1.2401819735163855E-005
  -2.8035217374009602E-002   8.0813779111787998E-003   2.6485182781951444E-002
  -2.5681255399395059E-002   7.3171986947161982E-003   2.5819676056702989E-002
  -2.3327293424780515E-002   6.5115816575911922E-003   2.5116660264597301E-002
  -2.0973331450165944E-002   5.6645267998026300E-003   2.4376135405634630E-002
  -1.8619369475551428E-002   4.7760341213513025E-003   2.3598101479815004E-002
  -3.1051015120421660E-002   9.0465630685534482E-003   1.9909256583814428E-002
  -2.8722099302594839E-002   8.2735420763546119E-003   1.9279317931478634E-002
  -2.6393183484768046E-002   7.5060263150658058E-003   1.8636796032424296E-002
  -2.4064267666941246E-002   6.7440157846874182E-003   1.7981690886651511E-002
  -2.1735351849114376E-002   5.9875104852191718E-003   1.7314002494160485E-002
  -3.4025741409113908E-002   1.0011748225927652E-002   1.3301017084154099E-002
  -3.1696945927936176E-002   9.2298854579928313E-003   1.2753589556304290E-002
  -2.9368150446758542E-002   8.5004709725408356E-003   1.2218504601874361E-002
  -2.7039354965580881E-002   7.8235047695721996E-003   1.1695762220864991E-002
  -2.4710559484403233E-002   7.1989868490868747E-003   1.1185362413275474E-002
  -3.6959396240086442E-002   1.0976933383302079E-002   6.6604642829709015E-003
  -3.4605795275419231E-002   1.0186228839630593E-002   6.2424909311802612E-003
  -3.2252194310752019E-002   9.4949156300153242E-003   5.8617859729479735E-003
  -2.9898593346084773E-002   8.9029937544563183E-003   5.5183494082746594E-003
  -2.7544992381417589E-002   8.4104632129548829E-003   5.2121812371602808E-003
  -3.9851979613339084E-002   1.1942118540676727E-002  -1.2401819735163855E-005
  -3.7448647345043717E-002   1.1142572221269242E-002  -2.5397794389353523E-004
  -3.5045315076748462E-002   1.0489360287490312E-002  -4.3335985435502544E-004
  -3.2641982808453152E-002   9.9824827393418941E-003  -5.5054755111891979E-004
  -3.0238650540157841E-002   9.6219395768226690E-003  -6.0554103418519745E-004
  -1.8619369475551428E-002   4.7760341213513025E-003   2.3598101479815004E-002
  -1.5608383724609459E-002   4.0555137603406899E-003   2.4382157615472244E-002
  -1.2597397973667518E-002   3.7123758548738839E-003   2.5639938443309140E-002
  -9.5864122227256043E-003   3.7466204049511759E-003   2.7371443963325803E-002
  -6.5754264717836075E-003   4.1582474105720246E-003   2.9576674175522233E-002
  -2.1735351849114376E-002   5.9875104852191718E-003   1.7314002494160485E-002
  -1.8518722750371100E-002   5.3254381752765867E-003   1.8251123625555921E-002
  -1.5302093651627907E-002   4.8467266134749609E-003   1.9125806760374037E-002
  -1.2085464552884645E-002   4.5513757998148774E-003   1.9938051898615208E-002
  -8.8688354541414383E-003   4.4393857342953646E-003   2.0687859040279033E-002
  -2.4710559484403233E-002   7.1989868490868747E-003   1.1185362413275474E-002
  -2.1824449726615555E-002   6.5953625902124557E-003   1.2081526833006340E-002
  -1.8938339968828002E-002   5.9810773720764543E-003   1.2379090567403134E-002
  -1.6052230211040380E-002   5.3561311946782389E-003   1.2078053616465648E-002
  -1.3166120453252772E-002   4.7205240580182051E-003   1.1178415980194339E-002
  -2.7544992381417589E-002   8.4104632129548829E-003   5.2121812371602808E-003
  -2.5525564653342738E-002   7.8652870051490048E-003   5.8733672378234597E-003
  -2.3506136925267797E-002   7.1154281306775174E-003   5.3997898643957862E-003
  -2.1486709197192838E-002   6.1608865895418814E-003   3.7914491168770346E-003
  -1.9467281469118011E-002   5.0016623817419614E-003   1.0483449952669102E-003
  -3.0238650540157841E-002   9.6219395768226690E-003  -6.0554103418519745E-004
  -2.9622067530552521E-002   9.1352114200842216E-003  -3.7335515999209479E-004
  -2.9005484520947256E-002   8.2497788892790802E-003  -1.8120953486473190E-003
  -2.8388901511341963E-002   6.9656419844056489E-003  -4.9217616001505579E-003
  -2.7772318501736670E-002   5.2828007054646076E-003  -9.7023539145019155E-003
  -6.5754264717836075E-003   4.1582474105720246E-003   2.9576674175522233E-002
  -6.0502111081423560E-003   6.1427537651291830E-003   3.4055372210084367E-002
  -5.5249957445010489E-003   1.0895636362014877E-002   3.9222218040431078E-002
  -4.9997803808597141E-003   1.8416895201229001E-002   4.5077211666561950E-002
  -4.4745650172184348E-003   2.8706530282771148E-002   5.1620353088478232E-002
  -8.8688354541414383E-003   4.4393857342953646E-003   2.0687859040279033E-002
  -7.5838796747862980E-003   5.6597224232167176E-003   2.5859108179550838E-002
  -6.2989238954311993E-003   9.3613518728770662E-003   3.1861690354465511E-002
  -5.0139681160760383E-003   1.5544274083277701E-002   3.8695605565023161E-002
  -3.7290123367210715E-003   2.4208489054417637E-002   4.6360853811224345E-002
  -1.3166120453252772E-002   4.7205240580182051E-003   1.1178415980194339E-002
  -1.0978239018325411E-002   5.1766910813036415E-003   1.6755132742586554E-002
  -8.7903575833981062E-003   7.8270673837395749E-003   2.3306367780480633E-002
  -6.6024761484705860E-003   1.2671652965326397E-002   3.0832121093876085E-002
  -4.4145947135434405E-003   1.9710447826064126E-002   3.9332392682772999E-002
  -1.9467281469118011E-002   5.0016623817419614E-003   1.0483449952669102E-003
  -1.6233289138759883E-002   4.6936597393905377E-003   6.7434458991919161E-003
  -1.2999296808401666E-002   6.2927828946015910E-003   1.3556250318476886E-002
  -9.7653044780436089E-003   9.7990318473743180E-003   2.1486758253121088E-002
  -6.5313121476853198E-003   1.5212406597710837E-002   3.0534969703126247E-002
  -2.7772318501736670E-002   5.2828007054646076E-003  -9.7023539145019155E-003
  -2.3349030036089458E-002   4.2106283974776559E-003  -4.1759523506334495E-003
  -1.8925741570442134E-002   4.7584984054638846E-003   2.6113379684534477E-003
  -1.4502453104794810E-002   6.9264107294236960E-003   1.0659517042758936E-002
  -1.0079164639147598E-002   1.0714365369357104E-002   1.9968584872282147E-002
 </DataArray>
 </PointData>
 </Piece>
 </UnstructuredGrid>
 </VTKFile>
