 <VTKFile type="UnstructuredGrid"  version="0.1"   >
 <UnstructuredGrid>
 <Piece  NumberOfPoints="          1600 "  NumberOfCells="         1024 ">
 <Points>
 <DataArray  type="Float64" NumberOfComponents="3"  format="ascii" >
   0.0000000000000000        0.0000000000000000        0.0000000000000000     
   3.1250000000000000E-002   0.0000000000000000        0.0000000000000000     
   6.2500000000000000E-002   0.0000000000000000        0.0000000000000000     
   9.3750000000000000E-002   0.0000000000000000        0.0000000000000000     
  0.12500000000000000        0.0000000000000000        0.0000000000000000     
   0.0000000000000000        3.1250000000000000E-002   0.0000000000000000     
   3.1250000000000000E-002   3.1250000000000000E-002   0.0000000000000000     
   6.2500000000000000E-002   3.1250000000000000E-002   0.0000000000000000     
   9.3750000000000000E-002   3.1250000000000000E-002   0.0000000000000000     
  0.12500000000000000        3.1250000000000000E-002   0.0000000000000000     
   0.0000000000000000        6.2500000000000000E-002   0.0000000000000000     
   3.1250000000000000E-002   6.2500000000000000E-002   0.0000000000000000     
   6.2500000000000000E-002   6.2500000000000000E-002   0.0000000000000000     
   9.3750000000000000E-002   6.2500000000000000E-002   0.0000000000000000     
  0.12500000000000000        6.2500000000000000E-002   0.0000000000000000     
   0.0000000000000000        9.3750000000000000E-002   0.0000000000000000     
   3.1250000000000000E-002   9.3750000000000000E-002   0.0000000000000000     
   6.2500000000000000E-002   9.3750000000000000E-002   0.0000000000000000     
   9.3750000000000000E-002   9.3750000000000000E-002   0.0000000000000000     
  0.12500000000000000        9.3750000000000000E-002   0.0000000000000000     
   0.0000000000000000       0.12500000000000000        0.0000000000000000     
   3.1250000000000000E-002  0.12500000000000000        0.0000000000000000     
   6.2500000000000000E-002  0.12500000000000000        0.0000000000000000     
   9.3750000000000000E-002  0.12500000000000000        0.0000000000000000     
  0.12500000000000000       0.12500000000000000        0.0000000000000000     
  0.12500000000000000        0.0000000000000000        0.0000000000000000     
  0.15625000000000000        0.0000000000000000        0.0000000000000000     
  0.18750000000000000        0.0000000000000000        0.0000000000000000     
  0.21875000000000000        0.0000000000000000        0.0000000000000000     
  0.25000000000000000        0.0000000000000000        0.0000000000000000     
  0.12500000000000000        3.1250000000000000E-002   0.0000000000000000     
  0.15625000000000000        3.1250000000000000E-002   0.0000000000000000     
  0.18750000000000000        3.1250000000000000E-002   0.0000000000000000     
  0.21875000000000000        3.1250000000000000E-002   0.0000000000000000     
  0.25000000000000000        3.1250000000000000E-002   0.0000000000000000     
  0.12500000000000000        6.2500000000000000E-002   0.0000000000000000     
  0.15625000000000000        6.2500000000000000E-002   0.0000000000000000     
  0.18750000000000000        6.2500000000000000E-002   0.0000000000000000     
  0.21875000000000000        6.2500000000000000E-002   0.0000000000000000     
  0.25000000000000000        6.2500000000000000E-002   0.0000000000000000     
  0.12500000000000000        9.3750000000000000E-002   0.0000000000000000     
  0.15625000000000000        9.3750000000000000E-002   0.0000000000000000     
  0.18750000000000000        9.3750000000000000E-002   0.0000000000000000     
  0.21875000000000000        9.3750000000000000E-002   0.0000000000000000     
  0.25000000000000000        9.3750000000000000E-002   0.0000000000000000     
  0.12500000000000000       0.12500000000000000        0.0000000000000000     
  0.15625000000000000       0.12500000000000000        0.0000000000000000     
  0.18750000000000000       0.12500000000000000        0.0000000000000000     
  0.21875000000000000       0.12500000000000000        0.0000000000000000     
  0.25000000000000000       0.12500000000000000        0.0000000000000000     
  0.25000000000000000        0.0000000000000000        0.0000000000000000     
  0.28125000000000000        0.0000000000000000        0.0000000000000000     
  0.31250000000000000        0.0000000000000000        0.0000000000000000     
  0.34375000000000000        0.0000000000000000        0.0000000000000000     
  0.37500000000000000        0.0000000000000000        0.0000000000000000     
  0.25000000000000000        3.1250000000000000E-002   0.0000000000000000     
  0.28125000000000000        3.1250000000000000E-002   0.0000000000000000     
  0.31250000000000000        3.1250000000000000E-002   0.0000000000000000     
  0.34375000000000000        3.1250000000000000E-002   0.0000000000000000     
  0.37500000000000000        3.1250000000000000E-002   0.0000000000000000     
  0.25000000000000000        6.2500000000000000E-002   0.0000000000000000     
  0.28125000000000000        6.2500000000000000E-002   0.0000000000000000     
  0.31250000000000000        6.2500000000000000E-002   0.0000000000000000     
  0.34375000000000000        6.2500000000000000E-002   0.0000000000000000     
  0.37500000000000000        6.2500000000000000E-002   0.0000000000000000     
  0.25000000000000000        9.3750000000000000E-002   0.0000000000000000     
  0.28125000000000000        9.3750000000000000E-002   0.0000000000000000     
  0.31250000000000000        9.3750000000000000E-002   0.0000000000000000     
  0.34375000000000000        9.3750000000000000E-002   0.0000000000000000     
  0.37500000000000000        9.3750000000000000E-002   0.0000000000000000     
  0.25000000000000000       0.12500000000000000        0.0000000000000000     
  0.28125000000000000       0.12500000000000000        0.0000000000000000     
  0.31250000000000000       0.12500000000000000        0.0000000000000000     
  0.34375000000000000       0.12500000000000000        0.0000000000000000     
  0.37500000000000000       0.12500000000000000        0.0000000000000000     
  0.37500000000000000        0.0000000000000000        0.0000000000000000     
  0.40625000000000000        0.0000000000000000        0.0000000000000000     
  0.43750000000000000        0.0000000000000000        0.0000000000000000     
  0.46875000000000000        0.0000000000000000        0.0000000000000000     
  0.50000000000000000        0.0000000000000000        0.0000000000000000     
  0.37500000000000000        3.1250000000000000E-002   0.0000000000000000     
  0.40625000000000000        3.1250000000000000E-002   0.0000000000000000     
  0.43750000000000000        3.1250000000000000E-002   0.0000000000000000     
  0.46875000000000000        3.1250000000000000E-002   0.0000000000000000     
  0.50000000000000000        3.1250000000000000E-002   0.0000000000000000     
  0.37500000000000000        6.2500000000000000E-002   0.0000000000000000     
  0.40625000000000000        6.2500000000000000E-002   0.0000000000000000     
  0.43750000000000000        6.2500000000000000E-002   0.0000000000000000     
  0.46875000000000000        6.2500000000000000E-002   0.0000000000000000     
  0.50000000000000000        6.2500000000000000E-002   0.0000000000000000     
  0.37500000000000000        9.3750000000000000E-002   0.0000000000000000     
  0.40625000000000000        9.3750000000000000E-002   0.0000000000000000     
  0.43750000000000000        9.3750000000000000E-002   0.0000000000000000     
  0.46875000000000000        9.3750000000000000E-002   0.0000000000000000     
  0.50000000000000000        9.3750000000000000E-002   0.0000000000000000     
  0.37500000000000000       0.12500000000000000        0.0000000000000000     
  0.40625000000000000       0.12500000000000000        0.0000000000000000     
  0.43750000000000000       0.12500000000000000        0.0000000000000000     
  0.46875000000000000       0.12500000000000000        0.0000000000000000     
  0.50000000000000000       0.12500000000000000        0.0000000000000000     
  0.50000000000000000        0.0000000000000000        0.0000000000000000     
  0.53125000000000000        0.0000000000000000        0.0000000000000000     
  0.56250000000000000        0.0000000000000000        0.0000000000000000     
  0.59375000000000000        0.0000000000000000        0.0000000000000000     
  0.62500000000000000        0.0000000000000000        0.0000000000000000     
  0.50000000000000000        3.1250000000000000E-002   0.0000000000000000     
  0.53125000000000000        3.1250000000000000E-002   0.0000000000000000     
  0.56250000000000000        3.1250000000000000E-002   0.0000000000000000     
  0.59375000000000000        3.1250000000000000E-002   0.0000000000000000     
  0.62500000000000000        3.1250000000000000E-002   0.0000000000000000     
  0.50000000000000000        6.2500000000000000E-002   0.0000000000000000     
  0.53125000000000000        6.2500000000000000E-002   0.0000000000000000     
  0.56250000000000000        6.2500000000000000E-002   0.0000000000000000     
  0.59375000000000000        6.2500000000000000E-002   0.0000000000000000     
  0.62500000000000000        6.2500000000000000E-002   0.0000000000000000     
  0.50000000000000000        9.3750000000000000E-002   0.0000000000000000     
  0.53125000000000000        9.3750000000000000E-002   0.0000000000000000     
  0.56250000000000000        9.3750000000000000E-002   0.0000000000000000     
  0.59375000000000000        9.3750000000000000E-002   0.0000000000000000     
  0.62500000000000000        9.3750000000000000E-002   0.0000000000000000     
  0.50000000000000000       0.12500000000000000        0.0000000000000000     
  0.53125000000000000       0.12500000000000000        0.0000000000000000     
  0.56250000000000000       0.12500000000000000        0.0000000000000000     
  0.59375000000000000       0.12500000000000000        0.0000000000000000     
  0.62500000000000000       0.12500000000000000        0.0000000000000000     
  0.62500000000000000        0.0000000000000000        0.0000000000000000     
  0.65625000000000000        0.0000000000000000        0.0000000000000000     
  0.68750000000000000        0.0000000000000000        0.0000000000000000     
  0.71875000000000000        0.0000000000000000        0.0000000000000000     
  0.75000000000000000        0.0000000000000000        0.0000000000000000     
  0.62500000000000000        3.1250000000000000E-002   0.0000000000000000     
  0.65625000000000000        3.1250000000000000E-002   0.0000000000000000     
  0.68750000000000000        3.1250000000000000E-002   0.0000000000000000     
  0.71875000000000000        3.1250000000000000E-002   0.0000000000000000     
  0.75000000000000000        3.1250000000000000E-002   0.0000000000000000     
  0.62500000000000000        6.2500000000000000E-002   0.0000000000000000     
  0.65625000000000000        6.2500000000000000E-002   0.0000000000000000     
  0.68750000000000000        6.2500000000000000E-002   0.0000000000000000     
  0.71875000000000000        6.2500000000000000E-002   0.0000000000000000     
  0.75000000000000000        6.2500000000000000E-002   0.0000000000000000     
  0.62500000000000000        9.3750000000000000E-002   0.0000000000000000     
  0.65625000000000000        9.3750000000000000E-002   0.0000000000000000     
  0.68750000000000000        9.3750000000000000E-002   0.0000000000000000     
  0.71875000000000000        9.3750000000000000E-002   0.0000000000000000     
  0.75000000000000000        9.3750000000000000E-002   0.0000000000000000     
  0.62500000000000000       0.12500000000000000        0.0000000000000000     
  0.65625000000000000       0.12500000000000000        0.0000000000000000     
  0.68750000000000000       0.12500000000000000        0.0000000000000000     
  0.71875000000000000       0.12500000000000000        0.0000000000000000     
  0.75000000000000000       0.12500000000000000        0.0000000000000000     
  0.75000000000000000        0.0000000000000000        0.0000000000000000     
  0.78125000000000000        0.0000000000000000        0.0000000000000000     
  0.81250000000000000        0.0000000000000000        0.0000000000000000     
  0.84375000000000000        0.0000000000000000        0.0000000000000000     
  0.87500000000000000        0.0000000000000000        0.0000000000000000     
  0.75000000000000000        3.1250000000000000E-002   0.0000000000000000     
  0.78125000000000000        3.1250000000000000E-002   0.0000000000000000     
  0.81250000000000000        3.1250000000000000E-002   0.0000000000000000     
  0.84375000000000000        3.1250000000000000E-002   0.0000000000000000     
  0.87500000000000000        3.1250000000000000E-002   0.0000000000000000     
  0.75000000000000000        6.2500000000000000E-002   0.0000000000000000     
  0.78125000000000000        6.2500000000000000E-002   0.0000000000000000     
  0.81250000000000000        6.2500000000000000E-002   0.0000000000000000     
  0.84375000000000000        6.2500000000000000E-002   0.0000000000000000     
  0.87500000000000000        6.2500000000000000E-002   0.0000000000000000     
  0.75000000000000000        9.3750000000000000E-002   0.0000000000000000     
  0.78125000000000000        9.3750000000000000E-002   0.0000000000000000     
  0.81250000000000000        9.3750000000000000E-002   0.0000000000000000     
  0.84375000000000000        9.3750000000000000E-002   0.0000000000000000     
  0.87500000000000000        9.3750000000000000E-002   0.0000000000000000     
  0.75000000000000000       0.12500000000000000        0.0000000000000000     
  0.78125000000000000       0.12500000000000000        0.0000000000000000     
  0.81250000000000000       0.12500000000000000        0.0000000000000000     
  0.84375000000000000       0.12500000000000000        0.0000000000000000     
  0.87500000000000000       0.12500000000000000        0.0000000000000000     
  0.87500000000000000        0.0000000000000000        0.0000000000000000     
  0.90625000000000000        0.0000000000000000        0.0000000000000000     
  0.93750000000000000        0.0000000000000000        0.0000000000000000     
  0.96875000000000000        0.0000000000000000        0.0000000000000000     
   1.0000000000000000        0.0000000000000000        0.0000000000000000     
  0.87500000000000000        3.1250000000000000E-002   0.0000000000000000     
  0.90625000000000000        3.1250000000000000E-002   0.0000000000000000     
  0.93750000000000000        3.1250000000000000E-002   0.0000000000000000     
  0.96875000000000000        3.1250000000000000E-002   0.0000000000000000     
   1.0000000000000000        3.1250000000000000E-002   0.0000000000000000     
  0.87500000000000000        6.2500000000000000E-002   0.0000000000000000     
  0.90625000000000000        6.2500000000000000E-002   0.0000000000000000     
  0.93750000000000000        6.2500000000000000E-002   0.0000000000000000     
  0.96875000000000000        6.2500000000000000E-002   0.0000000000000000     
   1.0000000000000000        6.2500000000000000E-002   0.0000000000000000     
  0.87500000000000000        9.3750000000000000E-002   0.0000000000000000     
  0.90625000000000000        9.3750000000000000E-002   0.0000000000000000     
  0.93750000000000000        9.3750000000000000E-002   0.0000000000000000     
  0.96875000000000000        9.3750000000000000E-002   0.0000000000000000     
   1.0000000000000000        9.3750000000000000E-002   0.0000000000000000     
  0.87500000000000000       0.12500000000000000        0.0000000000000000     
  0.90625000000000000       0.12500000000000000        0.0000000000000000     
  0.93750000000000000       0.12500000000000000        0.0000000000000000     
  0.96875000000000000       0.12500000000000000        0.0000000000000000     
   1.0000000000000000       0.12500000000000000        0.0000000000000000     
   0.0000000000000000       0.12500000000000000        0.0000000000000000     
   3.1250000000000000E-002  0.12500000000000000        0.0000000000000000     
   6.2500000000000000E-002  0.12500000000000000        0.0000000000000000     
   9.3750000000000000E-002  0.12500000000000000        0.0000000000000000     
  0.12500000000000000       0.12500000000000000        0.0000000000000000     
   0.0000000000000000       0.15625000000000000        0.0000000000000000     
   3.1250000000000000E-002  0.15625000000000000        0.0000000000000000     
   6.2500000000000000E-002  0.15625000000000000        0.0000000000000000     
   9.3750000000000000E-002  0.15625000000000000        0.0000000000000000     
  0.12500000000000000       0.15625000000000000        0.0000000000000000     
   0.0000000000000000       0.18750000000000000        0.0000000000000000     
   3.1250000000000000E-002  0.18750000000000000        0.0000000000000000     
   6.2500000000000000E-002  0.18750000000000000        0.0000000000000000     
   9.3750000000000000E-002  0.18750000000000000        0.0000000000000000     
  0.12500000000000000       0.18750000000000000        0.0000000000000000     
   0.0000000000000000       0.21875000000000000        0.0000000000000000     
   3.1250000000000000E-002  0.21875000000000000        0.0000000000000000     
   6.2500000000000000E-002  0.21875000000000000        0.0000000000000000     
   9.3750000000000000E-002  0.21875000000000000        0.0000000000000000     
  0.12500000000000000       0.21875000000000000        0.0000000000000000     
   0.0000000000000000       0.25000000000000000        0.0000000000000000     
   3.1250000000000000E-002  0.25000000000000000        0.0000000000000000     
   6.2500000000000000E-002  0.25000000000000000        0.0000000000000000     
   9.3750000000000000E-002  0.25000000000000000        0.0000000000000000     
  0.12500000000000000       0.25000000000000000        0.0000000000000000     
  0.12500000000000000       0.12500000000000000        0.0000000000000000     
  0.15625000000000000       0.12500000000000000        0.0000000000000000     
  0.18750000000000000       0.12500000000000000        0.0000000000000000     
  0.21875000000000000       0.12500000000000000        0.0000000000000000     
  0.25000000000000000       0.12500000000000000        0.0000000000000000     
  0.12500000000000000       0.15625000000000000        0.0000000000000000     
  0.15625000000000000       0.15625000000000000        0.0000000000000000     
  0.18750000000000000       0.15625000000000000        0.0000000000000000     
  0.21875000000000000       0.15625000000000000        0.0000000000000000     
  0.25000000000000000       0.15625000000000000        0.0000000000000000     
  0.12500000000000000       0.18750000000000000        0.0000000000000000     
  0.15625000000000000       0.18750000000000000        0.0000000000000000     
  0.18750000000000000       0.18750000000000000        0.0000000000000000     
  0.21875000000000000       0.18750000000000000        0.0000000000000000     
  0.25000000000000000       0.18750000000000000        0.0000000000000000     
  0.12500000000000000       0.21875000000000000        0.0000000000000000     
  0.15625000000000000       0.21875000000000000        0.0000000000000000     
  0.18750000000000000       0.21875000000000000        0.0000000000000000     
  0.21875000000000000       0.21875000000000000        0.0000000000000000     
  0.25000000000000000       0.21875000000000000        0.0000000000000000     
  0.12500000000000000       0.25000000000000000        0.0000000000000000     
  0.15625000000000000       0.25000000000000000        0.0000000000000000     
  0.18750000000000000       0.25000000000000000        0.0000000000000000     
  0.21875000000000000       0.25000000000000000        0.0000000000000000     
  0.25000000000000000       0.25000000000000000        0.0000000000000000     
  0.25000000000000000       0.12500000000000000        0.0000000000000000     
  0.28125000000000000       0.12500000000000000        0.0000000000000000     
  0.31250000000000000       0.12500000000000000        0.0000000000000000     
  0.34375000000000000       0.12500000000000000        0.0000000000000000     
  0.37500000000000000       0.12500000000000000        0.0000000000000000     
  0.25000000000000000       0.15625000000000000        0.0000000000000000     
  0.28125000000000000       0.15625000000000000        0.0000000000000000     
  0.31250000000000000       0.15625000000000000        0.0000000000000000     
  0.34375000000000000       0.15625000000000000        0.0000000000000000     
  0.37500000000000000       0.15625000000000000        0.0000000000000000     
  0.25000000000000000       0.18750000000000000        0.0000000000000000     
  0.28125000000000000       0.18750000000000000        0.0000000000000000     
  0.31250000000000000       0.18750000000000000        0.0000000000000000     
  0.34375000000000000       0.18750000000000000        0.0000000000000000     
  0.37500000000000000       0.18750000000000000        0.0000000000000000     
  0.25000000000000000       0.21875000000000000        0.0000000000000000     
  0.28125000000000000       0.21875000000000000        0.0000000000000000     
  0.31250000000000000       0.21875000000000000        0.0000000000000000     
  0.34375000000000000       0.21875000000000000        0.0000000000000000     
  0.37500000000000000       0.21875000000000000        0.0000000000000000     
  0.25000000000000000       0.25000000000000000        0.0000000000000000     
  0.28125000000000000       0.25000000000000000        0.0000000000000000     
  0.31250000000000000       0.25000000000000000        0.0000000000000000     
  0.34375000000000000       0.25000000000000000        0.0000000000000000     
  0.37500000000000000       0.25000000000000000        0.0000000000000000     
  0.37500000000000000       0.12500000000000000        0.0000000000000000     
  0.40625000000000000       0.12500000000000000        0.0000000000000000     
  0.43750000000000000       0.12500000000000000        0.0000000000000000     
  0.46875000000000000       0.12500000000000000        0.0000000000000000     
  0.50000000000000000       0.12500000000000000        0.0000000000000000     
  0.37500000000000000       0.15625000000000000        0.0000000000000000     
  0.40625000000000000       0.15625000000000000        0.0000000000000000     
  0.43750000000000000       0.15625000000000000        0.0000000000000000     
  0.46875000000000000       0.15625000000000000        0.0000000000000000     
  0.50000000000000000       0.15625000000000000        0.0000000000000000     
  0.37500000000000000       0.18750000000000000        0.0000000000000000     
  0.40625000000000000       0.18750000000000000        0.0000000000000000     
  0.43750000000000000       0.18750000000000000        0.0000000000000000     
  0.46875000000000000       0.18750000000000000        0.0000000000000000     
  0.50000000000000000       0.18750000000000000        0.0000000000000000     
  0.37500000000000000       0.21875000000000000        0.0000000000000000     
  0.40625000000000000       0.21875000000000000        0.0000000000000000     
  0.43750000000000000       0.21875000000000000        0.0000000000000000     
  0.46875000000000000       0.21875000000000000        0.0000000000000000     
  0.50000000000000000       0.21875000000000000        0.0000000000000000     
  0.37500000000000000       0.25000000000000000        0.0000000000000000     
  0.40625000000000000       0.25000000000000000        0.0000000000000000     
  0.43750000000000000       0.25000000000000000        0.0000000000000000     
  0.46875000000000000       0.25000000000000000        0.0000000000000000     
  0.50000000000000000       0.25000000000000000        0.0000000000000000     
  0.50000000000000000       0.12500000000000000        0.0000000000000000     
  0.53125000000000000       0.12500000000000000        0.0000000000000000     
  0.56250000000000000       0.12500000000000000        0.0000000000000000     
  0.59375000000000000       0.12500000000000000        0.0000000000000000     
  0.62500000000000000       0.12500000000000000        0.0000000000000000     
  0.50000000000000000       0.15625000000000000        0.0000000000000000     
  0.53125000000000000       0.15625000000000000        0.0000000000000000     
  0.56250000000000000       0.15625000000000000        0.0000000000000000     
  0.59375000000000000       0.15625000000000000        0.0000000000000000     
  0.62500000000000000       0.15625000000000000        0.0000000000000000     
  0.50000000000000000       0.18750000000000000        0.0000000000000000     
  0.53125000000000000       0.18750000000000000        0.0000000000000000     
  0.56250000000000000       0.18750000000000000        0.0000000000000000     
  0.59375000000000000       0.18750000000000000        0.0000000000000000     
  0.62500000000000000       0.18750000000000000        0.0000000000000000     
  0.50000000000000000       0.21875000000000000        0.0000000000000000     
  0.53125000000000000       0.21875000000000000        0.0000000000000000     
  0.56250000000000000       0.21875000000000000        0.0000000000000000     
  0.59375000000000000       0.21875000000000000        0.0000000000000000     
  0.62500000000000000       0.21875000000000000        0.0000000000000000     
  0.50000000000000000       0.25000000000000000        0.0000000000000000     
  0.53125000000000000       0.25000000000000000        0.0000000000000000     
  0.56250000000000000       0.25000000000000000        0.0000000000000000     
  0.59375000000000000       0.25000000000000000        0.0000000000000000     
  0.62500000000000000       0.25000000000000000        0.0000000000000000     
  0.62500000000000000       0.12500000000000000        0.0000000000000000     
  0.65625000000000000       0.12500000000000000        0.0000000000000000     
  0.68750000000000000       0.12500000000000000        0.0000000000000000     
  0.71875000000000000       0.12500000000000000        0.0000000000000000     
  0.75000000000000000       0.12500000000000000        0.0000000000000000     
  0.62500000000000000       0.15625000000000000        0.0000000000000000     
  0.65625000000000000       0.15625000000000000        0.0000000000000000     
  0.68750000000000000       0.15625000000000000        0.0000000000000000     
  0.71875000000000000       0.15625000000000000        0.0000000000000000     
  0.75000000000000000       0.15625000000000000        0.0000000000000000     
  0.62500000000000000       0.18750000000000000        0.0000000000000000     
  0.65625000000000000       0.18750000000000000        0.0000000000000000     
  0.68750000000000000       0.18750000000000000        0.0000000000000000     
  0.71875000000000000       0.18750000000000000        0.0000000000000000     
  0.75000000000000000       0.18750000000000000        0.0000000000000000     
  0.62500000000000000       0.21875000000000000        0.0000000000000000     
  0.65625000000000000       0.21875000000000000        0.0000000000000000     
  0.68750000000000000       0.21875000000000000        0.0000000000000000     
  0.71875000000000000       0.21875000000000000        0.0000000000000000     
  0.75000000000000000       0.21875000000000000        0.0000000000000000     
  0.62500000000000000       0.25000000000000000        0.0000000000000000     
  0.65625000000000000       0.25000000000000000        0.0000000000000000     
  0.68750000000000000       0.25000000000000000        0.0000000000000000     
  0.71875000000000000       0.25000000000000000        0.0000000000000000     
  0.75000000000000000       0.25000000000000000        0.0000000000000000     
  0.75000000000000000       0.12500000000000000        0.0000000000000000     
  0.78125000000000000       0.12500000000000000        0.0000000000000000     
  0.81250000000000000       0.12500000000000000        0.0000000000000000     
  0.84375000000000000       0.12500000000000000        0.0000000000000000     
  0.87500000000000000       0.12500000000000000        0.0000000000000000     
  0.75000000000000000       0.15625000000000000        0.0000000000000000     
  0.78125000000000000       0.15625000000000000        0.0000000000000000     
  0.81250000000000000       0.15625000000000000        0.0000000000000000     
  0.84375000000000000       0.15625000000000000        0.0000000000000000     
  0.87500000000000000       0.15625000000000000        0.0000000000000000     
  0.75000000000000000       0.18750000000000000        0.0000000000000000     
  0.78125000000000000       0.18750000000000000        0.0000000000000000     
  0.81250000000000000       0.18750000000000000        0.0000000000000000     
  0.84375000000000000       0.18750000000000000        0.0000000000000000     
  0.87500000000000000       0.18750000000000000        0.0000000000000000     
  0.75000000000000000       0.21875000000000000        0.0000000000000000     
  0.78125000000000000       0.21875000000000000        0.0000000000000000     
  0.81250000000000000       0.21875000000000000        0.0000000000000000     
  0.84375000000000000       0.21875000000000000        0.0000000000000000     
  0.87500000000000000       0.21875000000000000        0.0000000000000000     
  0.75000000000000000       0.25000000000000000        0.0000000000000000     
  0.78125000000000000       0.25000000000000000        0.0000000000000000     
  0.81250000000000000       0.25000000000000000        0.0000000000000000     
  0.84375000000000000       0.25000000000000000        0.0000000000000000     
  0.87500000000000000       0.25000000000000000        0.0000000000000000     
  0.87500000000000000       0.12500000000000000        0.0000000000000000     
  0.90625000000000000       0.12500000000000000        0.0000000000000000     
  0.93750000000000000       0.12500000000000000        0.0000000000000000     
  0.96875000000000000       0.12500000000000000        0.0000000000000000     
   1.0000000000000000       0.12500000000000000        0.0000000000000000     
  0.87500000000000000       0.15625000000000000        0.0000000000000000     
  0.90625000000000000       0.15625000000000000        0.0000000000000000     
  0.93750000000000000       0.15625000000000000        0.0000000000000000     
  0.96875000000000000       0.15625000000000000        0.0000000000000000     
   1.0000000000000000       0.15625000000000000        0.0000000000000000     
  0.87500000000000000       0.18750000000000000        0.0000000000000000     
  0.90625000000000000       0.18750000000000000        0.0000000000000000     
  0.93750000000000000       0.18750000000000000        0.0000000000000000     
  0.96875000000000000       0.18750000000000000        0.0000000000000000     
   1.0000000000000000       0.18750000000000000        0.0000000000000000     
  0.87500000000000000       0.21875000000000000        0.0000000000000000     
  0.90625000000000000       0.21875000000000000        0.0000000000000000     
  0.93750000000000000       0.21875000000000000        0.0000000000000000     
  0.96875000000000000       0.21875000000000000        0.0000000000000000     
   1.0000000000000000       0.21875000000000000        0.0000000000000000     
  0.87500000000000000       0.25000000000000000        0.0000000000000000     
  0.90625000000000000       0.25000000000000000        0.0000000000000000     
  0.93750000000000000       0.25000000000000000        0.0000000000000000     
  0.96875000000000000       0.25000000000000000        0.0000000000000000     
   1.0000000000000000       0.25000000000000000        0.0000000000000000     
   0.0000000000000000       0.25000000000000000        0.0000000000000000     
   3.1250000000000000E-002  0.25000000000000000        0.0000000000000000     
   6.2500000000000000E-002  0.25000000000000000        0.0000000000000000     
   9.3750000000000000E-002  0.25000000000000000        0.0000000000000000     
  0.12500000000000000       0.25000000000000000        0.0000000000000000     
   0.0000000000000000       0.28125000000000000        0.0000000000000000     
   3.1250000000000000E-002  0.28125000000000000        0.0000000000000000     
   6.2500000000000000E-002  0.28125000000000000        0.0000000000000000     
   9.3750000000000000E-002  0.28125000000000000        0.0000000000000000     
  0.12500000000000000       0.28125000000000000        0.0000000000000000     
   0.0000000000000000       0.31250000000000000        0.0000000000000000     
   3.1250000000000000E-002  0.31250000000000000        0.0000000000000000     
   6.2500000000000000E-002  0.31250000000000000        0.0000000000000000     
   9.3750000000000000E-002  0.31250000000000000        0.0000000000000000     
  0.12500000000000000       0.31250000000000000        0.0000000000000000     
   0.0000000000000000       0.34375000000000000        0.0000000000000000     
   3.1250000000000000E-002  0.34375000000000000        0.0000000000000000     
   6.2500000000000000E-002  0.34375000000000000        0.0000000000000000     
   9.3750000000000000E-002  0.34375000000000000        0.0000000000000000     
  0.12500000000000000       0.34375000000000000        0.0000000000000000     
   0.0000000000000000       0.37500000000000000        0.0000000000000000     
   3.1250000000000000E-002  0.37500000000000000        0.0000000000000000     
   6.2500000000000000E-002  0.37500000000000000        0.0000000000000000     
   9.3750000000000000E-002  0.37500000000000000        0.0000000000000000     
  0.12500000000000000       0.37500000000000000        0.0000000000000000     
  0.12500000000000000       0.25000000000000000        0.0000000000000000     
  0.15625000000000000       0.25000000000000000        0.0000000000000000     
  0.18750000000000000       0.25000000000000000        0.0000000000000000     
  0.21875000000000000       0.25000000000000000        0.0000000000000000     
  0.25000000000000000       0.25000000000000000        0.0000000000000000     
  0.12500000000000000       0.28125000000000000        0.0000000000000000     
  0.15625000000000000       0.28125000000000000        0.0000000000000000     
  0.18750000000000000       0.28125000000000000        0.0000000000000000     
  0.21875000000000000       0.28125000000000000        0.0000000000000000     
  0.25000000000000000       0.28125000000000000        0.0000000000000000     
  0.12500000000000000       0.31250000000000000        0.0000000000000000     
  0.15625000000000000       0.31250000000000000        0.0000000000000000     
  0.18750000000000000       0.31250000000000000        0.0000000000000000     
  0.21875000000000000       0.31250000000000000        0.0000000000000000     
  0.25000000000000000       0.31250000000000000        0.0000000000000000     
  0.12500000000000000       0.34375000000000000        0.0000000000000000     
  0.15625000000000000       0.34375000000000000        0.0000000000000000     
  0.18750000000000000       0.34375000000000000        0.0000000000000000     
  0.21875000000000000       0.34375000000000000        0.0000000000000000     
  0.25000000000000000       0.34375000000000000        0.0000000000000000     
  0.12500000000000000       0.37500000000000000        0.0000000000000000     
  0.15625000000000000       0.37500000000000000        0.0000000000000000     
  0.18750000000000000       0.37500000000000000        0.0000000000000000     
  0.21875000000000000       0.37500000000000000        0.0000000000000000     
  0.25000000000000000       0.37500000000000000        0.0000000000000000     
  0.25000000000000000       0.25000000000000000        0.0000000000000000     
  0.28125000000000000       0.25000000000000000        0.0000000000000000     
  0.31250000000000000       0.25000000000000000        0.0000000000000000     
  0.34375000000000000       0.25000000000000000        0.0000000000000000     
  0.37500000000000000       0.25000000000000000        0.0000000000000000     
  0.25000000000000000       0.28125000000000000        0.0000000000000000     
  0.28125000000000000       0.28125000000000000        0.0000000000000000     
  0.31250000000000000       0.28125000000000000        0.0000000000000000     
  0.34375000000000000       0.28125000000000000        0.0000000000000000     
  0.37500000000000000       0.28125000000000000        0.0000000000000000     
  0.25000000000000000       0.31250000000000000        0.0000000000000000     
  0.28125000000000000       0.31250000000000000        0.0000000000000000     
  0.31250000000000000       0.31250000000000000        0.0000000000000000     
  0.34375000000000000       0.31250000000000000        0.0000000000000000     
  0.37500000000000000       0.31250000000000000        0.0000000000000000     
  0.25000000000000000       0.34375000000000000        0.0000000000000000     
  0.28125000000000000       0.34375000000000000        0.0000000000000000     
  0.31250000000000000       0.34375000000000000        0.0000000000000000     
  0.34375000000000000       0.34375000000000000        0.0000000000000000     
  0.37500000000000000       0.34375000000000000        0.0000000000000000     
  0.25000000000000000       0.37500000000000000        0.0000000000000000     
  0.28125000000000000       0.37500000000000000        0.0000000000000000     
  0.31250000000000000       0.37500000000000000        0.0000000000000000     
  0.34375000000000000       0.37500000000000000        0.0000000000000000     
  0.37500000000000000       0.37500000000000000        0.0000000000000000     
  0.37500000000000000       0.25000000000000000        0.0000000000000000     
  0.40625000000000000       0.25000000000000000        0.0000000000000000     
  0.43750000000000000       0.25000000000000000        0.0000000000000000     
  0.46875000000000000       0.25000000000000000        0.0000000000000000     
  0.50000000000000000       0.25000000000000000        0.0000000000000000     
  0.37500000000000000       0.28125000000000000        0.0000000000000000     
  0.40625000000000000       0.28125000000000000        0.0000000000000000     
  0.43750000000000000       0.28125000000000000        0.0000000000000000     
  0.46875000000000000       0.28125000000000000        0.0000000000000000     
  0.50000000000000000       0.28125000000000000        0.0000000000000000     
  0.37500000000000000       0.31250000000000000        0.0000000000000000     
  0.40625000000000000       0.31250000000000000        0.0000000000000000     
  0.43750000000000000       0.31250000000000000        0.0000000000000000     
  0.46875000000000000       0.31250000000000000        0.0000000000000000     
  0.50000000000000000       0.31250000000000000        0.0000000000000000     
  0.37500000000000000       0.34375000000000000        0.0000000000000000     
  0.40625000000000000       0.34375000000000000        0.0000000000000000     
  0.43750000000000000       0.34375000000000000        0.0000000000000000     
  0.46875000000000000       0.34375000000000000        0.0000000000000000     
  0.50000000000000000       0.34375000000000000        0.0000000000000000     
  0.37500000000000000       0.37500000000000000        0.0000000000000000     
  0.40625000000000000       0.37500000000000000        0.0000000000000000     
  0.43750000000000000       0.37500000000000000        0.0000000000000000     
  0.46875000000000000       0.37500000000000000        0.0000000000000000     
  0.50000000000000000       0.37500000000000000        0.0000000000000000     
  0.50000000000000000       0.25000000000000000        0.0000000000000000     
  0.53125000000000000       0.25000000000000000        0.0000000000000000     
  0.56250000000000000       0.25000000000000000        0.0000000000000000     
  0.59375000000000000       0.25000000000000000        0.0000000000000000     
  0.62500000000000000       0.25000000000000000        0.0000000000000000     
  0.50000000000000000       0.28125000000000000        0.0000000000000000     
  0.53125000000000000       0.28125000000000000        0.0000000000000000     
  0.56250000000000000       0.28125000000000000        0.0000000000000000     
  0.59375000000000000       0.28125000000000000        0.0000000000000000     
  0.62500000000000000       0.28125000000000000        0.0000000000000000     
  0.50000000000000000       0.31250000000000000        0.0000000000000000     
  0.53125000000000000       0.31250000000000000        0.0000000000000000     
  0.56250000000000000       0.31250000000000000        0.0000000000000000     
  0.59375000000000000       0.31250000000000000        0.0000000000000000     
  0.62500000000000000       0.31250000000000000        0.0000000000000000     
  0.50000000000000000       0.34375000000000000        0.0000000000000000     
  0.53125000000000000       0.34375000000000000        0.0000000000000000     
  0.56250000000000000       0.34375000000000000        0.0000000000000000     
  0.59375000000000000       0.34375000000000000        0.0000000000000000     
  0.62500000000000000       0.34375000000000000        0.0000000000000000     
  0.50000000000000000       0.37500000000000000        0.0000000000000000     
  0.53125000000000000       0.37500000000000000        0.0000000000000000     
  0.56250000000000000       0.37500000000000000        0.0000000000000000     
  0.59375000000000000       0.37500000000000000        0.0000000000000000     
  0.62500000000000000       0.37500000000000000        0.0000000000000000     
  0.62500000000000000       0.25000000000000000        0.0000000000000000     
  0.65625000000000000       0.25000000000000000        0.0000000000000000     
  0.68750000000000000       0.25000000000000000        0.0000000000000000     
  0.71875000000000000       0.25000000000000000        0.0000000000000000     
  0.75000000000000000       0.25000000000000000        0.0000000000000000     
  0.62500000000000000       0.28125000000000000        0.0000000000000000     
  0.65625000000000000       0.28125000000000000        0.0000000000000000     
  0.68750000000000000       0.28125000000000000        0.0000000000000000     
  0.71875000000000000       0.28125000000000000        0.0000000000000000     
  0.75000000000000000       0.28125000000000000        0.0000000000000000     
  0.62500000000000000       0.31250000000000000        0.0000000000000000     
  0.65625000000000000       0.31250000000000000        0.0000000000000000     
  0.68750000000000000       0.31250000000000000        0.0000000000000000     
  0.71875000000000000       0.31250000000000000        0.0000000000000000     
  0.75000000000000000       0.31250000000000000        0.0000000000000000     
  0.62500000000000000       0.34375000000000000        0.0000000000000000     
  0.65625000000000000       0.34375000000000000        0.0000000000000000     
  0.68750000000000000       0.34375000000000000        0.0000000000000000     
  0.71875000000000000       0.34375000000000000        0.0000000000000000     
  0.75000000000000000       0.34375000000000000        0.0000000000000000     
  0.62500000000000000       0.37500000000000000        0.0000000000000000     
  0.65625000000000000       0.37500000000000000        0.0000000000000000     
  0.68750000000000000       0.37500000000000000        0.0000000000000000     
  0.71875000000000000       0.37500000000000000        0.0000000000000000     
  0.75000000000000000       0.37500000000000000        0.0000000000000000     
  0.75000000000000000       0.25000000000000000        0.0000000000000000     
  0.78125000000000000       0.25000000000000000        0.0000000000000000     
  0.81250000000000000       0.25000000000000000        0.0000000000000000     
  0.84375000000000000       0.25000000000000000        0.0000000000000000     
  0.87500000000000000       0.25000000000000000        0.0000000000000000     
  0.75000000000000000       0.28125000000000000        0.0000000000000000     
  0.78125000000000000       0.28125000000000000        0.0000000000000000     
  0.81250000000000000       0.28125000000000000        0.0000000000000000     
  0.84375000000000000       0.28125000000000000        0.0000000000000000     
  0.87500000000000000       0.28125000000000000        0.0000000000000000     
  0.75000000000000000       0.31250000000000000        0.0000000000000000     
  0.78125000000000000       0.31250000000000000        0.0000000000000000     
  0.81250000000000000       0.31250000000000000        0.0000000000000000     
  0.84375000000000000       0.31250000000000000        0.0000000000000000     
  0.87500000000000000       0.31250000000000000        0.0000000000000000     
  0.75000000000000000       0.34375000000000000        0.0000000000000000     
  0.78125000000000000       0.34375000000000000        0.0000000000000000     
  0.81250000000000000       0.34375000000000000        0.0000000000000000     
  0.84375000000000000       0.34375000000000000        0.0000000000000000     
  0.87500000000000000       0.34375000000000000        0.0000000000000000     
  0.75000000000000000       0.37500000000000000        0.0000000000000000     
  0.78125000000000000       0.37500000000000000        0.0000000000000000     
  0.81250000000000000       0.37500000000000000        0.0000000000000000     
  0.84375000000000000       0.37500000000000000        0.0000000000000000     
  0.87500000000000000       0.37500000000000000        0.0000000000000000     
  0.87500000000000000       0.25000000000000000        0.0000000000000000     
  0.90625000000000000       0.25000000000000000        0.0000000000000000     
  0.93750000000000000       0.25000000000000000        0.0000000000000000     
  0.96875000000000000       0.25000000000000000        0.0000000000000000     
   1.0000000000000000       0.25000000000000000        0.0000000000000000     
  0.87500000000000000       0.28125000000000000        0.0000000000000000     
  0.90625000000000000       0.28125000000000000        0.0000000000000000     
  0.93750000000000000       0.28125000000000000        0.0000000000000000     
  0.96875000000000000       0.28125000000000000        0.0000000000000000     
   1.0000000000000000       0.28125000000000000        0.0000000000000000     
  0.87500000000000000       0.31250000000000000        0.0000000000000000     
  0.90625000000000000       0.31250000000000000        0.0000000000000000     
  0.93750000000000000       0.31250000000000000        0.0000000000000000     
  0.96875000000000000       0.31250000000000000        0.0000000000000000     
   1.0000000000000000       0.31250000000000000        0.0000000000000000     
  0.87500000000000000       0.34375000000000000        0.0000000000000000     
  0.90625000000000000       0.34375000000000000        0.0000000000000000     
  0.93750000000000000       0.34375000000000000        0.0000000000000000     
  0.96875000000000000       0.34375000000000000        0.0000000000000000     
   1.0000000000000000       0.34375000000000000        0.0000000000000000     
  0.87500000000000000       0.37500000000000000        0.0000000000000000     
  0.90625000000000000       0.37500000000000000        0.0000000000000000     
  0.93750000000000000       0.37500000000000000        0.0000000000000000     
  0.96875000000000000       0.37500000000000000        0.0000000000000000     
   1.0000000000000000       0.37500000000000000        0.0000000000000000     
   0.0000000000000000       0.37500000000000000        0.0000000000000000     
   3.1250000000000000E-002  0.37500000000000000        0.0000000000000000     
   6.2500000000000000E-002  0.37500000000000000        0.0000000000000000     
   9.3750000000000000E-002  0.37500000000000000        0.0000000000000000     
  0.12500000000000000       0.37500000000000000        0.0000000000000000     
   0.0000000000000000       0.40625000000000000        0.0000000000000000     
   3.1250000000000000E-002  0.40625000000000000        0.0000000000000000     
   6.2500000000000000E-002  0.40625000000000000        0.0000000000000000     
   9.3750000000000000E-002  0.40625000000000000        0.0000000000000000     
  0.12500000000000000       0.40625000000000000        0.0000000000000000     
   0.0000000000000000       0.43750000000000000        0.0000000000000000     
   3.1250000000000000E-002  0.43750000000000000        0.0000000000000000     
   6.2500000000000000E-002  0.43750000000000000        0.0000000000000000     
   9.3750000000000000E-002  0.43750000000000000        0.0000000000000000     
  0.12500000000000000       0.43750000000000000        0.0000000000000000     
   0.0000000000000000       0.46875000000000000        0.0000000000000000     
   3.1250000000000000E-002  0.46875000000000000        0.0000000000000000     
   6.2500000000000000E-002  0.46875000000000000        0.0000000000000000     
   9.3750000000000000E-002  0.46875000000000000        0.0000000000000000     
  0.12500000000000000       0.46875000000000000        0.0000000000000000     
   0.0000000000000000       0.50000000000000000        0.0000000000000000     
   3.1250000000000000E-002  0.50000000000000000        0.0000000000000000     
   6.2500000000000000E-002  0.50000000000000000        0.0000000000000000     
   9.3750000000000000E-002  0.50000000000000000        0.0000000000000000     
  0.12500000000000000       0.50000000000000000        0.0000000000000000     
  0.12500000000000000       0.37500000000000000        0.0000000000000000     
  0.15625000000000000       0.37500000000000000        0.0000000000000000     
  0.18750000000000000       0.37500000000000000        0.0000000000000000     
  0.21875000000000000       0.37500000000000000        0.0000000000000000     
  0.25000000000000000       0.37500000000000000        0.0000000000000000     
  0.12500000000000000       0.40625000000000000        0.0000000000000000     
  0.15625000000000000       0.40625000000000000        0.0000000000000000     
  0.18750000000000000       0.40625000000000000        0.0000000000000000     
  0.21875000000000000       0.40625000000000000        0.0000000000000000     
  0.25000000000000000       0.40625000000000000        0.0000000000000000     
  0.12500000000000000       0.43750000000000000        0.0000000000000000     
  0.15625000000000000       0.43750000000000000        0.0000000000000000     
  0.18750000000000000       0.43750000000000000        0.0000000000000000     
  0.21875000000000000       0.43750000000000000        0.0000000000000000     
  0.25000000000000000       0.43750000000000000        0.0000000000000000     
  0.12500000000000000       0.46875000000000000        0.0000000000000000     
  0.15625000000000000       0.46875000000000000        0.0000000000000000     
  0.18750000000000000       0.46875000000000000        0.0000000000000000     
  0.21875000000000000       0.46875000000000000        0.0000000000000000     
  0.25000000000000000       0.46875000000000000        0.0000000000000000     
  0.12500000000000000       0.50000000000000000        0.0000000000000000     
  0.15625000000000000       0.50000000000000000        0.0000000000000000     
  0.18750000000000000       0.50000000000000000        0.0000000000000000     
  0.21875000000000000       0.50000000000000000        0.0000000000000000     
  0.25000000000000000       0.50000000000000000        0.0000000000000000     
  0.25000000000000000       0.37500000000000000        0.0000000000000000     
  0.28125000000000000       0.37500000000000000        0.0000000000000000     
  0.31250000000000000       0.37500000000000000        0.0000000000000000     
  0.34375000000000000       0.37500000000000000        0.0000000000000000     
  0.37500000000000000       0.37500000000000000        0.0000000000000000     
  0.25000000000000000       0.40625000000000000        0.0000000000000000     
  0.28125000000000000       0.40625000000000000        0.0000000000000000     
  0.31250000000000000       0.40625000000000000        0.0000000000000000     
  0.34375000000000000       0.40625000000000000        0.0000000000000000     
  0.37500000000000000       0.40625000000000000        0.0000000000000000     
  0.25000000000000000       0.43750000000000000        0.0000000000000000     
  0.28125000000000000       0.43750000000000000        0.0000000000000000     
  0.31250000000000000       0.43750000000000000        0.0000000000000000     
  0.34375000000000000       0.43750000000000000        0.0000000000000000     
  0.37500000000000000       0.43750000000000000        0.0000000000000000     
  0.25000000000000000       0.46875000000000000        0.0000000000000000     
  0.28125000000000000       0.46875000000000000        0.0000000000000000     
  0.31250000000000000       0.46875000000000000        0.0000000000000000     
  0.34375000000000000       0.46875000000000000        0.0000000000000000     
  0.37500000000000000       0.46875000000000000        0.0000000000000000     
  0.25000000000000000       0.50000000000000000        0.0000000000000000     
  0.28125000000000000       0.50000000000000000        0.0000000000000000     
  0.31250000000000000       0.50000000000000000        0.0000000000000000     
  0.34375000000000000       0.50000000000000000        0.0000000000000000     
  0.37500000000000000       0.50000000000000000        0.0000000000000000     
  0.37500000000000000       0.37500000000000000        0.0000000000000000     
  0.40625000000000000       0.37500000000000000        0.0000000000000000     
  0.43750000000000000       0.37500000000000000        0.0000000000000000     
  0.46875000000000000       0.37500000000000000        0.0000000000000000     
  0.50000000000000000       0.37500000000000000        0.0000000000000000     
  0.37500000000000000       0.40625000000000000        0.0000000000000000     
  0.40625000000000000       0.40625000000000000        0.0000000000000000     
  0.43750000000000000       0.40625000000000000        0.0000000000000000     
  0.46875000000000000       0.40625000000000000        0.0000000000000000     
  0.50000000000000000       0.40625000000000000        0.0000000000000000     
  0.37500000000000000       0.43750000000000000        0.0000000000000000     
  0.40625000000000000       0.43750000000000000        0.0000000000000000     
  0.43750000000000000       0.43750000000000000        0.0000000000000000     
  0.46875000000000000       0.43750000000000000        0.0000000000000000     
  0.50000000000000000       0.43750000000000000        0.0000000000000000     
  0.37500000000000000       0.46875000000000000        0.0000000000000000     
  0.40625000000000000       0.46875000000000000        0.0000000000000000     
  0.43750000000000000       0.46875000000000000        0.0000000000000000     
  0.46875000000000000       0.46875000000000000        0.0000000000000000     
  0.50000000000000000       0.46875000000000000        0.0000000000000000     
  0.37500000000000000       0.50000000000000000        0.0000000000000000     
  0.40625000000000000       0.50000000000000000        0.0000000000000000     
  0.43750000000000000       0.50000000000000000        0.0000000000000000     
  0.46875000000000000       0.50000000000000000        0.0000000000000000     
  0.50000000000000000       0.50000000000000000        0.0000000000000000     
  0.50000000000000000       0.37500000000000000        0.0000000000000000     
  0.53125000000000000       0.37500000000000000        0.0000000000000000     
  0.56250000000000000       0.37500000000000000        0.0000000000000000     
  0.59375000000000000       0.37500000000000000        0.0000000000000000     
  0.62500000000000000       0.37500000000000000        0.0000000000000000     
  0.50000000000000000       0.40625000000000000        0.0000000000000000     
  0.53125000000000000       0.40625000000000000        0.0000000000000000     
  0.56250000000000000       0.40625000000000000        0.0000000000000000     
  0.59375000000000000       0.40625000000000000        0.0000000000000000     
  0.62500000000000000       0.40625000000000000        0.0000000000000000     
  0.50000000000000000       0.43750000000000000        0.0000000000000000     
  0.53125000000000000       0.43750000000000000        0.0000000000000000     
  0.56250000000000000       0.43750000000000000        0.0000000000000000     
  0.59375000000000000       0.43750000000000000        0.0000000000000000     
  0.62500000000000000       0.43750000000000000        0.0000000000000000     
  0.50000000000000000       0.46875000000000000        0.0000000000000000     
  0.53125000000000000       0.46875000000000000        0.0000000000000000     
  0.56250000000000000       0.46875000000000000        0.0000000000000000     
  0.59375000000000000       0.46875000000000000        0.0000000000000000     
  0.62500000000000000       0.46875000000000000        0.0000000000000000     
  0.50000000000000000       0.50000000000000000        0.0000000000000000     
  0.53125000000000000       0.50000000000000000        0.0000000000000000     
  0.56250000000000000       0.50000000000000000        0.0000000000000000     
  0.59375000000000000       0.50000000000000000        0.0000000000000000     
  0.62500000000000000       0.50000000000000000        0.0000000000000000     
  0.62500000000000000       0.37500000000000000        0.0000000000000000     
  0.65625000000000000       0.37500000000000000        0.0000000000000000     
  0.68750000000000000       0.37500000000000000        0.0000000000000000     
  0.71875000000000000       0.37500000000000000        0.0000000000000000     
  0.75000000000000000       0.37500000000000000        0.0000000000000000     
  0.62500000000000000       0.40625000000000000        0.0000000000000000     
  0.65625000000000000       0.40625000000000000        0.0000000000000000     
  0.68750000000000000       0.40625000000000000        0.0000000000000000     
  0.71875000000000000       0.40625000000000000        0.0000000000000000     
  0.75000000000000000       0.40625000000000000        0.0000000000000000     
  0.62500000000000000       0.43750000000000000        0.0000000000000000     
  0.65625000000000000       0.43750000000000000        0.0000000000000000     
  0.68750000000000000       0.43750000000000000        0.0000000000000000     
  0.71875000000000000       0.43750000000000000        0.0000000000000000     
  0.75000000000000000       0.43750000000000000        0.0000000000000000     
  0.62500000000000000       0.46875000000000000        0.0000000000000000     
  0.65625000000000000       0.46875000000000000        0.0000000000000000     
  0.68750000000000000       0.46875000000000000        0.0000000000000000     
  0.71875000000000000       0.46875000000000000        0.0000000000000000     
  0.75000000000000000       0.46875000000000000        0.0000000000000000     
  0.62500000000000000       0.50000000000000000        0.0000000000000000     
  0.65625000000000000       0.50000000000000000        0.0000000000000000     
  0.68750000000000000       0.50000000000000000        0.0000000000000000     
  0.71875000000000000       0.50000000000000000        0.0000000000000000     
  0.75000000000000000       0.50000000000000000        0.0000000000000000     
  0.75000000000000000       0.37500000000000000        0.0000000000000000     
  0.78125000000000000       0.37500000000000000        0.0000000000000000     
  0.81250000000000000       0.37500000000000000        0.0000000000000000     
  0.84375000000000000       0.37500000000000000        0.0000000000000000     
  0.87500000000000000       0.37500000000000000        0.0000000000000000     
  0.75000000000000000       0.40625000000000000        0.0000000000000000     
  0.78125000000000000       0.40625000000000000        0.0000000000000000     
  0.81250000000000000       0.40625000000000000        0.0000000000000000     
  0.84375000000000000       0.40625000000000000        0.0000000000000000     
  0.87500000000000000       0.40625000000000000        0.0000000000000000     
  0.75000000000000000       0.43750000000000000        0.0000000000000000     
  0.78125000000000000       0.43750000000000000        0.0000000000000000     
  0.81250000000000000       0.43750000000000000        0.0000000000000000     
  0.84375000000000000       0.43750000000000000        0.0000000000000000     
  0.87500000000000000       0.43750000000000000        0.0000000000000000     
  0.75000000000000000       0.46875000000000000        0.0000000000000000     
  0.78125000000000000       0.46875000000000000        0.0000000000000000     
  0.81250000000000000       0.46875000000000000        0.0000000000000000     
  0.84375000000000000       0.46875000000000000        0.0000000000000000     
  0.87500000000000000       0.46875000000000000        0.0000000000000000     
  0.75000000000000000       0.50000000000000000        0.0000000000000000     
  0.78125000000000000       0.50000000000000000        0.0000000000000000     
  0.81250000000000000       0.50000000000000000        0.0000000000000000     
  0.84375000000000000       0.50000000000000000        0.0000000000000000     
  0.87500000000000000       0.50000000000000000        0.0000000000000000     
  0.87500000000000000       0.37500000000000000        0.0000000000000000     
  0.90625000000000000       0.37500000000000000        0.0000000000000000     
  0.93750000000000000       0.37500000000000000        0.0000000000000000     
  0.96875000000000000       0.37500000000000000        0.0000000000000000     
   1.0000000000000000       0.37500000000000000        0.0000000000000000     
  0.87500000000000000       0.40625000000000000        0.0000000000000000     
  0.90625000000000000       0.40625000000000000        0.0000000000000000     
  0.93750000000000000       0.40625000000000000        0.0000000000000000     
  0.96875000000000000       0.40625000000000000        0.0000000000000000     
   1.0000000000000000       0.40625000000000000        0.0000000000000000     
  0.87500000000000000       0.43750000000000000        0.0000000000000000     
  0.90625000000000000       0.43750000000000000        0.0000000000000000     
  0.93750000000000000       0.43750000000000000        0.0000000000000000     
  0.96875000000000000       0.43750000000000000        0.0000000000000000     
   1.0000000000000000       0.43750000000000000        0.0000000000000000     
  0.87500000000000000       0.46875000000000000        0.0000000000000000     
  0.90625000000000000       0.46875000000000000        0.0000000000000000     
  0.93750000000000000       0.46875000000000000        0.0000000000000000     
  0.96875000000000000       0.46875000000000000        0.0000000000000000     
   1.0000000000000000       0.46875000000000000        0.0000000000000000     
  0.87500000000000000       0.50000000000000000        0.0000000000000000     
  0.90625000000000000       0.50000000000000000        0.0000000000000000     
  0.93750000000000000       0.50000000000000000        0.0000000000000000     
  0.96875000000000000       0.50000000000000000        0.0000000000000000     
   1.0000000000000000       0.50000000000000000        0.0000000000000000     
   0.0000000000000000       0.50000000000000000        0.0000000000000000     
   3.1250000000000000E-002  0.50000000000000000        0.0000000000000000     
   6.2500000000000000E-002  0.50000000000000000        0.0000000000000000     
   9.3750000000000000E-002  0.50000000000000000        0.0000000000000000     
  0.12500000000000000       0.50000000000000000        0.0000000000000000     
   0.0000000000000000       0.53125000000000000        0.0000000000000000     
   3.1250000000000000E-002  0.53125000000000000        0.0000000000000000     
   6.2500000000000000E-002  0.53125000000000000        0.0000000000000000     
   9.3750000000000000E-002  0.53125000000000000        0.0000000000000000     
  0.12500000000000000       0.53125000000000000        0.0000000000000000     
   0.0000000000000000       0.56250000000000000        0.0000000000000000     
   3.1250000000000000E-002  0.56250000000000000        0.0000000000000000     
   6.2500000000000000E-002  0.56250000000000000        0.0000000000000000     
   9.3750000000000000E-002  0.56250000000000000        0.0000000000000000     
  0.12500000000000000       0.56250000000000000        0.0000000000000000     
   0.0000000000000000       0.59375000000000000        0.0000000000000000     
   3.1250000000000000E-002  0.59375000000000000        0.0000000000000000     
   6.2500000000000000E-002  0.59375000000000000        0.0000000000000000     
   9.3750000000000000E-002  0.59375000000000000        0.0000000000000000     
  0.12500000000000000       0.59375000000000000        0.0000000000000000     
   0.0000000000000000       0.62500000000000000        0.0000000000000000     
   3.1250000000000000E-002  0.62500000000000000        0.0000000000000000     
   6.2500000000000000E-002  0.62500000000000000        0.0000000000000000     
   9.3750000000000000E-002  0.62500000000000000        0.0000000000000000     
  0.12500000000000000       0.62500000000000000        0.0000000000000000     
  0.12500000000000000       0.50000000000000000        0.0000000000000000     
  0.15625000000000000       0.50000000000000000        0.0000000000000000     
  0.18750000000000000       0.50000000000000000        0.0000000000000000     
  0.21875000000000000       0.50000000000000000        0.0000000000000000     
  0.25000000000000000       0.50000000000000000        0.0000000000000000     
  0.12500000000000000       0.53125000000000000        0.0000000000000000     
  0.15625000000000000       0.53125000000000000        0.0000000000000000     
  0.18750000000000000       0.53125000000000000        0.0000000000000000     
  0.21875000000000000       0.53125000000000000        0.0000000000000000     
  0.25000000000000000       0.53125000000000000        0.0000000000000000     
  0.12500000000000000       0.56250000000000000        0.0000000000000000     
  0.15625000000000000       0.56250000000000000        0.0000000000000000     
  0.18750000000000000       0.56250000000000000        0.0000000000000000     
  0.21875000000000000       0.56250000000000000        0.0000000000000000     
  0.25000000000000000       0.56250000000000000        0.0000000000000000     
  0.12500000000000000       0.59375000000000000        0.0000000000000000     
  0.15625000000000000       0.59375000000000000        0.0000000000000000     
  0.18750000000000000       0.59375000000000000        0.0000000000000000     
  0.21875000000000000       0.59375000000000000        0.0000000000000000     
  0.25000000000000000       0.59375000000000000        0.0000000000000000     
  0.12500000000000000       0.62500000000000000        0.0000000000000000     
  0.15625000000000000       0.62500000000000000        0.0000000000000000     
  0.18750000000000000       0.62500000000000000        0.0000000000000000     
  0.21875000000000000       0.62500000000000000        0.0000000000000000     
  0.25000000000000000       0.62500000000000000        0.0000000000000000     
  0.25000000000000000       0.50000000000000000        0.0000000000000000     
  0.28125000000000000       0.50000000000000000        0.0000000000000000     
  0.31250000000000000       0.50000000000000000        0.0000000000000000     
  0.34375000000000000       0.50000000000000000        0.0000000000000000     
  0.37500000000000000       0.50000000000000000        0.0000000000000000     
  0.25000000000000000       0.53125000000000000        0.0000000000000000     
  0.28125000000000000       0.53125000000000000        0.0000000000000000     
  0.31250000000000000       0.53125000000000000        0.0000000000000000     
  0.34375000000000000       0.53125000000000000        0.0000000000000000     
  0.37500000000000000       0.53125000000000000        0.0000000000000000     
  0.25000000000000000       0.56250000000000000        0.0000000000000000     
  0.28125000000000000       0.56250000000000000        0.0000000000000000     
  0.31250000000000000       0.56250000000000000        0.0000000000000000     
  0.34375000000000000       0.56250000000000000        0.0000000000000000     
  0.37500000000000000       0.56250000000000000        0.0000000000000000     
  0.25000000000000000       0.59375000000000000        0.0000000000000000     
  0.28125000000000000       0.59375000000000000        0.0000000000000000     
  0.31250000000000000       0.59375000000000000        0.0000000000000000     
  0.34375000000000000       0.59375000000000000        0.0000000000000000     
  0.37500000000000000       0.59375000000000000        0.0000000000000000     
  0.25000000000000000       0.62500000000000000        0.0000000000000000     
  0.28125000000000000       0.62500000000000000        0.0000000000000000     
  0.31250000000000000       0.62500000000000000        0.0000000000000000     
  0.34375000000000000       0.62500000000000000        0.0000000000000000     
  0.37500000000000000       0.62500000000000000        0.0000000000000000     
  0.37500000000000000       0.50000000000000000        0.0000000000000000     
  0.40625000000000000       0.50000000000000000        0.0000000000000000     
  0.43750000000000000       0.50000000000000000        0.0000000000000000     
  0.46875000000000000       0.50000000000000000        0.0000000000000000     
  0.50000000000000000       0.50000000000000000        0.0000000000000000     
  0.37500000000000000       0.53125000000000000        0.0000000000000000     
  0.40625000000000000       0.53125000000000000        0.0000000000000000     
  0.43750000000000000       0.53125000000000000        0.0000000000000000     
  0.46875000000000000       0.53125000000000000        0.0000000000000000     
  0.50000000000000000       0.53125000000000000        0.0000000000000000     
  0.37500000000000000       0.56250000000000000        0.0000000000000000     
  0.40625000000000000       0.56250000000000000        0.0000000000000000     
  0.43750000000000000       0.56250000000000000        0.0000000000000000     
  0.46875000000000000       0.56250000000000000        0.0000000000000000     
  0.50000000000000000       0.56250000000000000        0.0000000000000000     
  0.37500000000000000       0.59375000000000000        0.0000000000000000     
  0.40625000000000000       0.59375000000000000        0.0000000000000000     
  0.43750000000000000       0.59375000000000000        0.0000000000000000     
  0.46875000000000000       0.59375000000000000        0.0000000000000000     
  0.50000000000000000       0.59375000000000000        0.0000000000000000     
  0.37500000000000000       0.62500000000000000        0.0000000000000000     
  0.40625000000000000       0.62500000000000000        0.0000000000000000     
  0.43750000000000000       0.62500000000000000        0.0000000000000000     
  0.46875000000000000       0.62500000000000000        0.0000000000000000     
  0.50000000000000000       0.62500000000000000        0.0000000000000000     
  0.50000000000000000       0.50000000000000000        0.0000000000000000     
  0.53125000000000000       0.50000000000000000        0.0000000000000000     
  0.56250000000000000       0.50000000000000000        0.0000000000000000     
  0.59375000000000000       0.50000000000000000        0.0000000000000000     
  0.62500000000000000       0.50000000000000000        0.0000000000000000     
  0.50000000000000000       0.53125000000000000        0.0000000000000000     
  0.53125000000000000       0.53125000000000000        0.0000000000000000     
  0.56250000000000000       0.53125000000000000        0.0000000000000000     
  0.59375000000000000       0.53125000000000000        0.0000000000000000     
  0.62500000000000000       0.53125000000000000        0.0000000000000000     
  0.50000000000000000       0.56250000000000000        0.0000000000000000     
  0.53125000000000000       0.56250000000000000        0.0000000000000000     
  0.56250000000000000       0.56250000000000000        0.0000000000000000     
  0.59375000000000000       0.56250000000000000        0.0000000000000000     
  0.62500000000000000       0.56250000000000000        0.0000000000000000     
  0.50000000000000000       0.59375000000000000        0.0000000000000000     
  0.53125000000000000       0.59375000000000000        0.0000000000000000     
  0.56250000000000000       0.59375000000000000        0.0000000000000000     
  0.59375000000000000       0.59375000000000000        0.0000000000000000     
  0.62500000000000000       0.59375000000000000        0.0000000000000000     
  0.50000000000000000       0.62500000000000000        0.0000000000000000     
  0.53125000000000000       0.62500000000000000        0.0000000000000000     
  0.56250000000000000       0.62500000000000000        0.0000000000000000     
  0.59375000000000000       0.62500000000000000        0.0000000000000000     
  0.62500000000000000       0.62500000000000000        0.0000000000000000     
  0.62500000000000000       0.50000000000000000        0.0000000000000000     
  0.65625000000000000       0.50000000000000000        0.0000000000000000     
  0.68750000000000000       0.50000000000000000        0.0000000000000000     
  0.71875000000000000       0.50000000000000000        0.0000000000000000     
  0.75000000000000000       0.50000000000000000        0.0000000000000000     
  0.62500000000000000       0.53125000000000000        0.0000000000000000     
  0.65625000000000000       0.53125000000000000        0.0000000000000000     
  0.68750000000000000       0.53125000000000000        0.0000000000000000     
  0.71875000000000000       0.53125000000000000        0.0000000000000000     
  0.75000000000000000       0.53125000000000000        0.0000000000000000     
  0.62500000000000000       0.56250000000000000        0.0000000000000000     
  0.65625000000000000       0.56250000000000000        0.0000000000000000     
  0.68750000000000000       0.56250000000000000        0.0000000000000000     
  0.71875000000000000       0.56250000000000000        0.0000000000000000     
  0.75000000000000000       0.56250000000000000        0.0000000000000000     
  0.62500000000000000       0.59375000000000000        0.0000000000000000     
  0.65625000000000000       0.59375000000000000        0.0000000000000000     
  0.68750000000000000       0.59375000000000000        0.0000000000000000     
  0.71875000000000000       0.59375000000000000        0.0000000000000000     
  0.75000000000000000       0.59375000000000000        0.0000000000000000     
  0.62500000000000000       0.62500000000000000        0.0000000000000000     
  0.65625000000000000       0.62500000000000000        0.0000000000000000     
  0.68750000000000000       0.62500000000000000        0.0000000000000000     
  0.71875000000000000       0.62500000000000000        0.0000000000000000     
  0.75000000000000000       0.62500000000000000        0.0000000000000000     
  0.75000000000000000       0.50000000000000000        0.0000000000000000     
  0.78125000000000000       0.50000000000000000        0.0000000000000000     
  0.81250000000000000       0.50000000000000000        0.0000000000000000     
  0.84375000000000000       0.50000000000000000        0.0000000000000000     
  0.87500000000000000       0.50000000000000000        0.0000000000000000     
  0.75000000000000000       0.53125000000000000        0.0000000000000000     
  0.78125000000000000       0.53125000000000000        0.0000000000000000     
  0.81250000000000000       0.53125000000000000        0.0000000000000000     
  0.84375000000000000       0.53125000000000000        0.0000000000000000     
  0.87500000000000000       0.53125000000000000        0.0000000000000000     
  0.75000000000000000       0.56250000000000000        0.0000000000000000     
  0.78125000000000000       0.56250000000000000        0.0000000000000000     
  0.81250000000000000       0.56250000000000000        0.0000000000000000     
  0.84375000000000000       0.56250000000000000        0.0000000000000000     
  0.87500000000000000       0.56250000000000000        0.0000000000000000     
  0.75000000000000000       0.59375000000000000        0.0000000000000000     
  0.78125000000000000       0.59375000000000000        0.0000000000000000     
  0.81250000000000000       0.59375000000000000        0.0000000000000000     
  0.84375000000000000       0.59375000000000000        0.0000000000000000     
  0.87500000000000000       0.59375000000000000        0.0000000000000000     
  0.75000000000000000       0.62500000000000000        0.0000000000000000     
  0.78125000000000000       0.62500000000000000        0.0000000000000000     
  0.81250000000000000       0.62500000000000000        0.0000000000000000     
  0.84375000000000000       0.62500000000000000        0.0000000000000000     
  0.87500000000000000       0.62500000000000000        0.0000000000000000     
  0.87500000000000000       0.50000000000000000        0.0000000000000000     
  0.90625000000000000       0.50000000000000000        0.0000000000000000     
  0.93750000000000000       0.50000000000000000        0.0000000000000000     
  0.96875000000000000       0.50000000000000000        0.0000000000000000     
   1.0000000000000000       0.50000000000000000        0.0000000000000000     
  0.87500000000000000       0.53125000000000000        0.0000000000000000     
  0.90625000000000000       0.53125000000000000        0.0000000000000000     
  0.93750000000000000       0.53125000000000000        0.0000000000000000     
  0.96875000000000000       0.53125000000000000        0.0000000000000000     
   1.0000000000000000       0.53125000000000000        0.0000000000000000     
  0.87500000000000000       0.56250000000000000        0.0000000000000000     
  0.90625000000000000       0.56250000000000000        0.0000000000000000     
  0.93750000000000000       0.56250000000000000        0.0000000000000000     
  0.96875000000000000       0.56250000000000000        0.0000000000000000     
   1.0000000000000000       0.56250000000000000        0.0000000000000000     
  0.87500000000000000       0.59375000000000000        0.0000000000000000     
  0.90625000000000000       0.59375000000000000        0.0000000000000000     
  0.93750000000000000       0.59375000000000000        0.0000000000000000     
  0.96875000000000000       0.59375000000000000        0.0000000000000000     
   1.0000000000000000       0.59375000000000000        0.0000000000000000     
  0.87500000000000000       0.62500000000000000        0.0000000000000000     
  0.90625000000000000       0.62500000000000000        0.0000000000000000     
  0.93750000000000000       0.62500000000000000        0.0000000000000000     
  0.96875000000000000       0.62500000000000000        0.0000000000000000     
   1.0000000000000000       0.62500000000000000        0.0000000000000000     
   0.0000000000000000       0.62500000000000000        0.0000000000000000     
   3.1250000000000000E-002  0.62500000000000000        0.0000000000000000     
   6.2500000000000000E-002  0.62500000000000000        0.0000000000000000     
   9.3750000000000000E-002  0.62500000000000000        0.0000000000000000     
  0.12500000000000000       0.62500000000000000        0.0000000000000000     
   0.0000000000000000       0.65625000000000000        0.0000000000000000     
   3.1250000000000000E-002  0.65625000000000000        0.0000000000000000     
   6.2500000000000000E-002  0.65625000000000000        0.0000000000000000     
   9.3750000000000000E-002  0.65625000000000000        0.0000000000000000     
  0.12500000000000000       0.65625000000000000        0.0000000000000000     
   0.0000000000000000       0.68750000000000000        0.0000000000000000     
   3.1250000000000000E-002  0.68750000000000000        0.0000000000000000     
   6.2500000000000000E-002  0.68750000000000000        0.0000000000000000     
   9.3750000000000000E-002  0.68750000000000000        0.0000000000000000     
  0.12500000000000000       0.68750000000000000        0.0000000000000000     
   0.0000000000000000       0.71875000000000000        0.0000000000000000     
   3.1250000000000000E-002  0.71875000000000000        0.0000000000000000     
   6.2500000000000000E-002  0.71875000000000000        0.0000000000000000     
   9.3750000000000000E-002  0.71875000000000000        0.0000000000000000     
  0.12500000000000000       0.71875000000000000        0.0000000000000000     
   0.0000000000000000       0.75000000000000000        0.0000000000000000     
   3.1250000000000000E-002  0.75000000000000000        0.0000000000000000     
   6.2500000000000000E-002  0.75000000000000000        0.0000000000000000     
   9.3750000000000000E-002  0.75000000000000000        0.0000000000000000     
  0.12500000000000000       0.75000000000000000        0.0000000000000000     
  0.12500000000000000       0.62500000000000000        0.0000000000000000     
  0.15625000000000000       0.62500000000000000        0.0000000000000000     
  0.18750000000000000       0.62500000000000000        0.0000000000000000     
  0.21875000000000000       0.62500000000000000        0.0000000000000000     
  0.25000000000000000       0.62500000000000000        0.0000000000000000     
  0.12500000000000000       0.65625000000000000        0.0000000000000000     
  0.15625000000000000       0.65625000000000000        0.0000000000000000     
  0.18750000000000000       0.65625000000000000        0.0000000000000000     
  0.21875000000000000       0.65625000000000000        0.0000000000000000     
  0.25000000000000000       0.65625000000000000        0.0000000000000000     
  0.12500000000000000       0.68750000000000000        0.0000000000000000     
  0.15625000000000000       0.68750000000000000        0.0000000000000000     
  0.18750000000000000       0.68750000000000000        0.0000000000000000     
  0.21875000000000000       0.68750000000000000        0.0000000000000000     
  0.25000000000000000       0.68750000000000000        0.0000000000000000     
  0.12500000000000000       0.71875000000000000        0.0000000000000000     
  0.15625000000000000       0.71875000000000000        0.0000000000000000     
  0.18750000000000000       0.71875000000000000        0.0000000000000000     
  0.21875000000000000       0.71875000000000000        0.0000000000000000     
  0.25000000000000000       0.71875000000000000        0.0000000000000000     
  0.12500000000000000       0.75000000000000000        0.0000000000000000     
  0.15625000000000000       0.75000000000000000        0.0000000000000000     
  0.18750000000000000       0.75000000000000000        0.0000000000000000     
  0.21875000000000000       0.75000000000000000        0.0000000000000000     
  0.25000000000000000       0.75000000000000000        0.0000000000000000     
  0.25000000000000000       0.62500000000000000        0.0000000000000000     
  0.28125000000000000       0.62500000000000000        0.0000000000000000     
  0.31250000000000000       0.62500000000000000        0.0000000000000000     
  0.34375000000000000       0.62500000000000000        0.0000000000000000     
  0.37500000000000000       0.62500000000000000        0.0000000000000000     
  0.25000000000000000       0.65625000000000000        0.0000000000000000     
  0.28125000000000000       0.65625000000000000        0.0000000000000000     
  0.31250000000000000       0.65625000000000000        0.0000000000000000     
  0.34375000000000000       0.65625000000000000        0.0000000000000000     
  0.37500000000000000       0.65625000000000000        0.0000000000000000     
  0.25000000000000000       0.68750000000000000        0.0000000000000000     
  0.28125000000000000       0.68750000000000000        0.0000000000000000     
  0.31250000000000000       0.68750000000000000        0.0000000000000000     
  0.34375000000000000       0.68750000000000000        0.0000000000000000     
  0.37500000000000000       0.68750000000000000        0.0000000000000000     
  0.25000000000000000       0.71875000000000000        0.0000000000000000     
  0.28125000000000000       0.71875000000000000        0.0000000000000000     
  0.31250000000000000       0.71875000000000000        0.0000000000000000     
  0.34375000000000000       0.71875000000000000        0.0000000000000000     
  0.37500000000000000       0.71875000000000000        0.0000000000000000     
  0.25000000000000000       0.75000000000000000        0.0000000000000000     
  0.28125000000000000       0.75000000000000000        0.0000000000000000     
  0.31250000000000000       0.75000000000000000        0.0000000000000000     
  0.34375000000000000       0.75000000000000000        0.0000000000000000     
  0.37500000000000000       0.75000000000000000        0.0000000000000000     
  0.37500000000000000       0.62500000000000000        0.0000000000000000     
  0.40625000000000000       0.62500000000000000        0.0000000000000000     
  0.43750000000000000       0.62500000000000000        0.0000000000000000     
  0.46875000000000000       0.62500000000000000        0.0000000000000000     
  0.50000000000000000       0.62500000000000000        0.0000000000000000     
  0.37500000000000000       0.65625000000000000        0.0000000000000000     
  0.40625000000000000       0.65625000000000000        0.0000000000000000     
  0.43750000000000000       0.65625000000000000        0.0000000000000000     
  0.46875000000000000       0.65625000000000000        0.0000000000000000     
  0.50000000000000000       0.65625000000000000        0.0000000000000000     
  0.37500000000000000       0.68750000000000000        0.0000000000000000     
  0.40625000000000000       0.68750000000000000        0.0000000000000000     
  0.43750000000000000       0.68750000000000000        0.0000000000000000     
  0.46875000000000000       0.68750000000000000        0.0000000000000000     
  0.50000000000000000       0.68750000000000000        0.0000000000000000     
  0.37500000000000000       0.71875000000000000        0.0000000000000000     
  0.40625000000000000       0.71875000000000000        0.0000000000000000     
  0.43750000000000000       0.71875000000000000        0.0000000000000000     
  0.46875000000000000       0.71875000000000000        0.0000000000000000     
  0.50000000000000000       0.71875000000000000        0.0000000000000000     
  0.37500000000000000       0.75000000000000000        0.0000000000000000     
  0.40625000000000000       0.75000000000000000        0.0000000000000000     
  0.43750000000000000       0.75000000000000000        0.0000000000000000     
  0.46875000000000000       0.75000000000000000        0.0000000000000000     
  0.50000000000000000       0.75000000000000000        0.0000000000000000     
  0.50000000000000000       0.62500000000000000        0.0000000000000000     
  0.53125000000000000       0.62500000000000000        0.0000000000000000     
  0.56250000000000000       0.62500000000000000        0.0000000000000000     
  0.59375000000000000       0.62500000000000000        0.0000000000000000     
  0.62500000000000000       0.62500000000000000        0.0000000000000000     
  0.50000000000000000       0.65625000000000000        0.0000000000000000     
  0.53125000000000000       0.65625000000000000        0.0000000000000000     
  0.56250000000000000       0.65625000000000000        0.0000000000000000     
  0.59375000000000000       0.65625000000000000        0.0000000000000000     
  0.62500000000000000       0.65625000000000000        0.0000000000000000     
  0.50000000000000000       0.68750000000000000        0.0000000000000000     
  0.53125000000000000       0.68750000000000000        0.0000000000000000     
  0.56250000000000000       0.68750000000000000        0.0000000000000000     
  0.59375000000000000       0.68750000000000000        0.0000000000000000     
  0.62500000000000000       0.68750000000000000        0.0000000000000000     
  0.50000000000000000       0.71875000000000000        0.0000000000000000     
  0.53125000000000000       0.71875000000000000        0.0000000000000000     
  0.56250000000000000       0.71875000000000000        0.0000000000000000     
  0.59375000000000000       0.71875000000000000        0.0000000000000000     
  0.62500000000000000       0.71875000000000000        0.0000000000000000     
  0.50000000000000000       0.75000000000000000        0.0000000000000000     
  0.53125000000000000       0.75000000000000000        0.0000000000000000     
  0.56250000000000000       0.75000000000000000        0.0000000000000000     
  0.59375000000000000       0.75000000000000000        0.0000000000000000     
  0.62500000000000000       0.75000000000000000        0.0000000000000000     
  0.62500000000000000       0.62500000000000000        0.0000000000000000     
  0.65625000000000000       0.62500000000000000        0.0000000000000000     
  0.68750000000000000       0.62500000000000000        0.0000000000000000     
  0.71875000000000000       0.62500000000000000        0.0000000000000000     
  0.75000000000000000       0.62500000000000000        0.0000000000000000     
  0.62500000000000000       0.65625000000000000        0.0000000000000000     
  0.65625000000000000       0.65625000000000000        0.0000000000000000     
  0.68750000000000000       0.65625000000000000        0.0000000000000000     
  0.71875000000000000       0.65625000000000000        0.0000000000000000     
  0.75000000000000000       0.65625000000000000        0.0000000000000000     
  0.62500000000000000       0.68750000000000000        0.0000000000000000     
  0.65625000000000000       0.68750000000000000        0.0000000000000000     
  0.68750000000000000       0.68750000000000000        0.0000000000000000     
  0.71875000000000000       0.68750000000000000        0.0000000000000000     
  0.75000000000000000       0.68750000000000000        0.0000000000000000     
  0.62500000000000000       0.71875000000000000        0.0000000000000000     
  0.65625000000000000       0.71875000000000000        0.0000000000000000     
  0.68750000000000000       0.71875000000000000        0.0000000000000000     
  0.71875000000000000       0.71875000000000000        0.0000000000000000     
  0.75000000000000000       0.71875000000000000        0.0000000000000000     
  0.62500000000000000       0.75000000000000000        0.0000000000000000     
  0.65625000000000000       0.75000000000000000        0.0000000000000000     
  0.68750000000000000       0.75000000000000000        0.0000000000000000     
  0.71875000000000000       0.75000000000000000        0.0000000000000000     
  0.75000000000000000       0.75000000000000000        0.0000000000000000     
  0.75000000000000000       0.62500000000000000        0.0000000000000000     
  0.78125000000000000       0.62500000000000000        0.0000000000000000     
  0.81250000000000000       0.62500000000000000        0.0000000000000000     
  0.84375000000000000       0.62500000000000000        0.0000000000000000     
  0.87500000000000000       0.62500000000000000        0.0000000000000000     
  0.75000000000000000       0.65625000000000000        0.0000000000000000     
  0.78125000000000000       0.65625000000000000        0.0000000000000000     
  0.81250000000000000       0.65625000000000000        0.0000000000000000     
  0.84375000000000000       0.65625000000000000        0.0000000000000000     
  0.87500000000000000       0.65625000000000000        0.0000000000000000     
  0.75000000000000000       0.68750000000000000        0.0000000000000000     
  0.78125000000000000       0.68750000000000000        0.0000000000000000     
  0.81250000000000000       0.68750000000000000        0.0000000000000000     
  0.84375000000000000       0.68750000000000000        0.0000000000000000     
  0.87500000000000000       0.68750000000000000        0.0000000000000000     
  0.75000000000000000       0.71875000000000000        0.0000000000000000     
  0.78125000000000000       0.71875000000000000        0.0000000000000000     
  0.81250000000000000       0.71875000000000000        0.0000000000000000     
  0.84375000000000000       0.71875000000000000        0.0000000000000000     
  0.87500000000000000       0.71875000000000000        0.0000000000000000     
  0.75000000000000000       0.75000000000000000        0.0000000000000000     
  0.78125000000000000       0.75000000000000000        0.0000000000000000     
  0.81250000000000000       0.75000000000000000        0.0000000000000000     
  0.84375000000000000       0.75000000000000000        0.0000000000000000     
  0.87500000000000000       0.75000000000000000        0.0000000000000000     
  0.87500000000000000       0.62500000000000000        0.0000000000000000     
  0.90625000000000000       0.62500000000000000        0.0000000000000000     
  0.93750000000000000       0.62500000000000000        0.0000000000000000     
  0.96875000000000000       0.62500000000000000        0.0000000000000000     
   1.0000000000000000       0.62500000000000000        0.0000000000000000     
  0.87500000000000000       0.65625000000000000        0.0000000000000000     
  0.90625000000000000       0.65625000000000000        0.0000000000000000     
  0.93750000000000000       0.65625000000000000        0.0000000000000000     
  0.96875000000000000       0.65625000000000000        0.0000000000000000     
   1.0000000000000000       0.65625000000000000        0.0000000000000000     
  0.87500000000000000       0.68750000000000000        0.0000000000000000     
  0.90625000000000000       0.68750000000000000        0.0000000000000000     
  0.93750000000000000       0.68750000000000000        0.0000000000000000     
  0.96875000000000000       0.68750000000000000        0.0000000000000000     
   1.0000000000000000       0.68750000000000000        0.0000000000000000     
  0.87500000000000000       0.71875000000000000        0.0000000000000000     
  0.90625000000000000       0.71875000000000000        0.0000000000000000     
  0.93750000000000000       0.71875000000000000        0.0000000000000000     
  0.96875000000000000       0.71875000000000000        0.0000000000000000     
   1.0000000000000000       0.71875000000000000        0.0000000000000000     
  0.87500000000000000       0.75000000000000000        0.0000000000000000     
  0.90625000000000000       0.75000000000000000        0.0000000000000000     
  0.93750000000000000       0.75000000000000000        0.0000000000000000     
  0.96875000000000000       0.75000000000000000        0.0000000000000000     
   1.0000000000000000       0.75000000000000000        0.0000000000000000     
   0.0000000000000000       0.75000000000000000        0.0000000000000000     
   3.1250000000000000E-002  0.75000000000000000        0.0000000000000000     
   6.2500000000000000E-002  0.75000000000000000        0.0000000000000000     
   9.3750000000000000E-002  0.75000000000000000        0.0000000000000000     
  0.12500000000000000       0.75000000000000000        0.0000000000000000     
   0.0000000000000000       0.78125000000000000        0.0000000000000000     
   3.1250000000000000E-002  0.78125000000000000        0.0000000000000000     
   6.2500000000000000E-002  0.78125000000000000        0.0000000000000000     
   9.3750000000000000E-002  0.78125000000000000        0.0000000000000000     
  0.12500000000000000       0.78125000000000000        0.0000000000000000     
   0.0000000000000000       0.81250000000000000        0.0000000000000000     
   3.1250000000000000E-002  0.81250000000000000        0.0000000000000000     
   6.2500000000000000E-002  0.81250000000000000        0.0000000000000000     
   9.3750000000000000E-002  0.81250000000000000        0.0000000000000000     
  0.12500000000000000       0.81250000000000000        0.0000000000000000     
   0.0000000000000000       0.84375000000000000        0.0000000000000000     
   3.1250000000000000E-002  0.84375000000000000        0.0000000000000000     
   6.2500000000000000E-002  0.84375000000000000        0.0000000000000000     
   9.3750000000000000E-002  0.84375000000000000        0.0000000000000000     
  0.12500000000000000       0.84375000000000000        0.0000000000000000     
   0.0000000000000000       0.87500000000000000        0.0000000000000000     
   3.1250000000000000E-002  0.87500000000000000        0.0000000000000000     
   6.2500000000000000E-002  0.87500000000000000        0.0000000000000000     
   9.3750000000000000E-002  0.87500000000000000        0.0000000000000000     
  0.12500000000000000       0.87500000000000000        0.0000000000000000     
  0.12500000000000000       0.75000000000000000        0.0000000000000000     
  0.15625000000000000       0.75000000000000000        0.0000000000000000     
  0.18750000000000000       0.75000000000000000        0.0000000000000000     
  0.21875000000000000       0.75000000000000000        0.0000000000000000     
  0.25000000000000000       0.75000000000000000        0.0000000000000000     
  0.12500000000000000       0.78125000000000000        0.0000000000000000     
  0.15625000000000000       0.78125000000000000        0.0000000000000000     
  0.18750000000000000       0.78125000000000000        0.0000000000000000     
  0.21875000000000000       0.78125000000000000        0.0000000000000000     
  0.25000000000000000       0.78125000000000000        0.0000000000000000     
  0.12500000000000000       0.81250000000000000        0.0000000000000000     
  0.15625000000000000       0.81250000000000000        0.0000000000000000     
  0.18750000000000000       0.81250000000000000        0.0000000000000000     
  0.21875000000000000       0.81250000000000000        0.0000000000000000     
  0.25000000000000000       0.81250000000000000        0.0000000000000000     
  0.12500000000000000       0.84375000000000000        0.0000000000000000     
  0.15625000000000000       0.84375000000000000        0.0000000000000000     
  0.18750000000000000       0.84375000000000000        0.0000000000000000     
  0.21875000000000000       0.84375000000000000        0.0000000000000000     
  0.25000000000000000       0.84375000000000000        0.0000000000000000     
  0.12500000000000000       0.87500000000000000        0.0000000000000000     
  0.15625000000000000       0.87500000000000000        0.0000000000000000     
  0.18750000000000000       0.87500000000000000        0.0000000000000000     
  0.21875000000000000       0.87500000000000000        0.0000000000000000     
  0.25000000000000000       0.87500000000000000        0.0000000000000000     
  0.25000000000000000       0.75000000000000000        0.0000000000000000     
  0.28125000000000000       0.75000000000000000        0.0000000000000000     
  0.31250000000000000       0.75000000000000000        0.0000000000000000     
  0.34375000000000000       0.75000000000000000        0.0000000000000000     
  0.37500000000000000       0.75000000000000000        0.0000000000000000     
  0.25000000000000000       0.78125000000000000        0.0000000000000000     
  0.28125000000000000       0.78125000000000000        0.0000000000000000     
  0.31250000000000000       0.78125000000000000        0.0000000000000000     
  0.34375000000000000       0.78125000000000000        0.0000000000000000     
  0.37500000000000000       0.78125000000000000        0.0000000000000000     
  0.25000000000000000       0.81250000000000000        0.0000000000000000     
  0.28125000000000000       0.81250000000000000        0.0000000000000000     
  0.31250000000000000       0.81250000000000000        0.0000000000000000     
  0.34375000000000000       0.81250000000000000        0.0000000000000000     
  0.37500000000000000       0.81250000000000000        0.0000000000000000     
  0.25000000000000000       0.84375000000000000        0.0000000000000000     
  0.28125000000000000       0.84375000000000000        0.0000000000000000     
  0.31250000000000000       0.84375000000000000        0.0000000000000000     
  0.34375000000000000       0.84375000000000000        0.0000000000000000     
  0.37500000000000000       0.84375000000000000        0.0000000000000000     
  0.25000000000000000       0.87500000000000000        0.0000000000000000     
  0.28125000000000000       0.87500000000000000        0.0000000000000000     
  0.31250000000000000       0.87500000000000000        0.0000000000000000     
  0.34375000000000000       0.87500000000000000        0.0000000000000000     
  0.37500000000000000       0.87500000000000000        0.0000000000000000     
  0.37500000000000000       0.75000000000000000        0.0000000000000000     
  0.40625000000000000       0.75000000000000000        0.0000000000000000     
  0.43750000000000000       0.75000000000000000        0.0000000000000000     
  0.46875000000000000       0.75000000000000000        0.0000000000000000     
  0.50000000000000000       0.75000000000000000        0.0000000000000000     
  0.37500000000000000       0.78125000000000000        0.0000000000000000     
  0.40625000000000000       0.78125000000000000        0.0000000000000000     
  0.43750000000000000       0.78125000000000000        0.0000000000000000     
  0.46875000000000000       0.78125000000000000        0.0000000000000000     
  0.50000000000000000       0.78125000000000000        0.0000000000000000     
  0.37500000000000000       0.81250000000000000        0.0000000000000000     
  0.40625000000000000       0.81250000000000000        0.0000000000000000     
  0.43750000000000000       0.81250000000000000        0.0000000000000000     
  0.46875000000000000       0.81250000000000000        0.0000000000000000     
  0.50000000000000000       0.81250000000000000        0.0000000000000000     
  0.37500000000000000       0.84375000000000000        0.0000000000000000     
  0.40625000000000000       0.84375000000000000        0.0000000000000000     
  0.43750000000000000       0.84375000000000000        0.0000000000000000     
  0.46875000000000000       0.84375000000000000        0.0000000000000000     
  0.50000000000000000       0.84375000000000000        0.0000000000000000     
  0.37500000000000000       0.87500000000000000        0.0000000000000000     
  0.40625000000000000       0.87500000000000000        0.0000000000000000     
  0.43750000000000000       0.87500000000000000        0.0000000000000000     
  0.46875000000000000       0.87500000000000000        0.0000000000000000     
  0.50000000000000000       0.87500000000000000        0.0000000000000000     
  0.50000000000000000       0.75000000000000000        0.0000000000000000     
  0.53125000000000000       0.75000000000000000        0.0000000000000000     
  0.56250000000000000       0.75000000000000000        0.0000000000000000     
  0.59375000000000000       0.75000000000000000        0.0000000000000000     
  0.62500000000000000       0.75000000000000000        0.0000000000000000     
  0.50000000000000000       0.78125000000000000        0.0000000000000000     
  0.53125000000000000       0.78125000000000000        0.0000000000000000     
  0.56250000000000000       0.78125000000000000        0.0000000000000000     
  0.59375000000000000       0.78125000000000000        0.0000000000000000     
  0.62500000000000000       0.78125000000000000        0.0000000000000000     
  0.50000000000000000       0.81250000000000000        0.0000000000000000     
  0.53125000000000000       0.81250000000000000        0.0000000000000000     
  0.56250000000000000       0.81250000000000000        0.0000000000000000     
  0.59375000000000000       0.81250000000000000        0.0000000000000000     
  0.62500000000000000       0.81250000000000000        0.0000000000000000     
  0.50000000000000000       0.84375000000000000        0.0000000000000000     
  0.53125000000000000       0.84375000000000000        0.0000000000000000     
  0.56250000000000000       0.84375000000000000        0.0000000000000000     
  0.59375000000000000       0.84375000000000000        0.0000000000000000     
  0.62500000000000000       0.84375000000000000        0.0000000000000000     
  0.50000000000000000       0.87500000000000000        0.0000000000000000     
  0.53125000000000000       0.87500000000000000        0.0000000000000000     
  0.56250000000000000       0.87500000000000000        0.0000000000000000     
  0.59375000000000000       0.87500000000000000        0.0000000000000000     
  0.62500000000000000       0.87500000000000000        0.0000000000000000     
  0.62500000000000000       0.75000000000000000        0.0000000000000000     
  0.65625000000000000       0.75000000000000000        0.0000000000000000     
  0.68750000000000000       0.75000000000000000        0.0000000000000000     
  0.71875000000000000       0.75000000000000000        0.0000000000000000     
  0.75000000000000000       0.75000000000000000        0.0000000000000000     
  0.62500000000000000       0.78125000000000000        0.0000000000000000     
  0.65625000000000000       0.78125000000000000        0.0000000000000000     
  0.68750000000000000       0.78125000000000000        0.0000000000000000     
  0.71875000000000000       0.78125000000000000        0.0000000000000000     
  0.75000000000000000       0.78125000000000000        0.0000000000000000     
  0.62500000000000000       0.81250000000000000        0.0000000000000000     
  0.65625000000000000       0.81250000000000000        0.0000000000000000     
  0.68750000000000000       0.81250000000000000        0.0000000000000000     
  0.71875000000000000       0.81250000000000000        0.0000000000000000     
  0.75000000000000000       0.81250000000000000        0.0000000000000000     
  0.62500000000000000       0.84375000000000000        0.0000000000000000     
  0.65625000000000000       0.84375000000000000        0.0000000000000000     
  0.68750000000000000       0.84375000000000000        0.0000000000000000     
  0.71875000000000000       0.84375000000000000        0.0000000000000000     
  0.75000000000000000       0.84375000000000000        0.0000000000000000     
  0.62500000000000000       0.87500000000000000        0.0000000000000000     
  0.65625000000000000       0.87500000000000000        0.0000000000000000     
  0.68750000000000000       0.87500000000000000        0.0000000000000000     
  0.71875000000000000       0.87500000000000000        0.0000000000000000     
  0.75000000000000000       0.87500000000000000        0.0000000000000000     
  0.75000000000000000       0.75000000000000000        0.0000000000000000     
  0.78125000000000000       0.75000000000000000        0.0000000000000000     
  0.81250000000000000       0.75000000000000000        0.0000000000000000     
  0.84375000000000000       0.75000000000000000        0.0000000000000000     
  0.87500000000000000       0.75000000000000000        0.0000000000000000     
  0.75000000000000000       0.78125000000000000        0.0000000000000000     
  0.78125000000000000       0.78125000000000000        0.0000000000000000     
  0.81250000000000000       0.78125000000000000        0.0000000000000000     
  0.84375000000000000       0.78125000000000000        0.0000000000000000     
  0.87500000000000000       0.78125000000000000        0.0000000000000000     
  0.75000000000000000       0.81250000000000000        0.0000000000000000     
  0.78125000000000000       0.81250000000000000        0.0000000000000000     
  0.81250000000000000       0.81250000000000000        0.0000000000000000     
  0.84375000000000000       0.81250000000000000        0.0000000000000000     
  0.87500000000000000       0.81250000000000000        0.0000000000000000     
  0.75000000000000000       0.84375000000000000        0.0000000000000000     
  0.78125000000000000       0.84375000000000000        0.0000000000000000     
  0.81250000000000000       0.84375000000000000        0.0000000000000000     
  0.84375000000000000       0.84375000000000000        0.0000000000000000     
  0.87500000000000000       0.84375000000000000        0.0000000000000000     
  0.75000000000000000       0.87500000000000000        0.0000000000000000     
  0.78125000000000000       0.87500000000000000        0.0000000000000000     
  0.81250000000000000       0.87500000000000000        0.0000000000000000     
  0.84375000000000000       0.87500000000000000        0.0000000000000000     
  0.87500000000000000       0.87500000000000000        0.0000000000000000     
  0.87500000000000000       0.75000000000000000        0.0000000000000000     
  0.90625000000000000       0.75000000000000000        0.0000000000000000     
  0.93750000000000000       0.75000000000000000        0.0000000000000000     
  0.96875000000000000       0.75000000000000000        0.0000000000000000     
   1.0000000000000000       0.75000000000000000        0.0000000000000000     
  0.87500000000000000       0.78125000000000000        0.0000000000000000     
  0.90625000000000000       0.78125000000000000        0.0000000000000000     
  0.93750000000000000       0.78125000000000000        0.0000000000000000     
  0.96875000000000000       0.78125000000000000        0.0000000000000000     
   1.0000000000000000       0.78125000000000000        0.0000000000000000     
  0.87500000000000000       0.81250000000000000        0.0000000000000000     
  0.90625000000000000       0.81250000000000000        0.0000000000000000     
  0.93750000000000000       0.81250000000000000        0.0000000000000000     
  0.96875000000000000       0.81250000000000000        0.0000000000000000     
   1.0000000000000000       0.81250000000000000        0.0000000000000000     
  0.87500000000000000       0.84375000000000000        0.0000000000000000     
  0.90625000000000000       0.84375000000000000        0.0000000000000000     
  0.93750000000000000       0.84375000000000000        0.0000000000000000     
  0.96875000000000000       0.84375000000000000        0.0000000000000000     
   1.0000000000000000       0.84375000000000000        0.0000000000000000     
  0.87500000000000000       0.87500000000000000        0.0000000000000000     
  0.90625000000000000       0.87500000000000000        0.0000000000000000     
  0.93750000000000000       0.87500000000000000        0.0000000000000000     
  0.96875000000000000       0.87500000000000000        0.0000000000000000     
   1.0000000000000000       0.87500000000000000        0.0000000000000000     
   0.0000000000000000       0.87500000000000000        0.0000000000000000     
   3.1250000000000000E-002  0.87500000000000000        0.0000000000000000     
   6.2500000000000000E-002  0.87500000000000000        0.0000000000000000     
   9.3750000000000000E-002  0.87500000000000000        0.0000000000000000     
  0.12500000000000000       0.87500000000000000        0.0000000000000000     
   0.0000000000000000       0.90625000000000000        0.0000000000000000     
   3.1250000000000000E-002  0.90625000000000000        0.0000000000000000     
   6.2500000000000000E-002  0.90625000000000000        0.0000000000000000     
   9.3750000000000000E-002  0.90625000000000000        0.0000000000000000     
  0.12500000000000000       0.90625000000000000        0.0000000000000000     
   0.0000000000000000       0.93750000000000000        0.0000000000000000     
   3.1250000000000000E-002  0.93750000000000000        0.0000000000000000     
   6.2500000000000000E-002  0.93750000000000000        0.0000000000000000     
   9.3750000000000000E-002  0.93750000000000000        0.0000000000000000     
  0.12500000000000000       0.93750000000000000        0.0000000000000000     
   0.0000000000000000       0.96875000000000000        0.0000000000000000     
   3.1250000000000000E-002  0.96875000000000000        0.0000000000000000     
   6.2500000000000000E-002  0.96875000000000000        0.0000000000000000     
   9.3750000000000000E-002  0.96875000000000000        0.0000000000000000     
  0.12500000000000000       0.96875000000000000        0.0000000000000000     
   0.0000000000000000        1.0000000000000000        0.0000000000000000     
   3.1250000000000000E-002   1.0000000000000000        0.0000000000000000     
   6.2500000000000000E-002   1.0000000000000000        0.0000000000000000     
   9.3750000000000000E-002   1.0000000000000000        0.0000000000000000     
  0.12500000000000000        1.0000000000000000        0.0000000000000000     
  0.12500000000000000       0.87500000000000000        0.0000000000000000     
  0.15625000000000000       0.87500000000000000        0.0000000000000000     
  0.18750000000000000       0.87500000000000000        0.0000000000000000     
  0.21875000000000000       0.87500000000000000        0.0000000000000000     
  0.25000000000000000       0.87500000000000000        0.0000000000000000     
  0.12500000000000000       0.90625000000000000        0.0000000000000000     
  0.15625000000000000       0.90625000000000000        0.0000000000000000     
  0.18750000000000000       0.90625000000000000        0.0000000000000000     
  0.21875000000000000       0.90625000000000000        0.0000000000000000     
  0.25000000000000000       0.90625000000000000        0.0000000000000000     
  0.12500000000000000       0.93750000000000000        0.0000000000000000     
  0.15625000000000000       0.93750000000000000        0.0000000000000000     
  0.18750000000000000       0.93750000000000000        0.0000000000000000     
  0.21875000000000000       0.93750000000000000        0.0000000000000000     
  0.25000000000000000       0.93750000000000000        0.0000000000000000     
  0.12500000000000000       0.96875000000000000        0.0000000000000000     
  0.15625000000000000       0.96875000000000000        0.0000000000000000     
  0.18750000000000000       0.96875000000000000        0.0000000000000000     
  0.21875000000000000       0.96875000000000000        0.0000000000000000     
  0.25000000000000000       0.96875000000000000        0.0000000000000000     
  0.12500000000000000        1.0000000000000000        0.0000000000000000     
  0.15625000000000000        1.0000000000000000        0.0000000000000000     
  0.18750000000000000        1.0000000000000000        0.0000000000000000     
  0.21875000000000000        1.0000000000000000        0.0000000000000000     
  0.25000000000000000        1.0000000000000000        0.0000000000000000     
  0.25000000000000000       0.87500000000000000        0.0000000000000000     
  0.28125000000000000       0.87500000000000000        0.0000000000000000     
  0.31250000000000000       0.87500000000000000        0.0000000000000000     
  0.34375000000000000       0.87500000000000000        0.0000000000000000     
  0.37500000000000000       0.87500000000000000        0.0000000000000000     
  0.25000000000000000       0.90625000000000000        0.0000000000000000     
  0.28125000000000000       0.90625000000000000        0.0000000000000000     
  0.31250000000000000       0.90625000000000000        0.0000000000000000     
  0.34375000000000000       0.90625000000000000        0.0000000000000000     
  0.37500000000000000       0.90625000000000000        0.0000000000000000     
  0.25000000000000000       0.93750000000000000        0.0000000000000000     
  0.28125000000000000       0.93750000000000000        0.0000000000000000     
  0.31250000000000000       0.93750000000000000        0.0000000000000000     
  0.34375000000000000       0.93750000000000000        0.0000000000000000     
  0.37500000000000000       0.93750000000000000        0.0000000000000000     
  0.25000000000000000       0.96875000000000000        0.0000000000000000     
  0.28125000000000000       0.96875000000000000        0.0000000000000000     
  0.31250000000000000       0.96875000000000000        0.0000000000000000     
  0.34375000000000000       0.96875000000000000        0.0000000000000000     
  0.37500000000000000       0.96875000000000000        0.0000000000000000     
  0.25000000000000000        1.0000000000000000        0.0000000000000000     
  0.28125000000000000        1.0000000000000000        0.0000000000000000     
  0.31250000000000000        1.0000000000000000        0.0000000000000000     
  0.34375000000000000        1.0000000000000000        0.0000000000000000     
  0.37500000000000000        1.0000000000000000        0.0000000000000000     
  0.37500000000000000       0.87500000000000000        0.0000000000000000     
  0.40625000000000000       0.87500000000000000        0.0000000000000000     
  0.43750000000000000       0.87500000000000000        0.0000000000000000     
  0.46875000000000000       0.87500000000000000        0.0000000000000000     
  0.50000000000000000       0.87500000000000000        0.0000000000000000     
  0.37500000000000000       0.90625000000000000        0.0000000000000000     
  0.40625000000000000       0.90625000000000000        0.0000000000000000     
  0.43750000000000000       0.90625000000000000        0.0000000000000000     
  0.46875000000000000       0.90625000000000000        0.0000000000000000     
  0.50000000000000000       0.90625000000000000        0.0000000000000000     
  0.37500000000000000       0.93750000000000000        0.0000000000000000     
  0.40625000000000000       0.93750000000000000        0.0000000000000000     
  0.43750000000000000       0.93750000000000000        0.0000000000000000     
  0.46875000000000000       0.93750000000000000        0.0000000000000000     
  0.50000000000000000       0.93750000000000000        0.0000000000000000     
  0.37500000000000000       0.96875000000000000        0.0000000000000000     
  0.40625000000000000       0.96875000000000000        0.0000000000000000     
  0.43750000000000000       0.96875000000000000        0.0000000000000000     
  0.46875000000000000       0.96875000000000000        0.0000000000000000     
  0.50000000000000000       0.96875000000000000        0.0000000000000000     
  0.37500000000000000        1.0000000000000000        0.0000000000000000     
  0.40625000000000000        1.0000000000000000        0.0000000000000000     
  0.43750000000000000        1.0000000000000000        0.0000000000000000     
  0.46875000000000000        1.0000000000000000        0.0000000000000000     
  0.50000000000000000        1.0000000000000000        0.0000000000000000     
  0.50000000000000000       0.87500000000000000        0.0000000000000000     
  0.53125000000000000       0.87500000000000000        0.0000000000000000     
  0.56250000000000000       0.87500000000000000        0.0000000000000000     
  0.59375000000000000       0.87500000000000000        0.0000000000000000     
  0.62500000000000000       0.87500000000000000        0.0000000000000000     
  0.50000000000000000       0.90625000000000000        0.0000000000000000     
  0.53125000000000000       0.90625000000000000        0.0000000000000000     
  0.56250000000000000       0.90625000000000000        0.0000000000000000     
  0.59375000000000000       0.90625000000000000        0.0000000000000000     
  0.62500000000000000       0.90625000000000000        0.0000000000000000     
  0.50000000000000000       0.93750000000000000        0.0000000000000000     
  0.53125000000000000       0.93750000000000000        0.0000000000000000     
  0.56250000000000000       0.93750000000000000        0.0000000000000000     
  0.59375000000000000       0.93750000000000000        0.0000000000000000     
  0.62500000000000000       0.93750000000000000        0.0000000000000000     
  0.50000000000000000       0.96875000000000000        0.0000000000000000     
  0.53125000000000000       0.96875000000000000        0.0000000000000000     
  0.56250000000000000       0.96875000000000000        0.0000000000000000     
  0.59375000000000000       0.96875000000000000        0.0000000000000000     
  0.62500000000000000       0.96875000000000000        0.0000000000000000     
  0.50000000000000000        1.0000000000000000        0.0000000000000000     
  0.53125000000000000        1.0000000000000000        0.0000000000000000     
  0.56250000000000000        1.0000000000000000        0.0000000000000000     
  0.59375000000000000        1.0000000000000000        0.0000000000000000     
  0.62500000000000000        1.0000000000000000        0.0000000000000000     
  0.62500000000000000       0.87500000000000000        0.0000000000000000     
  0.65625000000000000       0.87500000000000000        0.0000000000000000     
  0.68750000000000000       0.87500000000000000        0.0000000000000000     
  0.71875000000000000       0.87500000000000000        0.0000000000000000     
  0.75000000000000000       0.87500000000000000        0.0000000000000000     
  0.62500000000000000       0.90625000000000000        0.0000000000000000     
  0.65625000000000000       0.90625000000000000        0.0000000000000000     
  0.68750000000000000       0.90625000000000000        0.0000000000000000     
  0.71875000000000000       0.90625000000000000        0.0000000000000000     
  0.75000000000000000       0.90625000000000000        0.0000000000000000     
  0.62500000000000000       0.93750000000000000        0.0000000000000000     
  0.65625000000000000       0.93750000000000000        0.0000000000000000     
  0.68750000000000000       0.93750000000000000        0.0000000000000000     
  0.71875000000000000       0.93750000000000000        0.0000000000000000     
  0.75000000000000000       0.93750000000000000        0.0000000000000000     
  0.62500000000000000       0.96875000000000000        0.0000000000000000     
  0.65625000000000000       0.96875000000000000        0.0000000000000000     
  0.68750000000000000       0.96875000000000000        0.0000000000000000     
  0.71875000000000000       0.96875000000000000        0.0000000000000000     
  0.75000000000000000       0.96875000000000000        0.0000000000000000     
  0.62500000000000000        1.0000000000000000        0.0000000000000000     
  0.65625000000000000        1.0000000000000000        0.0000000000000000     
  0.68750000000000000        1.0000000000000000        0.0000000000000000     
  0.71875000000000000        1.0000000000000000        0.0000000000000000     
  0.75000000000000000        1.0000000000000000        0.0000000000000000     
  0.75000000000000000       0.87500000000000000        0.0000000000000000     
  0.78125000000000000       0.87500000000000000        0.0000000000000000     
  0.81250000000000000       0.87500000000000000        0.0000000000000000     
  0.84375000000000000       0.87500000000000000        0.0000000000000000     
  0.87500000000000000       0.87500000000000000        0.0000000000000000     
  0.75000000000000000       0.90625000000000000        0.0000000000000000     
  0.78125000000000000       0.90625000000000000        0.0000000000000000     
  0.81250000000000000       0.90625000000000000        0.0000000000000000     
  0.84375000000000000       0.90625000000000000        0.0000000000000000     
  0.87500000000000000       0.90625000000000000        0.0000000000000000     
  0.75000000000000000       0.93750000000000000        0.0000000000000000     
  0.78125000000000000       0.93750000000000000        0.0000000000000000     
  0.81250000000000000       0.93750000000000000        0.0000000000000000     
  0.84375000000000000       0.93750000000000000        0.0000000000000000     
  0.87500000000000000       0.93750000000000000        0.0000000000000000     
  0.75000000000000000       0.96875000000000000        0.0000000000000000     
  0.78125000000000000       0.96875000000000000        0.0000000000000000     
  0.81250000000000000       0.96875000000000000        0.0000000000000000     
  0.84375000000000000       0.96875000000000000        0.0000000000000000     
  0.87500000000000000       0.96875000000000000        0.0000000000000000     
  0.75000000000000000        1.0000000000000000        0.0000000000000000     
  0.78125000000000000        1.0000000000000000        0.0000000000000000     
  0.81250000000000000        1.0000000000000000        0.0000000000000000     
  0.84375000000000000        1.0000000000000000        0.0000000000000000     
  0.87500000000000000        1.0000000000000000        0.0000000000000000     
  0.87500000000000000       0.87500000000000000        0.0000000000000000     
  0.90625000000000000       0.87500000000000000        0.0000000000000000     
  0.93750000000000000       0.87500000000000000        0.0000000000000000     
  0.96875000000000000       0.87500000000000000        0.0000000000000000     
   1.0000000000000000       0.87500000000000000        0.0000000000000000     
  0.87500000000000000       0.90625000000000000        0.0000000000000000     
  0.90625000000000000       0.90625000000000000        0.0000000000000000     
  0.93750000000000000       0.90625000000000000        0.0000000000000000     
  0.96875000000000000       0.90625000000000000        0.0000000000000000     
   1.0000000000000000       0.90625000000000000        0.0000000000000000     
  0.87500000000000000       0.93750000000000000        0.0000000000000000     
  0.90625000000000000       0.93750000000000000        0.0000000000000000     
  0.93750000000000000       0.93750000000000000        0.0000000000000000     
  0.96875000000000000       0.93750000000000000        0.0000000000000000     
   1.0000000000000000       0.93750000000000000        0.0000000000000000     
  0.87500000000000000       0.96875000000000000        0.0000000000000000     
  0.90625000000000000       0.96875000000000000        0.0000000000000000     
  0.93750000000000000       0.96875000000000000        0.0000000000000000     
  0.96875000000000000       0.96875000000000000        0.0000000000000000     
   1.0000000000000000       0.96875000000000000        0.0000000000000000     
  0.87500000000000000        1.0000000000000000        0.0000000000000000     
  0.90625000000000000        1.0000000000000000        0.0000000000000000     
  0.93750000000000000        1.0000000000000000        0.0000000000000000     
  0.96875000000000000        1.0000000000000000        0.0000000000000000     
   1.0000000000000000        1.0000000000000000        0.0000000000000000     
 </DataArray>
 </Points>
 <Cells>
 <DataArray  type="Int32"  Name="connectivity"  format="ascii">
           0           1           6           5
           1           2           7           6
           2           3           8           7
           3           4           9           8
           5           6          11          10
           6           7          12          11
           7           8          13          12
           8           9          14          13
          10          11          16          15
          11          12          17          16
          12          13          18          17
          13          14          19          18
          15          16          21          20
          16          17          22          21
          17          18          23          22
          18          19          24          23
          25          26          31          30
          26          27          32          31
          27          28          33          32
          28          29          34          33
          30          31          36          35
          31          32          37          36
          32          33          38          37
          33          34          39          38
          35          36          41          40
          36          37          42          41
          37          38          43          42
          38          39          44          43
          40          41          46          45
          41          42          47          46
          42          43          48          47
          43          44          49          48
          50          51          56          55
          51          52          57          56
          52          53          58          57
          53          54          59          58
          55          56          61          60
          56          57          62          61
          57          58          63          62
          58          59          64          63
          60          61          66          65
          61          62          67          66
          62          63          68          67
          63          64          69          68
          65          66          71          70
          66          67          72          71
          67          68          73          72
          68          69          74          73
          75          76          81          80
          76          77          82          81
          77          78          83          82
          78          79          84          83
          80          81          86          85
          81          82          87          86
          82          83          88          87
          83          84          89          88
          85          86          91          90
          86          87          92          91
          87          88          93          92
          88          89          94          93
          90          91          96          95
          91          92          97          96
          92          93          98          97
          93          94          99          98
         100         101         106         105
         101         102         107         106
         102         103         108         107
         103         104         109         108
         105         106         111         110
         106         107         112         111
         107         108         113         112
         108         109         114         113
         110         111         116         115
         111         112         117         116
         112         113         118         117
         113         114         119         118
         115         116         121         120
         116         117         122         121
         117         118         123         122
         118         119         124         123
         125         126         131         130
         126         127         132         131
         127         128         133         132
         128         129         134         133
         130         131         136         135
         131         132         137         136
         132         133         138         137
         133         134         139         138
         135         136         141         140
         136         137         142         141
         137         138         143         142
         138         139         144         143
         140         141         146         145
         141         142         147         146
         142         143         148         147
         143         144         149         148
         150         151         156         155
         151         152         157         156
         152         153         158         157
         153         154         159         158
         155         156         161         160
         156         157         162         161
         157         158         163         162
         158         159         164         163
         160         161         166         165
         161         162         167         166
         162         163         168         167
         163         164         169         168
         165         166         171         170
         166         167         172         171
         167         168         173         172
         168         169         174         173
         175         176         181         180
         176         177         182         181
         177         178         183         182
         178         179         184         183
         180         181         186         185
         181         182         187         186
         182         183         188         187
         183         184         189         188
         185         186         191         190
         186         187         192         191
         187         188         193         192
         188         189         194         193
         190         191         196         195
         191         192         197         196
         192         193         198         197
         193         194         199         198
         200         201         206         205
         201         202         207         206
         202         203         208         207
         203         204         209         208
         205         206         211         210
         206         207         212         211
         207         208         213         212
         208         209         214         213
         210         211         216         215
         211         212         217         216
         212         213         218         217
         213         214         219         218
         215         216         221         220
         216         217         222         221
         217         218         223         222
         218         219         224         223
         225         226         231         230
         226         227         232         231
         227         228         233         232
         228         229         234         233
         230         231         236         235
         231         232         237         236
         232         233         238         237
         233         234         239         238
         235         236         241         240
         236         237         242         241
         237         238         243         242
         238         239         244         243
         240         241         246         245
         241         242         247         246
         242         243         248         247
         243         244         249         248
         250         251         256         255
         251         252         257         256
         252         253         258         257
         253         254         259         258
         255         256         261         260
         256         257         262         261
         257         258         263         262
         258         259         264         263
         260         261         266         265
         261         262         267         266
         262         263         268         267
         263         264         269         268
         265         266         271         270
         266         267         272         271
         267         268         273         272
         268         269         274         273
         275         276         281         280
         276         277         282         281
         277         278         283         282
         278         279         284         283
         280         281         286         285
         281         282         287         286
         282         283         288         287
         283         284         289         288
         285         286         291         290
         286         287         292         291
         287         288         293         292
         288         289         294         293
         290         291         296         295
         291         292         297         296
         292         293         298         297
         293         294         299         298
         300         301         306         305
         301         302         307         306
         302         303         308         307
         303         304         309         308
         305         306         311         310
         306         307         312         311
         307         308         313         312
         308         309         314         313
         310         311         316         315
         311         312         317         316
         312         313         318         317
         313         314         319         318
         315         316         321         320
         316         317         322         321
         317         318         323         322
         318         319         324         323
         325         326         331         330
         326         327         332         331
         327         328         333         332
         328         329         334         333
         330         331         336         335
         331         332         337         336
         332         333         338         337
         333         334         339         338
         335         336         341         340
         336         337         342         341
         337         338         343         342
         338         339         344         343
         340         341         346         345
         341         342         347         346
         342         343         348         347
         343         344         349         348
         350         351         356         355
         351         352         357         356
         352         353         358         357
         353         354         359         358
         355         356         361         360
         356         357         362         361
         357         358         363         362
         358         359         364         363
         360         361         366         365
         361         362         367         366
         362         363         368         367
         363         364         369         368
         365         366         371         370
         366         367         372         371
         367         368         373         372
         368         369         374         373
         375         376         381         380
         376         377         382         381
         377         378         383         382
         378         379         384         383
         380         381         386         385
         381         382         387         386
         382         383         388         387
         383         384         389         388
         385         386         391         390
         386         387         392         391
         387         388         393         392
         388         389         394         393
         390         391         396         395
         391         392         397         396
         392         393         398         397
         393         394         399         398
         400         401         406         405
         401         402         407         406
         402         403         408         407
         403         404         409         408
         405         406         411         410
         406         407         412         411
         407         408         413         412
         408         409         414         413
         410         411         416         415
         411         412         417         416
         412         413         418         417
         413         414         419         418
         415         416         421         420
         416         417         422         421
         417         418         423         422
         418         419         424         423
         425         426         431         430
         426         427         432         431
         427         428         433         432
         428         429         434         433
         430         431         436         435
         431         432         437         436
         432         433         438         437
         433         434         439         438
         435         436         441         440
         436         437         442         441
         437         438         443         442
         438         439         444         443
         440         441         446         445
         441         442         447         446
         442         443         448         447
         443         444         449         448
         450         451         456         455
         451         452         457         456
         452         453         458         457
         453         454         459         458
         455         456         461         460
         456         457         462         461
         457         458         463         462
         458         459         464         463
         460         461         466         465
         461         462         467         466
         462         463         468         467
         463         464         469         468
         465         466         471         470
         466         467         472         471
         467         468         473         472
         468         469         474         473
         475         476         481         480
         476         477         482         481
         477         478         483         482
         478         479         484         483
         480         481         486         485
         481         482         487         486
         482         483         488         487
         483         484         489         488
         485         486         491         490
         486         487         492         491
         487         488         493         492
         488         489         494         493
         490         491         496         495
         491         492         497         496
         492         493         498         497
         493         494         499         498
         500         501         506         505
         501         502         507         506
         502         503         508         507
         503         504         509         508
         505         506         511         510
         506         507         512         511
         507         508         513         512
         508         509         514         513
         510         511         516         515
         511         512         517         516
         512         513         518         517
         513         514         519         518
         515         516         521         520
         516         517         522         521
         517         518         523         522
         518         519         524         523
         525         526         531         530
         526         527         532         531
         527         528         533         532
         528         529         534         533
         530         531         536         535
         531         532         537         536
         532         533         538         537
         533         534         539         538
         535         536         541         540
         536         537         542         541
         537         538         543         542
         538         539         544         543
         540         541         546         545
         541         542         547         546
         542         543         548         547
         543         544         549         548
         550         551         556         555
         551         552         557         556
         552         553         558         557
         553         554         559         558
         555         556         561         560
         556         557         562         561
         557         558         563         562
         558         559         564         563
         560         561         566         565
         561         562         567         566
         562         563         568         567
         563         564         569         568
         565         566         571         570
         566         567         572         571
         567         568         573         572
         568         569         574         573
         575         576         581         580
         576         577         582         581
         577         578         583         582
         578         579         584         583
         580         581         586         585
         581         582         587         586
         582         583         588         587
         583         584         589         588
         585         586         591         590
         586         587         592         591
         587         588         593         592
         588         589         594         593
         590         591         596         595
         591         592         597         596
         592         593         598         597
         593         594         599         598
         600         601         606         605
         601         602         607         606
         602         603         608         607
         603         604         609         608
         605         606         611         610
         606         607         612         611
         607         608         613         612
         608         609         614         613
         610         611         616         615
         611         612         617         616
         612         613         618         617
         613         614         619         618
         615         616         621         620
         616         617         622         621
         617         618         623         622
         618         619         624         623
         625         626         631         630
         626         627         632         631
         627         628         633         632
         628         629         634         633
         630         631         636         635
         631         632         637         636
         632         633         638         637
         633         634         639         638
         635         636         641         640
         636         637         642         641
         637         638         643         642
         638         639         644         643
         640         641         646         645
         641         642         647         646
         642         643         648         647
         643         644         649         648
         650         651         656         655
         651         652         657         656
         652         653         658         657
         653         654         659         658
         655         656         661         660
         656         657         662         661
         657         658         663         662
         658         659         664         663
         660         661         666         665
         661         662         667         666
         662         663         668         667
         663         664         669         668
         665         666         671         670
         666         667         672         671
         667         668         673         672
         668         669         674         673
         675         676         681         680
         676         677         682         681
         677         678         683         682
         678         679         684         683
         680         681         686         685
         681         682         687         686
         682         683         688         687
         683         684         689         688
         685         686         691         690
         686         687         692         691
         687         688         693         692
         688         689         694         693
         690         691         696         695
         691         692         697         696
         692         693         698         697
         693         694         699         698
         700         701         706         705
         701         702         707         706
         702         703         708         707
         703         704         709         708
         705         706         711         710
         706         707         712         711
         707         708         713         712
         708         709         714         713
         710         711         716         715
         711         712         717         716
         712         713         718         717
         713         714         719         718
         715         716         721         720
         716         717         722         721
         717         718         723         722
         718         719         724         723
         725         726         731         730
         726         727         732         731
         727         728         733         732
         728         729         734         733
         730         731         736         735
         731         732         737         736
         732         733         738         737
         733         734         739         738
         735         736         741         740
         736         737         742         741
         737         738         743         742
         738         739         744         743
         740         741         746         745
         741         742         747         746
         742         743         748         747
         743         744         749         748
         750         751         756         755
         751         752         757         756
         752         753         758         757
         753         754         759         758
         755         756         761         760
         756         757         762         761
         757         758         763         762
         758         759         764         763
         760         761         766         765
         761         762         767         766
         762         763         768         767
         763         764         769         768
         765         766         771         770
         766         767         772         771
         767         768         773         772
         768         769         774         773
         775         776         781         780
         776         777         782         781
         777         778         783         782
         778         779         784         783
         780         781         786         785
         781         782         787         786
         782         783         788         787
         783         784         789         788
         785         786         791         790
         786         787         792         791
         787         788         793         792
         788         789         794         793
         790         791         796         795
         791         792         797         796
         792         793         798         797
         793         794         799         798
         800         801         806         805
         801         802         807         806
         802         803         808         807
         803         804         809         808
         805         806         811         810
         806         807         812         811
         807         808         813         812
         808         809         814         813
         810         811         816         815
         811         812         817         816
         812         813         818         817
         813         814         819         818
         815         816         821         820
         816         817         822         821
         817         818         823         822
         818         819         824         823
         825         826         831         830
         826         827         832         831
         827         828         833         832
         828         829         834         833
         830         831         836         835
         831         832         837         836
         832         833         838         837
         833         834         839         838
         835         836         841         840
         836         837         842         841
         837         838         843         842
         838         839         844         843
         840         841         846         845
         841         842         847         846
         842         843         848         847
         843         844         849         848
         850         851         856         855
         851         852         857         856
         852         853         858         857
         853         854         859         858
         855         856         861         860
         856         857         862         861
         857         858         863         862
         858         859         864         863
         860         861         866         865
         861         862         867         866
         862         863         868         867
         863         864         869         868
         865         866         871         870
         866         867         872         871
         867         868         873         872
         868         869         874         873
         875         876         881         880
         876         877         882         881
         877         878         883         882
         878         879         884         883
         880         881         886         885
         881         882         887         886
         882         883         888         887
         883         884         889         888
         885         886         891         890
         886         887         892         891
         887         888         893         892
         888         889         894         893
         890         891         896         895
         891         892         897         896
         892         893         898         897
         893         894         899         898
         900         901         906         905
         901         902         907         906
         902         903         908         907
         903         904         909         908
         905         906         911         910
         906         907         912         911
         907         908         913         912
         908         909         914         913
         910         911         916         915
         911         912         917         916
         912         913         918         917
         913         914         919         918
         915         916         921         920
         916         917         922         921
         917         918         923         922
         918         919         924         923
         925         926         931         930
         926         927         932         931
         927         928         933         932
         928         929         934         933
         930         931         936         935
         931         932         937         936
         932         933         938         937
         933         934         939         938
         935         936         941         940
         936         937         942         941
         937         938         943         942
         938         939         944         943
         940         941         946         945
         941         942         947         946
         942         943         948         947
         943         944         949         948
         950         951         956         955
         951         952         957         956
         952         953         958         957
         953         954         959         958
         955         956         961         960
         956         957         962         961
         957         958         963         962
         958         959         964         963
         960         961         966         965
         961         962         967         966
         962         963         968         967
         963         964         969         968
         965         966         971         970
         966         967         972         971
         967         968         973         972
         968         969         974         973
         975         976         981         980
         976         977         982         981
         977         978         983         982
         978         979         984         983
         980         981         986         985
         981         982         987         986
         982         983         988         987
         983         984         989         988
         985         986         991         990
         986         987         992         991
         987         988         993         992
         988         989         994         993
         990         991         996         995
         991         992         997         996
         992         993         998         997
         993         994         999         998
        1000        1001        1006        1005
        1001        1002        1007        1006
        1002        1003        1008        1007
        1003        1004        1009        1008
        1005        1006        1011        1010
        1006        1007        1012        1011
        1007        1008        1013        1012
        1008        1009        1014        1013
        1010        1011        1016        1015
        1011        1012        1017        1016
        1012        1013        1018        1017
        1013        1014        1019        1018
        1015        1016        1021        1020
        1016        1017        1022        1021
        1017        1018        1023        1022
        1018        1019        1024        1023
        1025        1026        1031        1030
        1026        1027        1032        1031
        1027        1028        1033        1032
        1028        1029        1034        1033
        1030        1031        1036        1035
        1031        1032        1037        1036
        1032        1033        1038        1037
        1033        1034        1039        1038
        1035        1036        1041        1040
        1036        1037        1042        1041
        1037        1038        1043        1042
        1038        1039        1044        1043
        1040        1041        1046        1045
        1041        1042        1047        1046
        1042        1043        1048        1047
        1043        1044        1049        1048
        1050        1051        1056        1055
        1051        1052        1057        1056
        1052        1053        1058        1057
        1053        1054        1059        1058
        1055        1056        1061        1060
        1056        1057        1062        1061
        1057        1058        1063        1062
        1058        1059        1064        1063
        1060        1061        1066        1065
        1061        1062        1067        1066
        1062        1063        1068        1067
        1063        1064        1069        1068
        1065        1066        1071        1070
        1066        1067        1072        1071
        1067        1068        1073        1072
        1068        1069        1074        1073
        1075        1076        1081        1080
        1076        1077        1082        1081
        1077        1078        1083        1082
        1078        1079        1084        1083
        1080        1081        1086        1085
        1081        1082        1087        1086
        1082        1083        1088        1087
        1083        1084        1089        1088
        1085        1086        1091        1090
        1086        1087        1092        1091
        1087        1088        1093        1092
        1088        1089        1094        1093
        1090        1091        1096        1095
        1091        1092        1097        1096
        1092        1093        1098        1097
        1093        1094        1099        1098
        1100        1101        1106        1105
        1101        1102        1107        1106
        1102        1103        1108        1107
        1103        1104        1109        1108
        1105        1106        1111        1110
        1106        1107        1112        1111
        1107        1108        1113        1112
        1108        1109        1114        1113
        1110        1111        1116        1115
        1111        1112        1117        1116
        1112        1113        1118        1117
        1113        1114        1119        1118
        1115        1116        1121        1120
        1116        1117        1122        1121
        1117        1118        1123        1122
        1118        1119        1124        1123
        1125        1126        1131        1130
        1126        1127        1132        1131
        1127        1128        1133        1132
        1128        1129        1134        1133
        1130        1131        1136        1135
        1131        1132        1137        1136
        1132        1133        1138        1137
        1133        1134        1139        1138
        1135        1136        1141        1140
        1136        1137        1142        1141
        1137        1138        1143        1142
        1138        1139        1144        1143
        1140        1141        1146        1145
        1141        1142        1147        1146
        1142        1143        1148        1147
        1143        1144        1149        1148
        1150        1151        1156        1155
        1151        1152        1157        1156
        1152        1153        1158        1157
        1153        1154        1159        1158
        1155        1156        1161        1160
        1156        1157        1162        1161
        1157        1158        1163        1162
        1158        1159        1164        1163
        1160        1161        1166        1165
        1161        1162        1167        1166
        1162        1163        1168        1167
        1163        1164        1169        1168
        1165        1166        1171        1170
        1166        1167        1172        1171
        1167        1168        1173        1172
        1168        1169        1174        1173
        1175        1176        1181        1180
        1176        1177        1182        1181
        1177        1178        1183        1182
        1178        1179        1184        1183
        1180        1181        1186        1185
        1181        1182        1187        1186
        1182        1183        1188        1187
        1183        1184        1189        1188
        1185        1186        1191        1190
        1186        1187        1192        1191
        1187        1188        1193        1192
        1188        1189        1194        1193
        1190        1191        1196        1195
        1191        1192        1197        1196
        1192        1193        1198        1197
        1193        1194        1199        1198
        1200        1201        1206        1205
        1201        1202        1207        1206
        1202        1203        1208        1207
        1203        1204        1209        1208
        1205        1206        1211        1210
        1206        1207        1212        1211
        1207        1208        1213        1212
        1208        1209        1214        1213
        1210        1211        1216        1215
        1211        1212        1217        1216
        1212        1213        1218        1217
        1213        1214        1219        1218
        1215        1216        1221        1220
        1216        1217        1222        1221
        1217        1218        1223        1222
        1218        1219        1224        1223
        1225        1226        1231        1230
        1226        1227        1232        1231
        1227        1228        1233        1232
        1228        1229        1234        1233
        1230        1231        1236        1235
        1231        1232        1237        1236
        1232        1233        1238        1237
        1233        1234        1239        1238
        1235        1236        1241        1240
        1236        1237        1242        1241
        1237        1238        1243        1242
        1238        1239        1244        1243
        1240        1241        1246        1245
        1241        1242        1247        1246
        1242        1243        1248        1247
        1243        1244        1249        1248
        1250        1251        1256        1255
        1251        1252        1257        1256
        1252        1253        1258        1257
        1253        1254        1259        1258
        1255        1256        1261        1260
        1256        1257        1262        1261
        1257        1258        1263        1262
        1258        1259        1264        1263
        1260        1261        1266        1265
        1261        1262        1267        1266
        1262        1263        1268        1267
        1263        1264        1269        1268
        1265        1266        1271        1270
        1266        1267        1272        1271
        1267        1268        1273        1272
        1268        1269        1274        1273
        1275        1276        1281        1280
        1276        1277        1282        1281
        1277        1278        1283        1282
        1278        1279        1284        1283
        1280        1281        1286        1285
        1281        1282        1287        1286
        1282        1283        1288        1287
        1283        1284        1289        1288
        1285        1286        1291        1290
        1286        1287        1292        1291
        1287        1288        1293        1292
        1288        1289        1294        1293
        1290        1291        1296        1295
        1291        1292        1297        1296
        1292        1293        1298        1297
        1293        1294        1299        1298
        1300        1301        1306        1305
        1301        1302        1307        1306
        1302        1303        1308        1307
        1303        1304        1309        1308
        1305        1306        1311        1310
        1306        1307        1312        1311
        1307        1308        1313        1312
        1308        1309        1314        1313
        1310        1311        1316        1315
        1311        1312        1317        1316
        1312        1313        1318        1317
        1313        1314        1319        1318
        1315        1316        1321        1320
        1316        1317        1322        1321
        1317        1318        1323        1322
        1318        1319        1324        1323
        1325        1326        1331        1330
        1326        1327        1332        1331
        1327        1328        1333        1332
        1328        1329        1334        1333
        1330        1331        1336        1335
        1331        1332        1337        1336
        1332        1333        1338        1337
        1333        1334        1339        1338
        1335        1336        1341        1340
        1336        1337        1342        1341
        1337        1338        1343        1342
        1338        1339        1344        1343
        1340        1341        1346        1345
        1341        1342        1347        1346
        1342        1343        1348        1347
        1343        1344        1349        1348
        1350        1351        1356        1355
        1351        1352        1357        1356
        1352        1353        1358        1357
        1353        1354        1359        1358
        1355        1356        1361        1360
        1356        1357        1362        1361
        1357        1358        1363        1362
        1358        1359        1364        1363
        1360        1361        1366        1365
        1361        1362        1367        1366
        1362        1363        1368        1367
        1363        1364        1369        1368
        1365        1366        1371        1370
        1366        1367        1372        1371
        1367        1368        1373        1372
        1368        1369        1374        1373
        1375        1376        1381        1380
        1376        1377        1382        1381
        1377        1378        1383        1382
        1378        1379        1384        1383
        1380        1381        1386        1385
        1381        1382        1387        1386
        1382        1383        1388        1387
        1383        1384        1389        1388
        1385        1386        1391        1390
        1386        1387        1392        1391
        1387        1388        1393        1392
        1388        1389        1394        1393
        1390        1391        1396        1395
        1391        1392        1397        1396
        1392        1393        1398        1397
        1393        1394        1399        1398
        1400        1401        1406        1405
        1401        1402        1407        1406
        1402        1403        1408        1407
        1403        1404        1409        1408
        1405        1406        1411        1410
        1406        1407        1412        1411
        1407        1408        1413        1412
        1408        1409        1414        1413
        1410        1411        1416        1415
        1411        1412        1417        1416
        1412        1413        1418        1417
        1413        1414        1419        1418
        1415        1416        1421        1420
        1416        1417        1422        1421
        1417        1418        1423        1422
        1418        1419        1424        1423
        1425        1426        1431        1430
        1426        1427        1432        1431
        1427        1428        1433        1432
        1428        1429        1434        1433
        1430        1431        1436        1435
        1431        1432        1437        1436
        1432        1433        1438        1437
        1433        1434        1439        1438
        1435        1436        1441        1440
        1436        1437        1442        1441
        1437        1438        1443        1442
        1438        1439        1444        1443
        1440        1441        1446        1445
        1441        1442        1447        1446
        1442        1443        1448        1447
        1443        1444        1449        1448
        1450        1451        1456        1455
        1451        1452        1457        1456
        1452        1453        1458        1457
        1453        1454        1459        1458
        1455        1456        1461        1460
        1456        1457        1462        1461
        1457        1458        1463        1462
        1458        1459        1464        1463
        1460        1461        1466        1465
        1461        1462        1467        1466
        1462        1463        1468        1467
        1463        1464        1469        1468
        1465        1466        1471        1470
        1466        1467        1472        1471
        1467        1468        1473        1472
        1468        1469        1474        1473
        1475        1476        1481        1480
        1476        1477        1482        1481
        1477        1478        1483        1482
        1478        1479        1484        1483
        1480        1481        1486        1485
        1481        1482        1487        1486
        1482        1483        1488        1487
        1483        1484        1489        1488
        1485        1486        1491        1490
        1486        1487        1492        1491
        1487        1488        1493        1492
        1488        1489        1494        1493
        1490        1491        1496        1495
        1491        1492        1497        1496
        1492        1493        1498        1497
        1493        1494        1499        1498
        1500        1501        1506        1505
        1501        1502        1507        1506
        1502        1503        1508        1507
        1503        1504        1509        1508
        1505        1506        1511        1510
        1506        1507        1512        1511
        1507        1508        1513        1512
        1508        1509        1514        1513
        1510        1511        1516        1515
        1511        1512        1517        1516
        1512        1513        1518        1517
        1513        1514        1519        1518
        1515        1516        1521        1520
        1516        1517        1522        1521
        1517        1518        1523        1522
        1518        1519        1524        1523
        1525        1526        1531        1530
        1526        1527        1532        1531
        1527        1528        1533        1532
        1528        1529        1534        1533
        1530        1531        1536        1535
        1531        1532        1537        1536
        1532        1533        1538        1537
        1533        1534        1539        1538
        1535        1536        1541        1540
        1536        1537        1542        1541
        1537        1538        1543        1542
        1538        1539        1544        1543
        1540        1541        1546        1545
        1541        1542        1547        1546
        1542        1543        1548        1547
        1543        1544        1549        1548
        1550        1551        1556        1555
        1551        1552        1557        1556
        1552        1553        1558        1557
        1553        1554        1559        1558
        1555        1556        1561        1560
        1556        1557        1562        1561
        1557        1558        1563        1562
        1558        1559        1564        1563
        1560        1561        1566        1565
        1561        1562        1567        1566
        1562        1563        1568        1567
        1563        1564        1569        1568
        1565        1566        1571        1570
        1566        1567        1572        1571
        1567        1568        1573        1572
        1568        1569        1574        1573
        1575        1576        1581        1580
        1576        1577        1582        1581
        1577        1578        1583        1582
        1578        1579        1584        1583
        1580        1581        1586        1585
        1581        1582        1587        1586
        1582        1583        1588        1587
        1583        1584        1589        1588
        1585        1586        1591        1590
        1586        1587        1592        1591
        1587        1588        1593        1592
        1588        1589        1594        1593
        1590        1591        1596        1595
        1591        1592        1597        1596
        1592        1593        1598        1597
        1593        1594        1599        1598
 </DataArray>
 <DataArray  type="Int32"  Name="offsets"  format="ascii"> 
           4
           8
          12
          16
          20
          24
          28
          32
          36
          40
          44
          48
          52
          56
          60
          64
          68
          72
          76
          80
          84
          88
          92
          96
         100
         104
         108
         112
         116
         120
         124
         128
         132
         136
         140
         144
         148
         152
         156
         160
         164
         168
         172
         176
         180
         184
         188
         192
         196
         200
         204
         208
         212
         216
         220
         224
         228
         232
         236
         240
         244
         248
         252
         256
         260
         264
         268
         272
         276
         280
         284
         288
         292
         296
         300
         304
         308
         312
         316
         320
         324
         328
         332
         336
         340
         344
         348
         352
         356
         360
         364
         368
         372
         376
         380
         384
         388
         392
         396
         400
         404
         408
         412
         416
         420
         424
         428
         432
         436
         440
         444
         448
         452
         456
         460
         464
         468
         472
         476
         480
         484
         488
         492
         496
         500
         504
         508
         512
         516
         520
         524
         528
         532
         536
         540
         544
         548
         552
         556
         560
         564
         568
         572
         576
         580
         584
         588
         592
         596
         600
         604
         608
         612
         616
         620
         624
         628
         632
         636
         640
         644
         648
         652
         656
         660
         664
         668
         672
         676
         680
         684
         688
         692
         696
         700
         704
         708
         712
         716
         720
         724
         728
         732
         736
         740
         744
         748
         752
         756
         760
         764
         768
         772
         776
         780
         784
         788
         792
         796
         800
         804
         808
         812
         816
         820
         824
         828
         832
         836
         840
         844
         848
         852
         856
         860
         864
         868
         872
         876
         880
         884
         888
         892
         896
         900
         904
         908
         912
         916
         920
         924
         928
         932
         936
         940
         944
         948
         952
         956
         960
         964
         968
         972
         976
         980
         984
         988
         992
         996
        1000
        1004
        1008
        1012
        1016
        1020
        1024
        1028
        1032
        1036
        1040
        1044
        1048
        1052
        1056
        1060
        1064
        1068
        1072
        1076
        1080
        1084
        1088
        1092
        1096
        1100
        1104
        1108
        1112
        1116
        1120
        1124
        1128
        1132
        1136
        1140
        1144
        1148
        1152
        1156
        1160
        1164
        1168
        1172
        1176
        1180
        1184
        1188
        1192
        1196
        1200
        1204
        1208
        1212
        1216
        1220
        1224
        1228
        1232
        1236
        1240
        1244
        1248
        1252
        1256
        1260
        1264
        1268
        1272
        1276
        1280
        1284
        1288
        1292
        1296
        1300
        1304
        1308
        1312
        1316
        1320
        1324
        1328
        1332
        1336
        1340
        1344
        1348
        1352
        1356
        1360
        1364
        1368
        1372
        1376
        1380
        1384
        1388
        1392
        1396
        1400
        1404
        1408
        1412
        1416
        1420
        1424
        1428
        1432
        1436
        1440
        1444
        1448
        1452
        1456
        1460
        1464
        1468
        1472
        1476
        1480
        1484
        1488
        1492
        1496
        1500
        1504
        1508
        1512
        1516
        1520
        1524
        1528
        1532
        1536
        1540
        1544
        1548
        1552
        1556
        1560
        1564
        1568
        1572
        1576
        1580
        1584
        1588
        1592
        1596
        1600
        1604
        1608
        1612
        1616
        1620
        1624
        1628
        1632
        1636
        1640
        1644
        1648
        1652
        1656
        1660
        1664
        1668
        1672
        1676
        1680
        1684
        1688
        1692
        1696
        1700
        1704
        1708
        1712
        1716
        1720
        1724
        1728
        1732
        1736
        1740
        1744
        1748
        1752
        1756
        1760
        1764
        1768
        1772
        1776
        1780
        1784
        1788
        1792
        1796
        1800
        1804
        1808
        1812
        1816
        1820
        1824
        1828
        1832
        1836
        1840
        1844
        1848
        1852
        1856
        1860
        1864
        1868
        1872
        1876
        1880
        1884
        1888
        1892
        1896
        1900
        1904
        1908
        1912
        1916
        1920
        1924
        1928
        1932
        1936
        1940
        1944
        1948
        1952
        1956
        1960
        1964
        1968
        1972
        1976
        1980
        1984
        1988
        1992
        1996
        2000
        2004
        2008
        2012
        2016
        2020
        2024
        2028
        2032
        2036
        2040
        2044
        2048
        2052
        2056
        2060
        2064
        2068
        2072
        2076
        2080
        2084
        2088
        2092
        2096
        2100
        2104
        2108
        2112
        2116
        2120
        2124
        2128
        2132
        2136
        2140
        2144
        2148
        2152
        2156
        2160
        2164
        2168
        2172
        2176
        2180
        2184
        2188
        2192
        2196
        2200
        2204
        2208
        2212
        2216
        2220
        2224
        2228
        2232
        2236
        2240
        2244
        2248
        2252
        2256
        2260
        2264
        2268
        2272
        2276
        2280
        2284
        2288
        2292
        2296
        2300
        2304
        2308
        2312
        2316
        2320
        2324
        2328
        2332
        2336
        2340
        2344
        2348
        2352
        2356
        2360
        2364
        2368
        2372
        2376
        2380
        2384
        2388
        2392
        2396
        2400
        2404
        2408
        2412
        2416
        2420
        2424
        2428
        2432
        2436
        2440
        2444
        2448
        2452
        2456
        2460
        2464
        2468
        2472
        2476
        2480
        2484
        2488
        2492
        2496
        2500
        2504
        2508
        2512
        2516
        2520
        2524
        2528
        2532
        2536
        2540
        2544
        2548
        2552
        2556
        2560
        2564
        2568
        2572
        2576
        2580
        2584
        2588
        2592
        2596
        2600
        2604
        2608
        2612
        2616
        2620
        2624
        2628
        2632
        2636
        2640
        2644
        2648
        2652
        2656
        2660
        2664
        2668
        2672
        2676
        2680
        2684
        2688
        2692
        2696
        2700
        2704
        2708
        2712
        2716
        2720
        2724
        2728
        2732
        2736
        2740
        2744
        2748
        2752
        2756
        2760
        2764
        2768
        2772
        2776
        2780
        2784
        2788
        2792
        2796
        2800
        2804
        2808
        2812
        2816
        2820
        2824
        2828
        2832
        2836
        2840
        2844
        2848
        2852
        2856
        2860
        2864
        2868
        2872
        2876
        2880
        2884
        2888
        2892
        2896
        2900
        2904
        2908
        2912
        2916
        2920
        2924
        2928
        2932
        2936
        2940
        2944
        2948
        2952
        2956
        2960
        2964
        2968
        2972
        2976
        2980
        2984
        2988
        2992
        2996
        3000
        3004
        3008
        3012
        3016
        3020
        3024
        3028
        3032
        3036
        3040
        3044
        3048
        3052
        3056
        3060
        3064
        3068
        3072
        3076
        3080
        3084
        3088
        3092
        3096
        3100
        3104
        3108
        3112
        3116
        3120
        3124
        3128
        3132
        3136
        3140
        3144
        3148
        3152
        3156
        3160
        3164
        3168
        3172
        3176
        3180
        3184
        3188
        3192
        3196
        3200
        3204
        3208
        3212
        3216
        3220
        3224
        3228
        3232
        3236
        3240
        3244
        3248
        3252
        3256
        3260
        3264
        3268
        3272
        3276
        3280
        3284
        3288
        3292
        3296
        3300
        3304
        3308
        3312
        3316
        3320
        3324
        3328
        3332
        3336
        3340
        3344
        3348
        3352
        3356
        3360
        3364
        3368
        3372
        3376
        3380
        3384
        3388
        3392
        3396
        3400
        3404
        3408
        3412
        3416
        3420
        3424
        3428
        3432
        3436
        3440
        3444
        3448
        3452
        3456
        3460
        3464
        3468
        3472
        3476
        3480
        3484
        3488
        3492
        3496
        3500
        3504
        3508
        3512
        3516
        3520
        3524
        3528
        3532
        3536
        3540
        3544
        3548
        3552
        3556
        3560
        3564
        3568
        3572
        3576
        3580
        3584
        3588
        3592
        3596
        3600
        3604
        3608
        3612
        3616
        3620
        3624
        3628
        3632
        3636
        3640
        3644
        3648
        3652
        3656
        3660
        3664
        3668
        3672
        3676
        3680
        3684
        3688
        3692
        3696
        3700
        3704
        3708
        3712
        3716
        3720
        3724
        3728
        3732
        3736
        3740
        3744
        3748
        3752
        3756
        3760
        3764
        3768
        3772
        3776
        3780
        3784
        3788
        3792
        3796
        3800
        3804
        3808
        3812
        3816
        3820
        3824
        3828
        3832
        3836
        3840
        3844
        3848
        3852
        3856
        3860
        3864
        3868
        3872
        3876
        3880
        3884
        3888
        3892
        3896
        3900
        3904
        3908
        3912
        3916
        3920
        3924
        3928
        3932
        3936
        3940
        3944
        3948
        3952
        3956
        3960
        3964
        3968
        3972
        3976
        3980
        3984
        3988
        3992
        3996
        4000
        4004
        4008
        4012
        4016
        4020
        4024
        4028
        4032
        4036
        4040
        4044
        4048
        4052
        4056
        4060
        4064
        4068
        4072
        4076
        4080
        4084
        4088
        4092
        4096
 </DataArray>
 <DataArray  type="UInt8"  Name="types"  format="ascii">
 9
 9
 9
 9
 9
 9
 9
 9
 9
 9
 9
 9
 9
 9
 9
 9
 9
 9
 9
 9
 9
 9
 9
 9
 9
 9
 9
 9
 9
 9
 9
 9
 9
 9
 9
 9
 9
 9
 9
 9
 9
 9
 9
 9
 9
 9
 9
 9
 9
 9
 9
 9
 9
 9
 9
 9
 9
 9
 9
 9
 9
 9
 9
 9
 9
 9
 9
 9
 9
 9
 9
 9
 9
 9
 9
 9
 9
 9
 9
 9
 9
 9
 9
 9
 9
 9
 9
 9
 9
 9
 9
 9
 9
 9
 9
 9
 9
 9
 9
 9
 9
 9
 9
 9
 9
 9
 9
 9
 9
 9
 9
 9
 9
 9
 9
 9
 9
 9
 9
 9
 9
 9
 9
 9
 9
 9
 9
 9
 9
 9
 9
 9
 9
 9
 9
 9
 9
 9
 9
 9
 9
 9
 9
 9
 9
 9
 9
 9
 9
 9
 9
 9
 9
 9
 9
 9
 9
 9
 9
 9
 9
 9
 9
 9
 9
 9
 9
 9
 9
 9
 9
 9
 9
 9
 9
 9
 9
 9
 9
 9
 9
 9
 9
 9
 9
 9
 9
 9
 9
 9
 9
 9
 9
 9
 9
 9
 9
 9
 9
 9
 9
 9
 9
 9
 9
 9
 9
 9
 9
 9
 9
 9
 9
 9
 9
 9
 9
 9
 9
 9
 9
 9
 9
 9
 9
 9
 9
 9
 9
 9
 9
 9
 9
 9
 9
 9
 9
 9
 9
 9
 9
 9
 9
 9
 9
 9
 9
 9
 9
 9
 9
 9
 9
 9
 9
 9
 9
 9
 9
 9
 9
 9
 9
 9
 9
 9
 9
 9
 9
 9
 9
 9
 9
 9
 9
 9
 9
 9
 9
 9
 9
 9
 9
 9
 9
 9
 9
 9
 9
 9
 9
 9
 9
 9
 9
 9
 9
 9
 9
 9
 9
 9
 9
 9
 9
 9
 9
 9
 9
 9
 9
 9
 9
 9
 9
 9
 9
 9
 9
 9
 9
 9
 9
 9
 9
 9
 9
 9
 9
 9
 9
 9
 9
 9
 9
 9
 9
 9
 9
 9
 9
 9
 9
 9
 9
 9
 9
 9
 9
 9
 9
 9
 9
 9
 9
 9
 9
 9
 9
 9
 9
 9
 9
 9
 9
 9
 9
 9
 9
 9
 9
 9
 9
 9
 9
 9
 9
 9
 9
 9
 9
 9
 9
 9
 9
 9
 9
 9
 9
 9
 9
 9
 9
 9
 9
 9
 9
 9
 9
 9
 9
 9
 9
 9
 9
 9
 9
 9
 9
 9
 9
 9
 9
 9
 9
 9
 9
 9
 9
 9
 9
 9
 9
 9
 9
 9
 9
 9
 9
 9
 9
 9
 9
 9
 9
 9
 9
 9
 9
 9
 9
 9
 9
 9
 9
 9
 9
 9
 9
 9
 9
 9
 9
 9
 9
 9
 9
 9
 9
 9
 9
 9
 9
 9
 9
 9
 9
 9
 9
 9
 9
 9
 9
 9
 9
 9
 9
 9
 9
 9
 9
 9
 9
 9
 9
 9
 9
 9
 9
 9
 9
 9
 9
 9
 9
 9
 9
 9
 9
 9
 9
 9
 9
 9
 9
 9
 9
 9
 9
 9
 9
 9
 9
 9
 9
 9
 9
 9
 9
 9
 9
 9
 9
 9
 9
 9
 9
 9
 9
 9
 9
 9
 9
 9
 9
 9
 9
 9
 9
 9
 9
 9
 9
 9
 9
 9
 9
 9
 9
 9
 9
 9
 9
 9
 9
 9
 9
 9
 9
 9
 9
 9
 9
 9
 9
 9
 9
 9
 9
 9
 9
 9
 9
 9
 9
 9
 9
 9
 9
 9
 9
 9
 9
 9
 9
 9
 9
 9
 9
 9
 9
 9
 9
 9
 9
 9
 9
 9
 9
 9
 9
 9
 9
 9
 9
 9
 9
 9
 9
 9
 9
 9
 9
 9
 9
 9
 9
 9
 9
 9
 9
 9
 9
 9
 9
 9
 9
 9
 9
 9
 9
 9
 9
 9
 9
 9
 9
 9
 9
 9
 9
 9
 9
 9
 9
 9
 9
 9
 9
 9
 9
 9
 9
 9
 9
 9
 9
 9
 9
 9
 9
 9
 9
 9
 9
 9
 9
 9
 9
 9
 9
 9
 9
 9
 9
 9
 9
 9
 9
 9
 9
 9
 9
 9
 9
 9
 9
 9
 9
 9
 9
 9
 9
 9
 9
 9
 9
 9
 9
 9
 9
 9
 9
 9
 9
 9
 9
 9
 9
 9
 9
 9
 9
 9
 9
 9
 9
 9
 9
 9
 9
 9
 9
 9
 9
 9
 9
 9
 9
 9
 9
 9
 9
 9
 9
 9
 9
 9
 9
 9
 9
 9
 9
 9
 9
 9
 9
 9
 9
 9
 9
 9
 9
 9
 9
 9
 9
 9
 9
 9
 9
 9
 9
 9
 9
 9
 9
 9
 9
 9
 9
 9
 9
 9
 9
 9
 9
 9
 9
 9
 9
 9
 9
 9
 9
 9
 9
 9
 9
 9
 9
 9
 9
 9
 9
 9
 9
 9
 9
 9
 9
 9
 9
 9
 9
 9
 9
 9
 9
 9
 9
 9
 9
 9
 9
 9
 9
 9
 9
 9
 9
 9
 9
 9
 9
 9
 9
 9
 9
 9
 9
 9
 9
 9
 9
 9
 9
 9
 9
 9
 9
 9
 9
 9
 9
 9
 9
 9
 9
 9
 9
 9
 9
 9
 9
 9
 9
 9
 9
 9
 9
 9
 9
 9
 9
 9
 9
 9
 9
 9
 9
 9
 9
 9
 9
 9
 9
 9
 9
 9
 9
 9
 9
 9
 9
 9
 9
 9
 9
 9
 9
 9
 9
 9
 9
 9
 9
 9
 9
 9
 9
 9
 9
 9
 9
 9
 9
 9
 9
 9
 9
 9
 9
 9
 9
 9
 9
 9
 9
 9
 9
 9
 9
 9
 9
 9
 9
 9
 9
 9
 9
 9
 9
 9
 9
 9
 9
 9
 9
 9
 9
 9
 9
 9
 9
 9
 9
 9
 9
 9
 9
 9
 9
 9
 9
 9
 9
 9
 9
 9
 9
 9
 9
 9
 9
 9
 9
 9
 9
 9
 9
 9
 9
 9
 9
 9
 9
 9
 9
 9
 9
 9
 9
 9
 9
 9
 9
 9
 9
 9
 9
 9
 9
 9
 9
 9
 9
 9
 9
 9
 9
 9
 9
 9
 9
 9
 9
 9
 9
 9
 9
 9
 9
 9
 9
 9
 9
 9
 9
 9
 9
 9
 9
 9
 </DataArray>
 </Cells> 
 <PointData>
 <DataArray  type="Float64" Name="disp" NumberOfComponents="3" format="ascii">
   0.0000000000000000        0.0000000000000000        0.0000000000000000     
   6.0952775566877268E-003   3.7909201982582233E-003   0.0000000000000000     
   1.1664733493072113E-002   7.3245657863509252E-003   0.0000000000000000     
   1.6708367809153156E-002   1.0600936764278108E-002   0.0000000000000000     
   2.1226180504930862E-002   1.3620033132039766E-002   0.0000000000000000     
   0.0000000000000000        0.0000000000000000        0.0000000000000000     
   4.8906748419389797E-003   3.0225924893686061E-003   0.0000000000000000     
   9.5726271861877859E-003   6.0612885484825517E-003   0.0000000000000000     
   1.4045857032746419E-002   9.1160881773418370E-003   0.0000000000000000     
   1.8310364381614874E-002   1.2186991375946463E-002   0.0000000000000000     
   0.0000000000000000        0.0000000000000000        0.0000000000000000     
   3.9532599149821167E-003   2.4255492849547039E-003   0.0000000000000000     
   7.9098701012513747E-003   5.0637026277469636E-003   0.0000000000000000     
   1.1869830558807774E-002   7.9144600283767817E-003   0.0000000000000000     
   1.5833141287651314E-002   1.0977821486844154E-002   0.0000000000000000     
   0.0000000000000000        0.0000000000000000        0.0000000000000000     
   3.2830327758171366E-003   1.9997905850165157E-003   0.0000000000000000     
   6.6764622382628801E-003   4.3318080241441636E-003   0.0000000000000000     
   1.0180288387337229E-002   6.9960523173829411E-003   0.0000000000000000     
   1.3794511223040182E-002   9.9925234647328491E-003   0.0000000000000000     
   0.0000000000000000        0.0000000000000000        0.0000000000000000     
   2.8799934244440402E-003   1.7453163895540433E-003   0.0000000000000000     
   5.8724035972223003E-003   3.8656047376741487E-003   0.0000000000000000     
   8.9772305183347806E-003   6.3608650443603186E-003   0.0000000000000000     
   1.2194474187781478E-002   9.2310973096125497E-003   0.0000000000000000     
   2.1226180504930862E-002   1.3620033132039766E-002   0.0000000000000000     
   2.5430543620386093E-002   1.6612663809582560E-002   0.0000000000000000     
   2.9533829195499715E-002   1.9809637716853141E-002   0.0000000000000000     
   3.3536037230271744E-002   2.3210954853851513E-002   0.0000000000000000     
   3.7437167724702160E-002   2.6816615220577669E-002   0.0000000000000000     
   1.8310364381614874E-002   1.2186991375946463E-002   0.0000000000000000     
   2.2404190019588831E-002   1.5342361334275630E-002   0.0000000000000000     
   2.6365374733463960E-002   1.8650561242308555E-002   0.0000000000000000     
   3.0193918523240264E-002   2.2111591100045232E-002   0.0000000000000000     
   3.3889821388917746E-002   2.5725450907485660E-002   0.0000000000000000     
   1.5833141287651314E-002   1.0977821486844154E-002   0.0000000000000000     
   1.9728056972556467E-002   1.4212478508348192E-002   0.0000000000000000     
   2.3482832298297691E-002   1.7577122598088000E-002   0.0000000000000000     
   2.7097467264874990E-002   2.1071753756063575E-002   0.0000000000000000     
   3.0571961872288372E-002   2.4696371982274919E-002   0.0000000000000000     
   1.3794511223040182E-002   9.9925234647328491E-003   0.0000000000000000     
   1.7402144479288992E-002   1.3223015331800248E-002   0.0000000000000000     
   2.0886201890000903E-002   1.6589321784191476E-002   0.0000000000000000     
   2.4246683455175919E-002   2.0091442821906544E-002   0.0000000000000000     
   2.7483589174814044E-002   2.3729378444945447E-002   0.0000000000000000     
   1.2194474187781478E-002   9.2310973096125497E-003   0.0000000000000000     
   1.5426452539786415E-002   1.2373971804631791E-002   0.0000000000000000     
   1.8575483508573604E-002   1.5687158800618984E-002   0.0000000000000000     
   2.1641567094143051E-002   1.9170658297574136E-002   0.0000000000000000     
   2.4624703296494757E-002   2.2824470295497241E-002   0.0000000000000000     
   3.7437167724702160E-002   2.6816615220577669E-002   0.0000000000000000     
   4.1243422399217848E-002   3.0620489162222816E-002   0.0000000000000000     
   4.4961002974245684E-002   3.4616447023978140E-002   0.0000000000000000     
   4.8589909449785681E-002   3.8804488805843647E-002   0.0000000000000000     
   5.2130141825837834E-002   4.3184614507819338E-002   0.0000000000000000     
   3.3889821388917746E-002   2.5725450907485660E-002   0.0000000000000000     
   3.7477040685056633E-002   2.9519949572677225E-002   0.0000000000000000     
   4.0979533766217199E-002   3.3522896003667320E-002   0.0000000000000000     
   4.4397300632399418E-002   3.7734290200455933E-002   0.0000000000000000     
   4.7730341283603317E-002   4.2154132163043069E-002   0.0000000000000000     
   3.0571961872288372E-002   2.4696371982274919E-002   0.0000000000000000     
   3.3935781334848342E-002   2.8494990750588679E-002   0.0000000000000000     
   3.7218390866865438E-002   3.2511623534871491E-002   0.0000000000000000     
   4.0419790468339642E-002   3.6746270335123364E-002   0.0000000000000000     
   4.3539980139270976E-002   4.1198931151344292E-002   0.0000000000000000     
   2.7483589174814044E-002   2.3729378444945447E-002   0.0000000000000000     
   3.0619644348592965E-002   2.7545612695957161E-002   0.0000000000000000     
   3.3677574276190406E-002   3.1582629617590660E-002   0.0000000000000000     
   3.6657378957606346E-002   3.5840429209845946E-002   0.0000000000000000     
   3.9559058392840796E-002   4.0319011472723008E-002   0.0000000000000000     
   2.4624703296494757E-002   2.2824470295497241E-002   0.0000000000000000     
   2.7528629726290506E-002   2.6671815408782679E-002   0.0000000000000000     
   3.0357083994192097E-002   3.0735914251824821E-002   0.0000000000000000     
   3.3110066100199537E-002   3.5016766824623680E-002   0.0000000000000000     
   3.5787576044312805E-002   3.9514373127179231E-002   0.0000000000000000     
   5.2130141825837834E-002   4.3184614507819338E-002   0.0000000000000000     
   5.5581633871406390E-002   4.7767437076514353E-002   0.0000000000000000     
   5.8944319355495579E-002   5.2563569458537837E-002   0.0000000000000000     
   6.2218198278105416E-002   5.7573011653889783E-002   0.0000000000000000     
   6.5403270639235900E-002   6.2795763662570211E-002   0.0000000000000000     
   4.7730341283603317E-002   4.2154132163043069E-002   0.0000000000000000     
   5.0973520813212894E-002   4.6780984103062653E-002   0.0000000000000000     
   5.4121704314612176E-002   5.1613408232148654E-002   0.0000000000000000     
   5.7174891787801170E-002   5.6651404550301029E-002   0.0000000000000000     
   6.0133083232779855E-002   6.1894973057519814E-002   0.0000000000000000     
   4.3539980139270976E-002   4.1198931151344292E-002   0.0000000000000000     
   4.6571627093787399E-002   4.5860881504238594E-002   0.0000000000000000     
   4.9507398546016858E-002   5.0723396914510568E-002   0.0000000000000000     
   5.2347294495959380E-002   5.5786477382160228E-002   0.0000000000000000     
   5.5091314943614952E-002   6.1050122907187553E-002   0.0000000000000000     
   3.9559058392840796E-002   4.0319011472723008E-002   0.0000000000000000     
   4.2375952713129862E-002   4.5007129280042142E-002   0.0000000000000000     
   4.5101402049709610E-002   4.9893535505623587E-002   0.0000000000000000     
   4.7735406402580061E-002   5.4978230149467358E-002   0.0000000000000000     
   5.0277965771741186E-002   6.0261213211573440E-002   0.0000000000000000     
   3.5787576044312805E-002   3.9514373127179231E-002   0.0000000000000000     
   3.8386497671240319E-002   4.4219727430473303E-002   0.0000000000000000     
   4.0903714825690440E-002   4.9123824005487697E-002   0.0000000000000000     
   4.3339227507663190E-002   5.4226662852222413E-002   0.0000000000000000     
   4.5693035717158569E-002   5.9528243970677457E-002   0.0000000000000000     
   6.5403270639235900E-002   6.2795763662570211E-002   0.0000000000000000     
   6.8498212391592178E-002   6.8210897821625871E-002   0.0000000000000000     
   7.1501699487879419E-002   7.3797486468103551E-002   0.0000000000000000     
   7.4413731928097596E-002   7.9555529602003253E-002   0.0000000000000000     
   7.7234309712246735E-002   8.5485027223324933E-002   0.0000000000000000     
   6.0133083232779855E-002   6.1894973057519814E-002   0.0000000000000000     
   6.3004548670906255E-002   6.7328652846777248E-002   0.0000000000000000     
   6.5797558123538380E-002   7.2936983011045592E-002   0.0000000000000000     
   6.8512111590676231E-002   7.8719963550324845E-002   0.0000000000000000     
   7.1148209072319779E-002   8.4677594464615008E-002   0.0000000000000000     
   5.5091314943614952E-002   6.1050122907187553E-002   0.0000000000000000     
   5.7752883990408649E-002   6.6502610766801085E-002   0.0000000000000000     
   6.0345425737765537E-002   7.2132218238209353E-002   0.0000000000000000     
   6.2868940185685618E-002   7.7938945321412309E-002   0.0000000000000000     
   6.5323427334168890E-002   8.3922792016410008E-002   0.0000000000000000     
   5.0277965771741186E-002   6.0261213211573440E-002   0.0000000000000000     
   5.2743218350099354E-002   6.5732771581697394E-002   0.0000000000000000     
   5.5145302330560898E-002   7.1383192149594821E-002   0.0000000000000000     
   5.7484217713125806E-002   7.7212474915265658E-002   0.0000000000000000     
   5.9759964497794096E-002   8.3220619878709962E-002   0.0000000000000000     
   4.5693035717158569E-002   5.9528243970677457E-002   0.0000000000000000     
   4.7975551749978376E-002   6.5019135291466204E-002   0.0000000000000000     
   5.0197187901924456E-002   7.0689904745202009E-002   0.0000000000000000     
   5.2357944172996787E-002   7.6540552331884906E-002   0.0000000000000000     
   5.4457820563195369E-002   8.2571078051514868E-002   0.0000000000000000     
   7.7234309712246735E-002   8.5485027223324933E-002   0.0000000000000000     
   7.9962388382599114E-002   9.1574188576600504E-002   0.0000000000000000     
   8.2596923481426970E-002   9.7811222906361781E-002   0.0000000000000000     
   8.5137915008730344E-002  0.10419613021260876        0.0000000000000000     
   8.7585362964509222E-002  0.11072891049534146        0.0000000000000000     
   7.1148209072319779E-002   8.4677594464615008E-002   0.0000000000000000     
   7.3699382720535653E-002   9.0797122849441303E-002   0.0000000000000000     
   7.6159164687390452E-002   9.7065795800329022E-002   0.0000000000000000     
   7.8527554972884162E-002  0.10348361331727812        0.0000000000000000     
   8.0804553577016797E-002  0.11005057540028862        0.0000000000000000     
   6.5323427334168890E-002   8.3922792016410008E-002   0.0000000000000000     
   6.7699437122136163E-002   9.0070718007276826E-002   0.0000000000000000     
   6.9987519488508232E-002   9.6369682978087179E-002   0.0000000000000000     
   7.2187674433285137E-002  0.10281968692884109        0.0000000000000000     
   7.4299901956466810E-002  0.10942072985953850        0.0000000000000000     
   5.9759964497794096E-002   8.3220619878709962E-002   0.0000000000000000     
   6.1962551587400647E-002   8.9394974050107046E-002   0.0000000000000000     
   6.4081987884780353E-002   9.5722884439636266E-002   0.0000000000000000     
   6.6118273389933230E-002  0.10220435104729764        0.0000000000000000     
   6.8071408102859249E-002  0.10883937387309114        0.0000000000000000     
   5.4457820563195369E-002   8.2571078051514868E-002   0.0000000000000000     
   5.6488726116329081E-002   8.8769890977931976E-002   0.0000000000000000     
   5.8442569876206774E-002   9.5125400184976269E-002   0.0000000000000000     
   6.0319351842828446E-002  0.10163760567264779        0.0000000000000000     
   6.2119072016194099E-002  0.10830650744094651        0.0000000000000000     
   8.7585362964509222E-002  0.11072891049534146        0.0000000000000000     
   8.9937261055216128E-002  0.11740317767224437        0.0000000000000000     
   9.2191602987303625E-002  0.12421254566100200        0.0000000000000000     
   9.4348388760771687E-002  0.13115701446161432        0.0000000000000000     
   9.6407618375620327E-002  0.13823658407408138        0.0000000000000000     
   8.0804553577016797E-002  0.11005057540028862        0.0000000000000000     
   8.2981808232021698E-002  0.11675946289040762        0.0000000000000000     
   8.5050966670132164E-002  0.12360305662868219        0.0000000000000000     
   8.7012028891348209E-002  0.13058135661511239        0.0000000000000000     
   8.8864994895669833E-002  0.13769436284969816        0.0000000000000000     
   7.4299901956466810E-002  0.10942072985953850        0.0000000000000000     
   7.6312289380708637E-002  0.11616405369545614        0.0000000000000000     
   7.8212924028665934E-002  0.12304090036187063        0.0000000000000000     
   8.0001805900338660E-002  0.13005126985878193        0.0000000000000000     
   8.1678934995726871E-002  0.13719516218619013        0.0000000000000000     
   6.8071408102859249E-002  0.10883937387309114        0.0000000000000000     
   6.9928704501276959E-002  0.11561695008738995        0.0000000000000000     
   7.1677475062904908E-002  0.12252607686056727        0.0000000000000000     
   7.3317719787743069E-002  0.12956675419262303        0.0000000000000000     
   7.4849438675791455E-002  0.13673898208355725        0.0000000000000000     
   6.2119072016194099E-002  0.10830650744094651        0.0000000000000000     
   6.3831053593726664E-002  0.11511815206620907        0.0000000000000000     
   6.5444619772849114E-002  0.12205858612477211        0.0000000000000000     
   6.6959770553561421E-002  0.12912780961663561        0.0000000000000000     
   6.8376505935863599E-002  0.13632582254179962        0.0000000000000000     
   9.6407618375620327E-002  0.13823658407408138        0.0000000000000000     
   9.8435333041666948E-002  0.14550329133447237        0.0000000000000000     
  0.10049757396872898       0.15300917307885661        0.0000000000000000     
  0.10259434115680642       0.16075422930723401        0.0000000000000000     
  0.10472563460589923       0.16873846001960463        0.0000000000000000     
   8.8864994895669833E-002  0.13769436284969816        0.0000000000000000     
   9.0639215340215212E-002  0.14498089982572249        0.0000000000000000     
   9.2364040882102511E-002  0.15247979203646833        0.0000000000000000     
   9.4039471521331741E-002  0.16019103948193572        0.0000000000000000     
   9.5665507257902904E-002  0.16811464216212468        0.0000000000000000     
   8.1678934995726871E-002  0.13719516218619013        0.0000000000000000     
   8.3250820024846045E-002  0.14449911900321016        0.0000000000000000     
   8.4723969697711662E-002  0.15198968196895712        0.0000000000000000     
   8.6098384014323737E-002  0.15966685108343101        0.0000000000000000     
   8.7374062974682254E-002  0.16753062634663179        0.0000000000000000     
   7.4849438675791455E-002  0.13673898208355725        0.0000000000000000     
   7.6270147095559446E-002  0.14405794886693540        0.0000000000000000     
   7.7577360415556407E-002  0.15153884287632291        0.0000000000000000     
   7.8771078635782338E-002  0.15918166411171977        0.0000000000000000     
   7.9851301756237253E-002  0.16698641257312594        0.0000000000000000     
   6.8376505935863599E-002  0.13632582254179962        0.0000000000000000     
   6.9697196552355442E-002  0.14365738941689826        0.0000000000000000     
   7.0924213035636785E-002  0.15112727475856574        0.0000000000000000     
   7.2057555385707600E-002  0.15873547856680204        0.0000000000000000     
   7.3097223602567915E-002  0.16648200084160722        0.0000000000000000     
   0.0000000000000000        0.0000000000000000        0.0000000000000000     
   2.8799934244440402E-003   1.7453163895540433E-003   0.0000000000000000     
   5.8724035972223003E-003   3.8656047376741487E-003   0.0000000000000000     
   8.9772305183347806E-003   6.3608650443603186E-003   0.0000000000000000     
   1.2194474187781478E-002   9.2310973096125497E-003   0.0000000000000000     
   0.0000000000000000        0.0000000000000000        0.0000000000000000     
   2.6103269691476571E-003   1.5894284717687577E-003   0.0000000000000000     
   5.2897299288682540E-003   3.5577160918991487E-003   0.0000000000000000     
   8.0382088791617901E-003   5.9048628603911735E-003   0.0000000000000000     
   1.0855763820028267E-002   8.6308687772448309E-003   0.0000000000000000     
   0.0000000000000000        0.0000000000000000        0.0000000000000000     
   2.3402185182128171E-003   1.4594286048621326E-003   0.0000000000000000     
   4.7204769839393574E-003   3.3007654103813901E-003   0.0000000000000000     
   7.1407753971796210E-003   5.5240104165577720E-003   0.0000000000000000     
   9.6011137579336079E-003   8.1291636233912813E-003   0.0000000000000000     
   0.0000000000000000        0.0000000000000000        0.0000000000000000     
   2.0696680716395205E-003   1.3553167888341673E-003   0.0000000000000000     
   4.1646447624356124E-003   3.0947526931208720E-003   0.0000000000000000     
   6.2849300723882735E-003   5.2183077128601140E-003   0.0000000000000000     
   8.4305240014975070E-003   7.7259818480518933E-003   0.0000000000000000     
   0.0000000000000000        0.0000000000000000        0.0000000000000000     
   1.7986756294277673E-003   1.2770930236848622E-003   0.0000000000000000     
   3.6222332643570171E-003   2.9396779401175952E-003   0.0000000000000000     
   5.4706729047877493E-003   4.9877547492982004E-003   0.0000000000000000     
   7.3439945507199622E-003   7.4213234512266763E-003   0.0000000000000000     
   1.2194474187781478E-002   9.2310973096125497E-003   0.0000000000000000     
   1.5426452539786415E-002   1.2373971804631791E-002   0.0000000000000000     
   1.8575483508573604E-002   1.5687158800618984E-002   0.0000000000000000     
   2.1641567094143051E-002   1.9170658297574136E-002   0.0000000000000000     
   2.4624703296494757E-002   2.2824470295497241E-002   0.0000000000000000     
   1.0855763820028267E-002   8.6308687772448309E-003   0.0000000000000000     
   1.3689012155538870E-002   1.1653214872785507E-002   0.0000000000000000     
   1.6484571289764792E-002   1.4889382177338588E-002   0.0000000000000000     
   1.9242441222706033E-002   1.8339370690904071E-002   0.0000000000000000     
   2.1962621954362591E-002   2.2003180413481961E-002   0.0000000000000000     
   9.6011137579336079E-003   8.1291636233912813E-003   0.0000000000000000     
   1.2077854328036495E-002   1.1048611482204079E-002   0.0000000000000000     
   1.4547359369323457E-002   1.4214740444318344E-002   0.0000000000000000     
   1.7009628881794490E-002   1.7627550509734073E-002   0.0000000000000000     
   1.9464662865449602E-002   2.1287041678451264E-002   0.0000000000000000     
   8.4305240014975070E-003   7.7259818480518933E-003   0.0000000000000000     
   1.0592979057279291E-002   1.0560161632887508E-002   0.0000000000000000     
   1.2763847747249601E-002   1.3663233601558255E-002   0.0000000000000000     
   1.4943130071408442E-002   1.7035197754064133E-002   0.0000000000000000     
   1.7130826029755807E-002   2.0676054090405138E-002   0.0000000000000000     
   7.3439945507199622E-003   7.4213234512266763E-003   0.0000000000000000     
   9.2343863432672556E-003   1.0187865324835791E-002   0.0000000000000000     
   1.1134036423543225E-002   1.3234861649058315E-002   0.0000000000000000     
   1.3042944791547871E-002   1.6562312423894252E-002   0.0000000000000000     
   1.4961111447281197E-002   2.0170217649343590E-002   0.0000000000000000     
   2.4624703296494757E-002   2.2824470295497241E-002   0.0000000000000000     
   2.7528629726290506E-002   2.6671815408782679E-002   0.0000000000000000     
   3.0357083994192097E-002   3.0735914251824821E-002   0.0000000000000000     
   3.3110066100199537E-002   3.5016766824623680E-002   0.0000000000000000     
   3.5787576044312805E-002   3.9514373127179231E-002   0.0000000000000000     
   2.1962621954362591E-002   2.2003180413481961E-002   0.0000000000000000     
   2.4628223162693186E-002   2.5879754103881561E-002   0.0000000000000000     
   2.7222354525656547E-002   2.9968034520912162E-002   0.0000000000000000     
   2.9745016043252678E-002   3.4268021664573760E-002   0.0000000000000000     
   3.2196207715481567E-002   3.8779715534866373E-002   0.0000000000000000     
   1.9464662865449602E-002   2.1287041678451264E-002   0.0000000000000000     
   2.1883910352553222E-002   2.5175583996070117E-002   0.0000000000000000     
   2.4238820375369775E-002   2.9275547508190836E-002   0.0000000000000000     
   2.6529392933899273E-002   3.3586932214813417E-002   0.0000000000000000     
   2.8755628028141699E-002   3.8109738115937868E-002   0.0000000000000000     
   1.7130826029755807E-002   2.0676054090405138E-002   0.0000000000000000     
   1.9295691295870616E-002   2.4559305085348357E-002   0.0000000000000000     
   2.1406481543331784E-002   2.8658453213660850E-002   0.0000000000000000     
   2.3463196772139303E-002   3.2973498475342630E-002   0.0000000000000000     
   2.5465836982293186E-002   3.7504440870393702E-002   0.0000000000000000     
   1.4961111447281197E-002   2.0170217649343590E-002   0.0000000000000000     
   1.6863565992645369E-002   2.4030917371716271E-002   0.0000000000000000     
   1.8725338029542567E-002   2.8116751637322211E-002   0.0000000000000000     
   2.0546427557972792E-002   3.2427720446161427E-002   0.0000000000000000     
   2.2326834577936040E-002   3.6963823798233895E-002   0.0000000000000000     
   3.5787576044312805E-002   3.9514373127179231E-002   0.0000000000000000     
   3.8386497671240319E-002   4.4219727430473303E-002   0.0000000000000000     
   4.0903714825690440E-002   4.9123824005487697E-002   0.0000000000000000     
   4.3339227507663190E-002   5.4226662852222413E-002   0.0000000000000000     
   4.5693035717158569E-002   5.9528243970677457E-002   0.0000000000000000     
   3.2196207715481567E-002   3.8779715534866373E-002   0.0000000000000000     
   3.4576546721416732E-002   4.3497399144152384E-002   0.0000000000000000     
   3.6886650240131616E-002   4.8415355504794179E-002   0.0000000000000000     
   3.9126518271626248E-002   5.3533584616791773E-002   0.0000000000000000     
   4.1296150815900629E-002   5.8852086480145151E-002   0.0000000000000000     
   2.8755628028141699E-002   3.8109738115937868E-002   0.0000000000000000     
   3.0919384616957077E-002   4.2838867609699662E-002   0.0000000000000000     
   3.3022521659205412E-002   4.7769223094234287E-002   0.0000000000000000     
   3.5065039154886700E-002   5.2900804569541750E-002   0.0000000000000000     
   3.7046937104000935E-002   5.8233612035622044E-002   0.0000000000000000     
   2.5465836982293186E-002   3.7504440870393702E-002   0.0000000000000000     
   2.7415011357861379E-002   4.2244132827115137E-002   0.0000000000000000     
   2.9311329082911820E-002   4.7185426773808020E-002   0.0000000000000000     
   3.1154790157444524E-002   5.2328322710472358E-002   0.0000000000000000     
   3.2945394581459481E-002   5.7672820637108130E-002   0.0000000000000000     
   2.2326834577936040E-002   3.6963823798233895E-002   0.0000000000000000     
   2.4063426944129621E-002   4.1713194796398824E-002   0.0000000000000000     
   2.5753072511250856E-002   4.6663966543515394E-002   0.0000000000000000     
   2.7395771279299732E-002   5.1816139039583584E-002   0.0000000000000000     
   2.8991523248276259E-002   5.7169712284603422E-002   0.0000000000000000     
   4.5693035717158569E-002   5.9528243970677457E-002   0.0000000000000000     
   4.7975551749978376E-002   6.5019135291466204E-002   0.0000000000000000     
   5.0197187901924456E-002   7.0689904745202009E-002   0.0000000000000000     
   5.2357944172996787E-002   7.6540552331884906E-002   0.0000000000000000     
   5.4457820563195369E-002   8.2571078051514868E-002   0.0000000000000000     
   4.1296150815900629E-002   5.8852086480145151E-002   0.0000000000000000     
   4.3400830117121605E-002   6.4361154792026032E-002   0.0000000000000000     
   4.5445838419456021E-002   7.0051083249606114E-002   0.0000000000000000     
   4.7431175722903875E-002   7.5921871852885417E-002   0.0000000000000000     
   4.9356842027465174E-002   8.1973520601863900E-002   0.0000000000000000     
   3.7046937104000935E-002   5.8233612035622044E-002   0.0000000000000000     
   3.8969999378604910E-002   6.3758282979295464E-002   0.0000000000000000     
   4.0836009850755403E-002   6.9465454887382316E-002   0.0000000000000000     
   4.2644968520452409E-002   7.5355127759882581E-002   0.0000000000000000     
   4.4396875387695947E-002   8.1427301596796273E-002   0.0000000000000000     
   3.2945394581459481E-002   5.7672820637108130E-002   0.0000000000000000     
   3.4683059534428302E-002   6.3210519853274513E-002   0.0000000000000000     
   3.6367702195822610E-002   6.8933019658530617E-002   0.0000000000000000     
   3.7999322565642389E-002   7.4840320052876441E-002   0.0000000000000000     
   3.9577920643887661E-002   8.0932421036311999E-002   0.0000000000000000     
   2.8991523248276259E-002   5.7169712284603422E-002   0.0000000000000000     
   3.0540010584591784E-002   6.2717865413963139E-002   0.0000000000000000     
   3.2040915454657641E-002   6.8453777563050988E-002   0.0000000000000000     
   3.3494237858473830E-002   7.4377448731866941E-002   0.0000000000000000     
   3.4899977796040357E-002   8.0488878920411039E-002   0.0000000000000000     
   5.4457820563195369E-002   8.2571078051514868E-002   0.0000000000000000     
   5.6488726116329081E-002   8.8769890977931976E-002   0.0000000000000000     
   5.8442569876206774E-002   9.5125400184976269E-002   0.0000000000000000     
   6.0319351842828446E-002  0.10163760567264779        0.0000000000000000     
   6.2119072016194099E-002  0.10830650744094651        0.0000000000000000     
   4.9356842027465174E-002   8.1973520601863900E-002   0.0000000000000000     
   5.1217514196434999E-002   8.8195394490306764E-002   0.0000000000000000     
   5.3007869093108478E-002   9.4576858511979084E-002   0.0000000000000000     
   5.4727906717485571E-002  0.10111791266688090        0.0000000000000000     
   5.6377627069566304E-002  0.10781855695501222        0.0000000000000000     
   4.4396875387695947E-002   8.1427301596796273E-002   0.0000000000000000     
   4.6088469315231959E-002   8.7671410286786572E-002   0.0000000000000000     
   4.7716489165806439E-002   9.4076887718516577E-002   0.0000000000000000     
   4.9280934939419395E-002  0.10064373389198635        0.0000000000000000     
   5.0781806636070799E-002  0.10737194880719583        0.0000000000000000     
   3.9577920643887661E-002   8.0932421036311999E-002   0.0000000000000000     
   4.1101591472719912E-002   8.7197938367371386E-002   0.0000000000000000     
   4.2568430094300655E-002   9.3625487804588764E-002   0.0000000000000000     
   4.3978436508629884E-002  0.10021506934796408        0.0000000000000000     
   4.5331610715707592E-002  0.10696668299749738        0.0000000000000000     
   3.4899977796040357E-002   8.0488878920411039E-002   0.0000000000000000     
   3.6256880668898900E-002   8.6774978732061261E-002   0.0000000000000000     
   3.7563691878591141E-002   9.3222658770195643E-002   0.0000000000000000     
   3.8820411425117066E-002   9.9831919034814171E-002   0.0000000000000000     
   4.0027039308476682E-002  0.10660275952591686        0.0000000000000000     
   6.2119072016194099E-002  0.10830650744094651        0.0000000000000000     
   6.3831053593726664E-002  0.11511815206620907        0.0000000000000000     
   6.5444619772849114E-002  0.12205858612477211        0.0000000000000000     
   6.6959770553561421E-002  0.12912780961663561        0.0000000000000000     
   6.8376505935863599E-002  0.13632582254179962        0.0000000000000000     
   5.6377627069566304E-002  0.10781855695501222        0.0000000000000000     
   5.7949498503692985E-002  0.11466184356146723        0.0000000000000000     
   5.9435989374207999E-002  0.12163082467134030        0.0000000000000000     
   6.0837099681111305E-002  0.12872550028463134        0.0000000000000000     
   6.2152829424402915E-002  0.13594587040134035        0.0000000000000000     
   5.0781806636070799E-002  0.10737194880719583        0.0000000000000000     
   5.2214201076811177E-002  0.11424220850271828        0.0000000000000000     
   5.3573215082691007E-002  0.12123518901712696        0.0000000000000000     
   5.4858848653710310E-002  0.12835089035042177        0.0000000000000000     
   5.6071101789869071E-002  0.13558931250260281        0.0000000000000000     
   4.5331610715707592E-002  0.10696668299749738        0.0000000000000000     
   4.6625161313081212E-002  0.11385924688996217        0.0000000000000000     
   4.7856296898298165E-002  0.12087167916213203        0.0000000000000000     
   4.9025017471358449E-002  0.12800397981400694        0.0000000000000000     
   5.0131323032262073E-002  0.13525614884558693        0.0000000000000000     
   4.0027039308476682E-002  0.10660275952591686        0.0000000000000000     
   4.1182379212503117E-002  0.11351295872319890        0.0000000000000000     
   4.2285234821029458E-002  0.12054029510635555        0.0000000000000000     
   4.3335606134055717E-002  0.12768476867538683        0.0000000000000000     
   4.4333493151581901E-002  0.13494637943029267        0.0000000000000000     
   6.8376505935863599E-002  0.13632582254179962        0.0000000000000000     
   6.9697196552355442E-002  0.14365738941689826        0.0000000000000000     
   7.0924213035636785E-002  0.15112727475856574        0.0000000000000000     
   7.2057555385707600E-002  0.15873547856680204        0.0000000000000000     
   7.3097223602567915E-002  0.16648200084160722        0.0000000000000000     
   6.2152829424402915E-002  0.13594587040134035        0.0000000000000000     
   6.3395029576099007E-002  0.14328989834798317        0.0000000000000000     
   6.4575551108215737E-002  0.15075554745107542        0.0000000000000000     
   6.5694394020753097E-002  0.15834281771061717        0.0000000000000000     
   6.6751558313711101E-002  0.16605170912660844        0.0000000000000000     
   5.6071101789869071E-002  0.13558931250260281        0.0000000000000000     
   5.7226707347655101E-002  0.14294793335507461        0.0000000000000000     
   5.8342398183556209E-002  0.15042423078924183        0.0000000000000000     
   5.9418174297572388E-002  0.15801820480510448        0.0000000000000000     
   6.0454035689703645E-002  0.16572985540266250        0.0000000000000000     
   5.0131323032262073E-002  0.13525614884558693        0.0000000000000000     
   5.1192229867023750E-002  0.14263149443817269        0.0000000000000000     
   5.2224754261658235E-002  0.15013332477306501        0.0000000000000000     
   5.3228896216165507E-002  0.15776163985026392        0.0000000000000000     
   5.4204655730545587E-002  0.16551643966976942        0.0000000000000000     
   4.4333493151581901E-002  0.13494637943029267        0.0000000000000000     
   4.5291597134204942E-002  0.14234058159727730        0.0000000000000000     
   4.6222619342521781E-002  0.14988282940254496        0.0000000000000000     
   4.7126559776532448E-002  0.15757312284609559        0.0000000000000000     
   4.8003418436236900E-002  0.16541146192792916        0.0000000000000000     
   0.0000000000000000        0.0000000000000000        0.0000000000000000     
   1.7986756294277673E-003   1.2770930236848622E-003   0.0000000000000000     
   3.6222332643570171E-003   2.9396779401175952E-003   0.0000000000000000     
   5.4706729047877493E-003   4.9877547492982004E-003   0.0000000000000000     
   7.3439945507199622E-003   7.4213234512266763E-003   0.0000000000000000     
   0.0000000000000000        0.0000000000000000        0.0000000000000000     
   1.5354869283870545E-003   1.2176481544047732E-003   0.0000000000000000     
   3.1005301758378779E-003   2.8210523870048905E-003   0.0000000000000000     
   4.6951297423524696E-003   4.8102126978003517E-003   0.0000000000000000     
   6.3192856279308297E-003   7.1851290867911578E-003   0.0000000000000000     
   0.0000000000000000        0.0000000000000000        0.0000000000000000     
   1.2883477053268798E-003   1.1698730259844571E-003   0.0000000000000000     
   2.6068231830125013E-003   2.7243872694160884E-003   0.0000000000000000     
   3.9554264330568635E-003   4.6635427302948946E-003   0.0000000000000000     
   5.3341574554599666E-003   6.9873394086208736E-003   0.0000000000000000     
   0.0000000000000000        0.0000000000000000        0.0000000000000000     
   1.0572579602472433E-003   1.1337676384239135E-003   0.0000000000000000     
   2.1411122858808864E-003   2.6496825873511889E-003   0.0000000000000000     
   3.2515629769009299E-003   4.5477448467818272E-003   0.0000000000000000     
   4.3886100333073727E-003   6.8279544167158248E-003   0.0000000000000000     
   0.0000000000000000        0.0000000000000000        0.0000000000000000     
   8.4221769314814427E-004   1.1093319917231427E-003   0.0000000000000000     
   1.7033974844430338E-003   2.5969383408101926E-003   0.0000000000000000     
   2.5835393738846686E-003   4.4628190472611488E-003   0.0000000000000000     
   3.4826433614730491E-003   6.7069741110760122E-003   0.0000000000000000     
   7.3439945507199622E-003   7.4213234512266763E-003   0.0000000000000000     
   9.2343863432672556E-003   1.0187865324835791E-002   0.0000000000000000     
   1.1134036423543225E-002   1.3234861649058315E-002   0.0000000000000000     
   1.3042944791547871E-002   1.6562312423894252E-002   0.0000000000000000     
   1.4961111447281197E-002   2.0170217649343590E-002   0.0000000000000000     
   6.3192856279308297E-003   7.1851290867911578E-003   0.0000000000000000     
   7.9601779814550289E-003   9.8962029500336904E-003   0.0000000000000000     
   9.6049869518071429E-003   1.2893835683584338E-002   0.0000000000000000     
   1.1253712538987165E-002   1.6178027287443098E-002   0.0000000000000000     
   1.2906354742995101E-002   1.9748777761609972E-002   0.0000000000000000     
   5.3341574554599666E-003   6.9873394086208736E-003   0.0000000000000000     
   6.7284557672972522E-003   9.6496549004659697E-003   0.0000000000000000     
   8.1237608856441611E-003   1.2604366801902129E-002   0.0000000000000000     
   9.5200728105006970E-003   1.5851475112929343E-002   0.0000000000000000     
   1.0917391541866852E-002   1.9390979833547619E-002   0.0000000000000000     
   4.3886100333073727E-003   6.8279544167158248E-003   0.0000000000000000     
   5.5392197007939218E-003   9.4482211761326325E-003   0.0000000000000000     
   6.6903582250542855E-003   1.2366455004011685E-002   0.0000000000000000     
   7.8420256060884597E-003   1.5582655900352991E-002   0.0000000000000000     
   8.9942218438964494E-003   1.9096823865156543E-002   0.0000000000000000     
   3.4826433614730491E-003   6.7069741110760122E-003   0.0000000000000000     
   4.3924697819450412E-003   9.2919017770336700E-003   0.0000000000000000     
   5.3047789700375126E-003   1.2180100289913011E-002   0.0000000000000000     
   6.2195709257504631E-003   1.5371569649714032E-002   0.0000000000000000     
   7.1368456490838936E-003   1.8866309856436739E-002   0.0000000000000000     
   1.4961111447281197E-002   2.0170217649343590E-002   0.0000000000000000     
   1.6863565992645369E-002   2.4030917371716271E-002   0.0000000000000000     
   1.8725338029542567E-002   2.8116751637322211E-002   0.0000000000000000     
   2.0546427557972792E-002   3.2427720446161427E-002   0.0000000000000000     
   2.2326834577936040E-002   3.6963823798233895E-002   0.0000000000000000     
   1.2906354742995101E-002   1.9748777761609972E-002   0.0000000000000000     
   1.4547205190214072E-002   2.3580590001663081E-002   0.0000000000000000     
   1.6160555507027205E-002   2.7647966903180561E-002   0.0000000000000000     
   1.7746405693434501E-002   3.1950908466162400E-002   0.0000000000000000     
   1.9304755749435958E-002   3.6489414690608610E-002   0.0000000000000000     
   1.0917391541866852E-002   1.9390979833547619E-002   0.0000000000000000     
   1.2306279635913317E-002   2.3198492121678002E-002   0.0000000000000000     
   1.3677299648810773E-002   2.7249623135241530E-002   0.0000000000000000     
   1.5030451580559219E-002   3.1544372874238204E-002   0.0000000000000000     
   1.6365735431158653E-002   3.6082741338668026E-002   0.0000000000000000     
   8.9942218438964494E-003   1.9096823865156543E-002   0.0000000000000000     
   1.0140789329743098E-002   2.2884623731761027E-002   0.0000000000000000     
   1.1275570454893264E-002   2.6921720333505119E-002   0.0000000000000000     
   1.2398565219346938E-002   3.1208113670388813E-002   0.0000000000000000     
   1.3509773623104128E-002   3.5743803742412122E-002   0.0000000000000000     
   7.1368456490838936E-003   1.8866309856436739E-002   0.0000000000000000     
   8.0507342717034257E-003   2.2638984831912162E-002   0.0000000000000000     
   8.9553679252746838E-003   2.6664258497971327E-002   0.0000000000000000     
   9.8507466097976712E-003   3.0942130854614253E-002   0.0000000000000000     
   1.0736870325272383E-002   3.5472601901840921E-002   0.0000000000000000     
   2.2326834577936040E-002   3.6963823798233895E-002   0.0000000000000000     
   2.4063426944129621E-002   4.1713194796398824E-002   0.0000000000000000     
   2.5753072511250856E-002   4.6663966543515394E-002   0.0000000000000000     
   2.7395771279299732E-002   5.1816139039583584E-002   0.0000000000000000     
   2.8991523248276259E-002   5.7169712284603422E-002   0.0000000000000000     
   1.9304755749435958E-002   3.6489414690608610E-002   0.0000000000000000     
   2.0828503992821500E-002   4.1246429199663717E-002   0.0000000000000000     
   2.2310548741381050E-002   4.6204895616472265E-002   0.0000000000000000     
   2.3750889995114613E-002   5.1364813941034232E-002   0.0000000000000000     
   2.5149527754022183E-002   5.6726184173349632E-002   0.0000000000000000     
   1.6365735431158653E-002   3.6082741338668026E-002   0.0000000000000000     
   1.7674115120996692E-002   4.0844211719022847E-002   0.0000000000000000     
   1.8946554570460961E-002   4.5808267205794541E-002   0.0000000000000000     
   2.0183053779551444E-002   5.0974907798983088E-002   0.0000000000000000     
   2.1383612748268152E-002   5.6344133498588488E-002   0.0000000000000000     
   1.3509773623104128E-002   3.5743803742412122E-002   0.0000000000000000     
   1.4600260328655216E-002   4.0506542354476198E-002   0.0000000000000000     
   1.5661089998490578E-002   4.5474081311482215E-002   0.0000000000000000     
   1.6692262632610227E-002   5.0646420613430145E-002   0.0000000000000000     
   1.7693778231014159E-002   5.6023560260320002E-002   0.0000000000000000     
   1.0736870325272383E-002   3.5472601901840921E-002   0.0000000000000000     
   1.1606939615797054E-002   4.0233421106023778E-002   0.0000000000000000     
   1.2454155025469916E-002   4.5202337933535272E-002   0.0000000000000000     
   1.3278516554290968E-002   5.0379352384375409E-002   0.0000000000000000     
   1.4080024202260210E-002   5.5764464458544168E-002   0.0000000000000000     
   2.8991523248276259E-002   5.7169712284603422E-002   0.0000000000000000     
   3.0540010584591784E-002   6.2717865413963139E-002   0.0000000000000000     
   3.2040915454657641E-002   6.8453777563050988E-002   0.0000000000000000     
   3.3494237858473830E-002   7.4377448731866941E-002   0.0000000000000000     
   3.4899977796040357E-002   8.0488878920411039E-002   0.0000000000000000     
   2.5149527754022183E-002   5.6726184173349632E-002   0.0000000000000000     
   2.6506555139584879E-002   6.2283512625021797E-002   0.0000000000000000     
   2.7822065273283823E-002   6.8031305607654080E-002   0.0000000000000000     
   2.9096058155119012E-002   7.3969563121246487E-002   0.0000000000000000     
   3.0328533785090445E-002   8.0098285165798991E-002   0.0000000000000000     
   2.1383612748268152E-002   5.6344133498588488E-002   0.0000000000000000     
   2.2548395809897148E-002   6.1910654450110937E-002   0.0000000000000000     
   2.3677567297724519E-002   6.7669180799050571E-002   0.0000000000000000     
   2.4771127211750257E-002   7.3619712545407404E-002   0.0000000000000000     
   2.5829075551974372E-002   7.9762249689181414E-002   0.0000000000000000     
   1.7693778231014159E-002   5.6023560260320002E-002   0.0000000000000000     
   1.8665532595528583E-002   6.1599290889230517E-002   0.0000000000000000     
   1.9607421527979719E-002   6.7367403137240420E-002   0.0000000000000000     
   2.0519445028367573E-002   7.3327897004349676E-002   0.0000000000000000     
   2.1401603096692132E-002   7.9480772490558335E-002   0.0000000000000000     
   1.4080024202260210E-002   5.5764464458544168E-002   0.0000000000000000     
   1.4857965496479185E-002   6.1349421942380571E-002   0.0000000000000000     
   1.5611627964049430E-002   6.7125972622223626E-002   0.0000000000000000     
   1.6341011604970947E-002   7.3094116498073333E-002   0.0000000000000000     
   1.7046116419243734E-002   7.9253853569929714E-002   0.0000000000000000     
   3.4899977796040357E-002   8.0488878920411039E-002   0.0000000000000000     
   3.6256880668898900E-002   8.6774978732061261E-002   0.0000000000000000     
   3.7563691878591141E-002   9.3222658770195643E-002   0.0000000000000000     
   3.8820411425117066E-002   9.9831919034814171E-002   0.0000000000000000     
   4.0027039308476682E-002  0.10660275952591686        0.0000000000000000     
   3.0328533785090445E-002   8.0098285165798991E-002   0.0000000000000000     
   3.1518575656528096E-002   8.6402601633814066E-002   0.0000000000000000     
   3.2665267262761956E-002   9.2867642417794230E-002   0.0000000000000000     
   3.3768608603792036E-002   9.9493407517739468E-002   0.0000000000000000     
   3.4828599679618301E-002  0.10627989693364980        0.0000000000000000     
   2.5829075551974372E-002   7.9762249689181414E-002   0.0000000000000000     
   2.6850915188366738E-002   8.6080877325587765E-002   0.0000000000000000     
   2.7836148990897241E-002   9.2559680549841608E-002   0.0000000000000000     
   2.8784776959565883E-002   9.9198659361942929E-002   0.0000000000000000     
   2.9696799094372669E-002  0.10599781376189171        0.0000000000000000     
   2.1401603096692132E-002   7.9480772490558335E-002   0.0000000000000000     
   2.2253899264414796E-002   8.5809805807382331E-002   0.0000000000000000     
   2.3076337062996964E-002   9.2298773166337722E-002   0.0000000000000000     
   2.3868916492438629E-002   9.8947674567424510E-002   0.0000000000000000     
   2.4631637552739786E-002  0.10575651001064264        0.0000000000000000     
   1.7046116419243734E-002   7.9253853569929714E-002   0.0000000000000000     
   1.7727527884672294E-002   8.5589387079197804E-002   0.0000000000000000     
   1.8385831479061136E-002   9.2084920267282627E-002   0.0000000000000000     
   1.9021027202410255E-002   9.8740453134184225E-002   0.0000000000000000     
   1.9633115054719655E-002  0.10555598567990257        0.0000000000000000     
   4.0027039308476682E-002  0.10660275952591686        0.0000000000000000     
   4.1182379212503117E-002  0.11351295872319890        0.0000000000000000     
   4.2285234821029458E-002  0.12054029510635555        0.0000000000000000     
   4.3335606134055717E-002  0.12768476867538683        0.0000000000000000     
   4.4333493151581901E-002  0.13494637943029267        0.0000000000000000     
   3.4828599679618301E-002  0.10627989693364980        0.0000000000000000     
   3.5845052724682337E-002  0.11320421372500288        0.0000000000000000     
   3.6817779973425717E-002  0.12024346095127650        0.0000000000000000     
   3.7746781425848412E-002  0.12739763861247061        0.0000000000000000     
   3.8632057081950451E-002  0.13466674670858525        0.0000000000000000     
   2.9696799094372669E-002  0.10599781376189171        0.0000000000000000     
   3.0572379799224371E-002  0.11293388161794851        0.0000000000000000     
   3.1411683478027759E-002  0.11998360079837375        0.0000000000000000     
   3.2214710130782850E-002  0.12714697130316752        0.0000000000000000     
   3.2981459757489617E-002  0.13442399313232975        0.0000000000000000     
   2.4631637552739786E-002  0.10575651001064264        0.0000000000000000     
   2.5364360436129191E-002  0.11270196240203571        0.0000000000000000     
   2.6066945334835601E-002  0.11976071464764736        0.0000000000000000     
   2.6739392248858997E-002  0.12693276674747747        0.0000000000000000     
   2.7381701178199398E-002  0.13421811870152611        0.0000000000000000     
   1.9633115054719655E-002  0.10555598567990257        0.0000000000000000     
   2.0220994635396818E-002  0.11250845607726459        0.0000000000000000     
   2.0783565543849226E-002  0.11957480249909727        0.0000000000000000     
   2.1320827780076886E-002  0.12675502494540053        0.0000000000000000     
   2.1832781344079788E-002  0.13404912341617442        0.0000000000000000     
   4.4333493151581901E-002  0.13494637943029267        0.0000000000000000     
   4.5291597134204942E-002  0.14234058159727730        0.0000000000000000     
   4.6222619342521781E-002  0.14988282940254496        0.0000000000000000     
   4.7126559776532448E-002  0.15757312284609559        0.0000000000000000     
   4.8003418436236900E-002  0.16541146192792916        0.0000000000000000     
   3.8632057081950451E-002  0.13466674670858525        0.0000000000000000     
   3.9480756341479566E-002  0.14207919297815474        0.0000000000000000     
   4.0300028604183490E-002  0.14966338515971339        0.0000000000000000     
   4.1089873870062230E-002  0.15741932325326127        0.0000000000000000     
   4.1850292139115786E-002  0.16534700725879833        0.0000000000000000     
   3.2981459757489617E-002  0.13442399313232975        0.0000000000000000     
   3.3715654681128519E-002  0.14185132672657108        0.0000000000000000     
   3.4421017224679953E-002  0.14946563252660214        0.0000000000000000     
   3.5097547388143920E-002  0.15726691053242298        0.0000000000000000     
   3.5745245171520439E-002  0.16525516074403346        0.0000000000000000     
   2.7381701178199398E-002  0.13421811870152611        0.0000000000000000     
   2.7996292153151789E-002  0.14165698284252637        0.0000000000000000     
   2.8585585204011162E-002  0.14928957150321118        0.0000000000000000     
   2.9149580330777518E-002  0.15711588468358054        0.0000000000000000     
   2.9688277533450859E-002  0.16513592238363459        0.0000000000000000     
   2.1832781344079788E-002  0.13404912341617442        0.0000000000000000     
   2.2322668757549385E-002  0.14149616132602055        0.0000000000000000     
   2.2793732542177127E-002  0.14913520208954045        0.0000000000000000     
   2.3245972697963014E-002  0.15696624570673415        0.0000000000000000     
   2.3679389224907050E-002  0.16498929217760167        0.0000000000000000     
   0.0000000000000000        0.0000000000000000        0.0000000000000000     
   8.4221769314814427E-004   1.1093319917231427E-003   0.0000000000000000     
   1.7033974844430338E-003   2.5969383408101926E-003   0.0000000000000000     
   2.5835393738846686E-003   4.4628190472611488E-003   0.0000000000000000     
   3.4826433614730491E-003   6.7069741110760122E-003   0.0000000000000000     
   0.0000000000000000        0.0000000000000000        0.0000000000000000     
   6.3431744124475137E-004   1.0930563124861212E-003   0.0000000000000000     
   1.2791475764720901E-003   2.5603948156285336E-003   0.0000000000000000     
   1.9344904056820163E-003   4.4020155094272369E-003   0.0000000000000000     
   2.6003459288745298E-003   6.6179183938822311E-003   0.0000000000000000     
   0.0000000000000000        0.0000000000000000        0.0000000000000000     
   4.2464774175223245E-004   1.0814308273168257E-003   0.0000000000000000     
   8.5383135974120188E-004   2.5342922976416471E-003   0.0000000000000000     
   1.2875508539669086E-003   4.3585844109744649E-003   0.0000000000000000     
   1.7258062244293526E-003   6.5543071673152768E-003   0.0000000000000000     
   0.0000000000000000        0.0000000000000000        0.0000000000000000     
   2.1320859467058740E-004   1.0744555362152560E-003   0.0000000000000000     
   4.2744883425036928E-004   2.5186307868495339E-003   0.0000000000000000     
   6.4272071873934576E-004   4.3325257519028345E-003   0.0000000000000000     
   8.5902424813751651E-004   6.5161404313751553E-003   0.0000000000000000     
   0.0000000000000000        0.0000000000000000        0.0000000000000000     
  -1.8355542780179590E-016   1.0721304391814123E-003   0.0000000000000000     
  -4.0782264718042249E-016   2.5134102832521932E-003   0.0000000000000000     
  -6.7269323791863123E-016   4.3238395322123431E-003   0.0000000000000000     
  -9.7819430507073424E-016   6.5034181860618616E-003   0.0000000000000000     
   3.4826433614730491E-003   6.7069741110760122E-003   0.0000000000000000     
   4.3924697819450412E-003   9.2919017770336700E-003   0.0000000000000000     
   5.3047789700375126E-003   1.2180100289913011E-002   0.0000000000000000     
   6.2195709257504631E-003   1.5371569649714032E-002   0.0000000000000000     
   7.1368456490838936E-003   1.8866309856436739E-002   0.0000000000000000     
   2.6003459288745298E-003   6.6179183938822311E-003   0.0000000000000000     
   3.2738102868071508E-003   9.1748598201121401E-003   0.0000000000000000     
   3.9519796202373966E-003   1.2039596139235591E-002   0.0000000000000000     
   4.6348539291652703E-003   1.5212127351252583E-002   0.0000000000000000     
   5.3224332135907697E-003   1.8692453456163115E-002   0.0000000000000000     
   1.7258062244293526E-003   6.5543071673152768E-003   0.0000000000000000     
   2.1688454914367940E-003   9.0912584223110920E-003   0.0000000000000000     
   2.6169166752974932E-003   1.1939236031608914E-002   0.0000000000000000     
   3.0700197760114493E-003   1.5098239995208745E-002   0.0000000000000000     
   3.5281547935786645E-003   1.8568270313110580E-002   0.0000000000000000     
   8.5902424813751651E-004   6.5161404313751553E-003   0.0000000000000000     
   1.0775753958339714E-003   9.0410975836305290E-003   0.0000000000000000     
   1.2995901352177998E-003   1.1879019967032984E-002   0.0000000000000000     
   1.5250684662890016E-003   1.5029907581582524E-002   0.0000000000000000     
   1.7540103890475772E-003   1.8493760427279144E-002   0.0000000000000000     
  -9.7819430507073424E-016   6.5034181860618616E-003   0.0000000000000000     
  -1.3171430092440151E-015   9.0243773040704477E-003   0.0000000000000000     
  -1.6826072327981445E-015   1.1858947945507799E-002   0.0000000000000000     
  -2.0738432808054333E-015   1.5007130110373915E-002   0.0000000000000000     
  -2.4914965923716892E-015   1.8468923798668799E-002   0.0000000000000000     
   7.1368456490838936E-003   1.8866309856436739E-002   0.0000000000000000     
   8.0507342717034257E-003   2.2638984831912162E-002   0.0000000000000000     
   8.9553679252746838E-003   2.6664258497971327E-002   0.0000000000000000     
   9.8507466097976712E-003   3.0942130854614253E-002   0.0000000000000000     
   1.0736870325272383E-002   3.5472601901840921E-002   0.0000000000000000     
   5.3224332135907697E-003   1.8692453456163115E-002   0.0000000000000000     
   6.0083103042409755E-003   2.2453901196449223E-002   0.0000000000000000     
   6.6860780318429664E-003   2.6469797314592942E-002   0.0000000000000000     
   7.3557363963967460E-003   3.0740141810594257E-002   0.0000000000000000     
   8.0172853979023108E-003   3.5264934684453193E-002   0.0000000000000000     
   3.5281547935786645E-003   1.8568270313110580E-002   0.0000000000000000     
   3.9857132698024305E-003   2.2321698599690038E-002   0.0000000000000000     
   4.4370867464860447E-003   2.6330896469322709E-002   0.0000000000000000     
   4.8822752236295031E-003   3.0595863922008613E-002   0.0000000000000000     
   5.3212787012328084E-003   3.5116600957747726E-002   0.0000000000000000     
   1.7540103890475772E-003   1.8493760427279144E-002   0.0000000000000000     
   1.9829431683877925E-003   2.2242377041634599E-002   0.0000000000000000     
   2.2083940692039141E-003   2.6247555962160656E-002   0.0000000000000000     
   2.4303630914959411E-003   3.0509297188857296E-002   0.0000000000000000     
   2.6488502352638756E-003   3.5027600721724533E-002   0.0000000000000000     
  -2.4914965923716892E-015   1.8468923798668799E-002   0.0000000000000000     
  -2.9395973502599482E-015   2.2215936522282920E-002   0.0000000000000000     
  -3.4215252159297549E-015   2.6219775793106762E-002   0.0000000000000000     
  -3.9383643915535949E-015   3.0480441611140319E-002   0.0000000000000000     
  -4.4883801536554913E-015   3.4997933976383601E-002   0.0000000000000000     
   1.0736870325272383E-002   3.5472601901840921E-002   0.0000000000000000     
   1.1606939615797054E-002   4.0233421106023778E-002   0.0000000000000000     
   1.2454155025469916E-002   4.5202337933535272E-002   0.0000000000000000     
   1.3278516554290968E-002   5.0379352384375409E-002   0.0000000000000000     
   1.4080024202260210E-002   5.5764464458544168E-002   0.0000000000000000     
   8.0172853979023108E-003   3.5264934684453193E-002   0.0000000000000000     
   8.6667156349720456E-003   4.0022679814419169E-002   0.0000000000000000     
   9.3000177062183258E-003   4.4991881078741594E-002   0.0000000000000000     
   9.9171916116411601E-003   5.0172538477420495E-002   0.0000000000000000     
   1.0518237351240540E-002   5.5564652010455851E-002   0.0000000000000000     
   5.3212787012328084E-003   3.5116600957747726E-002   0.0000000000000000     
   5.7521510387300153E-003   3.9872150320415918E-002   0.0000000000000000     
   6.1729460955551796E-003   4.4841554753889012E-002   0.0000000000000000     
   6.5836638717082984E-003   5.0024814258167016E-002   0.0000000000000000     
   6.9843043671893763E-003   5.5421928833249930E-002   0.0000000000000000     
   2.6488502352638756E-003   3.5027600721724533E-002   0.0000000000000000     
   2.8632458270709685E-003   3.9781832624014052E-002   0.0000000000000000     
   3.0729401934804740E-003   4.4751358958977548E-002   0.0000000000000000     
   3.2779333344923919E-003   4.9936179726614995E-002   0.0000000000000000     
   3.4782252501067224E-003   5.5336294926926405E-002   0.0000000000000000     
  -4.4883801536554913E-015   3.4997933976383601E-002   0.0000000000000000     
  -5.0970512532888534E-015   3.9751726725213564E-002   0.0000000000000000     
  -5.7893143404208480E-015   4.4721293694007166E-002   0.0000000000000000     
  -6.5644375785850473E-015   4.9906634882764395E-002   0.0000000000000000     
  -7.4228817537047576E-015   5.5307750291485297E-002   0.0000000000000000     
   1.4080024202260210E-002   5.5764464458544168E-002   0.0000000000000000     
   1.4857965496479185E-002   6.1349421942380571E-002   0.0000000000000000     
   1.5611627964049430E-002   6.7125972622223626E-002   0.0000000000000000     
   1.6341011604970947E-002   7.3094116498073333E-002   0.0000000000000000     
   1.7046116419243734E-002   7.9253853569929714E-002   0.0000000000000000     
   1.0518237351240540E-002   5.5564652010455851E-002   0.0000000000000000     
   1.1101903371906353E-002   6.1157690507525182E-002   0.0000000000000000     
   1.1666938120528483E-002   6.6941122798306052E-002   0.0000000000000000     
   1.2213341597106927E-002   7.2914948882798397E-002   0.0000000000000000     
   1.2741113801641687E-002   7.9079168761002280E-002   0.0000000000000000     
   6.9843043671893763E-003   5.5421928833249930E-002   0.0000000000000000     
   7.3735550809674883E-003   6.1020739482628497E-002   0.0000000000000000     
   7.7501035120117173E-003   6.6809087209793477E-002   0.0000000000000000     
   8.1139496603220580E-003   7.2786972014744877E-002   0.0000000000000000     
   8.4650935258985174E-003   7.8954393897482697E-002   0.0000000000000000     
   3.4782252501067224E-003   5.5336294926926405E-002   0.0000000000000000     
   3.6729206236625939E-003   6.0938568867690494E-002   0.0000000000000000     
   3.8611241384991337E-003   6.6729865856685958E-002   0.0000000000000000     
   4.0428357946163430E-003   7.2710185893912774E-002   0.0000000000000000     
   4.2180555920142216E-003   7.8879528979370978E-002   0.0000000000000000     
  -7.4228817537047576E-015   5.5307750291485297E-002   0.0000000000000000     
  -8.3336115785925813E-015   6.0911178662711188E-002   0.0000000000000000     
  -9.2660796570387394E-015   6.6703458738983451E-002   0.0000000000000000     
  -1.0222196895372238E-014   7.2684590520302100E-002   0.0000000000000000     
  -1.1199157920471770E-014   7.8854574006667108E-002   0.0000000000000000     
   1.7046116419243734E-002   7.9253853569929714E-002   0.0000000000000000     
   1.7727527884672294E-002   8.5589387079197804E-002   0.0000000000000000     
   1.8385831479061136E-002   9.2084920267282627E-002   0.0000000000000000     
   1.9021027202410255E-002   9.8740453134184225E-002   0.0000000000000000     
   1.9633115054719655E-002  0.10555598567990257        0.0000000000000000     
   1.2741113801641687E-002   7.9079168761002280E-002   0.0000000000000000     
   1.3251270561151168E-002   8.5418681287670467E-002   0.0000000000000000     
   1.3744827702653773E-002   9.1918385317555779E-002   0.0000000000000000     
   1.4221785226149503E-002   9.8578280850658201E-002   0.0000000000000000     
   1.4682143131638358E-002  0.10539836788697773        0.0000000000000000     
   8.4650935258985174E-003   7.8954393897482697E-002   0.0000000000000000     
   8.8045968058633704E-003   8.5296748579436699E-002   0.0000000000000000     
   9.1335211973388973E-003   9.1799431782036658E-002   0.0000000000000000     
   9.4518667003250980E-003   9.8462443505282563E-002   0.0000000000000000     
   9.7596333148219725E-003  0.10528578374917444        0.0000000000000000     
   4.2180555920142216E-003   7.8879528979370978E-002   0.0000000000000000     
   4.3875066188088976E-003   8.5223588954496499E-002   0.0000000000000000     
   4.5519119631165037E-003   9.1728059660725281E-002   0.0000000000000000     
   4.7112716249370357E-003   9.8392941098057310E-002   0.0000000000000000     
   4.8655856042704951E-003  0.10521823326649264        0.0000000000000000     
  -1.1199157920471770E-014   7.8854574006667108E-002   0.0000000000000000     
  -1.2245413016920281E-014   8.5199202412849825E-002   0.0000000000000000     
  -1.3405455131371147E-014   9.1704268953621618E-002   0.0000000000000000     
  -1.4679433341623083E-014   9.8369773628982471E-002   0.0000000000000000     
  -1.6067876196235176E-014  0.10519571643893236        0.0000000000000000     
   1.9633115054719655E-002  0.10555598567990257        0.0000000000000000     
   2.0220994635396818E-002  0.11250845607726459        0.0000000000000000     
   2.0783565543849226E-002  0.11957480249909727        0.0000000000000000     
   2.1320827780076886E-002  0.12675502494540053        0.0000000000000000     
   2.1832781344079788E-002  0.13404912341617442        0.0000000000000000     
   1.4682143131638358E-002  0.10539836788697773        0.0000000000000000     
   1.5123903206020188E-002  0.11235594368296439        0.0000000000000000     
   1.5545067236194842E-002  0.11942830549506815        0.0000000000000000     
   1.5945635222162319E-002  0.12661545332328902        0.0000000000000000     
   1.6325607163922624E-002  0.13391738716762702        0.0000000000000000     
   9.7596333148219725E-003  0.10528578374917444        0.0000000000000000     
   1.0054706956992241E-002  0.11224700625846443        0.0000000000000000     
   1.0334973542998624E-002  0.11932366477790475        0.0000000000000000     
   1.0600433072841123E-002  0.12651575930749534        0.0000000000000000     
   1.0851085546519737E-002  0.13382328984723632        0.0000000000000000     
   4.8655856042704951E-003  0.10521823326649264        0.0000000000000000     
   5.0134058883129799E-003  0.11218164380376471        0.0000000000000000     
   5.1532844642605789E-003  0.11926088034760698        0.0000000000000000     
   5.2852213321132957E-003  0.12645594289801951        0.0000000000000000     
   5.4092164918711303E-003  0.13376683145500223        0.0000000000000000     
  -1.6067876196235176E-014  0.10519571643893236        0.0000000000000000     
  -1.7597251780743228E-014  0.11215985631886521        0.0000000000000000     
  -1.9295546063724522E-014  0.11923995220417492        0.0000000000000000     
  -2.1162596414853185E-014  0.12643600409486147        0.0000000000000000     
  -2.3196722320761864E-014  0.13374801199092490        0.0000000000000000     
   2.1832781344079788E-002  0.13404912341617442        0.0000000000000000     
   2.2322668757549385E-002  0.14149616132602055        0.0000000000000000     
   2.2793732542177127E-002  0.14913520208954045        0.0000000000000000     
   2.3245972697963014E-002  0.15696624570673415        0.0000000000000000     
   2.3679389224907050E-002  0.16498929217760167        0.0000000000000000     
   1.6325607163922624E-002  0.13391738716762702        0.0000000000000000     
   1.6689436588139529E-002  0.14137010853487636        0.0000000000000000     
   1.7041577021476816E-002  0.14900961893183126        0.0000000000000000     
   1.7382028463934482E-002  0.15683591835849181        0.0000000000000000     
   1.7710790915512531E-002  0.16484900681485787        0.0000000000000000     
   1.0851085546519737E-002  0.13382328984723632        0.0000000000000000     
   1.1091247738740434E-002  0.14128007082691649        0.0000000000000000     
   1.1325236424209181E-002  0.14891991667632484        0.0000000000000000     
   1.1553051602925980E-002  0.15674282739546147        0.0000000000000000     
   1.1774693274890828E-002  0.16474880298432629        0.0000000000000000     
   5.4092164918711303E-003  0.13376683145500223        0.0000000000000000     
   5.5281022093521008E-003  0.14122604820214096        0.0000000000000000     
   5.6447107503742261E-003  0.14886609532302125        0.0000000000000000     
   5.7590421149375046E-003  0.15668697281764327        0.0000000000000000     
   5.8710963030419406E-003  0.16468868068600692        0.0000000000000000     
  -2.3196722320761864E-014  0.13374801199092490        0.0000000000000000     
  -2.5470727957332961E-014  0.14120804066054968        0.0000000000000000     
  -2.8050478606544971E-014  0.14884815487192046        0.0000000000000000     
  -3.0937275311004875E-014  0.15666835462503714        0.0000000000000000     
  -3.4132419113319656E-014  0.16466863991989980        0.0000000000000000     
   0.0000000000000000        0.0000000000000000        0.0000000000000000     
  -1.8355542780179590E-016   1.0721304391814123E-003   0.0000000000000000     
  -4.0782264718042249E-016   2.5134102832521932E-003   0.0000000000000000     
  -6.7269323791863123E-016   4.3238395322123431E-003   0.0000000000000000     
  -9.7819430507073424E-016   6.5034181860618616E-003   0.0000000000000000     
   0.0000000000000000        0.0000000000000000        0.0000000000000000     
  -2.1320859467095009E-004   1.0744555362153028E-003   0.0000000000000000     
  -4.2744883425117452E-004   2.5186307868496367E-003   0.0000000000000000     
  -6.4272071874067326E-004   4.3325257519030019E-003   0.0000000000000000     
  -8.5902424813944617E-004   6.5161404313753973E-003   0.0000000000000000     
   0.0000000000000000        0.0000000000000000        0.0000000000000000     
  -4.2464774175258194E-004   1.0814308273169365E-003   0.0000000000000000     
  -8.5383135974197611E-004   2.5342922976418765E-003   0.0000000000000000     
  -1.2875508539681828E-003   4.3585844109748188E-003   0.0000000000000000     
  -1.7258062244312016E-003   6.5543071673157659E-003   0.0000000000000000     
   0.0000000000000000        0.0000000000000000        0.0000000000000000     
  -6.3431744124507891E-004   1.0930563124863133E-003   0.0000000000000000     
  -1.2791475764728124E-003   2.5603948156289122E-003   0.0000000000000000     
  -1.9344904056832011E-003   4.4020155094277955E-003   0.0000000000000000     
  -2.6003459288762442E-003   6.6179183938829622E-003   0.0000000000000000     
   0.0000000000000000        0.0000000000000000        0.0000000000000000     
  -8.4221769314844091E-004   1.1093319917234335E-003   0.0000000000000000     
  -1.7033974844436839E-003   2.5969383408107434E-003   0.0000000000000000     
  -2.5835393738857285E-003   4.4628190472619303E-003   0.0000000000000000     
  -3.4826433614745748E-003   6.7069741110769923E-003   0.0000000000000000     
  -9.7819430507073424E-016   6.5034181860618616E-003   0.0000000000000000     
  -1.3171430092440151E-015   9.0243773040704477E-003   0.0000000000000000     
  -1.6826072327981445E-015   1.1858947945507799E-002   0.0000000000000000     
  -2.0738432808054333E-015   1.5007130110373915E-002   0.0000000000000000     
  -2.4914965923716892E-015   1.8468923798668799E-002   0.0000000000000000     
  -8.5902424813944617E-004   6.5161404313753973E-003   0.0000000000000000     
  -1.0775753958365685E-003   9.0410975836308395E-003   0.0000000000000000     
  -1.2995901352211145E-003   1.1879019967033342E-002   0.0000000000000000     
  -1.5250684662930847E-003   1.5029907581582900E-002   0.0000000000000000     
  -1.7540103890524798E-003   1.8493760427279522E-002   0.0000000000000000     
  -1.7258062244312016E-003   6.5543071673157659E-003   0.0000000000000000     
  -2.1688454914392777E-003   9.0912584223116957E-003   0.0000000000000000     
  -2.6169166753006578E-003   1.1939236031609598E-002   0.0000000000000000     
  -3.0700197760153390E-003   1.5098239995209466E-002   0.0000000000000000     
  -3.5281547935833248E-003   1.8568270313111302E-002   0.0000000000000000     
  -2.6003459288762442E-003   6.6179183938829622E-003   0.0000000000000000     
  -3.2738102868094462E-003   9.1748598201130179E-003   0.0000000000000000     
  -3.9519796202403109E-003   1.2039596139236566E-002   0.0000000000000000     
  -4.6348539291688378E-003   1.5212127351253605E-002   0.0000000000000000     
  -5.3224332135950259E-003   1.8692453456164135E-002   0.0000000000000000     
  -3.4826433614745748E-003   6.7069741110769923E-003   0.0000000000000000     
  -4.3924697819470735E-003   9.2919017770348080E-003   0.0000000000000000     
  -5.3047789700400748E-003   1.2180100289914250E-002   0.0000000000000000     
  -6.2195709257535777E-003   1.5371569649715321E-002   0.0000000000000000     
  -7.1368456490875833E-003   1.8866309856438019E-002   0.0000000000000000     
  -2.4914965923716892E-015   1.8468923798668799E-002   0.0000000000000000     
  -2.9395973502599482E-015   2.2215936522282920E-002   0.0000000000000000     
  -3.4215252159297549E-015   2.6219775793106762E-002   0.0000000000000000     
  -3.9383643915535949E-015   3.0480441611140319E-002   0.0000000000000000     
  -4.4883801536554913E-015   3.4997933976383601E-002   0.0000000000000000     
  -1.7540103890524798E-003   1.8493760427279522E-002   0.0000000000000000     
  -1.9829431683935721E-003   2.2242377041634970E-002   0.0000000000000000     
  -2.2083940692106366E-003   2.6247555962161016E-002   0.0000000000000000     
  -2.4303630915036714E-003   3.0509297188857649E-002   0.0000000000000000     
  -2.6488502352726797E-003   3.5027600721724887E-002   0.0000000000000000     
  -3.5281547935833248E-003   1.8568270313111302E-002   0.0000000000000000     
  -3.9857132698079122E-003   2.2321698599690735E-002   0.0000000000000000     
  -4.4370867464924024E-003   2.6330896469323382E-002   0.0000000000000000     
  -4.8822752236367993E-003   3.0595863922009251E-002   0.0000000000000000     
  -5.3212787012410969E-003   3.5116600957748337E-002   0.0000000000000000     
  -5.3224332135950259E-003   1.8692453456164135E-002   0.0000000000000000     
  -6.0083103042459576E-003   2.2453901196450205E-002   0.0000000000000000     
  -6.6860780318487231E-003   2.6469797314593865E-002   0.0000000000000000     
  -7.3557363964033146E-003   3.0740141810595110E-002   0.0000000000000000     
  -8.0172853979097389E-003   3.5264934684453950E-002   0.0000000000000000     
  -7.1368456490875833E-003   1.8866309856438019E-002   0.0000000000000000     
  -8.0507342717077140E-003   2.2638984831913386E-002   0.0000000000000000     
  -8.9553679252795948E-003   2.6664258497972465E-002   0.0000000000000000     
  -9.8507466098032240E-003   3.0942130854615248E-002   0.0000000000000000     
  -1.0736870325278603E-002   3.5472601901841747E-002   0.0000000000000000     
  -4.4883801536554913E-015   3.4997933976383601E-002   0.0000000000000000     
  -5.0970512532888534E-015   3.9751726725213564E-002   0.0000000000000000     
  -5.7893143404208480E-015   4.4721293694007166E-002   0.0000000000000000     
  -6.5644375785850473E-015   4.9906634882764395E-002   0.0000000000000000     
  -7.4228817537047576E-015   5.5307750291485297E-002   0.0000000000000000     
  -2.6488502352726797E-003   3.5027600721724887E-002   0.0000000000000000     
  -2.8632458270809575E-003   3.9781832624014385E-002   0.0000000000000000     
  -3.0729401934918039E-003   4.4751358958977819E-002   0.0000000000000000     
  -3.2779333345052193E-003   4.9936179726615182E-002   0.0000000000000000     
  -3.4782252501212017E-003   5.5336294926926481E-002   0.0000000000000000     
  -5.3212787012410969E-003   3.5116600957748337E-002   0.0000000000000000     
  -5.7521510387393881E-003   3.9872150320416452E-002   0.0000000000000000     
  -6.1729460955657605E-003   4.4841554753889422E-002   0.0000000000000000     
  -6.5836638717202177E-003   5.0024814258167245E-002   0.0000000000000000     
  -6.9843043672027571E-003   5.5421928833249902E-002   0.0000000000000000     
  -8.0172853979097389E-003   3.5264934684453950E-002   0.0000000000000000     
  -8.6667156349803862E-003   4.0022679814419780E-002   0.0000000000000000     
  -9.3000177062276621E-003   4.4991881078741983E-002   0.0000000000000000     
  -9.9171916116515615E-003   5.0172538477420578E-002   0.0000000000000000     
  -1.0518237351252088E-002   5.5564652010455552E-002   0.0000000000000000     
  -1.0736870325278603E-002   3.5472601901841747E-002   0.0000000000000000     
  -1.1606939615803957E-002   4.0233421106024361E-002   0.0000000000000000     
  -1.2454155025477507E-002   4.5202337933535508E-002   0.0000000000000000     
  -1.3278516554299253E-002   5.0379352384375201E-002   0.0000000000000000     
  -1.4080024202269196E-002   5.5764464458543425E-002   0.0000000000000000     
  -7.4228817537047576E-015   5.5307750291485297E-002   0.0000000000000000     
  -8.3336115785925813E-015   6.0911178662711188E-002   0.0000000000000000     
  -9.2660796570387394E-015   6.6703458738983451E-002   0.0000000000000000     
  -1.0222196895372238E-014   7.2684590520302100E-002   0.0000000000000000     
  -1.1199157920471770E-014   7.8854574006667108E-002   0.0000000000000000     
  -3.4782252501212017E-003   5.5336294926926481E-002   0.0000000000000000     
  -3.6729206236788227E-003   6.0938568867690474E-002   0.0000000000000000     
  -3.8611241385171535E-003   6.6729865856685888E-002   0.0000000000000000     
  -4.0428357946361926E-003   7.2710185893912732E-002   0.0000000000000000     
  -4.2180555920359412E-003   7.8879528979370991E-002   0.0000000000000000     
  -6.9843043672027571E-003   5.5421928833249902E-002   0.0000000000000000     
  -7.3735550809824069E-003   6.1020739482628268E-002   0.0000000000000000     
  -7.7501035120281980E-003   6.6809087209793158E-002   0.0000000000000000     
  -8.1139496603401251E-003   7.2786972014744586E-002   0.0000000000000000     
  -8.4650935259181961E-003   7.8954393897482558E-002   0.0000000000000000     
  -1.0518237351252088E-002   5.5564652010455552E-002   0.0000000000000000     
  -1.1101903371919084E-002   6.1157690507524558E-002   0.0000000000000000     
  -1.1666938120542397E-002   6.6941122798305275E-002   0.0000000000000000     
  -1.2213341597122026E-002   7.2914948882797676E-002   0.0000000000000000     
  -1.2741113801657969E-002   7.9079168761001808E-002   0.0000000000000000     
  -1.4080024202269196E-002   5.5764464458543425E-002   0.0000000000000000     
  -1.4857965496488858E-002   6.1349421942379370E-002   0.0000000000000000     
  -1.5611627964059750E-002   6.7125972622222224E-002   0.0000000000000000     
  -1.6341011604981887E-002   7.3094116498072015E-002   0.0000000000000000     
  -1.7046116419255256E-002   7.9253853569928687E-002   0.0000000000000000     
  -1.1199157920471770E-014   7.8854574006667108E-002   0.0000000000000000     
  -1.2245413016920281E-014   8.5199202412849825E-002   0.0000000000000000     
  -1.3405455131371147E-014   9.1704268953621618E-002   0.0000000000000000     
  -1.4679433341623083E-014   9.8369773628982471E-002   0.0000000000000000     
  -1.6067876196235176E-014  0.10519571643893236        0.0000000000000000     
  -4.2180555920359412E-003   7.8879528979370991E-002   0.0000000000000000     
  -4.3875066188326173E-003   8.5223588954496651E-002   0.0000000000000000     
  -4.5519119631424448E-003   9.1728059660725614E-002   0.0000000000000000     
  -4.7112716249654218E-003   9.8392941098057921E-002   0.0000000000000000     
  -4.8655856043015510E-003  0.10521823326649354        0.0000000000000000     
  -8.4650935259181961E-003   7.8954393897482558E-002   0.0000000000000000     
  -8.8045968058847769E-003   8.5296748579436837E-002   0.0000000000000000     
  -9.1335211973622311E-003   9.1799431782037200E-002   0.0000000000000000     
  -9.4518667003505672E-003   9.8462443505283603E-002   0.0000000000000000     
  -9.7596333148497801E-003  0.10528578374917613        0.0000000000000000     
  -1.2741113801657969E-002   7.9079168761001808E-002   0.0000000000000000     
  -1.3251270561168718E-002   8.5418681287670398E-002   0.0000000000000000     
  -1.3744827702672768E-002   9.1918385317556320E-002   0.0000000000000000     
  -1.4221785226170111E-002   9.8578280850659561E-002   0.0000000000000000     
  -1.4682143131660759E-002  0.10539836788698009        0.0000000000000000     
  -1.7046116419255256E-002   7.9253853569928687E-002   0.0000000000000000     
  -1.7727527884684447E-002   8.5589387079197346E-002   0.0000000000000000     
  -1.8385831479074053E-002   9.2084920267283016E-002   0.0000000000000000     
  -1.9021027202424063E-002   9.8740453134185738E-002   0.0000000000000000     
  -1.9633115054734484E-002  0.10555598567990548        0.0000000000000000     
  -1.6067876196235176E-014  0.10519571643893236        0.0000000000000000     
  -1.7597251780743228E-014  0.11215985631886521        0.0000000000000000     
  -1.9295546063724522E-014  0.11923995220417492        0.0000000000000000     
  -2.1162596414853185E-014  0.12643600409486147        0.0000000000000000     
  -2.3196722320761864E-014  0.13374801199092490        0.0000000000000000     
  -4.8655856043015510E-003  0.10521823326649354        0.0000000000000000     
  -5.0134058883469779E-003  0.11218164380376593        0.0000000000000000     
  -5.1532844642978538E-003  0.11926088034760850        0.0000000000000000     
  -5.2852213321541797E-003  0.12645594289802131        0.0000000000000000     
  -5.4092164919159547E-003  0.13376683145500429        0.0000000000000000     
  -9.7596333148497801E-003  0.10528578374917613        0.0000000000000000     
  -1.0054706957022647E-002  0.11224700625846681        0.0000000000000000     
  -1.0334973543031948E-002  0.11932366477790776        0.0000000000000000     
  -1.0600433072877682E-002  0.12651575930749900        0.0000000000000000     
  -1.0851085546559853E-002  0.13382328984724054        0.0000000000000000     
  -1.4682143131660759E-002  0.10539836788698009        0.0000000000000000     
  -1.5123903206044613E-002  0.11235594368296785        0.0000000000000000     
  -1.5545067236221581E-002  0.11942830549507269        0.0000000000000000     
  -1.5945635222191674E-002  0.12661545332329463        0.0000000000000000     
  -1.6325607163954883E-002  0.13391738716763366        0.0000000000000000     
  -1.9633115054734484E-002  0.10555598567990548        0.0000000000000000     
  -2.0220994635412864E-002  0.11250845607726906        0.0000000000000000     
  -2.0783565543866754E-002  0.11957480249910327        0.0000000000000000     
  -2.1320827780096151E-002  0.12675502494540813        0.0000000000000000     
  -2.1832781344101056E-002  0.13404912341618364        0.0000000000000000     
  -2.3196722320761864E-014  0.13374801199092490        0.0000000000000000     
  -2.5470727957332961E-014  0.14120804066054968        0.0000000000000000     
  -2.8050478606544971E-014  0.14884815487192046        0.0000000000000000     
  -3.0937275311004875E-014  0.15666835462503714        0.0000000000000000     
  -3.4132419113319656E-014  0.16466863991989980        0.0000000000000000     
  -5.4092164919159547E-003  0.13376683145500429        0.0000000000000000     
  -5.5281022094013400E-003  0.14122604820214296        0.0000000000000000     
  -5.6447107504284952E-003  0.14886609532302283        0.0000000000000000     
  -5.7590421149974202E-003  0.15668697281764393        0.0000000000000000     
  -5.8710963031081177E-003  0.16468868068600617        0.0000000000000000     
  -1.0851085546559853E-002  0.13382328984724054        0.0000000000000000     
  -1.1091247738784569E-002  0.14128007082692096        0.0000000000000000     
  -1.1325236424257954E-002  0.14891991667632890        0.0000000000000000     
  -1.1553051602980018E-002  0.15674282739546444        0.0000000000000000     
  -1.1774693274950747E-002  0.16474880298432740        0.0000000000000000     
  -1.6325607163954883E-002  0.13391738716763366        0.0000000000000000     
  -1.6689436588175156E-002  0.14137010853488369        0.0000000000000000     
  -1.7041577021516437E-002  0.14900961893183870        0.0000000000000000     
  -1.7382028463978721E-002  0.15683591835849858        0.0000000000000000     
  -1.7710790915562019E-002  0.16484900681486342        0.0000000000000000     
  -2.1832781344101056E-002  0.13404912341618364        0.0000000000000000     
  -2.2322668757573102E-002  0.14149616132603116        0.0000000000000000     
  -2.2793732542203932E-002  0.14913520208955211        0.0000000000000000     
  -2.3245972697993538E-002  0.15696624570674647        0.0000000000000000     
  -2.3679389224941928E-002  0.16498929217761427        0.0000000000000000     
   0.0000000000000000        0.0000000000000000        0.0000000000000000     
  -8.4221769314844091E-004   1.1093319917234335E-003   0.0000000000000000     
  -1.7033974844436839E-003   2.5969383408107434E-003   0.0000000000000000     
  -2.5835393738857285E-003   4.4628190472619303E-003   0.0000000000000000     
  -3.4826433614745748E-003   6.7069741110769923E-003   0.0000000000000000     
   0.0000000000000000        0.0000000000000000        0.0000000000000000     
  -1.0572579602474963E-003   1.1337676384243010E-003   0.0000000000000000     
  -2.1411122858814380E-003   2.6496825873519063E-003   0.0000000000000000     
  -3.2515629769018254E-003   4.5477448467828169E-003   0.0000000000000000     
  -4.3886100333086573E-003   6.8279544167170313E-003   0.0000000000000000     
   0.0000000000000000        0.0000000000000000        0.0000000000000000     
  -1.2883477053270730E-003   1.1698730259849196E-003   0.0000000000000000     
  -2.6068231830129233E-003   2.7243872694169358E-003   0.0000000000000000     
  -3.9554264330575514E-003   4.6635427302960499E-003   0.0000000000000000     
  -5.3341574554609562E-003   6.9873394086222606E-003   0.0000000000000000     
   0.0000000000000000        0.0000000000000000        0.0000000000000000     
  -1.5354869283871709E-003   1.2176481544052900E-003   0.0000000000000000     
  -3.1005301758381398E-003   2.8210523870058320E-003   0.0000000000000000     
  -4.6951297423529076E-003   4.8102126978016276E-003   0.0000000000000000     
  -6.3192856279314725E-003   7.1851290867926765E-003   0.0000000000000000     
   0.0000000000000000        0.0000000000000000        0.0000000000000000     
  -1.7986756294277901E-003   1.2770930236854112E-003   0.0000000000000000     
  -3.6222332643570873E-003   2.9396779401185953E-003   0.0000000000000000     
  -5.4706729047878924E-003   4.9877547492995526E-003   0.0000000000000000     
  -7.3439945507202033E-003   7.4213234512282809E-003   0.0000000000000000     
  -3.4826433614745748E-003   6.7069741110769923E-003   0.0000000000000000     
  -4.3924697819470735E-003   9.2919017770348080E-003   0.0000000000000000     
  -5.3047789700400748E-003   1.2180100289914250E-002   0.0000000000000000     
  -6.2195709257535777E-003   1.5371569649715321E-002   0.0000000000000000     
  -7.1368456490875833E-003   1.8866309856438019E-002   0.0000000000000000     
  -4.3886100333086573E-003   6.8279544167170313E-003   0.0000000000000000     
  -5.5392197007956235E-003   9.4482211761339942E-003   0.0000000000000000     
  -6.6903582250564140E-003   1.2366455004013149E-002   0.0000000000000000     
  -7.8420256060910236E-003   1.5582655900354491E-002   0.0000000000000000     
  -8.9942218438994592E-003   1.9096823865158027E-002   0.0000000000000000     
  -5.3341574554609562E-003   6.9873394086222606E-003   0.0000000000000000     
  -6.7284557672985619E-003   9.6496549004675136E-003   0.0000000000000000     
  -8.1237608856457883E-003   1.2604366801903759E-002   0.0000000000000000     
  -9.5200728105026364E-003   1.5851475112930998E-002   0.0000000000000000     
  -1.0917391541869109E-002   1.9390979833549232E-002   0.0000000000000000     
  -6.3192856279314725E-003   7.1851290867926765E-003   0.0000000000000000     
  -7.9601779814558859E-003   9.8962029500353679E-003   0.0000000000000000     
  -9.6049869518082028E-003   1.2893835683586090E-002   0.0000000000000000     
  -1.1253712538988417E-002   1.6178027287444843E-002   0.0000000000000000     
  -1.2906354742996536E-002   1.9748777761611627E-002   0.0000000000000000     
  -7.3439945507202033E-003   7.4213234512282809E-003   0.0000000000000000     
  -9.2343863432675991E-003   1.0187865324837552E-002   0.0000000000000000     
  -1.1134036423543653E-002   1.3234861649060134E-002   0.0000000000000000     
  -1.3042944791548368E-002   1.6562312423896022E-002   0.0000000000000000     
  -1.4961111447281739E-002   2.0170217649345221E-002   0.0000000000000000     
  -7.1368456490875833E-003   1.8866309856438019E-002   0.0000000000000000     
  -8.0507342717077140E-003   2.2638984831913386E-002   0.0000000000000000     
  -8.9553679252795948E-003   2.6664258497972465E-002   0.0000000000000000     
  -9.8507466098032240E-003   3.0942130854615248E-002   0.0000000000000000     
  -1.0736870325278603E-002   3.5472601901841747E-002   0.0000000000000000     
  -8.9942218438994592E-003   1.9096823865158027E-002   0.0000000000000000     
  -1.0140789329746561E-002   2.2884623731762428E-002   0.0000000000000000     
  -1.1275570454897174E-002   2.6921720333506375E-002   0.0000000000000000     
  -1.2398565219351301E-002   3.1208113670389864E-002   0.0000000000000000     
  -1.3509773623108946E-002   3.5743803742412900E-002   0.0000000000000000     
  -1.0917391541869109E-002   1.9390979833549232E-002   0.0000000000000000     
  -1.2306279635915875E-002   2.3198492121679484E-002   0.0000000000000000     
  -1.3677299648813616E-002   2.7249623135242800E-002   0.0000000000000000     
  -1.5030451580562324E-002   3.1544372874239175E-002   0.0000000000000000     
  -1.6365735431162008E-002   3.6082741338668609E-002   0.0000000000000000     
  -1.2906354742996536E-002   1.9748777761611627E-002   0.0000000000000000     
  -1.4547205190215665E-002   2.3580590001664559E-002   0.0000000000000000     
  -1.6160555507028919E-002   2.7647966903181744E-002   0.0000000000000000     
  -1.7746405693436294E-002   3.1950908466163185E-002   0.0000000000000000     
  -1.9304755749437800E-002   3.6489414690608880E-002   0.0000000000000000     
  -1.4961111447281739E-002   2.0170217649345221E-002   0.0000000000000000     
  -1.6863565992645928E-002   2.4030917371717642E-002   0.0000000000000000     
  -1.8725338029543084E-002   2.8116751637323200E-002   0.0000000000000000     
  -2.0546427557973212E-002   3.2427720446161892E-002   0.0000000000000000     
  -2.2326834577936310E-002   3.6963823798233715E-002   0.0000000000000000     
  -1.0736870325278603E-002   3.5472601901841747E-002   0.0000000000000000     
  -1.1606939615803957E-002   4.0233421106024361E-002   0.0000000000000000     
  -1.2454155025477507E-002   4.5202337933535508E-002   0.0000000000000000     
  -1.3278516554299253E-002   5.0379352384375201E-002   0.0000000000000000     
  -1.4080024202269196E-002   5.5764464458543425E-002   0.0000000000000000     
  -1.3509773623108946E-002   3.5743803742412900E-002   0.0000000000000000     
  -1.4600260328660452E-002   4.0506542354476607E-002   0.0000000000000000     
  -1.5661089998496174E-002   4.5474081311482145E-002   0.0000000000000000     
  -1.6692262632616115E-002   5.0646420613429492E-002   0.0000000000000000     
  -1.7693778231020269E-002   5.6023560260318649E-002   0.0000000000000000     
  -1.6365735431162008E-002   3.6082741338668609E-002   0.0000000000000000     
  -1.7674115121000228E-002   4.0844211719022937E-002   0.0000000000000000     
  -1.8946554570464551E-002   4.5808267205794000E-002   0.0000000000000000     
  -2.0183053779554972E-002   5.0974907798981811E-002   0.0000000000000000     
  -2.1383612748271493E-002   5.6344133498586350E-002   0.0000000000000000     
  -1.9304755749437800E-002   3.6489414690608880E-002   0.0000000000000000     
  -2.0828503992823291E-002   4.1246429199663349E-002   0.0000000000000000     
  -2.2310548741382628E-002   4.6204895616471127E-002   0.0000000000000000     
  -2.3750889995115824E-002   5.1364813941032171E-002   0.0000000000000000     
  -2.5149527754022870E-002   5.6726184173346531E-002   0.0000000000000000     
  -2.2326834577936310E-002   3.6963823798233715E-002   0.0000000000000000     
  -2.4063426944129631E-002   4.1713194796397852E-002   0.0000000000000000     
  -2.5753072511250412E-002   4.6663966543513472E-002   0.0000000000000000     
  -2.7395771279298667E-002   5.1816139039580586E-002   0.0000000000000000     
  -2.8991523248274396E-002   5.7169712284599175E-002   0.0000000000000000     
  -1.4080024202269196E-002   5.5764464458543425E-002   0.0000000000000000     
  -1.4857965496488858E-002   6.1349421942379370E-002   0.0000000000000000     
  -1.5611627964059750E-002   6.7125972622222224E-002   0.0000000000000000     
  -1.6341011604981887E-002   7.3094116498072015E-002   0.0000000000000000     
  -1.7046116419255256E-002   7.9253853569928687E-002   0.0000000000000000     
  -1.7693778231020269E-002   5.6023560260318649E-002   0.0000000000000000     
  -1.8665532595534853E-002   6.1599290889228567E-002   0.0000000000000000     
  -1.9607421527986071E-002   6.7367403137238185E-002   0.0000000000000000     
  -2.0519445028373939E-002   7.3327897004347525E-002   0.0000000000000000     
  -2.1401603096698439E-002   7.9480772490556559E-002   0.0000000000000000     
  -2.1383612748271493E-002   5.6344133498586350E-002   0.0000000000000000     
  -2.2548395809900198E-002   6.1910654450108051E-002   0.0000000000000000     
  -2.3677567297727166E-002   6.7669180799047352E-002   0.0000000000000000     
  -2.4771127211752401E-002   7.3619712545404239E-002   0.0000000000000000     
  -2.5829075551975902E-002   7.9762249689178721E-002   0.0000000000000000     
  -2.5149527754022870E-002   5.6726184173346531E-002   0.0000000000000000     
  -2.6506555139584897E-002   6.2283512625017808E-002   0.0000000000000000     
  -2.7822065273283035E-002   6.8031305607649695E-002   0.0000000000000000     
  -2.9096058155117285E-002   7.3969563121242130E-002   0.0000000000000000     
  -3.0328533785087649E-002   8.0098285165795174E-002   0.0000000000000000     
  -2.8991523248274396E-002   5.7169712284599175E-002   0.0000000000000000     
  -3.0540010584588950E-002   6.2717865413957866E-002   0.0000000000000000     
  -3.2040915454653679E-002   6.8453777563045201E-002   0.0000000000000000     
  -3.3494237858468584E-002   7.4377448731861223E-002   0.0000000000000000     
  -3.4899977796033675E-002   8.0488878920405918E-002   0.0000000000000000     
  -1.7046116419255256E-002   7.9253853569928687E-002   0.0000000000000000     
  -1.7727527884684447E-002   8.5589387079197346E-002   0.0000000000000000     
  -1.8385831479074053E-002   9.2084920267283016E-002   0.0000000000000000     
  -1.9021027202424063E-002   9.8740453134185738E-002   0.0000000000000000     
  -1.9633115054734484E-002  0.10555598567990548        0.0000000000000000     
  -2.1401603096698439E-002   7.9480772490556559E-002   0.0000000000000000     
  -2.2253899264421055E-002   8.5809805807381317E-002   0.0000000000000000     
  -2.3076337063003251E-002   9.2298773166337791E-002   0.0000000000000000     
  -2.3868916492445033E-002   9.8947674567426008E-002   0.0000000000000000     
  -2.4631637552746388E-002  0.10575651001064598        0.0000000000000000     
  -2.5829075551975902E-002   7.9762249689178721E-002   0.0000000000000000     
  -2.6850915188367630E-002   8.6080877325585961E-002   0.0000000000000000     
  -2.7836148990897543E-002   9.2559680549841164E-002   0.0000000000000000     
  -2.8784776959565633E-002   9.9198659361944247E-002   0.0000000000000000     
  -2.9696799094371909E-002  0.10599781376189531        0.0000000000000000     
  -3.0328533785087649E-002   8.0098285165795174E-002   0.0000000000000000     
  -3.1518575656524175E-002   8.6402601633811291E-002   0.0000000000000000     
  -3.2665267262756911E-002   9.2867642417793064E-002   0.0000000000000000     
  -3.3768608603785874E-002   9.9493407517740440E-002   0.0000000000000000     
  -3.4828599679611036E-002  0.10627989693365346        0.0000000000000000     
  -3.4899977796033675E-002   8.0488878920405918E-002   0.0000000000000000     
  -3.6256880668890691E-002   8.6774978732057348E-002   0.0000000000000000     
  -3.7563691878581378E-002   9.3222658770193589E-002   0.0000000000000000     
  -3.8820411425105741E-002   9.9831919034814615E-002   0.0000000000000000     
  -4.0027039308463790E-002  0.10660275952592047        0.0000000000000000     
  -1.9633115054734484E-002  0.10555598567990548        0.0000000000000000     
  -2.0220994635412864E-002  0.11250845607726906        0.0000000000000000     
  -2.0783565543866754E-002  0.11957480249910327        0.0000000000000000     
  -2.1320827780096151E-002  0.12675502494540813        0.0000000000000000     
  -2.1832781344101056E-002  0.13404912341618364        0.0000000000000000     
  -2.4631637552746388E-002  0.10575651001064598        0.0000000000000000     
  -2.5364360436136154E-002  0.11270196240204111        0.0000000000000000     
  -2.6066945334843144E-002  0.11976071464765484        0.0000000000000000     
  -2.6739392248867355E-002  0.12693276674748719        0.0000000000000000     
  -2.7381701178208796E-002  0.13421811870153816        0.0000000000000000     
  -2.9696799094371909E-002  0.10599781376189531        0.0000000000000000     
  -3.0572379799223229E-002  0.11293388161795466        0.0000000000000000     
  -3.1411683478026434E-002  0.11998360079838269        0.0000000000000000     
  -3.2214710130781546E-002  0.12714697130317945        0.0000000000000000     
  -3.2981459757488542E-002  0.13442399313234488        0.0000000000000000     
  -3.4828599679611036E-002  0.10627989693365346        0.0000000000000000     
  -3.5845052724674080E-002  0.11320421372500974        0.0000000000000000     
  -3.6817779973416634E-002  0.12024346095128689        0.0000000000000000     
  -3.7746781425838698E-002  0.12739763861248490        0.0000000000000000     
  -3.8632057081940292E-002  0.13466674670860387        0.0000000000000000     
  -4.0027039308463790E-002  0.10660275952592047        0.0000000000000000     
  -4.1182379212488712E-002  0.11351295872320630        0.0000000000000000     
  -4.2285234821013734E-002  0.12054029510636734        0.0000000000000000     
  -4.3335606134038841E-002  0.12768476867540360        0.0000000000000000     
  -4.4333493151564048E-002  0.13494637943031504        0.0000000000000000     
  -2.1832781344101056E-002  0.13404912341618364        0.0000000000000000     
  -2.2322668757573102E-002  0.14149616132603116        0.0000000000000000     
  -2.2793732542203932E-002  0.14913520208955211        0.0000000000000000     
  -2.3245972697993538E-002  0.15696624570674647        0.0000000000000000     
  -2.3679389224941928E-002  0.16498929217761427        0.0000000000000000     
  -2.7381701178208796E-002  0.13421811870153816        0.0000000000000000     
  -2.7996292153162666E-002  0.14165698284254072        0.0000000000000000     
  -2.8585585204024169E-002  0.14928957150322791        0.0000000000000000     
  -2.9149580330793307E-002  0.15711588468359977        0.0000000000000000     
  -2.9688277533470080E-002  0.16513592238365618        0.0000000000000000     
  -3.2981459757488542E-002  0.13442399313234488        0.0000000000000000     
  -3.3715654681128103E-002  0.14185132672658976        0.0000000000000000     
  -3.4421017224680869E-002  0.14946563252662479        0.0000000000000000     
  -3.5097547388146869E-002  0.15726691053245004        0.0000000000000000     
  -3.5745245171526066E-002  0.16525516074406546        0.0000000000000000     
  -3.8632057081940292E-002  0.13466674670860387        0.0000000000000000     
  -3.9480756341469407E-002  0.14207919297817828        0.0000000000000000     
  -4.0300028604174039E-002  0.14966338515974278        0.0000000000000000     
  -4.1089873870054201E-002  0.15741932325329736        0.0000000000000000     
  -4.1850292139109894E-002  0.16534700725884205        0.0000000000000000     
  -4.4333493151564048E-002  0.13494637943031504        0.0000000000000000     
  -4.5291597134186574E-002  0.14234058159730625        0.0000000000000000     
  -4.6222619342503671E-002  0.14988282940258182        0.0000000000000000     
  -4.7126559776515337E-002  0.15757312284614172        0.0000000000000000     
  -4.8003418436221551E-002  0.16541146192798600        0.0000000000000000     
   0.0000000000000000        0.0000000000000000        0.0000000000000000     
  -1.7986756294277901E-003   1.2770930236854112E-003   0.0000000000000000     
  -3.6222332643570873E-003   2.9396779401185953E-003   0.0000000000000000     
  -5.4706729047878924E-003   4.9877547492995526E-003   0.0000000000000000     
  -7.3439945507202033E-003   7.4213234512282809E-003   0.0000000000000000     
   0.0000000000000000        0.0000000000000000        0.0000000000000000     
  -2.0696680716394472E-003   1.3553167888347257E-003   0.0000000000000000     
  -4.1646447624354849E-003   3.0947526931218903E-003   0.0000000000000000     
  -6.2849300723881122E-003   5.2183077128614931E-003   0.0000000000000000     
  -8.4305240014973300E-003   7.7259818480535343E-003   0.0000000000000000     
   0.0000000000000000        0.0000000000000000        0.0000000000000000     
  -2.3402185182126592E-003   1.4594286048626743E-003   0.0000000000000000     
  -4.7204769839390504E-003   3.3007654103823815E-003   0.0000000000000000     
  -7.1407753971791735E-003   5.5240104165591199E-003   0.0000000000000000     
  -9.6011137579330285E-003   8.1291636233928929E-003   0.0000000000000000     
   0.0000000000000000        0.0000000000000000        0.0000000000000000     
  -2.6103269691474251E-003   1.5894284717692568E-003   0.0000000000000000     
  -5.2897299288677830E-003   3.5577160919000672E-003   0.0000000000000000     
  -8.0382088791610771E-003   5.9048628603924347E-003   0.0000000000000000     
  -1.0855763820027302E-002   8.6308687772463540E-003   0.0000000000000000     
   0.0000000000000000        0.0000000000000000        0.0000000000000000     
  -2.8799934244437457E-003   1.7453163895544738E-003   0.0000000000000000     
  -5.8724035972216853E-003   3.8656047376749514E-003   0.0000000000000000     
  -8.9772305183338178E-003   6.3608650443614341E-003   0.0000000000000000     
  -1.2194474187780146E-002   9.2310973096139202E-003   0.0000000000000000     
  -7.3439945507202033E-003   7.4213234512282809E-003   0.0000000000000000     
  -9.2343863432675991E-003   1.0187865324837552E-002   0.0000000000000000     
  -1.1134036423543653E-002   1.3234861649060134E-002   0.0000000000000000     
  -1.3042944791548368E-002   1.6562312423896022E-002   0.0000000000000000     
  -1.4961111447281739E-002   2.0170217649345221E-002   0.0000000000000000     
  -8.4305240014973300E-003   7.7259818480535343E-003   0.0000000000000000     
  -1.0592979057279097E-002   1.0560161632889302E-002   0.0000000000000000     
  -1.2763847747249368E-002   1.3663233601560083E-002   0.0000000000000000     
  -1.4943130071408147E-002   1.7035197754065878E-002   0.0000000000000000     
  -1.7130826029755433E-002   2.0676054090406685E-002   0.0000000000000000     
  -9.6011137579330285E-003   8.1291636233928929E-003   0.0000000000000000     
  -1.2077854328035778E-002   1.1048611482205846E-002   0.0000000000000000     
  -1.4547359369322574E-002   1.4214740444320128E-002   0.0000000000000000     
  -1.7009628881793422E-002   1.7627550509735749E-002   0.0000000000000000     
  -1.9464662865448325E-002   2.1287041678452696E-002   0.0000000000000000     
  -1.0855763820027302E-002   8.6308687772463540E-003   0.0000000000000000     
  -1.3689012155537640E-002   1.1653214872787183E-002   0.0000000000000000     
  -1.6484571289763276E-002   1.4889382177340276E-002   0.0000000000000000     
  -1.9242441222704194E-002   1.8339370690905629E-002   0.0000000000000000     
  -2.1962621954360419E-002   2.2003180413483252E-002   0.0000000000000000     
  -1.2194474187780146E-002   9.2310973096139202E-003   0.0000000000000000     
  -1.5426452539784688E-002   1.2373971804633316E-002   0.0000000000000000     
  -1.8575483508571460E-002   1.5687158800620517E-002   0.0000000000000000     
  -2.1641567094140467E-002   1.9170658297575534E-002   0.0000000000000000     
  -2.4624703296491714E-002   2.2824470295498354E-002   0.0000000000000000     
  -1.4961111447281739E-002   2.0170217649345221E-002   0.0000000000000000     
  -1.6863565992645928E-002   2.4030917371717642E-002   0.0000000000000000     
  -1.8725338029543084E-002   2.8116751637323200E-002   0.0000000000000000     
  -2.0546427557973212E-002   3.2427720446161892E-002   0.0000000000000000     
  -2.2326834577936310E-002   3.6963823798233715E-002   0.0000000000000000     
  -1.7130826029755433E-002   2.0676054090406685E-002   0.0000000000000000     
  -1.9295691295870113E-002   2.4559305085349564E-002   0.0000000000000000     
  -2.1406481543331086E-002   2.8658453213661585E-002   0.0000000000000000     
  -2.3463196772138355E-002   3.2973498475342741E-002   0.0000000000000000     
  -2.5465836982291917E-002   3.7504440870393015E-002   0.0000000000000000     
  -1.9464662865448325E-002   2.1287041678452696E-002   0.0000000000000000     
  -2.1883910352551689E-002   2.5175583996071154E-002   0.0000000000000000     
  -2.4238820375367922E-002   2.9275547508191304E-002   0.0000000000000000     
  -2.6529392933897021E-002   3.3586932214813153E-002   0.0000000000000000     
  -2.8755628028138989E-002   3.8109738115936681E-002   0.0000000000000000     
  -2.1962621954360419E-002   2.2003180413483252E-002   0.0000000000000000     
  -2.4628223162690640E-002   2.5879754103882407E-002   0.0000000000000000     
  -2.7222354525653560E-002   2.9968034520912370E-002   0.0000000000000000     
  -2.9745016043249195E-002   3.4268021664573142E-002   0.0000000000000000     
  -3.2196207715477536E-002   3.8779715534864721E-002   0.0000000000000000     
  -2.4624703296491714E-002   2.2824470295498354E-002   0.0000000000000000     
  -2.7528629726286967E-002   2.6671815408783328E-002   0.0000000000000000     
  -3.0357083994188030E-002   3.0735914251824779E-002   0.0000000000000000     
  -3.3110066100194888E-002   3.5016766824622708E-002   0.0000000000000000     
  -3.5787576044307545E-002   3.9514373127177121E-002   0.0000000000000000     
  -2.2326834577936310E-002   3.6963823798233715E-002   0.0000000000000000     
  -2.4063426944129631E-002   4.1713194796397852E-002   0.0000000000000000     
  -2.5753072511250412E-002   4.6663966543513472E-002   0.0000000000000000     
  -2.7395771279298667E-002   5.1816139039580586E-002   0.0000000000000000     
  -2.8991523248274396E-002   5.7169712284599175E-002   0.0000000000000000     
  -2.5465836982291917E-002   3.7504440870393015E-002   0.0000000000000000     
  -2.7415011357859658E-002   4.2244132827113499E-002   0.0000000000000000     
  -2.9311329082909468E-002   4.7185426773805279E-002   0.0000000000000000     
  -3.1154790157441346E-002   5.2328322710468340E-002   0.0000000000000000     
  -3.2945394581455303E-002   5.7672820637102697E-002   0.0000000000000000     
  -2.8755628028138989E-002   3.8109738115936681E-002   0.0000000000000000     
  -3.0919384616953788E-002   4.2838867609697386E-002   0.0000000000000000     
  -3.3022521659201359E-002   4.7769223094230748E-002   0.0000000000000000     
  -3.5065039154881697E-002   5.2900804569536768E-002   0.0000000000000000     
  -3.7046937103994815E-002   5.8233612035615431E-002   0.0000000000000000     
  -3.2196207715477536E-002   3.8779715534864721E-002   0.0000000000000000     
  -3.4576546721412020E-002   4.3497399144149483E-002   0.0000000000000000     
  -3.6886650240126072E-002   4.8415355504789877E-002   0.0000000000000000     
  -3.9126518271619712E-002   5.3533584616785833E-002   0.0000000000000000     
  -4.1296150815892919E-002   5.8852086480137421E-002   0.0000000000000000     
  -3.5787576044307545E-002   3.9514373127177121E-002   0.0000000000000000     
  -3.8386497671234344E-002   4.4219727430469827E-002   0.0000000000000000     
  -4.0903714825683626E-002   4.9123824005482652E-002   0.0000000000000000     
  -4.3339227507655384E-002   5.4226662852215578E-002   0.0000000000000000     
  -4.5693035717149638E-002   5.9528243970668630E-002   0.0000000000000000     
  -2.8991523248274396E-002   5.7169712284599175E-002   0.0000000000000000     
  -3.0540010584588950E-002   6.2717865413957866E-002   0.0000000000000000     
  -3.2040915454653679E-002   6.8453777563045201E-002   0.0000000000000000     
  -3.3494237858468584E-002   7.4377448731861223E-002   0.0000000000000000     
  -3.4899977796033675E-002   8.0488878920405918E-002   0.0000000000000000     
  -3.2945394581455303E-002   5.7672820637102697E-002   0.0000000000000000     
  -3.4683059534422953E-002   6.3210519853267866E-002   0.0000000000000000     
  -3.6367702195815907E-002   6.8933019658523387E-002   0.0000000000000000     
  -3.7999322565634167E-002   7.4840320052869266E-002   0.0000000000000000     
  -3.9577920643877745E-002   8.0932421036305491E-002   0.0000000000000000     
  -3.7046937103994815E-002   5.8233612035615431E-002   0.0000000000000000     
  -3.8969999378597492E-002   6.3758282979287498E-002   0.0000000000000000     
  -4.0836009850746514E-002   6.9465454887373698E-002   0.0000000000000000     
  -4.2644968520441882E-002   7.5355127759874005E-002   0.0000000000000000     
  -4.4396875387683603E-002   8.1427301596788446E-002   0.0000000000000000     
  -4.1296150815892919E-002   5.8852086480137421E-002   0.0000000000000000     
  -4.3400830117112578E-002   6.4361154792016789E-002   0.0000000000000000     
  -4.5445838419445515E-002   7.0051083249596122E-002   0.0000000000000000     
  -4.7431175722891739E-002   7.5921871852875467E-002   0.0000000000000000     
  -4.9356842027451248E-002   8.1973520601854810E-002   0.0000000000000000     
  -4.5693035717149638E-002   5.9528243970668630E-002   0.0000000000000000     
  -4.7975551749968204E-002   6.5019135291455699E-002   0.0000000000000000     
  -5.0197187901912896E-002   7.0689904745190699E-002   0.0000000000000000     
  -5.2357944172983735E-002   7.6540552331873637E-002   0.0000000000000000     
  -5.4457820563180701E-002   8.2571078051504529E-002   0.0000000000000000     
  -3.4899977796033675E-002   8.0488878920405918E-002   0.0000000000000000     
  -3.6256880668890691E-002   8.6774978732057348E-002   0.0000000000000000     
  -3.7563691878581378E-002   9.3222658770193589E-002   0.0000000000000000     
  -3.8820411425105741E-002   9.9831919034814615E-002   0.0000000000000000     
  -4.0027039308463790E-002  0.10660275952592047        0.0000000000000000     
  -3.9577920643877745E-002   8.0932421036305491E-002   0.0000000000000000     
  -4.1101591472708192E-002   8.7197938367366279E-002   0.0000000000000000     
  -4.2568430094287103E-002   9.3625487804585739E-002   0.0000000000000000     
  -4.3978436508614466E-002  0.10021506934796393        0.0000000000000000     
  -4.5331610715690279E-002  0.10696668299750080        0.0000000000000000     
  -4.4396875387683603E-002   8.1427301596788446E-002   0.0000000000000000     
  -4.6088469315217706E-002   8.7671410286780244E-002   0.0000000000000000     
  -4.7716489165790243E-002   9.4076887718512622E-002   0.0000000000000000     
  -4.9280934939401243E-002  0.10064373389198555        0.0000000000000000     
  -5.0781806636050655E-002  0.10737194880719902        0.0000000000000000     
  -4.9356842027451248E-002   8.1973520601854810E-002   0.0000000000000000     
  -5.1217514196419220E-002   8.8195394490299325E-002   0.0000000000000000     
  -5.3007869093090826E-002   9.4576858511974213E-002   0.0000000000000000     
  -5.4727906717466052E-002  0.10111791266687947        0.0000000000000000     
  -5.6377627069544904E-002  0.10781855695501512        0.0000000000000000     
  -5.4457820563180701E-002   8.2571078051504529E-002   0.0000000000000000     
  -5.6488726116312740E-002   8.8769890977923455E-002   0.0000000000000000     
  -5.8442569876188816E-002   9.5125400184970524E-002   0.0000000000000000     
  -6.0319351842808920E-002  0.10163760567264572        0.0000000000000000     
  -6.2119072016173039E-002  0.10830650744094908        0.0000000000000000     
  -4.0027039308463790E-002  0.10660275952592047        0.0000000000000000     
  -4.1182379212488712E-002  0.11351295872320630        0.0000000000000000     
  -4.2285234821013734E-002  0.12054029510636734        0.0000000000000000     
  -4.3335606134038841E-002  0.12768476867540360        0.0000000000000000     
  -4.4333493151564048E-002  0.13494637943031504        0.0000000000000000     
  -4.5331610715690279E-002  0.10696668299750080        0.0000000000000000     
  -4.6625161313062061E-002  0.11385924688997001        0.0000000000000000     
  -4.7856296898277334E-002  0.12087167916214510        0.0000000000000000     
  -4.9025017471336113E-002  0.12800397981402611        0.0000000000000000     
  -5.0131323032238370E-002  0.13525614884561302        0.0000000000000000     
  -5.0781806636050655E-002  0.10737194880719902        0.0000000000000000     
  -5.2214201076789077E-002  0.11424220850272643        0.0000000000000000     
  -5.3573215082667082E-002  0.12123518901714112        0.0000000000000000     
  -5.4858848653684671E-002  0.12835089035044309        0.0000000000000000     
  -5.6071101789841822E-002  0.13558931250263231        0.0000000000000000     
  -5.6377627069544904E-002  0.10781855695501512        0.0000000000000000     
  -5.7949498503669754E-002  0.11466184356147559        0.0000000000000000     
  -5.9435989374182957E-002  0.12163082467135541        0.0000000000000000     
  -6.0837099681084507E-002  0.12872550028465451        0.0000000000000000     
  -6.2152829424374417E-002  0.13594587040137296        0.0000000000000000     
  -6.2119072016173039E-002  0.10830650744094908        0.0000000000000000     
  -6.3831053593704085E-002  0.11511815206621751        0.0000000000000000     
  -6.5444619772824952E-002  0.12205858612478797        0.0000000000000000     
  -6.6959770553535636E-002  0.12912780961666045        0.0000000000000000     
  -6.8376505935836149E-002  0.13632582254183495        0.0000000000000000     
  -4.4333493151564048E-002  0.13494637943031504        0.0000000000000000     
  -4.5291597134186574E-002  0.14234058159730625        0.0000000000000000     
  -4.6222619342503671E-002  0.14988282940258182        0.0000000000000000     
  -4.7126559776515337E-002  0.15757312284614172        0.0000000000000000     
  -4.8003418436221551E-002  0.16541146192798600        0.0000000000000000     
  -5.0131323032238370E-002  0.13525614884561302        0.0000000000000000     
  -5.1192229866999166E-002  0.14263149443820711        0.0000000000000000     
  -5.2224754261633526E-002  0.15013332477310967        0.0000000000000000     
  -5.3228896216141471E-002  0.15776163985032077        0.0000000000000000     
  -5.4204655730522987E-002  0.16551643966984028        0.0000000000000000     
  -5.6071101789841822E-002  0.13558931250263231        0.0000000000000000     
  -5.7226707347626686E-002  0.14294793335511422        0.0000000000000000     
  -5.8342398183527343E-002  0.15042423078929407        0.0000000000000000     
  -5.9418174297543834E-002  0.15801820480517195        0.0000000000000000     
  -6.0454035689676125E-002  0.16572985540274782        0.0000000000000000     
  -6.2152829424374417E-002  0.13594587040137296        0.0000000000000000     
  -6.3395029576069142E-002  0.14328989834802749        0.0000000000000000     
  -6.4575551108185150E-002  0.15075554745113501        0.0000000000000000     
  -6.5694394020722399E-002  0.15834281771069536        0.0000000000000000     
  -6.6751558313680959E-002  0.16605170912670864        0.0000000000000000     
  -6.8376505935836149E-002  0.13632582254183495        0.0000000000000000     
  -6.9697196552326549E-002  0.14365738941694708        0.0000000000000000     
  -7.0924213035606906E-002  0.15112727475863241        0.0000000000000000     
  -7.2057555385677222E-002  0.15873547856689096        0.0000000000000000     
  -7.3097223602537509E-002  0.16648200084172271        0.0000000000000000     
   0.0000000000000000        0.0000000000000000        0.0000000000000000     
  -2.8799934244437457E-003   1.7453163895544738E-003   0.0000000000000000     
  -5.8724035972216853E-003   3.8656047376749514E-003   0.0000000000000000     
  -8.9772305183338178E-003   6.3608650443614341E-003   0.0000000000000000     
  -1.2194474187780146E-002   9.2310973096139202E-003   0.0000000000000000     
   0.0000000000000000        0.0000000000000000        0.0000000000000000     
  -3.2830327758167966E-003   1.9997905850168687E-003   0.0000000000000000     
  -6.6764622382621524E-003   4.3318080241448306E-003   0.0000000000000000     
  -1.0180288387336069E-002   6.9960523173838865E-003   0.0000000000000000     
  -1.3794511223038545E-002   9.9925234647340357E-003   0.0000000000000000     
   0.0000000000000000        0.0000000000000000        0.0000000000000000     
  -3.9532599149817542E-003   2.4255492849549853E-003   0.0000000000000000     
  -7.9098701012505854E-003   5.0637026277475039E-003   0.0000000000000000     
  -1.1869830558806494E-002   7.9144600283775571E-003   0.0000000000000000     
  -1.5833141287649483E-002   1.0977821486845143E-002   0.0000000000000000     
   0.0000000000000000        0.0000000000000000        0.0000000000000000     
  -4.8906748419386189E-003   3.0225924893688234E-003   0.0000000000000000     
  -9.5726271861869845E-003   6.0612885484829715E-003   0.0000000000000000     
  -1.4045857032745093E-002   9.1160881773424442E-003   0.0000000000000000     
  -1.8310364381612952E-002   1.2186991375947245E-002   0.0000000000000000     
   0.0000000000000000        0.0000000000000000        0.0000000000000000     
  -6.0952775566873885E-003   3.7909201982583829E-003   0.0000000000000000     
  -1.1664733493071344E-002   7.3245657863512340E-003   0.0000000000000000     
  -1.6708367809151872E-002   1.0600936764278552E-002   0.0000000000000000     
  -2.1226180504928964E-002   1.3620033132040337E-002   0.0000000000000000     
  -1.2194474187780146E-002   9.2310973096139202E-003   0.0000000000000000     
  -1.5426452539784688E-002   1.2373971804633316E-002   0.0000000000000000     
  -1.8575483508571460E-002   1.5687158800620517E-002   0.0000000000000000     
  -2.1641567094140467E-002   1.9170658297575534E-002   0.0000000000000000     
  -2.4624703296491714E-002   2.2824470295498354E-002   0.0000000000000000     
  -1.3794511223038545E-002   9.9925234647340357E-003   0.0000000000000000     
  -1.7402144479286841E-002   1.3223015331801577E-002   0.0000000000000000     
  -2.0886201889998214E-002   1.6589321784192812E-002   0.0000000000000000     
  -2.4246683455172661E-002   2.0091442821907737E-002   0.0000000000000000     
  -2.7483589174810186E-002   2.3729378444946349E-002   0.0000000000000000     
  -1.5833141287649483E-002   1.0977821486845143E-002   0.0000000000000000     
  -1.9728056972554021E-002   1.4212478508349311E-002   0.0000000000000000     
  -2.3482832298294593E-002   1.7577122598089110E-002   0.0000000000000000     
  -2.7097467264871195E-002   2.1071753756064536E-002   0.0000000000000000     
  -3.0571961872283830E-002   2.4696371982275589E-002   0.0000000000000000     
  -1.8310364381612952E-002   1.2186991375947245E-002   0.0000000000000000     
  -2.2404190019586236E-002   1.5342361334276513E-002   0.0000000000000000     
  -2.6365374733460605E-002   1.8650561242309415E-002   0.0000000000000000     
  -3.0193918523236073E-002   2.2111591100045926E-002   0.0000000000000000     
  -3.3889821388912639E-002   2.5725450907486066E-002   0.0000000000000000     
  -2.1226180504928964E-002   1.3620033132040337E-002   0.0000000000000000     
  -2.5430543620383474E-002   1.6612663809583192E-002   0.0000000000000000     
  -2.9533829195496256E-002   1.9809637716853717E-002   0.0000000000000000     
  -3.3536037230267303E-002   2.3210954853851919E-002   0.0000000000000000     
  -3.7437167724696616E-002   2.6816615220577780E-002   0.0000000000000000     
  -2.4624703296491714E-002   2.2824470295498354E-002   0.0000000000000000     
  -2.7528629726286967E-002   2.6671815408783328E-002   0.0000000000000000     
  -3.0357083994188030E-002   3.0735914251824779E-002   0.0000000000000000     
  -3.3110066100194888E-002   3.5016766824622708E-002   0.0000000000000000     
  -3.5787576044307545E-002   3.9514373127177121E-002   0.0000000000000000     
  -2.7483589174810186E-002   2.3729378444946349E-002   0.0000000000000000     
  -3.0619644348588496E-002   2.7545612695957584E-002   0.0000000000000000     
  -3.3677574276185292E-002   3.1582629617590348E-002   0.0000000000000000     
  -3.6657378957600566E-002   3.5840429209844642E-002   0.0000000000000000     
  -3.9559058392834322E-002   4.0319011472720469E-002   0.0000000000000000     
  -3.0571961872283830E-002   2.4696371982275589E-002   0.0000000000000000     
  -3.3935781334843027E-002   2.8494990750588853E-002   0.0000000000000000     
  -3.7218390866859317E-002   3.2511623534870901E-002   0.0000000000000000     
  -4.0419790468332689E-002   3.6746270335121733E-002   0.0000000000000000     
  -4.3539980139263162E-002   4.1198931151341350E-002   0.0000000000000000     
  -3.3889821388912639E-002   2.5725450907486066E-002   0.0000000000000000     
  -3.7477040685050568E-002   2.9519949572677128E-002   0.0000000000000000     
  -4.0979533766210115E-002   3.3522896003666432E-002   0.0000000000000000     
  -4.4397300632391272E-002   3.7734290200453970E-002   0.0000000000000000     
  -4.7730341283594074E-002   4.2154132163039752E-002   0.0000000000000000     
  -3.7437167724696616E-002   2.6816615220577780E-002   0.0000000000000000     
  -4.1243422399211110E-002   3.0620489162222427E-002   0.0000000000000000     
  -4.4961002974237677E-002   3.4616447023976961E-002   0.0000000000000000     
  -4.8589909449776321E-002   3.8804488805841371E-002   0.0000000000000000     
  -5.2130141825827037E-002   4.3184614507815675E-002   0.0000000000000000     
  -3.5787576044307545E-002   3.9514373127177121E-002   0.0000000000000000     
  -3.8386497671234344E-002   4.4219727430469827E-002   0.0000000000000000     
  -4.0903714825683626E-002   4.9123824005482652E-002   0.0000000000000000     
  -4.3339227507655384E-002   5.4226662852215578E-002   0.0000000000000000     
  -4.5693035717149638E-002   5.9528243970668630E-002   0.0000000000000000     
  -3.9559058392834322E-002   4.0319011472720469E-002   0.0000000000000000     
  -4.2375952713122618E-002   4.5007129280038125E-002   0.0000000000000000     
  -4.5101402049701533E-002   4.9893535505617849E-002   0.0000000000000000     
  -4.7735406402571047E-002   5.4978230149459704E-002   0.0000000000000000     
  -5.0277965771731166E-002   6.0261213211563622E-002   0.0000000000000000     
  -4.3539980139263162E-002   4.1198931151341350E-002   0.0000000000000000     
  -4.6571627093778704E-002   4.5860881504234084E-002   0.0000000000000000     
  -4.9507398546007310E-002   5.0723396914504261E-002   0.0000000000000000     
  -5.2347294495948979E-002   5.5786477382151888E-002   0.0000000000000000     
  -5.5091314943603704E-002   6.1050122907176950E-002   0.0000000000000000     
  -4.7730341283594074E-002   4.2154132163039752E-002   0.0000000000000000     
  -5.0973520813202590E-002   4.6780984103057727E-002   0.0000000000000000     
  -5.4121704314600970E-002   5.1613408232141847E-002   0.0000000000000000     
  -5.7174891787789180E-002   5.6651404550292155E-002   0.0000000000000000     
  -6.0133083232767247E-002   6.1894973057508601E-002   0.0000000000000000     
  -5.2130141825827037E-002   4.3184614507815675E-002   0.0000000000000000     
  -5.5581633871394281E-002   4.7767437076509038E-002   0.0000000000000000     
  -5.8944319355482486E-002   5.2563569458530648E-002   0.0000000000000000     
  -6.2218198278091656E-002   5.7573011653880499E-002   0.0000000000000000     
  -6.5403270639221786E-002   6.2795763662558596E-002   0.0000000000000000     
  -4.5693035717149638E-002   5.9528243970668630E-002   0.0000000000000000     
  -4.7975551749968204E-002   6.5019135291455699E-002   0.0000000000000000     
  -5.0197187901912896E-002   7.0689904745190699E-002   0.0000000000000000     
  -5.2357944172983735E-002   7.6540552331873637E-002   0.0000000000000000     
  -5.4457820563180701E-002   8.2571078051504529E-002   0.0000000000000000     
  -5.0277965771731166E-002   6.0261213211563622E-002   0.0000000000000000     
  -5.2743218350088245E-002   6.5732771581685778E-002   0.0000000000000000     
  -5.5145302330548623E-002   7.1383192149582331E-002   0.0000000000000000     
  -5.7484217713112309E-002   7.7212474915253265E-002   0.0000000000000000     
  -5.9759964497779296E-002   8.3220619878698554E-002   0.0000000000000000     
  -5.5091314943603704E-002   6.1050122907176950E-002   0.0000000000000000     
  -5.7752883990396561E-002   6.6502610766788595E-002   0.0000000000000000     
  -6.0345425737752631E-002   7.2132218238195961E-002   0.0000000000000000     
  -6.2868940185671920E-002   7.7938945321399028E-002   0.0000000000000000     
  -6.5323427334154416E-002   8.3922792016397810E-002   0.0000000000000000     
  -6.0133083232767247E-002   6.1894973057508601E-002   0.0000000000000000     
  -6.3004548670893154E-002   6.7328652846764106E-002   0.0000000000000000     
  -6.5797558123524932E-002   7.2936983011031561E-002   0.0000000000000000     
  -6.8512111590662547E-002   7.8719963550310940E-002   0.0000000000000000     
  -7.1148209072306040E-002   8.4677594464602296E-002   0.0000000000000000     
  -6.5403270639221786E-002   6.2795763662558596E-002   0.0000000000000000     
  -6.8498212391578023E-002   6.8210897821612340E-002   0.0000000000000000     
  -7.1501699487865500E-002   7.3797486468089160E-002   0.0000000000000000     
  -7.4413731928084231E-002   7.9555529601989042E-002   0.0000000000000000     
  -7.7234309712234189E-002   8.5485027223311999E-002   0.0000000000000000     
  -5.4457820563180701E-002   8.2571078051504529E-002   0.0000000000000000     
  -5.6488726116312740E-002   8.8769890977923455E-002   0.0000000000000000     
  -5.8442569876188816E-002   9.5125400184970524E-002   0.0000000000000000     
  -6.0319351842808920E-002  0.10163760567264572        0.0000000000000000     
  -6.2119072016173039E-002  0.10830650744094908        0.0000000000000000     
  -5.9759964497779296E-002   8.3220619878698554E-002   0.0000000000000000     
  -6.1962551587384576E-002   8.9394974050097609E-002   0.0000000000000000     
  -6.4081987884763089E-002   9.5722884439629785E-002   0.0000000000000000     
  -6.6118273389914883E-002  0.10220435104729506        0.0000000000000000     
  -6.8071408102839931E-002  0.10883937387309345        0.0000000000000000     
  -6.5323427334154416E-002   8.3922792016397810E-002   0.0000000000000000     
  -6.7699437122121009E-002   9.0070718007266751E-002   0.0000000000000000     
  -6.9987519488492508E-002   9.6369682978080212E-002   0.0000000000000000     
  -7.2187674433269011E-002  0.10281968692883824        0.0000000000000000     
  -7.4299901956450448E-002  0.10942072985954079        0.0000000000000000     
  -7.1148209072306040E-002   8.4677594464602296E-002   0.0000000000000000     
  -7.3699382720522025E-002   9.0797122849430839E-002   0.0000000000000000     
  -7.6159164687377087E-002   9.7065795800321833E-002   0.0000000000000000     
  -7.8527554972871311E-002  0.10348361331727525        0.0000000000000000     
  -8.0804553577004556E-002  0.11005057540029112        0.0000000000000000     
  -7.7234309712234189E-002   8.5485027223311999E-002   0.0000000000000000     
  -7.9962388382587651E-002   9.1574188576589888E-002   0.0000000000000000     
  -8.2596923481416812E-002   9.7811222906354592E-002   0.0000000000000000     
  -8.5137915008721712E-002  0.10419613021260608        0.0000000000000000     
  -8.7585362964502325E-002  0.11072891049534439        0.0000000000000000     
  -6.2119072016173039E-002  0.10830650744094908        0.0000000000000000     
  -6.3831053593704085E-002  0.11511815206621751        0.0000000000000000     
  -6.5444619772824952E-002  0.12205858612478797        0.0000000000000000     
  -6.6959770553535636E-002  0.12912780961666045        0.0000000000000000     
  -6.8376505935836149E-002  0.13632582254183495        0.0000000000000000     
  -6.8071408102839931E-002  0.10883937387309345        0.0000000000000000     
  -6.9928704501256669E-002  0.11561695008739852        0.0000000000000000     
  -7.1677475062883564E-002  0.12252607686058380        0.0000000000000000     
  -7.3317719787720614E-002  0.12956675419264932        0.0000000000000000     
  -7.4849438675767807E-002  0.13673898208359506        0.0000000000000000     
  -7.4299901956450448E-002  0.10942072985954079        0.0000000000000000     
  -7.6312289380692094E-002  0.11616405369546501        0.0000000000000000     
  -7.8212924028649281E-002  0.12304090036188793        0.0000000000000000     
  -8.0001805900321979E-002  0.13005126985880960        0.0000000000000000     
  -8.1678934995710217E-002  0.13719516218623001        0.0000000000000000     
  -8.0804553577004556E-002  0.11005057540029112        0.0000000000000000     
  -8.2981808232010346E-002  0.11675946289041700        0.0000000000000000     
  -8.5050966670122116E-002  0.12360305662870041        0.0000000000000000     
  -8.7012028891339757E-002  0.13058135661514136        0.0000000000000000     
  -8.8864994895663352E-002  0.13769436284973985        0.0000000000000000     
  -8.7585362964502325E-002  0.11072891049534439        0.0000000000000000     
  -8.9937261055211493E-002  0.11740317767225444        0.0000000000000000     
  -9.2191602987302029E-002  0.12421254566102116        0.0000000000000000     
  -9.4348388760773935E-002  0.13115701446164452        0.0000000000000000     
  -9.6407618375627224E-002  0.13823658407412456        0.0000000000000000     
  -6.8376505935836149E-002  0.13632582254183495        0.0000000000000000     
  -6.9697196552326549E-002  0.14365738941694708        0.0000000000000000     
  -7.0924213035606906E-002  0.15112727475863241        0.0000000000000000     
  -7.2057555385677222E-002  0.15873547856689096        0.0000000000000000     
  -7.3097223602537509E-002  0.16648200084172271        0.0000000000000000     
  -7.4849438675767807E-002  0.13673898208359506        0.0000000000000000     
  -7.6270147095534729E-002  0.14405794886698822        0.0000000000000000     
  -7.7577360415530941E-002  0.15153884287639618        0.0000000000000000     
  -7.8771078635756456E-002  0.15918166411181889        0.0000000000000000     
  -7.9851301756211246E-002  0.16698641257325625        0.0000000000000000     
  -8.1678934995710217E-002  0.13719516218623001        0.0000000000000000     
  -8.3250820024829544E-002  0.14449911900326642        0.0000000000000000     
  -8.4723969697695564E-002  0.15198968196903612        0.0000000000000000     
  -8.6098384014308249E-002  0.15966685108353912        0.0000000000000000     
  -8.7374062974667641E-002  0.16753062634677543        0.0000000000000000     
  -8.8864994895663352E-002  0.13769436284973985        0.0000000000000000     
  -9.0639215340210966E-002  0.14498089982578155        0.0000000000000000     
  -9.2364040882100762E-002  0.15247979203655218        0.0000000000000000     
  -9.4039471521332657E-002  0.16019103948205177        0.0000000000000000     
  -9.5665507257906721E-002  0.16811464216228020        0.0000000000000000     
  -9.6407618375627224E-002  0.13823658407412456        0.0000000000000000     
  -9.8435333041679021E-002  0.14550329133453371        0.0000000000000000     
 -0.10049757396874651       0.15300917307894443        0.0000000000000000     
 -0.10259434115682967       0.16075422930735675        0.0000000000000000     
 -0.10472563460592849       0.16873846001977066        0.0000000000000000     
 </DataArray>
 <DataArray  type="Float64" Name="stress" NumberOfComponents="3" format="ascii">
   13415078752.012794        4024523625.6038384        2894442464.0056496     
   11765118083.230553        1889913099.6044140        1716248333.1919568     
   10312527312.110317        413202232.47834110        810998669.65045464     
   9057306438.6520844       -405608975.77438116        178693473.38114333     
   7999455462.8558578       -566520525.15375137       -180667255.61597610     
   10538977246.489460        3161693173.9468384        2226122366.3969994     
   9666478324.9547920        1589187420.7150586        1447115411.7330246     
   8942688256.5903263        512377844.71729517        863495001.65630448     
   8367607041.3960705       -68735554.046451092        475261136.16684026     
   7941234679.3720160       -154152775.57618380        282413815.26463109     
   8337409644.3186903        2501222893.2956071        1712674896.7649908     
   8020778405.2174921        1424343693.3872411        1276083899.6769679     
   7804194974.7946968        680957189.07355666        957321524.49126291     
   7687659353.0503082        271063380.35455370        756387771.20787787     
   7671171539.9843245        194662267.23023319        673282639.82681167     
   6810375945.5004854        2043112783.6501455        1354100055.1096249     
   6828018324.0186539        1395381917.6209621        1203153797.0237861     
   6897047466.7234249        918940265.54712558        1092478238.1553299     
   7017463373.6148024        613787827.42863584        1022073378.5042561     
   7189266044.6927834        479924603.26549363        991939218.07056594     
   5957876150.0348415        1787362845.0104525        1150397841.4309008     
   6088198081.3582745        1502302093.4162209        1228325103.7734790     
   6221245732.3765097        1226327074.1380010        1268965142.6485040     
   6357019103.0895491        959437787.17579341        1272317958.0559757     
   6495518193.4973927        701634232.52959824        1238383549.9958930     
   7999455462.8558578       -566520525.15375137       -180667255.61597610     
   7915612811.1516685       -199099772.64811373       -78765478.355462059     
   7790090242.8782635        29387924.626802444       -9057196.3096799459     
   7622887758.0356369        118942566.67099237        28457590.521368798     
   7414005356.6237993        69564153.484458923        33778882.137684815     
   7941234679.3720160       -154152775.57618380        282413815.26463109     
   7737974253.8677216        17214386.975324631        281015342.22737187     
   7511181328.9022141        110139884.65612650        265193674.54802710     
   7260855904.4755001        124623717.46623182        234948812.22659299     
   6986997980.5875702        60665885.405629158        190280755.26307401     
   7671171539.9843245        194662267.23023319        673282639.82681167     
   7399265628.0303411        185207526.03273344        589755903.11778629     
   7121974633.7231512        157802510.32454920        509576272.33932000     
   6839298557.0627575        112447220.10568643        432743747.49141133     
   6551237398.0491610        49141655.376141548        359258328.57406420     
   7189266044.6927834        479924603.26549363        991939218.07056594     
   6899486933.6395245        304879644.52411199        847456204.31578159     
   6622470157.3410711        172375801.63206863        724090597.06420267     
   6358215715.7974205        82413074.589365482        621842396.31582630     
   6106723609.0085697        34991463.396002293        540711602.07065737     
   6495518193.4973927        701634232.52959824        1238383549.9958930     
   6238638170.6952820        376230742.44946098        1054116245.8213565     
   6012667899.7559786        153859758.57868266        908736648.72267222     
   5817607380.6794825        34521280.917264462        802244758.69983768     
   5653456613.4657965        18215309.465207577        734640575.75285244     
   7414005356.6237993        69564153.484458923        33778882.137684815     
   7216707445.0064945       -20581315.184334755        15487757.953893378     
   7031918635.1755762       -69029777.898499966        271354.66601117497     
   6859638927.1310434       -75781234.658044338       -11870327.725959394     
   6699868320.8729029       -40835685.462958813       -20937289.222023614     
   6986997980.5875702        60665885.405629158        190280755.26307401     
   6806571801.8207130        1493065.3774390221        180850719.43833360     
   6634352070.9740229       -30324928.250176430        174176684.45481321     
   6470338788.0475073       -34788095.477223158        170258650.31250688     
   6314531953.0411634       -11896436.303693295        169096617.01142186     
   6551237398.0491610        49141655.376141548        359258328.57406420     
   6386772323.4050627        20668295.370253325        353669618.26445740     
   6226211042.8149166        5207582.2108821869        350518188.74137545     
   6069553556.2787285        2759515.8980331421        349804040.00482208     
   5916799863.7964954        13324096.431697130        351527172.05479348     
   6106723609.0085697        34991463.396002293        540711602.07065737     
   5957309009.7595406        36944374.794106245        533944454.43226236     
   5807495550.6982489        37567753.484673738        529295867.52570450     
   5657283231.8246965        36861599.467706203        526765841.35098052     
   5506672053.1388884        34825912.743207455        526354375.90809429     
   5653456613.4657965        18215309.465207577        734640575.75285244     
   5518181860.8841486        50321303.648995876        721675227.94175124     
   5378205594.6240234        66755585.571198463        710509720.80779636     
   5233527814.6854210        67518155.231811285        701144054.35098696     
   5084148521.0683422        52609012.630834579        693578228.57132089     
   6699868320.8729029       -40835685.462958813       -20937289.222023614     
   6543191876.7807751        5271494.3644747734       -16058032.407308238     
   6380753615.7259188        32172617.649488449       -17710071.389332533     
   6212553537.7083321        39867684.392069817       -25893406.168097142     
   6038591642.7280207        28356694.592226982       -40608036.743602701     
   6314531953.0411634       -11896436.303693295        169096617.01142186     
   6139143412.0363579        11449674.226178408        165884046.08735487     
   5959721365.8515205        21350767.489275455        160061404.71125799     
   5776265814.4866543        17806843.485612154        151628692.88312227     
   5588776757.9417572        817902.21517467499        140585910.60295406     
   5916799863.7964954        13324096.431697130        351527172.05479348     
   5733902726.8638878        17270187.959462881        342239137.13842744     
   5548700396.5339403        13532301.496114016        334262257.11472875     
   5361192872.8066664        2110437.0416576862        327596531.98370713     
   5171380155.6820602       -16995405.403904200        322241961.74535602     
   5506672053.1388884        34825912.743207455        526354375.90809429     
   5327469821.2633524        22733035.564331770        513007240.74590349     
   5147690707.7731829        8717219.6699995995        504892485.82109332     
   4967334712.6683798       -7221534.9397766590        502010111.13366091     
   4786401835.9489365       -25083228.265011072        504360116.68360978     
   5084148521.0683422        52609012.630834579        693578228.57132089     
   4919844695.2347631        27838217.040783882        678188356.90978861     
   4756692299.5692425        6905522.0109276772        671952090.83034372     
   4594691334.0717907       -10189072.458709002        674869430.33298516     
   4433841798.7423935       -23445566.368149042        686940375.41771102     
   6038591642.7280207        28356694.592226982       -40608036.743602701     
   5857288082.9249420        9321294.0905425549       -84038280.379135251     
   5678237387.6087494       -2204558.1215107441       -116551357.61461718     
   5501439556.7794428       -6220862.0439462662       -138147268.45003217     
   5326894590.4370308       -2727617.6767349243       -148826012.88538954     
   5588776757.9417572        817902.21517467499        140585910.60295406     
   5435065080.5919161       -9436048.4542219639        109543957.78790452     
   5283146321.7248669       -13713604.180978775        86782875.113987669     
   5133020481.3406086       -12014764.965108633        72302662.581205755     
   4984687559.4391394       -4339530.8065991402        66103320.189555898     
   5171380155.6820602       -16995405.403904200        322241961.74535602     
   5037728085.7599659       -20727588.748651981        303051696.07933789     
   4905408988.3165579       -20016530.497773647        289506004.29553610     
   4774422863.3518467       -14862230.651245832        281604886.39393789     
   4644769710.8658228       -5264689.2090878487        279348342.37455475     
   4786401835.9489365       -25083228.265011072        504360116.68360978     
   4665277098.4290876       -24553326.792768002        496484934.49517971     
   4545025387.3838282       -21113337.071882248        491618029.93003315     
   4425646702.8131571       -14763259.102366447        489759402.98817348     
   4307141044.7170830       -5503092.8842115402        490909053.66960371     
   4433841798.7423935       -23445566.368149042        686940375.41771102     
   4317712118.5992832       -20913262.586560249        689843673.03541672     
   4201995518.9266706       -17004023.903325796        693118952.01748383     
   4086691999.7245426       -11717850.318468332        696766212.36391294     
   3971801560.9929104       -5054741.8319616318        700785454.07469738     
   5326894590.4370308       -2727617.6767349243       -148826012.88538954     
   5149372554.6053314        4211120.6410410404       -170907952.52456909     
   4972458279.4278421        13175727.806181192       -191885371.28089723     
   4796151764.9045610        24166203.818681717       -211758269.15438545     
   4620453011.0354948        37182548.678571939       -230526646.14503759     
   4984687559.4391394       -4339530.8065991402        66103320.189555898     
   4810459193.9589310       -193988.36304163933        46246181.631166093     
   4637232816.3862534        7291513.7722685337        28462698.431292113     
   4465008426.7211132        18116975.599362850        12752870.589925319     
   4293786024.9634900        32282397.118207455       -883301.89292243985     
   4644769710.8658228       -5264689.2090878487        279348342.37455475     
   4476603971.3818769       -3081655.9463288784        262175936.69249403     
   4309834447.0587826        3755427.8525919914        248046320.84461290     
   4144461137.8965397        15246562.187693119        236959494.83091277     
   3980484043.8951473        31391747.058967829        228915458.65138999     
   4307141044.7170830       -5503092.8842115402        490909053.66960371     
   4147806886.8741651       -4451882.1088161469        476881312.65940291     
   3990263171.4454203        2567470.0471541882        466865495.95906234     
   3834509898.4308467        15554963.583687305        460861603.56856364     
   3680547067.8304443        34510598.500807524        458869635.48791635     
   3971801560.9929104       -5054741.8319616318        700785454.07469738     
   3824067940.4357963       -4304666.8504834175        690362309.53190839     
   3678518989.5461674        3727640.3559391499        684920223.77463984     
   3535154708.3240409        19042179.787370205        684459196.80288541     
   3393975096.7693939        41638951.443742156        688979228.61665022     
   4620453011.0354948        37182548.678571939       -230526646.14503759     
   4436591976.3974686        48671848.382793188       -263337028.65589499     
   4252730855.2206259        60160859.624309063       -306472438.40425640     
   4068869647.5049686        71649582.403092384       -359932875.39010012     
   3885008353.2505035        83138016.719199657       -423718339.61344534     
   4293786024.9634900        32282397.118207455       -883301.89292243985     
   4087570180.3029966        36712036.374193192       -26765703.180522319     
   3880854930.5534215        39476991.999903202       -57889932.529078603     
   3673640275.7147622        40577263.995345592       -94255989.938612103     
   3465926215.7870226        40012852.360495806       -135863875.40911034     
   3980484043.8951473        31391747.058967829        228915458.65138999     
   3766436815.4308338        33118753.732302189        209378500.27841294     
   3551390863.3271680        31516681.607802868        189682913.02100217     
   3335346187.5841475        26585530.685456038        169828696.87914982     
   3118302788.2017837        18325300.965291619        149815851.85286018     
   3680547067.8304443        34510598.500807524        458869635.48791635     
   3473191881.7809668        37892000.457105160        445095581.72091335     
   3264338653.5418615        36279928.447996497        436246098.24599898     
   3053987383.1131320        29674382.473456144        432321185.06317204     
   2842138070.4947820        18075362.533531666        433320842.17243195     
   3393975096.7693939        41638951.443742156        688979228.61665022     
   3207835379.3533869        51031776.548577309        680385541.14697385     
   3019698301.1974964        53766732.520448327        681799623.14590907     
   2829563862.3017116        49843819.359353781        693221474.61346197     
   2637432062.6660275        39263037.065262675        714651095.54963219     
   3885008353.2505035        83138016.719199657       -423718339.61344534     
   3971169211.7669811        149372807.94225144       -453182320.32401842     
   4040015680.6084313        157892966.91519022       -557387114.85301495     
   4091547759.7748489        108698493.63802671       -736332723.20046806     
   4125765449.2662268        1789388.1107409000       -990019145.36633706     
   3465926215.7870226        40012852.360495806       -135863875.40911034     
   3373497269.8591881        48043742.946034908       -147354029.55719426     
   3264431312.3305931        617928.19570779800       -208048473.15842524     
   3138728343.2012305       -102264591.89052439       -317947206.21281415     
   2996388362.4711113       -260603817.31258869       -477050228.72035146     
   3118302788.2017837        18325300.965291619        149815851.85286018     
   2920245536.0161700       -9959259.6307221651        157089798.68723986     
   2706228650.3040709       -91442598.648384690        140695980.43374687     
   2476252131.0654716       -226124716.08770728        100634397.09239505     
   2230315978.3003821       -414005611.94864249        36905048.663185343     
   2842138070.4947820        18075362.533531666        433320842.17243195     
   2611414010.2379327       -24636199.788071990        460149164.40925574     
   2365407694.5288568       -118288613.61709559        488846245.92349797     
   2104119123.3675606       -262881878.95351434        519412086.71516687     
   1827548296.7540355       -458415995.79736149        551846686.78426623     
   2637432062.6660275        39263037.065262675        714651095.54963219     
   2447002692.5244694        4012922.4740236998        761824067.60887384     
   2241968445.0049543       -79920116.710397363        836402323.31083024     
   2022329320.1074791       -212536080.48800850        938385862.65550339     
   1788085317.8320680       -393834968.85876679        1067774685.6428920     
   5957876150.0348415        1787362845.0104525        1150397841.4309008     
   6088198081.3582745        1502302093.4162209        1228325103.7734790     
   6221245732.3765097        1226327074.1380010        1268965142.6485040     
   6357019103.0895491        959437787.17579341        1272317958.0559757     
   6495518193.4973927        701634232.52959824        1238383549.9958930     
   5434631681.1137133        1630389504.3341138        1033845339.7572488     
   5489895659.0354433        1372516424.4063988        1114316745.4773881     
   5547354843.2453337        1121960698.7725511        1168064409.3561130     
   5607009233.7433825        878722327.43257105        1195088331.3934240     
   5668858830.5295925        642801310.38645840        1195388511.5893216     
   4895363961.9290476        1468609188.5787144        936719634.11709797     
   4905751362.5237589        1246978193.1399209        1019116250.9070474     
   4917803455.9999876        1030896173.9728503        1085352607.4817221     
   4931520242.3577337        820363131.07750309        1135428703.8411226     
   4946901721.5969934        615379064.45387828        1169344539.9852483     
   4340072992.4808474        1302021897.7442541        859020724.51044822     
   4335765191.8232241        1125687399.6167877        942723620.06245744     
   4332591570.6404724        953133499.73889923        1020829737.0253314     
   4330552128.9325962        784360198.11058903        1093339075.3990705     
   4329646866.6995945        619367494.73185825        1160251635.1836743     
   3768758772.7691097        1130627631.8307331        800748610.93729961     
   3779937146.9338360        1008644043.8369985        885138852.94361806     
   3791719187.1667910        888672676.07069743        974495797.98694086     
   3804104893.4679775        770713528.53183103        1068819446.0672678     
   3817094265.8373928        654766601.22039783        1168109797.1845982     
   6495518193.4973927        701634232.52959824        1238383549.9958930     
   6238638170.6952820        376230742.44946098        1054116245.8213565     
   6012667899.7559786        153859758.57868266        908736648.72267222     
   5817607380.6794825        34521280.917264462        802244758.69983768     
   5653456613.4657965        18215309.465207577        734640575.75285244     
   5668858830.5295925        642801310.38645840        1195388511.5893216     
   5518627909.9866877        383242463.46540427        1074430223.3884926     
   5392566393.2592192        204248295.92914987        981427081.42833829     
   5290674280.3471918        105818807.77769470        916379085.70885444     
   5212951571.2506037        87953999.011039019        879286236.23004186     
   4946901721.5969934        615379064.45387828        1169344539.9852483     
   4872084015.2127800        412294094.26175404        1103831528.3695335     
   4814695364.5966387        267305976.62986922        1055341102.1593107     
   4774735769.7485695        180414711.55822444        1023873261.3545815     
   4752205230.6685734        151620299.04681897        1009428005.9553454     
   4329646866.6995945        619367494.73185825        1160251635.1836743     
   4299006486.3735628        463385634.83851087        1142320160.7644753     
   4279054813.7682371        343032800.68084395        1130478710.9155905     
   4269791848.8836141        258308992.25885391        1124727285.6370211     
   4271217591.7196941        209214209.57254386        1125065884.9287651     
   3817094265.8373928        654766601.22039783        1168109797.1845982     
   3799395323.4690356        536517085.19567454        1189896120.5733192     
   3785644740.7740130        431428768.08206975        1206839907.6971772     
   3775842517.7523279        339501649.87958527        1218941158.5561690     
   3769988654.4039760        260735730.58821917        1226199873.1502976     
   5653456613.4657965        18215309.465207577        734640575.75285244     
   5518181860.8841486        50321303.648995876        721675227.94175124     
   5378205594.6240234        66755585.571198463        710509720.80779636     
   5233527814.6854210        67518155.231811285        701144054.35098696     
   5084148521.0683422        52609012.630834579        693578228.57132089     
   5212951571.2506037        87953999.011039019        879286236.23004186     
   5075196287.4516315        86176730.031428814        856665132.44045830     
   4935753344.1434307        78773929.354397535        838155301.61349511     
   4794622741.3260088        65745596.979955196        823756743.74915326     
   4651804478.9993591        47091732.908092976        813469458.84742987     
   4752205230.6685734        151620299.04681897        1009428005.9553454     
   4618573507.8964872        117940994.57707000        980667309.38473952     
   4486267979.7844296        88682338.974076271        958329318.06222808     
   4355288646.3323984        63844332.237838984        942414031.98781240     
   4225635507.5403938        43426974.368357897        932921451.16149318     
   4271217591.7196941        209214209.57254386        1125065884.9287651     
   4148313522.2187157        145614097.28592372        1093681758.7745953     
   4029749501.5470114        96480814.430229664        1071031770.1539983     
   3915525529.7045879        61814361.005465031        1057115919.0669683     
   3805641606.6914425        41614737.011625051        1051934205.5135101     
   3769988654.4039760        260735730.58821917        1226199873.1502976     
   3664416330.4183149        169196038.15799010        1195708480.6100252     
   3566197909.4311824        102169355.72285938        1176262657.8888004     
   3475333391.4425802        59655683.282828331        1167862404.9866197     
   3391822776.4525084        41655020.837901354        1170507721.9034855     
   5084148521.0683422        52609012.630834579        693578228.57132089     
   4919844695.2347631        27838217.040783882        678188356.90978861     
   4756692299.5692425        6905522.0109276772        671952090.83034372     
   4594691334.0717907       -10189072.458709002        674869430.33298516     
   4433841798.7423935       -23445566.368149042        686940375.41771102     
   4651804478.9993591        47091732.908092976        813469458.84742987     
   4511139775.0343180        27716504.567594290        800686861.16107237     
   4371261127.2089720        10961463.359412909        795689466.88776183     
   4232168535.5233216       -3173390.7164473534        798477276.02749825     
   4093861999.9773655       -14688057.659994841        809050288.58028173     
   4225635507.5403938        43426974.368357897        932921451.16149318     
   4104700204.9609175        28274397.132523537        922319857.75055110     
   3984185584.4927683        14524093.601118326        918135065.58361685     
   3864091646.1359491        2176063.7741441727        920367074.66068804     
   3744418389.8904605       -8769692.3484010696        929015884.98176146     
   3805641606.6914425        41614737.011625051        1051934205.5135101     
   3700525985.0145564        29511894.735564470        1043087346.6782256     
   3595465671.4206314        17593412.736040592        1039288886.9179045     
   3490460665.9096713        5859291.0130631924        1040538826.2325480     
   3385510968.4816709       -5690470.4333741665        1046837164.6221527     
   3391822776.4525084        41655020.837901354        1170507721.9034855     
   3298617115.1952362        31428997.376714468        1162989327.9440930     
   3205101387.9925632        20169420.764186621        1159150930.8906257     
   3111275594.8444839        7876291.0003098249        1158992530.7430792     
   3017139735.7510028       -5450391.9149123430        1162514127.5014591     
   4433841798.7423935       -23445566.368149042        686940375.41771102     
   4317712118.5992832       -20913262.586560249        689843673.03541672     
   4201995518.9266706       -17004023.903325796        693118952.01748383     
   4086691999.7245426       -11717850.318468332        696766212.36391294     
   3971801560.9929104       -5054741.8319616318        700785454.07469738     
   4093861999.9773655       -14688057.659994841        809050288.58028173     
   3978653443.4153862       -16822186.659291744        809887162.37076843     
   3864274969.7790208       -16189372.573208332        812137480.50104642     
   3750726579.0682640       -12789615.401750088        815801242.97110915     
   3638008271.2831287       -6622915.1448993683        820878449.78096211     
   3744418389.8904605       -8769692.3484010696        929015884.98176146     
   3633106565.4108257       -14677571.578221083        928272837.80934262     
   3523041826.3119259       -16428499.538918972        929984697.95213950     
   3414224172.5937657       -14022476.230492353        934151465.41015363     
   3306653604.2563443       -7459501.6529362202        940773140.18337655     
   3385510968.4816709       -5690470.4333741665        1046837164.6221527     
   3281071484.5856018       -14479417.343351126        1045000699.3511404     
   3178296088.5253935       -17721404.800458670        1046660604.3707654     
   3077184780.3010426       -15416432.804703116        1051816879.6810367     
   2977737559.9125562       -7564501.3560719490        1060469525.2819457     
   3017139735.7510028       -5450391.9149123430        1162514127.5014591     
   2922548200.9397192       -16227723.954675198        1160070746.9961591     
   2830037756.4194136       -20068088.357839704        1162165199.7569275     
   2739608402.1900969       -16971485.124382377        1168797485.7837646     
   2651260138.2517619       -6937914.2543158531        1179967605.0766671     
   3971801560.9929104       -5054741.8319616318        700785454.07469738     
   3824067940.4357963       -4304666.8504834175        690362309.53190839     
   3678518989.5461674        3727640.3559391499        684920223.77463984     
   3535154708.3240409        19042179.787370205        684459196.80288541     
   3393975096.7693939        41638951.443742156        688979228.61665022     
   3638008271.2831287       -6622915.1448993683        820878449.78096211     
   3503981916.4480133       -3346888.5651803017        813445332.56051159     
   3371434318.5364265        4858327.7596247196        810992295.20263922     
   3240365477.5483646        17992733.829516768        813519337.70734370     
   3110775393.4838257        36056329.644489288        821026460.07463348     
   3306653604.2563443       -7459501.6529362202        940773140.18337655     
   3186331718.2205467       -1658362.5517703295        935506485.41730535     
   3066782676.3643060        6718923.8145864010        935218931.59087694     
   2948006478.6876302        17672357.446152568        939910478.70408332     
   2830003125.1905093        31201938.342915297        949581126.75692892     
   2977737559.9125562       -7564501.3560719490        1060469525.2819457     
   2871117345.7533889        760911.18972790241        1056545768.1022942     
   2764564063.0298166        9309428.5208406448        1057600132.9393420     
   2658077711.7418385        18081050.637268066        1063632619.7930912     
   2551658291.8894577        27075777.539022207        1074643228.6635339     
   2651260138.2517619       -6937914.2543158531        1179967605.0766671     
   2558338799.0465426        3910932.6593195200        1176563180.6154754     
   2464778478.5329552        12629841.878388286        1178135899.2480426     
   2370579176.7109885        19218813.402866244        1184685760.9743724     
   2275740893.5806603        23677847.232798696        1196212765.7944577     
   3393975096.7693939        41638951.443742156        688979228.61665022     
   3207835379.3533869        51031776.548577309        680385541.14697385     
   3019698301.1974964        53766732.520448327        681799623.14590907     
   2829563862.3017116        49843819.359353781        693221474.61346197     
   2637432062.6660275        39263037.065262675        714651095.54963219     
   3110775393.4838257        36056329.644489288        821026460.07463348     
   2949182490.2974544        43848926.138086796        810614842.86003375     
   2785668970.6810613        45239467.864941239        809446904.49451256     
   2620234834.6346607        40227954.825112700        817522644.97807658     
   2452880082.1582408        28814387.018543005        834842064.31072223     
   2830003125.1905093        31201938.342915297        949581126.75692892     
   2690773920.1779547        36739371.408504725        937441114.82559502     
   2549700843.0452623        36130564.073635578        933780691.12381172     
   2406783893.7924352        29375516.338312268        938599855.65157282     
   2262023072.4194646        16474228.202518344        951898608.40888512     
   2551658291.8894577        27075777.539022207        1074643228.6635339     
   2432609668.9949141        29703112.359876156        1060864357.0436602     
   2311793918.2901058        26440021.146520615        1054800983.0337974     
   2189211039.7750373        17286503.898967266        1056453106.6339494     
   2064861033.4497085        2242560.6172101498        1065820727.8441180     
   2275740893.5806603        23677847.232798696        1196212765.7944577     
   2174689736.7483110        22740148.992167234        1180884569.5142286     
   2071948196.4155807        16167839.083588362        1172507780.2244809     
   1967516272.5824659        3960917.5070680380        1171082397.9252124     
   1861393965.2489643       -13880615.737407684        1176608422.6164217     
   2637432062.6660275        39263037.065262675        714651095.54963219     
   2447002692.5244694        4012922.4740236998        761824067.60887384     
   2241968445.0049543       -79920116.710397363        836402323.31083024     
   2022329320.1074791       -212536080.48800850        938385862.65550339     
   1788085317.8320680       -393834968.85876679        1067774685.6428920     
   2452880082.1582408        28814387.018543005        834842064.31072223     
   2331307110.6099968        18314313.832322478        863700127.39743078     
   2203201322.7501645       -13961813.725865722        912407819.28127968     
   2068562718.5787258       -68013995.656056166        980965139.96226776     
   1927391298.0957112       -143842231.95820785        1069372089.4404064     
   2262023072.4194646        16474228.202518344        951898608.40888512     
   2187718914.1914730        24247920.839402080        971859167.10047734     
   2114954000.7182460        37152429.325507760        1004113699.7436417     
   2043728331.9997854        55187753.660825014        1048662206.3383650     
   1974041908.0360880        78353893.845364332        1105504686.8846593     
   2064861033.4497085        2242560.6172101498        1065820727.8441180     
   2016238103.2688978        21813743.495271683        1086301186.7180183     
   1977226478.9092131        73422612.443753362        1111519964.6979063     
   1947826160.3706551        157069167.46265686        1141477061.7837882     
   1928037147.6532173        272753408.55196255        1176172477.9756670     
   1861393965.2489643       -13880615.737407684        1176608422.6164217     
   1816864677.8422713        11011781.799922466        1207026186.2500422     
   1790018757.3230557        94848735.628866613        1234626614.1440823     
   1780856203.6913276        237630245.74942064        1259409706.2985401     
   1789377016.9470851        439356312.16158885        1281375462.7134163     
   3768758772.7691097        1130627631.8307331        800748610.93729961     
   3779937146.9338360        1008644043.8369985        885138852.94361806     
   3791719187.1667910        888672676.07069743        974495797.98694086     
   3804104893.4679775        770713528.53183103        1068819446.0672678     
   3817094265.8373928        654766601.22039783        1168109797.1845982     
   3208528391.4306889        962558517.42920661        756753315.91909015     
   3236955614.7985120        868155486.64716482        853190570.91840112     
   3265113613.4557848        772855040.16328883        951564724.44962335     
   3293002387.4025073        676657177.97757876        1051875776.5127565     
   3320621936.6386800        579561900.09003484        1154123727.1078002     
   2686488937.1024375        805946681.13073123        721884861.97725785     
   2723508425.3730922        736527232.27030230        829350757.39431775     
   2759385798.1544156        663300731.77877128        935723746.83819520     
   2794121055.4464087        586267179.65613818        1041003830.3088908     
   2827714197.2490711        505426575.90240312        1145191007.8064039     
   2202640409.7843542        660792122.93530631        696143249.11180258     
   2239595578.6575742        613759280.70641053        813619412.37136722     
   2274535741.2626824        560009750.91714454        926972865.15265667     
   2307460897.5996799        499543533.56750858        1036203607.4556708     
   2338371047.6685658        432360628.65750206        1141311639.2804096     
   1756982809.4764411        527094842.84293240        679528477.32272446     
   1785217074.6519592        499851631.95548970        805996535.84955049     
   1810563442.7805862        462982097.57840902        925312079.39300811     
   1833021913.8623214        416486239.71168977        1037475107.9530967     
   1852592487.8971648        360364058.35533285        1142485621.5298169     
   3817094265.8373928        654766601.22039783        1168109797.1845982     
   3799395323.4690356        536517085.19567454        1189896120.5733192     
   3785644740.7740130        431428768.08206975        1206839907.6971772     
   3775842517.7523279        339501649.87958527        1218941158.5561690     
   3769988654.4039760        260735730.58821917        1226199873.1502976     
   3320621936.6386800        579561900.09003484        1154123727.1078002     
   3295899635.9370885        472087883.38609922        1182563453.8424044     
   3274956768.4064484        377211977.25199473        1207956479.8192036     
   3257793334.0467558        294934181.68771863        1230302805.0381987     
   3244409332.8580122        225254496.69327188        1249602429.4993901     
   2827714197.2490711        505426575.90240312        1145191007.8064039     
   2801099496.8058486        410267346.09673661        1180087056.9674385     
   2778095303.0311875        327143138.51960957        1213732240.8777289     
   2758701615.9250894        256053953.17102265        1246126559.5372756     
   2742918435.4875507        196999790.05097532        1277270012.9460773     
   2338371047.6685658        432360628.65750206        1141311639.2804096     
   2314994906.0753107        351055473.32758403        1182466929.9484239     
   2295060344.6482310        281222251.88491577        1224167190.8727543     
   2278567363.3873277        222860964.32949954        1266412422.0534005     
   2265515962.2925968        175971610.66133118        1309202623.4903626     
   1852592487.8971648        360364058.35533285        1142485621.5298169     
   1837585863.7454789        294452265.07864380        1189703072.7853603     
   1825851893.2575796        239449317.34791404        1239261329.8042784     
   1817390576.4334691        195355215.16314560        1291160392.5865729     
   1812201913.2731466        162169958.52433759        1345400261.1322434     
   3769988654.4039760        260735730.58821917        1226199873.1502976     
   3664416330.4183149        169196038.15799010        1195708480.6100252     
   3566197909.4311824        102169355.72285938        1176262657.8888004     
   3475333391.4425802        59655683.282828331        1167862404.9866197     
   3391822776.4525084        41655020.837901354        1170507721.9034855     
   3244409332.8580122        225254496.69327188        1249602429.4993901     
   3169554133.4723058        151738000.00495172        1233933335.9403815     
   3100548873.0685415        97721299.923101664        1226688030.9295483     
   3037393551.6467171        63204396.447721958        1227866514.4668832     
   2980088169.2068348        48187289.578809619        1237468786.5523920     
   2742918435.4875507        196999790.05097532        1277270012.9460773     
   2691289557.0707364        139259248.01524734        1274668593.6823142     
   2644006653.6192722        96005289.197356701        1277869181.6958497     
   2601069725.1331601        67237913.597305655        1286871776.9866836     
   2562478771.6123986        52957121.215090513        1301676379.5548158     
   2265515962.2925968        175971610.66133118        1309202623.4903626     
   2229622601.2136045        131759782.18887353        1317914253.8358223     
   2196571251.0833740        97021323.545622230        1329806110.1877058     
   2166361911.9019046        71756234.731578827        1344878192.5460157     
   2138994583.6691971        55964515.746742129        1363130500.9107513     
   1812201913.2731466        162169958.52433759        1345400261.1322434     
   1784553265.9009089        129239602.52582949        1363670316.4009044     
   1758242665.4608452        100769402.96789980        1382498816.4051175     
   1733270111.9529538        76759359.850544453        1401885761.1448829     
   1709635605.3772345        57209473.173765182        1421831150.6202011     
   3391822776.4525084        41655020.837901354        1170507721.9034855     
   3298617115.1952362        31428997.376714468        1162989327.9440930     
   3205101387.9925632        20169420.764186621        1159150930.8906257     
   3111275594.8444839        7876291.0003098249        1158992530.7430792     
   3017139735.7510028       -5450391.9149123430        1162514127.5014591     
   2980088169.2068348        48187289.578809619        1237468786.5523920     
   2895927632.9483628        34554535.603572369        1228123976.3928831     
   2812141926.3052568        22171213.679558992        1222843126.3682277     
   2728731049.2775202        11037323.806775331        1221626236.4784324     
   2645695001.8651519        1152865.9852190018        1224473306.7234941     
   2562478771.6123986        52957121.215090513        1301676379.5548158     
   2488460398.1496792        36246748.064884424        1291304198.0160847     
   2415501749.8631015        23068792.168478847        1285379939.8411458     
   2343602826.7526636        13423253.525872946        1283903605.0299993     
   2272763628.8183651        7310132.1370666027        1286875193.5826435     
   2138994583.6691971        55964515.746742129        1363130500.9107513     
   2076215410.7991912        36505634.760656595        1352529992.8137004     
   2015180858.6660957        22862156.230939031        1346761371.3093777     
   1955890927.2699130        15034080.157599211        1345824636.3977811     
   1898345616.6106422        13021406.540631771        1349719788.0789130     
   1709635605.3772345        57209473.173765182        1421831150.6202011     
   1659192670.8968980        35331195.690888762        1411801360.7857318     
   1611179252.7142420        21551305.866948605        1406987420.7729230     
   1565595350.8292732        15869803.701966286        1407389330.5817776     
   1522440965.2419870        18286689.195923746        1413007090.2122951     
   3017139735.7510028       -5450391.9149123430        1162514127.5014591     
   2922548200.9397192       -16227723.954675198        1160070746.9961591     
   2830037756.4194136       -20068088.357839704        1162165199.7569275     
   2739608402.1900969       -16971485.124382377        1168797485.7837646     
   2651260138.2517619       -6937914.2543158531        1179967605.0766671     
   2645695001.8651519        1152865.9852190018        1224473306.7234941     
   2563911275.7161994       -5749142.5832542181        1223448612.7790127     
   2483471458.1105990       -8171456.0072193146        1226843940.6614974     
   2404375549.0483551       -6114074.2866655588        1234659290.3709483     
   2326623548.5294657        423002.57840454578        1246894661.9073703     
   2272763628.8183651        7310132.1370666027        1286875193.5826435     
   2203451107.2200274        4182465.8063757420        1286409140.8267479     
   2134745312.4174142        3077222.1280951500        1290245298.4587164     
   2066646244.4105258        3994401.1022301912        1298383666.4785495     
   1999153903.1993587        6934002.7287749052        1310824244.8862500     
   1898345616.6106422        13021406.540631771        1349719788.0789130     
   1841167695.4512026        13567101.214207411        1348952331.1393642     
   1783859319.3398545        13677946.048091292        1352369273.1485810     
   1726420488.2766027        13353941.042293668        1359970614.1065598     
   1668851202.2614427        12595086.196804106        1371756354.0133018     
   1522440965.2419870        18286689.195923746        1413007090.2122951     
   1477061040.4097233        22404763.640242934        1411078183.7168615     
   1430813478.8779254        23630715.752784789        1413215864.7310891     
   1383698280.6465898        21964545.533530474        1419420133.2549803     
   1335715445.7157178        17406252.982490778        1429690989.2885311     
   2651260138.2517619       -6937914.2543158531        1179967605.0766671     
   2558338799.0465426        3910932.6593195200        1176563180.6154754     
   2464778478.5329552        12629841.878388286        1178135899.2480426     
   2370579176.7109885        19218813.402866244        1184685760.9743724     
   2275740893.5806603        23677847.232798696        1196212765.7944577     
   2326623548.5294657        423002.57840454578        1246894661.9073703     
   2245453773.0772438        7298781.7086209059        1241867731.0017598     
   2163839452.6499000        12692744.255097389        1241820183.2239399     
   2081780587.2474332        16604890.217833042        1246752018.5739200     
   1999277176.8698437        19035219.596821308        1256663237.0516927     
   1999153903.1993587        6934002.7287749052        1310824244.8862500     
   1929742091.5973797        9838634.1047493219        1304401649.9250064     
   1860080171.3535268        11909570.007814527        1302960678.1255963     
   1790168142.4677987        13146810.437962651        1306501329.4880140     
   1720006004.9401989        13550355.395201683        1315023604.0122664     
   1668851202.2614427        12595086.196804106        1371756354.0133018     
   1611203754.6069498        11530489.847706378        1364164937.3852201     
   1553500634.6438332        10280319.136530399        1361557383.9530053     
   1495741842.3720908        8844574.0632703304        1363933693.7166562     
   1437927377.7917244        7223254.6279318333        1371293866.6761756     
   1335715445.7157178        17406252.982490778        1429690989.2885311     
   1289838762.1059580        12374348.937501490        1421157593.3824003     
   1244100842.5208213        7804991.6412583590        1417610300.7061708     
   1198501686.9603097        3698181.0937680006        1419049111.2598474     
   1153041295.4244206        53917.295009672642        1425474025.0434220     
   2275740893.5806603        23677847.232798696        1196212765.7944577     
   2174689736.7483110        22740148.992167234        1180884569.5142286     
   2071948196.4155807        16167839.083588362        1172507780.2244809     
   1967516272.5824659        3960917.5070680380        1171082397.9252124     
   1861393965.2489643       -13880615.737407684        1176608422.6164217     
   1999277176.8698437        19035219.596821308        1256663237.0516927     
   1915207555.7615342        18648245.688063502        1238239238.5284803     
   1830034716.9457948        14583879.421202302        1225799462.5720744     
   1743758660.4226234        6842120.7962360382        1219343909.1824789     
   1656379386.1920252       -4577030.1868202686        1218872578.3596931     
   1720006004.9401989        13550355.395201683        1315023604.0122664     
   1650154535.4882946        12885090.598018587        1294188830.0045149     
   1579787014.1219132        10499652.752584517        1278371094.1398990     
   1508903440.8410552        6394041.8588930368        1267570396.4184215     
   1437503815.6457253        568257.91695892811        1261786736.8400836     
   1437927377.7917244        7223254.6279318333        1371293866.6761756     
   1379530675.9285927        5450683.7220411301        1348733343.9423316     
   1321205087.9439332        3915159.0777320862        1330222674.9279561     
   1262950613.8377573        2616680.6950277090        1315761859.6330435     
   1204767253.6100605        1555248.5739252567        1305350898.0576003     
   1153041295.4244206        53917.295009672642        1425474025.0434220     
   1103335977.0824234       -3654974.9398880601        1401872780.3419328     
   1054288938.4118629       -5169601.6033357978        1381354204.9362423     
   1005900179.4127301       -4489962.6953550577        1363918298.8263421     
   958169700.08503675       -1616058.2159094214        1349565062.0122359     
   1861393965.2489643       -13880615.737407684        1176608422.6164217     
   1816864677.8422713        11011781.799922466        1207026186.2500422     
   1790018757.3230557        94848735.628866613        1234626614.1440823     
   1780856203.6913276        237630245.74942064        1259409706.2985401     
   1789377016.9470851        439356312.16158885        1281375462.7134163     
   1656379386.1920252       -4577030.1868202686        1218872578.3596931     
   1604777207.2311115        11748486.291325212        1263026214.6652527     
   1565494645.2393658        69139392.666699350        1306533473.4515862     
   1538531700.2167957        167595688.93930668        1349394354.7186720     
   1523888372.1633892        307117375.10914969        1391608858.4665284     
   1437503815.6457253        568257.91695892811        1261786736.8400836     
   1385031482.9030099        10187714.667643905        1313418537.5795572     
   1339515017.2111475        42993394.921177685        1366574919.0201344     
   1300954418.5701401        98985298.677564204        1421255881.1618283     
   1269349686.9799905        178163425.93679982        1477461424.0046275     
   1204767253.6100605        1555248.5739252567        1305350898.0576003     
   1157627504.8579524        6329466.9288665652        1358203154.9929488     
   1112079873.2383907        16410742.392299116        1414750950.8497548     
   1068124358.7513697        31799074.964189589        1474994285.6280069     
   1025760961.3968821        52494464.644536912        1538933159.3277192     
   958169700.08503675       -1616058.2159094214        1349565062.0122359     
   922565273.09595466        173743.07502043247        1397380066.9054327     
   883189213.32109916       -10608564.919954836        1451061568.9404285     
   840041520.76047599       -33962982.200835705        1510609568.1172192     
   793122195.41407084       -69889508.767636836        1576024064.4358077     
   1756982809.4764411        527094842.84293240        679528477.32272446     
   1785217074.6519592        499851631.95548970        805996535.84955049     
   1810563442.7805862        462982097.57840902        925312079.39300811     
   1833021913.8623214        416486239.71168977        1037475107.9530967     
   1852592487.8971648        360364058.35533285        1142485621.5298169     
   1327249781.2820206        398174934.38460618        668983544.97819757     
   1340600151.7188871        375394927.68560177        791196872.94742966     
   1351784599.3705859        345395178.36937243        908083595.90373540     
   1360803124.2371180        308175686.43591875        1019643713.8471152     
   1367655726.3184822        263736451.88524023        1125877226.7775688     
   891174970.30441594        267352491.09132478        661451450.44639575     
   894858331.63246655        250600754.26970929        780252351.16337836     
   897097744.43707407        229035855.70328251        895552556.83787727     
   897893208.71823800        202657795.39204443        1007352067.4698929     
   897244724.47595859        171466573.33599520        1115650883.0594249     
   448758376.54362768        134627512.96308830        656932193.72731936     
   447991614.39269829        125469111.70781250        773162970.49739754     
   446502877.98004955        113904129.58013883        887718962.19543433     
   444292167.30568153        99932566.580067486        1000600168.8214302     
   441359482.36959410        83554422.707598299        1111806590.3753850     
  -3.4439026721974723E-004  -1.0331708016592417E-004   655425774.82096815     
  -4.1811792123829552E-004  -8.8693933150299896E-005   769928730.94948637     
  -4.8711321148858848E-004  -5.8599816848786852E-005   884582811.97640574     
  -5.5148050732261472E-004  -1.2753791841305854E-005   999388017.90172660     
  -6.1117548750870782E-004   4.8493146311687929E-005   1114344348.7254491     
   1852592487.8971648        360364058.35533285        1142485621.5298169     
   1837585863.7454789        294452265.07864380        1189703072.7853603     
   1825851893.2575796        239449317.34791404        1239261329.8042784     
   1817390576.4334691        195355215.16314560        1291160392.5865729     
   1812201913.2731466        162169958.52433759        1345400261.1322434     
   1367655726.3184822        263736451.88524023        1125877226.7775688     
   1362398964.3387368        216102068.76794741        1180819737.1735804     
   1359596692.6068306        176649319.81011826        1236703471.9016943     
   1359248911.1227632        145378205.01175338        1293528430.9619119     
   1361355619.8865356        122288724.37285328        1351294614.3542311     
   897244724.47595859        171466573.33599520        1115650883.0594249     
   897739020.57880282        140909959.15129375        1177363928.6106308     
   899869643.51353741        115807767.73955950        1238618617.0626662     
   903636593.28016233        96159999.100792676        1299414948.4155316     
   909039869.87867701        81966653.234992236        1359752922.6692266     
   441359482.36959410        83554422.707598299        1111806590.3753850     
   443606032.46567678        68875936.228682682        1179335647.0965116     
   446670745.97770017        56924661.136236981        1245006765.2871943     
   450553622.90566492        47700597.430262163        1308819944.9474351     
   455254663.24957108        41203745.110758245        1370775186.0772312     
  -6.1117548750870782E-004   4.8493146311687929E-005   1114344348.7254491     
  -6.4218319306940980E-004   1.1314209642436865E-004   1186734892.6312225     
  -6.8076411037647092E-004   1.5224343077422278E-004   1255867916.5752792     
  -7.2741971272043972E-004   1.6440746429093484E-004   1321743420.5576196     
  -7.8227259834697416E-004   1.4959416489429008E-004   1384361404.5782437     
   1812201913.2731466        162169958.52433759        1345400261.1322434     
   1784553265.9009089        129239602.52582949        1363670316.4009044     
   1758242665.4608452        100769402.96789980        1382498816.4051175     
   1733270111.9529538        76759359.850544453        1401885761.1448829     
   1709635605.3772345        57209473.173765182        1421831150.6202011     
   1361355619.8865356        122288724.37285328        1351294614.3542311     
   1338154495.2111413        96851565.630104542        1370703823.9491050     
   1315956905.7348769        74759524.217789292        1391246560.7469780     
   1294762851.4577432        56012600.135910273        1412922824.7478485     
   1274572332.3797400        40610793.384463429        1435732615.9517183     
   909039869.87867701        81966653.234992236        1359752922.6692266     
   891929360.66425681        64515619.577242762        1379911022.9017649     
   875487874.91592538        49294664.139787227        1401777732.8047464     
   859715412.63367999        36303786.922618806        1425353052.3781724     
   844611973.81752276        25542987.925744057        1450636981.6220427     
   455254663.24957108        41203745.110758245        1370775186.0772312     
   445877862.26025832        32231764.367249802        1391291913.2588828     
   436835573.00398934        24374822.733886868        1414092332.5784242     
   428127795.48076534        17632920.210674778        1439176444.0358553     
   419754529.69058549        12006056.797609136        1466544247.6311777     
  -7.8227259834697416E-004   1.4959416489429008E-004   1384361404.5782437     
  -8.5733846761841884E-004   1.1812323097681632E-004   1404846495.0204585     
  -9.3023116682105752E-004   9.4069669636293962E-005   1428190360.0680091     
  -1.0022345819560663E-003   7.2806916173606836E-005   1454392999.7208955     
  -1.0726309950138790E-003   5.7074308649171003E-005   1483454413.9791200     
   1709635605.3772345        57209473.173765182        1421831150.6202011     
   1659192670.8968980        35331195.690888762        1411801360.7857318     
   1611179252.7142420        21551305.866948605        1406987420.7729230     
   1565595350.8292732        15869803.701966286        1407389330.5817776     
   1522440965.2419870        18286689.195923746        1413007090.2122951     
   1274572332.3797400        40610793.384463429        1435732615.9517183     
   1238875856.8442976        24842802.869742155        1429719809.4355805     
   1205001518.5321183        15148603.099229157        1428424516.8319712     
   1172949317.4431968        11528194.072908878        1431846738.1408916     
   1142719253.5775378        13981575.790797889        1439986473.3623409     
   844611973.81752276        25542987.925744057        1450636981.6220427     
   822238140.34374106        15458139.314216852        1447932549.5040770     
   801079065.01879549        9422484.5321432054        1449447295.3895059     
   781134747.84268749        7436023.5795266032        1455181219.2783291     
   762405188.81541657        9498756.4563670456        1465134321.1705501     
   419754529.69058549        12006056.797609136        1466544247.6311777     
   409279521.39522558        7177205.0243023038        1466439580.9912210     
   399411892.17427808        4372950.1657047272        1470055756.4455268     
   390151642.02774322        3593292.2218155414        1477392773.9940946     
   381498770.95562154        4838231.1926357746        1488450633.6369259     
  -1.0726309950138790E-003   5.7074308649171003E-005   1483454413.9791200     
  -1.2503505556934018E-003  -4.1518986051400949E-006   1485240903.8970127     
  -1.4381582005870666E-003  -9.9005053239924667E-005   1490249900.0000348     
  -1.6374321770279848E-003  -2.3242625772741557E-004   1498481402.2881851     
  -1.8458220300206843E-003  -3.9553982799712045E-004   1509935410.7614644     
   1522440965.2419870        18286689.195923746        1413007090.2122951     
   1477061040.4097233        22404763.640242934        1411078183.7168615     
   1430813478.8779254        23630715.752784789        1413215864.7310891     
   1383698280.6465898        21964545.533530474        1419420133.2549803     
   1335715445.7157178        17406252.982490778        1429690989.2885311     
   1142719253.5775378        13981575.790797889        1439986473.3623409     
   1107793615.5031080        16802923.288945198        1437068445.1711383     
   1072217249.9040315        17455179.038268209        1438424833.1946476     
   1035990156.7803087        15938343.038772762        1444055637.4328678     
   999112336.13193500        12252415.290441096        1453960857.8858006     
   762405188.81541657        9498756.4563670456        1465134321.1705501     
   738527633.79896224        11201515.898384959        1461480231.9876168     
   714216260.43275011        11458214.174541950        1462308387.7244446     
   689471068.71677828        10268851.284833580        1467618788.3810339     
   664292058.65104771        7633427.2292619646        1477411433.9573851     
   381498770.95562154        4838231.1926357746        1488450633.6369259     
   369263095.29728514        5600541.4685669839        1484313544.1662982     
   356810510.46407801        5639821.1615951955        1484866528.3204792     
   344141016.45600158        4956070.2717255056        1490109586.0994725     
   331254613.27305305        3549288.7989497036        1500042717.5032766     
  -1.8458220300206843E-003  -3.9553982799712045E-004   1509935410.7614644     
  -1.9234156392142667E-003  -5.1124397755523943E-004   1505568381.7071784     
  -1.9831892538436386E-003  -5.6789508992785359E-004   1506099254.9827533     
  -2.0243193568300955E-003  -5.6222769114315128E-004   1511528030.5881875     
  -2.0467144462760025E-003  -4.9411024722328402E-004   1521854708.5234828     
   1335715445.7157178        17406252.982490778        1429690989.2885311     
   1289838762.1059580        12374348.937501490        1421157593.3824003     
   1244100842.5208213        7804991.6412583590        1417610300.7061708     
   1198501686.9603097        3698181.0937680006        1419049111.2598474     
   1153041295.4244206        53917.295009672642        1425474025.0434220     
   999112336.13193500        12252415.290441096        1453960857.8858006     
   966247754.98945689        8941366.7261825800        1446013099.4749181     
   933487246.86545122        5977228.2234978080        1442691426.9287968     
   900830811.75991881        3359999.7823918462        1443995840.2474351     
   868278449.67285347        1089681.4028434157        1449926339.4308376     
   664292058.65104771        7633427.2292619646        1477411433.9573851     
   643410958.93258965        5734647.8327538371        1470008840.2012391     
   622599241.22645378        4067141.8106519580        1466872314.9447138     
   601856905.53263688        2630909.1629483402        1468001858.1878076     
   581183951.85114121        1425949.8896470964        1473397469.9305205     
   331254613.27305305        3549288.7989497036        1500042717.5032766     
   321328373.93535608        2754192.2572202086        1493144815.5613587     
   311436825.60382766        2074732.4027193636        1490152964.7539198     
   301579968.27846527        1510909.2354396135        1491067165.0809591     
   291757801.95927477        1062722.7553977519        1495887416.5424709     
  -2.0467144462760025E-003  -4.9411024722328402E-004   1521854708.5234828     
  -2.2469663492478836E-003  -4.3095106238145580E-004   1515421025.5552819     
  -2.4285518651024404E-003  -3.0557058714854757E-004   1512533376.3564169     
  -2.5972928020766332E-003  -1.3720137663349305E-004   1513191760.9268889     
  -2.7445079176324403E-003   1.0257362724764836E-004   1517396179.2666967     
   1153041295.4244206        53917.295009672642        1425474025.0434220     
   1103335977.0824234       -3654974.9398880601        1401872780.3419328     
   1054288938.4118629       -5169601.6033357978        1381354204.9362423     
   1005900179.4127301       -4489962.6953550577        1363918298.8263421     
   958169700.08503675       -1616058.2159094214        1349565062.0122359     
   868278449.67285347        1089681.4028434157        1449926339.4308376     
   827592958.85689569       -2713938.3910932541        1426578435.5763130     
   787401177.79451203       -4871859.0064497590        1407108051.4981055     
   747703106.48569500       -5384080.4432525039        1391515187.1962211     
   708498744.93045056       -4250602.7014738321        1379799842.6706562     
   581183951.85114121        1425949.8896470964        1473397469.9305205     
   551789289.93415165       -1791097.0514525473        1450110908.6854553     
   522723767.85287046       -3911011.2068567872        1431496717.6972325     
   493987385.60730070       -4933792.5765575171        1417554896.9658589     
   465580143.19744420       -4859441.1605443656        1408285446.4913297     
   291757801.95927477        1062722.7553977519        1495887416.5424709     
   275924970.31418461       -886450.92098411918        1472470199.6693585     
   260256708.58694074       -2287058.2045456469        1454520203.5336187     
   244753016.77754715       -3139099.0952737182        1442037428.1352520     
   229413894.88600671       -3442573.5931575298        1435021873.4742529     
  -2.7445079176324403E-003   1.0257362724764836E-004   1517396179.2666967     
  -3.0033667860388611E-003   3.1801484522676372E-004   1493656308.5280335     
  -3.2773692185036987E-003   4.8228362695409716E-004   1476178509.0072653     
  -3.5645479242278240E-003   6.0263149781713860E-004   1464962780.7043974     
  -3.8541514302392488E-003   7.1559059044623932E-004   1460009123.6194298     
   958169700.08503675       -1616058.2159094214        1349565062.0122359     
   922565273.09595466        173743.07502043247        1397380066.9054327     
   883189213.32109916       -10608564.919954836        1451061568.9404285     
   840041520.76047599       -33962982.200835705        1510609568.1172192     
   793122195.41407084       -69889508.767636836        1576024064.4358077     
   708498744.93045056       -4250602.7014738321        1379799842.6706562     
   686919779.68138337       -1370945.2354714572        1425530121.3767262     
   662512089.84293926       -7920369.7340556383        1475931214.3929145     
   635275675.41511536       -23898876.197246850        1531003121.7192159     
   605210536.39791989       -49306464.625000536        1590745843.3556471     
   465580143.19744420       -4859441.1605443656        1408285446.4913297     
   454610403.02644265       -1914798.5180775225        1453031058.5727351     
   441754846.46246505       -5256210.5188632309        1501251802.1325815     
   427013473.50550610       -14883677.162917346        1552947677.1708622     
   410386284.15557140       -30797198.450230151        1608118683.6875858     
   229413894.88600671       -3442573.5931575298        1435021873.4742529     
   225637143.13113266       -1457816.7727960646        1479882878.4934585     
   220917483.17968142       -2616087.2743573636        1527023332.1594255     
   215254915.03164700       -6917385.0978637636        1576443234.4721553     
   208649438.68702981       -14361710.243314400        1628142585.4316373     
  -3.8541514302392488E-003   7.1559059044623932E-004   1460009123.6194298     
  -4.5430692175251934E-003   3.8568049852706317E-004   1506085581.1388984     
  -5.4130692602287096E-003  -5.4644933266989864E-004   1553245804.4734473     
  -6.4684063965897735E-003  -2.0991450336202513E-003   1601489793.6230750     
  -7.7061068149352832E-003  -4.2569427836238590E-003   1650817548.5877848     
  -3.4439026721974723E-004  -1.0331708016592417E-004   655425774.82096815     
  -4.1811792123829552E-004  -8.8693933150299896E-005   769928730.94948637     
  -4.8711321148858848E-004  -5.8599816848786852E-005   884582811.97640574     
  -5.5148050732261472E-004  -1.2753791841305854E-005   999388017.90172660     
  -6.1117548750870782E-004   4.8493146311687929E-005   1114344348.7254491     
  -448758376.54430878       -134627512.96329263        656932193.72735059     
  -447991614.39351267       -125469111.70795032        773162970.49744177     
  -446502877.98099488       -113904129.58020246        887718962.19549429     
  -444292167.30675554       -99932566.580049515        1000600168.8215080     
  -441359482.37079448       -83554422.707490757        1111806590.3754830     
  -891174970.30507421       -267352491.09152228        661451450.44647515     
  -894858331.63323736       -250600754.26980096        780252351.16347623     
  -897097744.43796206       -229035855.70328447        895552556.83799815     
  -897893208.71924794       -202657795.39197260        1007352067.4700410     
  -897244724.47709584       -171466573.33586586        1115650883.0596049     
  -1327249781.2826405       -398174934.38479215        668983544.97834182     
  -1340600151.7195921       -375394927.68564051        791196872.94758880     
  -1351784599.3713884       -345395178.36930394        908083595.90391648     
  -1360803124.2380295       -308175686.43578243        1019643713.8473250     
  -1367655726.3195145       -263736451.88507596        1125877226.7778146     
  -1756982809.4770076       -527094842.84310228        679528477.32295048     
  -1785217074.6525774       -499851631.95546937        805996535.84977996     
  -1810563442.7812746       -462982097.57826161        925312079.39324999     
  -1833021913.8630991       -416486239.71147889        1037475107.9533606     
  -1852592487.8980515       -360364058.35512161        1142485621.5301118     
  -6.1117548750870782E-004   4.8493146311687929E-005   1114344348.7254491     
  -6.4218319306940980E-004   1.1314209642436865E-004   1186734892.6312225     
  -6.8076411037647092E-004   1.5224343077422278E-004   1255867916.5752792     
  -7.2741971272043972E-004   1.6440746429093484E-004   1321743420.5576196     
  -7.8227259834697416E-004   1.4959416489429008E-004   1384361404.5782437     
  -441359482.37079448       -83554422.707490757        1111806590.3754830     
  -443606032.46694702       -68875936.228484794        1179335647.0966091     
  -446670745.97905320       -56924661.135990247        1245006765.2872946     
  -450553622.90711176       -47700597.430004671        1308819944.9475384     
  -455254663.25112438       -41203745.110531881        1370775186.0773427     
  -897244724.47709584       -171466573.33586586        1115650883.0596049     
  -897739020.58001053       -140909959.15111056        1177363928.6108136     
  -899869643.51482379       -115807767.73935053        1238618617.0628576     
  -903636593.28153598       -96159999.100585938        1299414948.4157369     
  -909039869.88014698       -81966653.234818071        1359752922.6694510     
  -1367655726.3195145       -263736451.88507596        1125877226.7778146     
  -1362398964.3398325       -216102068.76776332        1180819737.1738365     
  -1359596692.6079946       -176649319.80993170        1236703471.9019699     
  -1359248911.1239998       -145378205.01157916        1293528430.9622142     
  -1361355619.8878496       -122288724.37270635        1351294614.3545692     
  -1852592487.8980515       -360364058.35512161        1142485621.5301118     
  -1837585863.7464125       -294452265.07844502        1189703072.7856777     
  -1825851893.2585635       -239449317.34773219        1239261329.8046308     
  -1817390576.4345036       -195355215.16298449        1291160392.5869703     
  -1812201913.2742333       -162169958.52420187        1345400261.1326966     
  -7.8227259834697416E-004   1.4959416489429008E-004   1384361404.5782437     
  -8.5733846761841884E-004   1.1812323097681632E-004   1404846495.0204585     
  -9.3023116682105752E-004   9.4069669636293962E-005   1428190360.0680091     
  -1.0022345819560663E-003   7.2806916173606836E-005   1454392999.7208955     
  -1.0726309950138790E-003   5.7074308649171003E-005   1483454413.9791200     
  -455254663.25112438       -41203745.110531881        1370775186.0773427     
  -445877862.26195705       -32231764.367087945        1391291913.2590227     
  -436835573.00583500       -24374822.733796284        1414092332.5785961     
  -428127795.48275965       -17632920.210660174        1439176444.0360644     
  -419754529.69272989       -12006056.797674149        1466544247.6314278     
  -909039869.88014698       -81966653.234818071        1359752922.6694510     
  -891929360.66585612       -64515619.577133715        1379911022.9020400     
  -875487874.91765928       -49294664.139762580        1401777732.8050814     
  -859715412.63555598       -36303786.922702402        1425353052.3785758     
  -844611973.81954622       -25542987.925955981        1450636981.6225214     
  -1361355619.8878496       -122288724.37270635        1351294614.3545692     
  -1338154495.2125564       -96851565.630020678        1370703823.9495122     
  -1315956905.7364030       -74759524.217804253        1391246560.7474654     
  -1294762851.4593914       -56012600.136059999        1412922824.7484300     
  -1274572332.3815207       -40610793.384783089        1435732615.9524045     
  -1812201913.2742333       -162169958.52420187        1345400261.1326966     
  -1784553265.9020543       -129239602.52574551        1363670316.4014375     
  -1758242665.4620669       -100769402.96792322        1382498816.4057474     
  -1733270111.9542665       -76759359.850726724        1401885761.1456265     
  -1709635605.3786557       -57209473.174160719        1421831150.6210737     
  -1.0726309950138790E-003   5.7074308649171003E-005   1483454413.9791200     
  -1.2503505556934018E-003  -4.1518986051400949E-006   1485240903.8970127     
  -1.4381582005870666E-003  -9.9005053239924667E-005   1490249900.0000348     
  -1.6374321770279848E-003  -2.3242625772741557E-004   1498481402.2881851     
  -1.8458220300206843E-003  -3.9553982799712045E-004   1509935410.7614644     
  -419754529.69272989       -12006056.797674149        1466544247.6314278     
  -409279521.39771980       -7177205.0245359689        1466439580.9914970     
  -399411892.17714256       -4372950.1661738753        1470055756.4458444     
  -390151642.03099513       -3593292.2225771993        1477392773.9944682     
  -381498770.95927858       -4838231.1937512159        1488450633.6373701     
  -844611973.81954622       -25542987.925955981        1450636981.6225214     
  -822238140.34606874       -15458139.314635575        1447932549.5046117     
  -801079065.02144396       -9422484.5328229368        1449447295.3901269     
  -781134747.84567142       -7436023.5805184245        1455181219.2790678     
  -762405188.81875122       -9498756.4577213526        1465134321.1714323     
  -1274572332.3815207       -40610793.384783089        1435732615.9524045     
  -1238875856.8462973       -24842802.870298743        1429719809.4363568     
  -1205001518.5343444       -15148603.100054979        1428424516.8328819     
  -1172949317.4456670       -11528194.074058235        1431846738.1419799     
  -1142719253.5802608       -13981575.792300463        1439986473.3636515     
  -1709635605.3786557       -57209473.174160719        1421831150.6210737     
  -1659192670.8984015       -35331195.691520989        1411801360.7867303     
  -1611179252.7158437       -21551305.867864311        1406987420.7741077     
  -1565595350.8309784       -15869803.703186989        1407389330.5832071     
  -1522440965.2438087       -18286689.197492778        1413007090.2140269     
  -1.8458220300206843E-003  -3.9553982799712045E-004   1509935410.7614644     
  -1.9234156392142667E-003  -5.1124397755523943E-004   1505568381.7071784     
  -1.9831892538436386E-003  -5.6789508992785359E-004   1506099254.9827533     
  -2.0243193568300955E-003  -5.6222769114315128E-004   1511528030.5881875     
  -2.0467144462760025E-003  -4.9411024722328402E-004   1521854708.5234828     
  -381498770.95927858       -4838231.1937512159        1488450633.6373701     
  -369263095.30109328       -5600541.4699300826        1484313544.1668901     
  -356810510.46799821       -5639821.1630785018        1484866528.3212290     
  -344141016.45999575       -4956070.2732020617        1490109586.1003847     
  -331254613.27708125       -3549288.8002855629        1500042717.5043602     
  -762405188.81875122       -9498756.4577213526        1465134321.1714323     
  -738527633.80242276       -11201515.899999708        1461480231.9887979     
  -714216260.43629336       -11458214.176273376        1462308387.7259402     
  -689471068.72036648       -10268851.286555082        1467618788.3828568     
  -664292058.65463793       -7633427.2308336496        1477411433.9595497     
  -1142719253.5802608       -13981575.792300463        1439986473.3636515     
  -1107793615.5059109       -16802923.290713787        1437068445.1729012     
  -1072217249.9068694       -17455179.040155709        1438424833.1968842     
  -1035990156.7831368       -15938343.040628076        1444055637.4356027     
  -999112336.13471532       -12252415.292137980        1453960857.8890541     
  -1522440965.2438087       -18286689.197492778        1413007090.2140269     
  -1477061040.4115586       -22404763.642078340        1411078183.7192011     
  -1430813478.8797235       -23630715.754717290        1413215864.7340667     
  -1383698280.6483109       -21964545.535429239        1419420133.2586231     
  -1335715445.7173152       -17406252.984198987        1429690989.2928712     
  -2.0467144462760025E-003  -4.9411024722328402E-004   1521854708.5234828     
  -2.2469663492478836E-003  -4.3095106238145580E-004   1515421025.5552819     
  -2.4285518651024404E-003  -3.0557058714854757E-004   1512533376.3564169     
  -2.5972928020766332E-003  -1.3720137663349305E-004   1513191760.9268889     
  -2.7445079176324403E-003   1.0257362724764836E-004   1517396179.2666967     
  -331254613.27708125       -3549288.8002855629        1500042717.5043602     
  -321328373.93976563       -2754192.2584048659        1493144815.5626183     
  -311436825.60857993       -2074732.4036244303        1490152964.7553632     
  -301579968.28352404       -1510909.2359448671        1491067165.0825970     
  -291757801.96460068       -1062722.7553701550        1495887416.5443182     
  -664292058.65463793       -7633427.2308336496        1477411433.9595497     
  -643410958.93652022       -5734647.8341544867        1470008840.2037630     
  -622599241.23067939       -4067141.8117310405        1466872314.9476159     
  -601856905.53711545       -2630909.1635653079        1468001858.1911039     
  -581183951.85582662       -1425949.8896505237        1473397469.9342318     
  -999112336.13471532       -12252415.292137980        1453960857.8890541     
  -966247754.99250627       -8941366.7276661396        1446013099.4787190     
  -933487246.86872482       -5977228.2246197462        1442691426.9331708     
  -900830811.76336300       -3359999.7829725742        1443995840.2524118     
  -868278449.67642760       -1089681.4027450085        1449926339.4364398     
  -1335715445.7173152       -17406252.984198987        1429690989.2928712     
  -1289838762.1077311       -12374348.938961089        1421157593.3874822     
  -1244100842.5227177       -7804991.6422927976        1417610300.7120302     
  -1198501686.9622724       -3698181.0941867232        1419049111.2665205     
  -1153041295.4263995       -53917.294650733471        1425474025.0509481     
  -2.7445079176324403E-003   1.0257362724764836E-004   1517396179.2666967     
  -3.0033667860388611E-003   3.1801484522676372E-004   1493656308.5280335     
  -3.2773692185036987E-003   4.8228362695409716E-004   1476178509.0072653     
  -3.5645479242278240E-003   6.0263149781713860E-004   1464962780.7043974     
  -3.8541514302392488E-003   7.1559059044623932E-004   1460009123.6194298     
  -291757801.96460068       -1062722.7553701550        1495887416.5443182     
  -275924970.31999409        886450.92152568698        1472470199.6713541     
  -260256708.59324443        2287058.2055651397        1454520203.5357711     
  -244753016.78435868        3139099.0967261195        1442037428.1375670     
  -229413894.89333102        3442573.5950269997        1435021873.4767447     
  -581183951.85582662       -1425949.8896505237        1473397469.9342318     
  -551789289.93926358        1791097.0520630479        1450110908.6894815     
  -522723767.85840827        3911011.2080823183        1431496717.7015915     
  -493987385.61325836        4933792.5784178972        1417554896.9705625     
  -465580143.20381922        4859441.1630516350        1408285446.4963937     
  -868278449.67642760       -1089681.4027450085        1449926339.4364398     
  -827592958.86081827        2713938.3919131756        1426578435.5824158     
  -787401177.79876471        4871859.0080516338        1407108051.5047283     
  -747703106.49026680        5384080.4456704259        1391515187.2033844     
  -708498744.93532562        4250602.7047691643        1379799842.6783817     
  -1153041295.4263995       -53917.294650733471        1425474025.0509481     
  -1103335977.0846574        3654974.9410713911        1401872780.3501518     
  -1054288938.4143173        5169601.6054555178        1381354204.9451814     
  -1005900179.4153780        4489962.6985021830        1363918298.8360286     
  -958169700.08785105        1616058.2201743126        1349565062.0227046     
  -3.8541514302392488E-003   7.1559059044623932E-004   1460009123.6194298     
  -4.5430692175251934E-003   3.8568049852706317E-004   1506085581.1388984     
  -5.4130692602287096E-003  -5.4644933266989864E-004   1553245804.4734473     
  -6.4684063965897735E-003  -2.0991450336202513E-003   1601489793.6230750     
  -7.7061068149352832E-003  -4.2569427836238590E-003   1650817548.5877848     
  -229413894.89333102        3442573.5950269997        1435021873.4767447     
  -225637143.13968316        1457816.7745191604        1479882878.4958019     
  -220917483.18966678        2616087.2752382457        1527023332.1616163     
  -215254915.04328713        6917385.0971718878        1576443234.4741867     
  -208649438.70053768        14361710.240337864        1628142585.4335213     
  -465580143.20381922        4859441.1630516350        1408285446.4963937     
  -454610403.03390282        1914798.5209337473        1453031058.5776842     
  -441754846.47106773        5256210.5218762755        1501251802.1374125     
  -427013473.51531303        14883677.165884286        1552947677.1755743     
  -410386284.16664219        30797198.452950776        1608118683.6921732     
  -708498744.93532562        4250602.7047691643        1379799842.6783817     
  -686919779.68720305        1370945.2396249771        1425530121.3845479     
  -662512089.84961033        7920369.7393763661        1475931214.4008286     
  -635275675.42254806        23898876.204035550        1531003121.7272232     
  -605210536.40601611        49306464.633582830        1590745843.3637278     
  -958169700.08785105        1616058.2201743126        1349565062.0227046     
  -922565273.09958649       -173743.06941539049        1397380066.9163907     
  -883189213.32530260        10608564.927724957        1451061568.9518669     
  -840041520.76499569        33962982.211609662        1510609568.1291339     
  -793122195.41866684        69889508.782231957        1576024064.4481978     
  -1756982809.4770076       -527094842.84310228        679528477.32295048     
  -1785217074.6525774       -499851631.95546937        805996535.84977996     
  -1810563442.7812746       -462982097.57826161        925312079.39324999     
  -1833021913.8630991       -416486239.71147889        1037475107.9533606     
  -1852592487.8980515       -360364058.35512161        1142485621.5301118     
  -2202640409.7848411       -660792122.93545234        696143249.11210978     
  -2239595578.6581016       -613759280.70640397        813619412.37167048     
  -2274535741.2632661       -560009750.91703510        926972865.15296352     
  -2307460897.6003346       -499543533.56734556        1036203607.4559885     
  -2338371047.6693058       -432360628.65733546        1141311639.2807455     
  -2686488937.1028066       -805946681.13084197        721884861.97762799     
  -2723508425.3734961       -736527232.27029943        829350757.39468122     
  -2759385798.1548662       -663300731.77869093        935723746.83855820     
  -2794121055.4469166       -586267179.65601611        1041003830.3092583     
  -2827714197.2496476       -505426575.90227562        1145191007.8067825     
  -3208528391.4309034       -962558517.42927098        756753315.91950524     
  -3236955614.7987614       -868155486.64715624        853190570.91881180     
  -3265113613.4560757       -772855040.16322947        951564724.45003366     
  -3293002387.4028468       -676657177.97749138        1051875776.5131705     
  -3320621936.6390724       -579561900.08994019        1154123727.1082222     
  -3768758772.7691317       -1130627631.8307395        800748610.93774152     
  -3779937146.9338956       -1008644043.8369739        885138852.94406247     
  -3791719187.1668930       -888672676.07065094        974495797.98739004     
  -3804104893.4681225       -770713528.53176963        1068819446.0677245     
  -3817094265.8375850       -654766601.22033191        1168109797.1850650     
  -1852592487.8980515       -360364058.35512161        1142485621.5301118     
  -1837585863.7464125       -294452265.07844502        1189703072.7856777     
  -1825851893.2585635       -239449317.34773219        1239261329.8046308     
  -1817390576.4345036       -195355215.16298449        1291160392.5869703     
  -1812201913.2742333       -162169958.52420187        1345400261.1326966     
  -2338371047.6693058       -432360628.65733546        1141311639.2807455     
  -2314994906.0760717       -351055473.32742333        1182466929.9487858     
  -2295060344.6490159       -281222251.88477474        1224167190.8731511     
  -2278567363.3881402       -222860964.32938957        1266412422.0538409     
  -2265515962.2934437       -175971610.66127086        1309202623.4908564     
  -2827714197.2496476       -505426575.90227562        1145191007.8067825     
  -2801099496.8064208       -410267346.09660864        1180087056.9678421     
  -2778095303.0317645       -327143138.51950550        1213732240.8781645     
  -2758701615.9256768       -256053953.17096615        1246126559.5377510     
  -2742918435.4881587       -196999790.05099058        1277270012.9466000     
  -3320621936.6390724       -579561900.08994019        1154123727.1082222     
  -3295899635.9374604       -472087883.38600075        1182563453.8428462     
  -3274956768.4068084       -377211977.25192606        1207956479.8196721     
  -3257793334.0471134       -294934181.68771076        1230302805.0386989     
  -3244409332.8583784       -225254496.69336128        1249602429.4999282     
  -3817094265.8375850       -654766601.22033191        1168109797.1850650     
  -3799395323.4691911       -536517085.19560146        1189896120.5737989     
  -3785644740.7741475       -431428768.08203399        1206839907.6976728     
  -3775842517.7524519       -339501649.87962794        1218941158.5566862     
  -3769988654.4041042       -260735730.58838582        1226199873.1508396     
  -1812201913.2742333       -162169958.52420187        1345400261.1326966     
  -1784553265.9020543       -129239602.52574551        1363670316.4014375     
  -1758242665.4620669       -100769402.96792322        1382498816.4057474     
  -1733270111.9542665       -76759359.850726724        1401885761.1456265     
  -1709635605.3786557       -57209473.174160719        1421831150.6210737     
  -2265515962.2934437       -175971610.66127086        1309202623.4908564     
  -2229622601.2144732       -131759782.18888569        1317914253.8363769     
  -2196571251.0842819       -97021323.545758724        1329806110.1883373     
  -2166361911.9028664       -71756234.731888056        1344878192.5467398     
  -2138994583.6702292       -55964515.747276068        1363130500.9115829     
  -2742918435.4881587       -196999790.05099058        1277270012.9466000     
  -2691289557.0713339       -139259248.01535583        1274668593.6828794     
  -2644006653.6198750       -96005289.197609186        1277869181.6964724     
  -2601069725.1337810       -67237913.597746253        1286871776.9873774     
  -2562478771.6130548       -52957121.215770364        1301676379.5555973     
  -3244409332.8583784       -225254496.69336128        1249602429.4999282     
  -3169554133.4726367       -151738000.00516129        1233933335.9409468     
  -3100548873.0688486       -97721299.923474550        1226688030.9301503     
  -3037393551.6470132       -63204396.448298573        1227866514.4675398     
  -2980088169.2071328       -48187289.579637766        1237468786.5531144     
  -3769988654.4041042       -260735730.58838582        1226199873.1508396     
  -3664416330.4183793       -169196038.15829551        1195708480.6105778     
  -3566197909.4311986       -102169355.72334874        1176262657.8893738     
  -3475333391.4425602       -59655683.283544302        1167862404.9872270     
  -3391822776.4524627       -41655020.838882446        1170507721.9041367     
  -1709635605.3786557       -57209473.174160719        1421831150.6210737     
  -1659192670.8984015       -35331195.691520989        1411801360.7867303     
  -1611179252.7158437       -21551305.867864311        1406987420.7741077     
  -1565595350.8309784       -15869803.703186989        1407389330.5832071     
  -1522440965.2438087       -18286689.197492778        1413007090.2140269     
  -2138994583.6702292       -55964515.747276068        1363130500.9115829     
  -2076215410.8001652       -36505634.761413336        1352529992.8146353     
  -2015180858.6670213       -22862156.231953144        1346761371.3104610     
  -1955890927.2707980       -15034080.158895493        1345824636.3990617     
  -1898345616.6114969       -13021406.542240858        1349719788.0804350     
  -2562478771.6130548       -52957121.215770364        1301676379.5555973     
  -2488460398.1501698       -36246748.065775037        1291304198.0169466     
  -2415501749.8634334       -23068792.169607162        1285379939.8421221     
  -2343602826.7528472       -13423253.527269602        1283903605.0311253     
  -2272763628.8184071       -7310132.1387587786        1286875193.5839550     
  -2980088169.2071328       -48187289.579637766        1237468786.5531144     
  -2895927632.9484215       -34554535.604612231        1228123976.3936639     
  -2812141926.3050852       -22171213.680836558        1222843126.3690913     
  -2728731049.2771239       -11037323.808313608        1221626236.4793987     
  -2645695001.8645396       -1152865.9870409966        1224473306.7245843     
  -3391822776.4524627       -41655020.838882446        1170507721.9041367     
  -3298617115.1949167       -31428997.377921581        1162989327.9447868     
  -3205101387.9919724       -20169420.765634894        1159150930.8913684     
  -3111275594.8436317       -7876291.0020259619        1158992530.7438822     
  -3017139735.7498932        5450391.9129086733        1162514127.5023277     
  -1522440965.2438087       -18286689.197492778        1413007090.2140269     
  -1477061040.4115586       -22404763.642078340        1411078183.7192011     
  -1430813478.8797235       -23630715.754717290        1413215864.7340667     
  -1383698280.6483109       -21964545.535429239        1419420133.2586231     
  -1335715445.7173152       -17406252.984198987        1429690989.2928712     
  -1898345616.6114969       -13021406.542240858        1349719788.0804350     
  -1841167695.4519920       -13567101.216063619        1348952331.1414914     
  -1783859319.3405356       -13677946.050046802        1352369273.1513388     
  -1726420488.2771287       -13353941.044191718        1359970614.1099737     
  -1668851202.2617674       -12595086.198496938        1371756354.0173984     
  -2272763628.8184071       -7310132.1387587786        1286875193.5839550     
  -2203451107.2199416       -4182465.8083075285        1286409140.8286602     
  -2134745312.4171531       -3077222.1301182508        1290245298.4612510     
  -2066646244.4100420       -3994401.1041829586        1298383666.4817300     
  -1999153903.1986115       -6934002.7305124998        1310824244.8900976     
  -2645695001.8645396       -1152865.9870409966        1224473306.7245843     
  -2563911275.7154045        5749142.5811889172        1223448612.7807047     
  -2483471458.1095710        8171456.0050770044        1226843940.6638074     
  -2404375549.0470514        6114074.2845921516        1234659290.3738978     
  -2326623548.5278335       -423002.58024120331        1246894661.9109731     
  -3017139735.7498932        5450391.9129086733        1162514127.5023277     
  -2922548200.9383755        16227723.952446222        1160070746.9976258     
  -2830037756.4177976        20068088.355518937        1162165199.7590058     
  -2739608402.1881514        16971485.122149706        1168797485.7864726     
  -2651260138.2494464        6937914.2523124218        1179967605.0800209     
  -1335715445.7173152       -17406252.984198987        1429690989.2928712     
  -1289838762.1077311       -12374348.938961089        1421157593.3874822     
  -1244100842.5227177       -7804991.6422927976        1417610300.7120302     
  -1198501686.9622724       -3698181.0941867232        1419049111.2665205     
  -1153041295.4263995       -53917.294650733471        1425474025.0509481     
  -1668851202.2617674       -12595086.198496938        1371756354.0173984     
  -1611203754.6073544       -11530489.849119246        1364164937.3900516     
  -1553500634.6442611       -10280319.137481034        1361557383.9586041     
  -1495741842.3724856       -8844574.0635698438        1363933693.7230542     
  -1437927377.7920284       -7223254.6273785233        1371293866.6834071     
  -1999153903.1986115       -6934002.7305124998        1310824244.8900976     
  -1929742091.5966234       -9838634.1061836481        1304401649.9295883     
  -1860080171.3527055       -11909570.008743048        1302960678.1309381     
  -1790168142.4668558       -13146810.438196659        1306501329.4941452     
  -1720006004.9390666       -13550355.394529104        1315023604.0192115     
  -2326623548.5278335       -423002.58024120331        1246894661.9109731     
  -2245453773.0755358       -7298781.7101397514        1241867731.0060937     
  -2163839452.6480527       -12692744.256079078        1241820183.2290347     
  -2081780587.2453811       -16604890.218068480        1246752018.5797930     
  -1999277176.8675280       -19035219.596106529        1256663237.0583711     
  -2651260138.2494464        6937914.2523124218        1179967605.0800209     
  -2558338799.0440912       -3910932.6609789133        1176563180.6195664     
  -2464778478.5302963       -12629841.879474163        1178135899.2528937     
  -2370579176.7080688       -19218813.403195500        1184685760.9799945     
  -2275740893.5773993       -23677847.232103586        1196212765.8008783     
  -1153041295.4263995       -53917.294650733471        1425474025.0509481     
  -1103335977.0846574        3654974.9410713911        1401872780.3501518     
  -1054288938.4143173        5169601.6054555178        1381354204.9451814     
  -1005900179.4153780        4489962.6985021830        1363918298.8360286     
  -958169700.08785105        1616058.2201743126        1349565062.0227046     
  -1437927377.7920284       -7223254.6273785233        1371293866.6834071     
  -1379530675.9290462       -5450683.7205406427        1348733343.9502184     
  -1321205087.9444811       -3915159.0750886798        1330222674.9365182     
  -1262950613.8383355       -2616680.6910324097        1315761859.6423051     
  -1204767253.6106060       -1555248.5683701634        1305350898.0675831     
  -1720006004.9390666       -13550355.394529104        1315023604.0192115     
  -1650154535.4872365       -12885090.596294761        1294188830.0121164     
  -1579787014.1208332       -10499652.749499321        1278371094.1481738     
  -1508903440.8398628       -6394041.8541378975        1267570396.4273858     
  -1437503815.6443248       -568257.91022044420        1261786736.8497496     
  -1999277176.8675280       -19035219.596106529        1256663237.0583711     
  -1915207555.7592201       -18648245.686181068        1238239238.5358505     
  -1830034716.9433668       -14583879.417757869        1225799462.5801506     
  -1743758660.4199553       -6842120.7908129692        1219343909.1912651     
  -1656379386.1889889        4577030.1946473122        1218872578.3692024     
  -2275740893.5773993       -23677847.232103586        1196212765.8008783     
  -2174689736.7450128       -22740148.990223289        1180884569.5214176     
  -2071948196.4120865       -16167839.079878807        1172507780.2324393     
  -1967516272.5786164       -3960917.5010561943        1171082397.9339504     
  -1861393965.2446065        13880615.746239066        1176608422.6259410     
  -958169700.08785105        1616058.2201743126        1349565062.0227046     
  -922565273.09958649       -173743.06941539049        1397380066.9163907     
  -883189213.32530260        10608564.927724957        1451061568.9518669     
  -840041520.76499569        33962982.211609662        1510609568.1291339     
  -793122195.41866684        69889508.782231957        1576024064.4481978     
  -1204767253.6106060       -1555248.5683701634        1305350898.0675831     
  -1157627504.8592083       -6329466.9215019345        1358203155.0036104     
  -1112079873.2400849       -16410742.382229626        1414750950.8610752     
  -1068124358.7532382       -31799074.950547040        1474994285.6399810     
  -1025760961.3986800       -52494464.626471162        1538933159.3403218     
  -1437503815.6443248       -568257.91022044420        1261786736.8497496     
  -1385031482.9022181       -10187714.658611655        1313418537.5901005     
  -1339515017.2106981       -42993394.908946753        1366574919.0315366     
  -1300954418.5697517       -98985298.661195099        1421255881.1740580     
  -1269349686.9793782       -178163425.91537303        1477461424.0176709     
  -1656379386.1889889        4577030.1946473122        1218872578.3692024     
  -1604777207.2286212       -11748486.280745983        1263026214.6758583     
  -1565494645.2371264       -69139392.652391732        1306533473.4632490     
  -1538531700.2145169       -167595688.92031687        1349394354.7313740     
  -1523888372.1607821       -307117375.08448672        1391608858.4802325     
  -1861393965.2446065        13880615.746239066        1176608422.6259410     
  -1816864677.8384016       -11011781.787866831        1207026186.2608900     
  -1790018757.3193886       -94848735.612609386        1234626614.1562195     
  -1780856203.6875432       -237630245.72790933        1259409706.3119273     
  -1789377016.9428759       -439356312.13381398        1281375462.7280200     
  -3768758772.7691317       -1130627631.8307395        800748610.93774152     
  -3779937146.9338956       -1008644043.8369739        885138852.94406247     
  -3791719187.1668930       -888672676.07065094        974495797.98739004     
  -3804104893.4681225       -770713528.53176963        1068819446.0677245     
  -3817094265.8375850       -654766601.22033191        1168109797.1850650     
  -4340072992.4806719       -1302021897.7442017        859020724.51089704     
  -4335765191.8230915       -1125687399.6167555        942723620.06290019     
  -4332591570.6403818       -953133499.73888087        1020829737.0257740     
  -4330552128.9325447       -784360198.11057842        1093339075.3995187     
  -4329646866.6995802       -619367494.73184896        1160251635.1841338     
  -4895363961.9287052       -1468609188.5786116        936719634.11753225     
  -4905751362.5234547       -1246978193.1398864        1019116250.9074720     
  -4917803455.9997120       -1030896173.9728630        1085352607.4821465     
  -4931520242.3574829       -820363131.07754183        1135428703.8415558     
  -4946901721.5967627       -615379064.45392215        1169344539.9856999     
  -5434631681.1132307       -1630389504.3339691        1033845339.7576468     
  -5489895659.0349817       -1372516424.4063671        1114316745.4777777     
  -5547354843.2448835       -1121960698.7725971        1168064409.3565078     
  -5607009233.7429352       -878722327.43265951        1195088331.3938363     
  -5668858830.5291357       -642801310.38655305        1195388511.5897641     
  -5957876150.0342484       -1787362845.0102744        1150397841.4312408     
  -6088198081.3576775       -1502302093.4161980        1228325103.7738175     
  -6221245732.3758945       -1226327074.1380839        1268965142.6488576     
  -6357019103.0889006       -959437787.17593062        1272317958.0563600     
  -6495518193.4966965       -701634232.52973938        1238383549.9963255     
  -3817094265.8375850       -654766601.22033191        1168109797.1850650     
  -3799395323.4691911       -536517085.19560146        1189896120.5737989     
  -3785644740.7741475       -431428768.08203399        1206839907.6976728     
  -3775842517.7524519       -339501649.87962794        1218941158.5566862     
  -3769988654.4041042       -260735730.58838582        1226199873.1508396     
  -4329646866.6995802       -619367494.73184896        1160251635.1841338     
  -4299006486.3735037       -463385634.83849037        1142320160.7649367     
  -4279054813.7681417       -343032800.68084490        1130478710.9160569     
  -4269791848.8834958       -258308992.25891399        1124727285.6374936     
  -4271217591.7195606       -209214209.57269287        1125065884.9292476     
  -4946901721.5967627       -615379064.45392215        1169344539.9856999     
  -4872084015.2124987       -412294094.26178384        1103831528.3699796     
  -4814695364.5963135       -267305976.62990975        1055341102.1597533     
  -4774735769.7482100       -180414711.55829859        1023873261.3550205     
  -4752205230.6681824       -151620299.04695082        1009428005.9557821     
  -5668858830.5291357       -642801310.38655305        1195388511.5897641     
  -5518627909.9861784       -383242463.46548390        1074430223.3889275     
  -5392566393.2586641       -204248295.92922783        981427081.42876184     
  -5290674280.3465977       -105818807.77778697        916379085.70926774     
  -5212951571.2499695       -87953999.011156797        879286236.23044479     
  -6495518193.4966965       -701634232.52973938        1238383549.9963255     
  -6238638170.6945391       -376230742.44958663        1054116245.8217797     
  -6012667899.7551918       -153859758.57879829        908736648.72308314     
  -5817607380.6786528       -34521280.917374134        802244758.70023394     
  -5653456613.4649258       -18215309.465316057        734640575.75323284     
  -3769988654.4041042       -260735730.58838582        1226199873.1508396     
  -3664416330.4183793       -169196038.15829551        1195708480.6105778     
  -3566197909.4311986       -102169355.72334874        1176262657.8893738     
  -3475333391.4425602       -59655683.283544302        1167862404.9872270     
  -3391822776.4524627       -41655020.838882446        1170507721.9041367     
  -4271217591.7195606       -209214209.57269287        1125065884.9292476     
  -4148313522.2184844       -145614097.28617239        1093681758.7750659     
  -4029749501.5466995       -96480814.430625677        1071031770.1544607     
  -3915525529.7042079       -61814361.006053686        1057115919.0674299     
  -3805641606.6910086       -41614737.012456894        1051934205.5139742     
  -4752205230.6681824       -151620299.04695082        1009428005.9557821     
  -4618573507.8959894       -117940994.57726884        980667309.38514066     
  -4486267979.7838402       -88682338.974393368        958329318.06259155     
  -4355288646.3317289       -63844332.238326788        942414031.98813677     
  -4225635507.5396624       -43426974.369063377        932921451.16177380     
  -5212951571.2499695       -87953999.011156797        879286236.23044479     
  -5075196287.4508944       -86176730.031586885        856665132.44080067     
  -4935753344.1426105       -78773929.354651690        838155301.61376715     
  -4794622741.3251209       -65745596.980359793        823756743.74934542     
  -4651804478.9984179       -47091732.908700228        813469458.84753370     
  -5653456613.4649258       -18215309.465316057        734640575.75323284     
  -5518181860.8832016       -50321303.649122000        721675227.94204521     
  -5378205594.6230183       -66755585.571399212        710509720.80798650     
  -5233527814.6843815       -67518155.232153416        701144054.35105658     
  -5084148521.0672798       -52609012.631370783        693578228.57125580     
  -3391822776.4524627       -41655020.838882446        1170507721.9041367     
  -3298617115.1949167       -31428997.377921581        1162989327.9447868     
  -3205101387.9919724       -20169420.765634894        1159150930.8913684     
  -3111275594.8436317       -7876291.0020259619        1158992530.7438822     
  -3017139735.7498932        5450391.9129086733        1162514127.5023277     
  -3805641606.6910086       -41614737.012456894        1051934205.5139742     
  -3700525985.0138278       -29511894.736597538        1043087346.6786863     
  -3595465671.4196167       -17593412.737302065        1039288886.9183618     
  -3490460665.9083781       -5859291.0145845413        1040538826.2330031     
  -3385510968.4801078        5690470.4315736294        1046837164.6226102     
  -4225635507.5396624       -43426974.369063377        932921451.16177380     
  -4104700204.9598947       -28274397.133418560        922319857.75078499     
  -3984185584.4914656       -14524093.602234602        918135065.58379149     
  -3864091646.1343756       -2176063.7755160332        920367074.66079867     
  -3744418389.8886218        8769692.3467471600        929015884.98180103     
  -4651804478.9984179       -47091732.908700228        813469458.84753370     
  -4511139775.0331116       -27716504.568383932        800686861.16108108     
  -4371261127.2075176       -10961463.360431194        795689466.88766003     
  -4232168535.5216260        3173390.7151803970        798477276.02726674     
  -4093861999.9754415        14688057.658429623        809050288.57990515     
  -5084148521.0672798       -52609012.631370783        693578228.57125580     
  -4919844695.2334881       -27838217.041498661        678188356.90957761     
  -4756692299.5677710       -6905522.0118770599        671952090.82996309     
  -4594691334.0701303        10189072.457490683        674869430.33241010     
  -4433841798.7405596        23445566.366622210        686940375.41692066     
  -3017139735.7498932        5450391.9129086733        1162514127.5023277     
  -2922548200.9383755        16227723.952446222        1160070746.9976258     
  -2830037756.4177976        20068088.355518937        1162165199.7590058     
  -2739608402.1881514        16971485.122149706        1168797485.7864726     
  -2651260138.2494464        6937914.2523124218        1179967605.0800209     
  -3385510968.4801078        5690470.4315736294        1046837164.6226102     
  -3281071484.5837765        14479417.341326475        1045000699.3521789     
  -3178296088.5232592        17721404.798368692        1046660604.3723948     
  -3077184780.2985525        15416432.802708626        1051816879.6832566     
  -2977737559.9096556        7564501.3543463945        1060469525.2847626     
  -3744418389.8886218        8769692.3467471600        929015884.98180103     
  -3633106565.4087281        14677571.576342106        928272837.80995476     
  -3523041826.3095202        16428499.536980629        929984697.95331752     
  -3414224172.5910001        14022476.228662014        934151465.41188681     
  -3306653604.2531686        7459501.6513826847        940773140.18566632     
  -4093861999.9754415        14688057.658429623        809050288.57990515     
  -3978653443.4132323        16822186.657496691        809887162.37095428     
  -3864274969.7765908        16189372.571349621        812137480.50177395     
  -3750726579.0655103        12789615.399995804        815801242.97236490     
  -3638008271.2799883        6622915.1434352398        820878449.78272581     
  -4433841798.7405596        23445566.366622210        686940375.41692066     
  -4317712118.5972910        20913262.584781647        689843673.03517842     
  -4201995518.9244628        17004023.901478291        693118952.01776850     
  -4086691999.7220726        11717850.316710949        696766212.36469197     
  -3971801560.9901214        5054741.8304836750        700785454.07594645     
  -2651260138.2494464        6937914.2523124218        1179967605.0800209     
  -2558338799.0440912       -3910932.6609789133        1176563180.6195664     
  -2464778478.5302963       -12629841.879474163        1178135899.2528937     
  -2370579176.7080688       -19218813.403195500        1184685760.9799945     
  -2275740893.5773993       -23677847.232103586        1196212765.8008783     
  -2977737559.9096556        7564501.3543463945        1060469525.2847626     
  -2871117345.7503233       -760911.19111394882        1056545768.1058052     
  -2764564063.0265245       -9309428.5216857195        1057600132.9435507     
  -2658077711.7382703       -18081050.637402534        1063632619.7980001     
  -2551658291.8855538       -27075777.538239121        1074643228.6691532     
  -3306653604.2531686        7459501.6513826847        940773140.18566632     
  -3186331718.2172160        1658362.5505664349        935506485.42023027     
  -3066782676.3607755       -6718923.8152973652        935218931.59442341     
  -2948006478.6838546       -17672357.446221113        939910478.70824277     
  -2830003125.1864481       -31201938.342198133        949581126.76169276     
  -3638008271.2799883        6622915.1434352398        820878449.78272581     
  -3503981916.4447737        3346888.5640454292        813445332.56283975     
  -3371434318.5330501       -4858327.7603161335        810992295.20551002     
  -3240365477.5448170       -17992733.829653263        813519337.71072888     
  -3110775393.4800782       -36056329.643968821        821026460.07850277     
  -3971801560.9901214        5054741.8304836750        700785454.07594645     
  -3824067940.4329996        4304666.8493139744        690362309.53363836     
  -3678518989.5433459       -3727640.3567471504        684920223.77680862     
  -3535154708.3211613       -19042179.787704468        684459196.80545223     
  -3393975096.7664514       -41638951.443575501        688979228.61957741     
  -2275740893.5773993       -23677847.232103586        1196212765.8008783     
  -2174689736.7450128       -22740148.990223289        1180884569.5214176     
  -2071948196.4120865       -16167839.079878807        1172507780.2324393     
  -1967516272.5786164       -3960917.5010561943        1171082397.9339504     
  -1861393965.2446065        13880615.746239066        1176608422.6259410     
  -2551658291.8855538       -27075777.538239121        1074643228.6691532     
  -2432609668.9909706       -29703112.357966185        1060864357.0500649     
  -2311793918.2859712       -26440021.142963886        1054800983.0410159     
  -2189211039.7705593       -17286503.893260479        1056453106.6420014     
  -2064861033.4447298       -2242560.6088278294        1065820727.8530234     
  -2830003125.1864481       -31201938.342198133        949581126.76169276     
  -2690773920.1738048       -36739371.406763554        937441114.83116746     
  -2549700843.0408726       -36130564.070367217        933780691.13022983     
  -2406783893.7876544       -29375516.333010554        938599855.65888131     
  -2262023072.4141426       -16474228.194686532        951898608.41712141     
  -3110775393.4800782       -36056329.643968821        821026460.07850277     
  -2949182490.2935138       -43848926.136625767        810614842.86472428     
  -2785668970.6767869       -45239467.862067819        809446904.50008392     
  -2620234834.6298947       -40227954.820297360        817522644.98458743     
  -2452880082.1528430       -28814387.011325598        834842064.31822848     
  -3393975096.7664514       -41638951.443575501        688979228.61957741     
  -3207835379.3501019       -51031776.547551870        680385541.15073240     
  -3019698301.1937151       -53766732.518073440        681799623.15057898     
  -2829563862.2972951       -49843819.355147362        693221474.61911893     
  -2637432062.6608357       -39263037.058759093        714651095.55635118     
  -1861393965.2446065        13880615.746239066        1176608422.6259410     
  -1816864677.8384016       -11011781.787866831        1207026186.2608900     
  -1790018757.3193886       -94848735.612609386        1234626614.1562195     
  -1780856203.6875432       -237630245.72790933        1259409706.3119273     
  -1789377016.9428759       -439356312.13381398        1281375462.7280200     
  -2064861033.4447298       -2242560.6088278294        1065820727.8530234     
  -2016238103.2644668       -21813743.483723879        1086301186.7285829     
  -1977226478.9049406       -73422612.427742839        1111519964.7101400     
  -1947826160.3661454       -157069167.44085938        1141477061.7977011     
  -1928037147.6480837       -272753408.52309757        1176172477.9912560     
  -2262023072.4141426       -16474228.194686532        951898608.41712141     
  -2187718914.1866169       -24247920.828389764        971859167.11080694     
  -2114954000.7133868       -37152429.309741497        1004113699.7561132     
  -2043728331.9944446       -55187753.638716698        1048662206.3530359     
  -1974041908.0297866       -78353893.815323234        1105504686.9015777     
  -2452880082.1528430       -28814387.011325598        834842064.31822848     
  -2331307110.6048584       -18314313.821891427        863700127.40755951     
  -2203201322.7447271        13961813.741386890        912407819.29412913     
  -2068562718.5724373        68013995.678516865        980965139.97793674     
  -1927391298.0879865        143842231.98949552        1069372089.4589841     
  -2637432062.6608357       -39263037.058759093        714651095.55635118     
  -2447002692.5191951       -4012922.4642146826        761824067.61884534     
  -2241968444.9989576        79920116.725649595        836402323.32419837     
  -2022329320.1001277        212536080.51083684        938385862.67241335     
  -1788085317.8226862        393834968.89137089        1067774685.6634806     
  -5957876150.0342484       -1787362845.0102744        1150397841.4312408     
  -6088198081.3576775       -1502302093.4161980        1228325103.7738175     
  -6221245732.3758945       -1226327074.1380839        1268965142.6488576     
  -6357019103.0889006       -959437787.17593062        1272317958.0563600     
  -6495518193.4966965       -701634232.52973938        1238383549.9963255     
  -6810375945.4998150       -2043112783.6499445        1354100055.1098993     
  -6828018324.0179329       -1395381917.6208889        1203153797.0240574     
  -6897047466.7226448       -918940265.54714322        1092478238.1556125     
  -7017463373.6139488       -613787827.42870641        1022073378.5045643     
  -7189266044.6918440       -479924603.26557851        991939218.07091296     
  -8337409644.3179932       -2501222893.2953982        1712674896.7652071     
  -8020778405.2167025       -1424343693.3871341        1276083899.6771750     
  -7804194974.7938099       -680957189.07352734        957321524.49147403     
  -7687659353.0493126       -271063380.35457706        756387771.20810306     
  -7671171539.9832144       -194662267.23028421        673282639.82706404     
  -10538977246.488779       -3161693173.9466338        2226122366.3971643     
  -9666478324.9539852       -1589187420.7149336        1447115411.7331705     
  -8942688256.5893879       -512377844.71723747        863495001.65644145     
  -8367607041.3949966        68735554.046454906        475261136.16697729     
  -7941234679.3708019        154152775.57614422        282413815.26477784     
  -13415078752.012177       -4024523625.6036534        2894442464.0057716     
  -11765118083.229776       -1889913099.6042850        1716248333.1920443     
  -10312527312.109385       -413202232.47826958        810998669.65051556     
  -9057306438.6509972        405608975.77439499        178693473.38118497     
  -7999455462.8546114        566520525.15370750       -180667255.61594486     
  -6495518193.4966965       -701634232.52973938        1238383549.9963255     
  -6238638170.6945391       -376230742.44958663        1054116245.8217797     
  -6012667899.7551918       -153859758.57879829        908736648.72308314     
  -5817607380.6786528       -34521280.917374134        802244758.70023394     
  -5653456613.4649258       -18215309.465316057        734640575.75323284     
  -7189266044.6918440       -479924603.26557851        991939218.07091296     
  -6899486933.6385403       -304879644.52420473        847456204.31610084     
  -6622470157.3400383       -172375801.63216376        724090597.06450188     
  -6358215715.7963371       -82413074.589457035        621842396.31611574     
  -6106723609.0074339       -34991463.396088123        540711602.07094288     
  -7671171539.9832144       -194662267.23028421        673282639.82706404     
  -7399265628.0291481       -185207526.03280258        589755903.11799538     
  -7121974633.7218781       -157802510.32462931        509576272.33950454     
  -6839298557.0613937       -112447220.10575318        432743747.49159324     
  -6551237398.0477066       -49141655.376188040        359258328.57425851     
  -7941234679.3708019        154152775.57614422        282413815.26477784     
  -7737974253.8663645       -17214386.975384235        281015342.22746366     
  -7511181328.9007063       -110139884.65618610        265193674.54809147     
  -7260855904.4738331       -124623717.46626759        234948812.22666454     
  -6986997980.5857410       -60665885.405614853        190280755.26317930     
  -7999455462.8546114        566520525.15370750       -180667255.61594486     
  -7915612811.1501837        199099772.64805269       -78765478.355495289     
  -7790090242.8765278       -29387924.626844406       -9057196.3097385932     
  -7622887758.0336447       -118942566.67098379        28457590.521330416     
  -7414005356.6215382       -69564153.484376907        33778882.137705311     
  -5653456613.4649258       -18215309.465316057        734640575.75323284     
  -5518181860.8832016       -50321303.649122000        721675227.94204521     
  -5378205594.6230183       -66755585.571399212        710509720.80798650     
  -5233527814.6843815       -67518155.232153416        701144054.35105658     
  -5084148521.0672798       -52609012.631370783        693578228.57125580     
  -6106723609.0074339       -34991463.396088123        540711602.07094288     
  -5957309009.7583561       -36944374.794204712        533944454.43246830     
  -5807495550.6970320       -37567753.484831810        529295867.52582431     
  -5657283231.8234653       -36861599.467977524        526765841.35101116     
  -5506672053.1376486       -34825912.743634939        526354375.90802944     
  -6551237398.0477066       -49141655.376188040        359258328.57425851     
  -6386772323.4035511       -20668295.370296240        353669618.26458073     
  -6226211042.8133669       -5207582.2109644413        350518188.74143684     
  -6069553556.2771473       -2759515.8981876373        349804040.00482327     
  -5916799863.7948914       -13324096.431960583        351527172.05474806     
  -6986997980.5857410       -60665885.405614853        190280755.26317930     
  -6806571801.8187904       -1493065.3774023056        180850719.43838251     
  -6634352070.9720221        30324928.250208378        174176684.45482513     
  -6470338788.0454292        34788095.477229118        170258650.31250009     
  -6314531953.0390215        11896436.303640366        169096617.01141128     
  -7414005356.6215382       -69564153.484376907        33778882.137705311     
  -7216707445.0040693        20581315.184476376        15487757.953880567     
  -7031918635.1729946        69029777.898691654        271354.66598811653     
  -6859638927.1283150        75781234.658256531       -11870327.725965399     
  -6699868320.8700218        40835685.463190556       -20937289.221978776     
  -5084148521.0672798       -52609012.631370783        693578228.57125580     
  -4919844695.2334881       -27838217.041498661        678188356.90957761     
  -4756692299.5677710       -6905522.0118770599        671952090.82996309     
  -4594691334.0701303        10189072.457490683        674869430.33241010     
  -4433841798.7405596        23445566.366622210        686940375.41692066     
  -5506672053.1376486       -34825912.743634939        526354375.90802944     
  -5327469821.2619972       -22733035.564918280        513007240.74573070     
  -5147690707.7717161       -8717219.6707701683        504892485.82075822     
  -4967334712.6668100        7221534.9388036728        502010111.13311231     
  -4786401835.9472733        25083228.263806581        504360116.68279296     
  -5916799863.7948914       -13324096.431960583        351527172.05474806     
  -5733902726.8623466       -17270187.959885120        342239137.13831758     
  -5548700396.5324678       -13532301.496701956        334262257.11447400     
  -5361192872.8052597       -2110437.0424156189        327596531.98321736     
  -5171380155.6807213        16995405.402968645        322241961.74455315     
  -6314531953.0390215        11896436.303640366        169096617.01141128     
  -6139143412.0345335       -11449674.226393938        165884046.08733350     
  -5959721365.8500271       -21350767.489678383        160061404.71110705     
  -5776265814.4854755       -17806843.486166000        151628692.88273212     
  -5588776757.9409008       -817902.21589446068        140585910.60220507     
  -6699868320.8700218        40835685.463190556       -20937289.221978776     
  -6543191876.7785749       -5271494.3644771576       -16058032.407216005     
  -6380753615.7243881       -32172617.649694681       -17710071.389340542     
  -6212553537.7074642       -39867684.392447233       -25893406.168356791     
  -6038591642.7278080       -28356694.592759132       -40608036.744250901     
  -4433841798.7405596        23445566.366622210        686940375.41692066     
  -4317712118.5972910        20913262.584781647        689843673.03517842     
  -4201995518.9244628        17004023.901478291        693118952.01776850     
  -4086691999.7220726        11717850.316710949        696766212.36469197     
  -3971801560.9901214        5054741.8304836750        700785454.07594645     
  -4786401835.9472733        25083228.263806581        504360116.68279296     
  -4665277098.4273443        24553326.791379452        496484934.49489838     
  -4545025387.3819723        21113337.070444822        491618029.93024105     
  -4425646702.8111439        14763259.101015329        489759402.98881876     
  -4307141044.7148695        5503092.8830888271        490909053.67062485     
  -5171380155.6807213        16995405.402968645        322241961.74455315     
  -5037728085.7587042        20727588.747578144        303051696.07904947     
  -4905408988.3153496        20016530.496654272        289506004.29567957     
  -4774422863.3506565        14862230.650192261        281604886.39444423     
  -4644769710.8646193        5264689.2081999779        279348342.37534130     
  -5588776757.9409008       -817902.21589446068        140585910.60220507     
  -5435065080.5913639        9436048.4533908367        109543957.78762606     
  -5283146321.7245970        13713604.180100679        86782875.114082918     
  -5133020481.3406086        12014764.964226484        72302662.581575096     
  -4984687559.4393854        4339530.8058059216        66103320.190099858     
  -6038591642.7278080       -28356694.592759132       -40608036.744250901     
  -5857288082.9253235       -9321294.0911836624       -84038280.379368395     
  -5678237387.6097155        2204558.1207988262       -116551357.61454993     
  -5501439556.7809954        6220862.0431518555       -138147268.44979727     
  -5326894590.4391613        2727617.6758961678       -148826012.88510385     
  -3971801560.9901214        5054741.8304836750        700785454.07594645     
  -3824067940.4329996        4304666.8493139744        690362309.53363836     
  -3678518989.5433459       -3727640.3567471504        684920223.77680862     
  -3535154708.3211613       -19042179.787704468        684459196.80545223     
  -3393975096.7664514       -41638951.443575501        688979228.61957741     
  -4307141044.7148695        5503092.8830888271        490909053.67062485     
  -4147806886.8720651        4451882.1079378128        476881312.66078800     
  -3990263171.4434128       -2567470.0477137566        466865495.96076405     
  -3834509898.4289098       -15554963.583864927        460861603.57055527     
  -3680547067.8285532       -34510598.500509739        458869635.49015558     
  -4644769710.8646193        5264689.2081999779        279348342.37534130     
  -4476603971.3808975        3081655.9456152916        262175936.69352046     
  -4309834447.0580015       -3755427.8530507088        248046320.84584284     
  -4144461137.8959341       -15246562.187814474        236959494.83231550     
  -3980484043.8946924       -31391747.058659792        228915458.65293747     
  -4984687559.4393854        4339530.8058059216        66103320.190099858     
  -4810459193.9594927        193988.36237502098        46246181.631829865     
  -4637232816.3871059       -7291513.7727322578        28462698.432045598     
  -4465008426.7222281       -18116975.599528313        12752870.590743195     
  -4293786024.9648490       -32282397.118007898       -883301.89207287901     
  -5326894590.4391613        2727617.6758961678       -148826012.88510385     
  -5149372554.6078529       -4211120.6417975426       -170907952.52428088     
  -4972458279.4307375       -13175727.806782961       -191885371.28063110     
  -4796151764.9077978       -24166203.819039822       -211758269.15416616     
  -4620453011.0390472       -37182548.678578615       -230526646.14487875     
  -3393975096.7664514       -41638951.443575501        688979228.61957741     
  -3207835379.3501019       -51031776.547551870        680385541.15073240     
  -3019698301.1937151       -53766732.518073440        681799623.15057898     
  -2829563862.2972951       -49843819.355147362        693221474.61911893     
  -2637432062.6608357       -39263037.058759093        714651095.55635118     
  -3680547067.8285532       -34510598.500509739        458869635.49015558     
  -3473191881.7786970       -37892000.456006050        445095581.72394043     
  -3264338653.5391097       -36279928.445741415        436246098.24976969     
  -3053987383.1098061       -29674382.469747066        432321185.06765139     
  -2842138070.4907680       -18075362.527977705        433320842.17758012     
  -3980484043.8946924       -31391747.058659792        228915458.65293747     
  -3766436815.4303036       -33118753.731358528        209378500.28065634     
  -3551390863.3264999       -31516681.606017590        189682913.02377638     
  -3335346187.5832844       -26585530.682630062        169828696.88230258     
  -3118302788.2006502       -18325300.961181402        149815851.85623699     
  -4293786024.9648490       -32282397.118007898       -883301.89207287901     
  -4087570180.3049221       -36712036.373627663       -26765703.179120474     
  -3880854930.5558834       -39476991.998886824       -57889932.527402617     
  -3673640275.7177415       -40577263.993800163       -94255989.936923310     
  -3465926215.7905045       -40012852.358383179       -135863875.40768039     
  -4620453011.0390472       -37182548.678578615       -230526646.14487875     
  -4436591976.4025507       -48671848.382782698       -263337028.65538770     
  -4252730855.2272544       -60160859.624342203       -306472438.40376961     
  -4068869647.5131769       -71649582.403280973       -359932875.39004344     
  -3885008353.2602973       -83138016.719559908       -423718339.61418575     
  -2637432062.6608357       -39263037.058759093        714651095.55635118     
  -2447002692.5191951       -4012922.4642146826        761824067.61884534     
  -2241968444.9989576        79920116.725649595        836402323.32419837     
  -2022329320.1001277        212536080.51083684        938385862.67241335     
  -1788085317.8226862        393834968.89137089        1067774685.6634806     
  -2842138070.4907680       -18075362.527977705        433320842.17758012     
  -2611414010.2336760        24636199.796448350        460149164.41777837     
  -2365407694.5237184        118288613.63042688        488846245.93548739     
  -2104119123.3608892        262881878.97396159        519412086.73071092     
  -1827548296.7452078        458415995.82703495        551846686.80346048     
  -3118302788.2006502       -18325300.961181402        149815851.85623699     
  -2920245536.0147867        9959259.6371624470        157089798.69410616     
  -2706228650.3017955        91442598.659241557        140695980.44414881     
  -2476252131.0616817        226124716.10507679        100634397.10636641     
  -2230315978.2944312        414005611.97468841        36905048.680764869     
  -3465926215.7905045       -40012852.358383179       -135863875.40768039     
  -3373497269.8625507       -48043742.942156076       -147354029.55216768     
  -3264431312.3332067       -617928.18796324730       -208048473.14982107     
  -3138728343.2024755        102264591.90419531       -317947206.20063192     
  -2996388362.4703493        260603817.33433008       -477050228.70461756     
  -3885008353.2602973       -83138016.719559908       -423718339.61418575     
  -3971169211.7769556       -149372807.94146037       -453182320.32104647     
  -4040015680.6179628       -157892966.91119003       -557387114.84641635     
  -4091547759.7833085       -108698493.62871099       -736332723.19029450     
  -4125765449.2729940       -1789388.0940392017       -990019145.35267103     
 </DataArray>
 <DataArray  type="Float64" Name="VM" NumberOfComponents="1" format="ascii">
   12934651850.407663     
   11339808167.516645     
   10209356143.587748     
   9271938169.8230000     
   8303132594.9397840     
   10129767770.196747     
   9321314454.1407127     
   8825476747.9769344     
   8442413382.6943293     
   8034326814.8341227     
   7982140162.3873892     
   7734498458.3366156     
   7668391795.4618368     
   7668513945.6584072     
   7664946646.2030754     
   6491681221.9789762     
   6586650803.2926798     
   6756942092.5331888     
   6960473839.6257954     
   7170592616.3018236     
   5657942494.7447357     
   5890933917.1866941     
   6116315237.0253782     
   6331621227.0143681     
   6536616152.6004972     
   8303132594.9397840     
   8018177823.4427700     
   7775453758.8376331     
   7564278470.1361351     
   7379701120.7479830     
   8034326814.8341227     
   7744691489.8612318     
   7470855249.5484476     
   7210845131.8003998     
   6964665749.9866858     
   7664946646.2030754     
   7379462721.3782101     
   7099476232.2290497     
   6825056078.3567486     
   6556400486.3444939     
   7170592616.3018236     
   6909913492.6626129     
   6657191027.6013288     
   6408569481.1714983     
   6160902657.3660917     
   6536616152.6004972     
   6328386169.0560207     
   6142324263.4031258     
   5964537371.3727245     
   5786018868.1600504     
   7379701120.7479830     
   7227069868.1972771     
   7066686409.0925102     
   6897872398.6012640     
   6720477058.6527424     
   6964665749.9866858     
   6813030178.5661297     
   6656406373.2371693     
   6494501445.9345770     
   6327270875.8196602     
   6556400486.3444939     
   6405820071.5641165     
   6253150930.9012156     
   6098346296.9187250     
   5941428801.7188416     
   6160902657.3660917     
   6010498856.9192123     
   5860947337.4540091     
   5712278231.0454674     
   5564532491.7466326     
   5786018868.1600504     
   5633615764.5205259     
   5484979366.6472254     
   5340020870.7293596     
   5198751209.2976589     
   6720477058.6527424     
   6540616859.8331003     
   6364802210.2353907     
   6192878343.1365633     
   6024873913.0970526     
   6327270875.8196602     
   6140152627.3157606     
   5955530954.3743248     
   5773359556.0564709     
   5593670390.8045712     
   5941428801.7188416     
   5755892289.0949612     
   5572106091.6494112     
   5390086963.7376461     
   5209882043.4208546     
   5564532491.7466326     
   5389886011.1913538     
   5217151649.0165482     
   5046422548.1496820     
   4877854804.6490717     
   5198751209.2976589     
   5044651170.2464371     
   4893657191.9940920     
   4745993484.9843760     
   4602077570.0929766     
   6024873913.0970526     
   5854442788.6701002     
   5682926653.7012854     
   5509750774.3897648     
   5334490668.8180227     
   5593670390.8045712     
   5443097155.3698969     
   5292151537.8360157     
   5140564042.6059017     
   4988172916.8905773     
   5209882043.4208546     
   5075339874.9708338     
   4940958252.4383097     
   4806682543.4951830     
   4672523209.3663034     
   4877854804.6490717     
   4755991296.7437305     
   4634514759.9319162     
   4513479420.5086889     
   4392968467.5941734     
   4602077570.0929766     
   4490103075.7257175     
   4378327072.6490574     
   4266793353.0761695     
   4155551753.9488482     
   5334490668.8180227     
   5155773404.1863213     
   4976992984.8022900     
   4798153360.4058466     
   4619263572.6771383     
   4988172916.8905773     
   4811223024.9102354     
   4633853611.0026989     
   4456032308.4446335     
   4277736459.4378285     
   4672523209.3663034     
   4501110599.8169928     
   4329328206.9882317     
   4157168652.2549663     
   3984656971.2884693     
   4392968467.5941734     
   4231434118.1704373     
   4070116959.2622838     
   3909123010.2359552     
   3748637598.5044732     
   4155551753.9488482     
   4008712491.1858482     
   3863308270.7344708     
   3719652879.1177230     
   3578205741.4167905     
   4619263572.6771383     
   4435968817.9507990     
   4256203376.0711842     
   4081415941.1053848     
   3913543361.0984492     
   4277736459.4378285     
   4069602429.7191372     
   3862569439.9863653     
   3657166347.5063987     
   3454119416.8112750     
   3984656971.2884693     
   3767482118.3755503     
   3550969041.3625565     
   3335130341.0673933     
   3119990164.5465126     
   3748637598.5044732     
   3539381541.1167855     
   3333125422.2035704     
   3130143628.7616334     
   2930870811.0858541     
   3578205741.4167905     
   3393800816.0130420     
   3217710608.3819509     
   3051155162.5162516     
   2895896138.2507601     
   3913543361.0984492     
   3976862468.6586628     
   4079314650.0093169     
   4234901532.8186374     
   4467099156.4103222     
   3454119416.8112750     
   3359442844.4909763     
   3283953028.3119926     
   3238259673.0431576     
   3241891203.5920653     
   3119990164.5465126     
   2937864577.4623775     
   2763853453.7173486     
   2602552719.8435855     
   2464378073.4847770     
   2930870811.0858541     
   2742195681.0213528     
   2570186473.9223289     
   2420521783.3709941     
   2302489885.2416382     
   2895896138.2507601     
   2778335181.1173444     
   2703829627.1322317     
   2684494271.4266214     
   2734409250.6256509     
   5657942494.7447357     
   5890933917.1866941     
   6116315237.0253782     
   6331621227.0143681     
   6536616152.6004972     
   5151634066.1979856     
   5311580663.9654779     
   5468194477.4682398     
   5618577189.2623596     
   5761255519.5345068     
   4643743725.8559828     
   4756025638.4533024     
   4869472644.3341436     
   4981450110.6747704     
   5090030279.1148233     
   4134534356.3289056     
   4225103448.1560812     
   4321638008.3981133     
   4422483571.1835499     
   4526186819.1436634     
   3625519788.4910383     
   3720630177.7489471     
   3827035728.0064602     
   3944675310.2243681     
   4073458431.3845806     
   6536616152.6004972     
   6328386169.0560207     
   6142324263.4031258     
   5964537371.3727245     
   5786018868.1600504     
   5761255519.5345068     
   5652464697.3074293     
   5559646079.0299911     
   5473740129.2255468     
   5389205220.4823847     
   5090030279.1148233     
   5055075640.8092985     
   5030604498.2807074     
   5011403788.1962557     
   4994271437.2460699     
   4526186819.1436634     
   4540789712.7768974     
   4560051731.2901649     
   4581479536.1109934     
   4603345590.4624958     
   4073458431.3845806     
   4114896503.6216722     
   4153719842.1176472     
   4189008948.2766166     
   4220014836.0125670     
   5786018868.1600504     
   5633615764.5205259     
   5484979366.6472254     
   5340020870.7293596     
   5198751209.2976589     
   5389205220.4823847     
   5246837658.2527485     
   5107501409.6713791     
   4971240277.7734718     
   4838144136.9096966     
   4994271437.2460699     
   4866778943.8276510     
   4742551786.9124041     
   4621578455.3943510     
   4503931846.9449301     
   4603345590.4624958     
   4496006559.5573864     
   4393258840.1948347     
   4294835000.2543797     
   4200710150.4962978     
   4220014836.0125670     
   4138324048.2718091     
   4063819814.5001760     
   3995733397.6461673     
   3933849948.8794022     
   5198751209.2976589     
   5044651170.2464371     
   4893657191.9940920     
   4745993484.9843760     
   4602077570.0929766     
   4838144136.9096966     
   4706316563.6461639     
   4578153968.6204634     
   4453918363.5109673     
   4334021204.7658167     
   4503931846.9449301     
   4391506239.3713369     
   4283105769.4836602     
   4178998340.6910400     
   4079558177.9160995     
   4200710150.4962978     
   4104832228.3332758     
   4013077445.3545642     
   3925692488.3942165     
   3842991828.8924198     
   3933849948.8794022     
   3851729865.4773741     
   3773503586.3390045     
   3699376110.9168668     
   3629590028.6069489     
   4602077570.0929766     
   4490103075.7257175     
   4378327072.6490574     
   4266793353.0761695     
   4155551753.9488482     
   4334021204.7658167     
   4226659142.5098147     
   4119969075.9470272     
   4014060139.0256066     
   3909062106.5609856     
   4079558177.9160995     
   3979707943.1344748     
   3881312472.8414903     
   3784562866.2836080     
   3689694024.5235100     
   3842991828.8924198     
   3753561925.5287595     
   3666701407.0291734     
   3582694418.4587975     
   3501898076.6664076     
   3629590028.6069489     
   3553346316.5583091     
   3481119609.1573458     
   3413282897.7724152     
   3350312420.9442210     
   4155551753.9488482     
   4008712491.1858482     
   3863308270.7344708     
   3719652879.1177230     
   3578205741.4167905     
   3909062106.5609856     
   3778188433.1859312     
   3650114921.9234781     
   3525256057.5767260     
   3404161248.9719863     
   3689694024.5235100     
   3575404007.1965551     
   3465328122.8254566     
   3359948126.1308517     
   3259862361.4197011     
   3501898076.6664076     
   3404408554.6598282     
   3312509431.8506012     
   3226698972.3261790     
   3147567189.2380505     
   3350312420.9442210     
   3269252203.3759322     
   3195023519.4732070     
   3128081893.7100601     
   3068948932.9563837     
   3578205741.4167905     
   3393800816.0130420     
   3217710608.3819509     
   3051155162.5162516     
   2895896138.2507601     
   3404161248.9719863     
   3246778537.9681745     
   3098643076.4729490     
   2960890408.9106913     
   2835076109.6270862     
   3259862361.4197011     
   3127162333.4563169     
   3004329678.0404677     
   2892348557.8110037     
   2792505609.3284359     
   3147567189.2380505     
   3036859488.0867481     
   2936287052.8445539     
   2846643548.8597417     
   2768925244.9659939     
   3068948932.9563837     
   2977214284.5988841     
   2895523318.2763443     
   2824472472.9204888     
   2764785633.6869545     
   2895896138.2507601     
   2778335181.1173444     
   2703829627.1322317     
   2684494271.4266214     
   2734409250.6256509     
   2835076109.6270862     
   2762347859.7395477     
   2717078536.4682174     
   2703913211.9056964     
   2728266494.8401074     
   2792505609.3284359     
   2750851703.7742467     
   2724071954.8424397     
   2714066999.2548165     
   2722999955.0912180     
   2768925244.9659939     
   2749883821.6301908     
   2734240697.3800635     
   2724273056.9375658     
   2723231179.0614676     
   2764785633.6869545     
   2766197433.7376728     
   2759762860.7170882     
   2750103648.8740187     
   2744904227.8218327     
   3625519788.4910383     
   3720630177.7489471     
   3827035728.0064602     
   3944675310.2243681     
   4073458431.3845806     
   3138599010.7006164     
   3256562186.5800004     
   3383967875.6550984     
   3520344287.8583517     
   3665231345.4218173     
   2695358840.8787174     
   2831519101.2459488     
   2974997817.7890306     
   3124705927.2497730     
   3279726975.4795318     
   2299267240.2214694     
   2450274654.7536793     
   2605992640.7561059     
   2764488400.0185771     
   2924324206.9671450     
   1955504498.2781928     
   2119763957.8128281     
   2285353643.3747158     
   2449298985.2653551     
   2609630935.5073991     
   4073458431.3845806     
   4114896503.6216722     
   4153719842.1176472     
   4189008948.2766166     
   4220014836.0125670     
   3665231345.4218173     
   3704758570.2605066     
   3742960641.5376287     
   3778928941.3876357     
   3811906663.5358691     
   3279726975.4795318     
   3323115167.3750353     
   3366814397.4538331     
   3410002343.9021153     
   3452001182.3597951     
   2924324206.9671450     
   2977319910.4680753     
   3032609740.1126647     
   3089519993.0110517     
   3147522298.3101892     
   2609630935.5073991     
   2677409723.4781966     
   2749759635.4802632     
   2826184869.8305144     
   2906337170.5240145     
   4220014836.0125670     
   4138324048.2718091     
   4063819814.5001760     
   3995733397.6461673     
   3933849948.8794022     
   3811906663.5358691     
   3762436770.6542578     
   3719442656.6451240     
   3682491858.6680551     
   3651524631.2489653     
   3452001182.3597951     
   3429575152.9026098     
   3412476888.2881036     
   3400486885.9921718     
   3393594643.4429970     
   3147522298.3101892     
   3147299943.9418836     
   3150615339.9524703     
   3157358860.6706805     
   3167506329.5072618     
   2906337170.5240145     
   2923950833.1068530     
   2942499551.6796327     
   2961912159.0578585     
   2982135298.2910676     
   3933849948.8794022     
   3851729865.4773741     
   3773503586.3390045     
   3699376110.9168668     
   3629590028.6069489     
   3651524631.2489653     
   3579439752.3746371     
   3511740467.6274939     
   3448635825.7422471     
   3390377246.9821725     
   3393594643.4429970     
   3332559073.4787068     
   3276593190.2132301     
   3225898482.5034294     
   3180729010.7212214     
   3167506329.5072618     
   3118368431.7796922     
   3075175404.0136757     
   3038101739.2063270     
   3007390401.3446574     
   2982135298.2910676     
   2945351693.5252256     
   2915558408.4218574     
   2892875584.2275128     
   2877514135.8243279     
   3629590028.6069489     
   3553346316.5583091     
   3481119609.1573458     
   3413282897.7724152     
   3350312420.9442210     
   3390377246.9821725     
   3328497243.2334518     
   3271609542.3998713     
   3220079251.1029549     
   3174339622.8857284     
   3180729010.7212214     
   3132178770.2532649     
   3089462206.1542358     
   3052898307.6536546     
   3022843507.9236026     
   3007390401.3446574     
   2970542108.0319510     
   2940178494.3682742     
   2916541055.1487274     
   2899887951.4683399     
   2877514135.8243279     
   2850007545.3799186     
   2829401299.9986486     
   2815842966.7337012     
   2809490683.9432902     
   3350312420.9442210     
   3269252203.3759322     
   3195023519.4732070     
   3128081893.7100601     
   3068948932.9563837     
   3174339622.8857284     
   3106836530.3351812     
   3046514290.8258920     
   2993775239.5871320     
   2949071440.8967505     
   3022843507.9236026     
   2968064403.8546658     
   2920788748.4246435     
   2881349855.1151404     
   2850115579.0320311     
   2899887951.4683399     
   2856636212.6974168     
   2821172620.3634286     
   2793749818.5369625     
   2774642573.3732319     
   2809490683.9432902     
   2776138137.3254123     
   2750817064.3616962     
   2733695088.0470619     
   2724953330.0983157     
   3068948932.9563837     
   2977214284.5988841     
   2895523318.2763443     
   2824472472.9204888     
   2764785633.6869545     
   2949071440.8967505     
   2869209248.7590737     
   2798267985.1013656     
   2736641880.0425873     
   2684799062.4049034     
   2850115579.0320311     
   2779692034.9181085     
   2716974052.2541175     
   2662214607.3186073     
   2615706018.9910145     
   2774642573.3732319     
   2711615774.6936212     
   2654976945.1849089     
   2604886595.4808936     
   2561526057.4109950     
   2724953330.0983157     
   2667796502.6035275     
   2615610915.7728062     
   2568499788.3216600     
   2526582239.6339159     
   2764785633.6869545     
   2766197433.7376728     
   2759762860.7170882     
   2750103648.8740187     
   2744904227.8218327     
   2684799062.4049034     
   2709667851.5186596     
   2732838367.4569979     
   2756793826.3334260     
   2785367103.4493976     
   2615706018.9910145     
   2660734946.8111267     
   2709453753.6352015     
   2762862639.7406459     
   2822324560.2692332     
   2561526057.4109950     
   2620488841.3892756     
   2687620073.4849524     
   2763106926.6818857     
   2847110860.6546326     
   2526582239.6339159     
   2590169797.1630564     
   2665753951.2959738     
   2753393789.0975518     
   2853228668.7131658     
   1955504498.2781928     
   2119763957.8128281     
   2285353643.3747158     
   2449298985.2653551     
   2609630935.5073991     
   1653564215.8882713     
   1820124472.8853948     
   1988357865.4176185     
   2155553494.8805251     
   2319943323.1124482     
   1392826765.1698875     
   1570255136.3867271     
   1748661597.5945058     
   1926030088.4531302     
   2101102587.1279247     
   1205725153.2067504     
   1397702690.6655083     
   1589218460.9525995     
   1779490063.1188154     
   1968055812.3899987     
   1135230742.5801151     
   1333555680.2115388     
   1532142373.8452821     
   1730990823.4813452     
   1930101029.1197288     
   2609630935.5073991     
   2677409723.4781966     
   2749759635.4802632     
   2826184869.8305144     
   2906337170.5240145     
   2319943323.1124482     
   2406536840.0612922     
   2495564615.4753919     
   2586645445.9662628     
   2679506786.3470516     
   2101102587.1279247     
   2204052644.1353211     
   2306836178.6908059     
   2409221818.0653262     
   2511044621.9856329     
   1968055812.3899987     
   2084100317.0112026     
   2197146815.3803806     
   2307121839.4350734     
   2413973941.9082007     
   1930101029.1197288     
   2055485129.1520736     
   2175227039.1040554     
   2289326758.9756751     
   2397784288.7669325     
   2906337170.5240145     
   2923950833.1068530     
   2942499551.6796327     
   2961912159.0578585     
   2982135298.2910676     
   2679506786.3470516     
   2703131931.6431308     
   2728672246.7932296     
   2756098319.2004881     
   2785391697.2099476     
   2511044621.9856329     
   2540594451.6272922     
   2573071032.6080518     
   2608469206.6961031     
   2646788785.3864498     
   2413973941.9082007     
   2447969380.5670338     
   2485908895.2213173     
   2527793839.9093704     
   2573626722.0891542     
   2397784288.7669325     
   2433265506.2104917     
   2473698266.5178809     
   2519082569.6890993     
   2569418415.7241507     
   2982135298.2910676     
   2945351693.5252256     
   2915558408.4218574     
   2892875584.2275128     
   2877514135.8243279     
   2785391697.2099476     
   2763503140.0944691     
   2748671288.2704453     
   2740980893.3580704     
   2740567257.2492061     
   2646788785.3864498     
   2636878883.3627200     
   2633811056.7887826     
   2637626849.1110115     
   2648389271.6730533     
   2573626722.0891542     
   2572150635.1614184     
   2577012641.6413269     
   2588222848.3295650     
   2605796386.4796944     
   2569418415.7241507     
   2572512707.0291500     
   2581188542.7744989     
   2595445922.9601946     
   2615284847.5862389     
   2877514135.8243279     
   2850007545.3799186     
   2829401299.9986486     
   2815842966.7337012     
   2809490683.9432902     
   2740567257.2492061     
   2721097574.5016932     
   2708954922.5587306     
   2704238843.2285142     
   2707053854.5473027     
   2648389271.6730533     
   2635346147.3369026     
   2630036117.0309858     
   2632510294.7683530     
   2642821412.5955377     
   2605796386.4796944     
   2596897883.7300863     
   2596116141.7148333     
   2603465334.9978743     
   2618959900.6057754     
   2615284847.5862389     
   2607720931.3860860     
   2608640430.8717623     
   2618043346.0432649     
   2635929676.9005966     
   2809490683.9432902     
   2776138137.3254123     
   2750817064.3616962     
   2733695088.0470619     
   2724953330.0983157     
   2707053854.5473027     
   2682897081.1595745     
   2666445229.3270493     
   2657790926.6228552     
   2657032494.3475347     
   2642821412.5955377     
   2625471154.6327233     
   2615388560.5138645     
   2612612407.6298351     
   2617183293.7766066     
   2618959900.6057754     
   2605919958.4915695     
   2599618938.9750843     
   2600065570.8081608     
   2607268911.2630634     
   2635929676.9005966     
   2624786211.1198821     
   2619784655.9930124     
   2620925011.5199895     
   2628207277.7008109     
   2724953330.0983157     
   2667796502.6035275     
   2615610915.7728062     
   2568499788.3216600     
   2526582239.6339159     
   2657032494.3475347     
   2606250487.9363427     
   2561975734.2907205     
   2524293597.4321151     
   2493299601.6067634     
   2617183293.7766066     
   2571755796.9509039     
   2534333910.5837998     
   2504969215.0763063     
   2483717906.6104469     
   2607268911.2630634     
   2565323651.2621827     
   2532828670.6176634     
   2509800396.3596725     
   2496256335.5442514     
   2628207277.7008109     
   2587088615.4163284     
   2556816178.6418552     
   2537389967.3773999     
   2528809981.6229620     
   2526582239.6339159     
   2590169797.1630564     
   2665753951.2959738     
   2753393789.0975518     
   2853228668.7131658     
   2493299601.6067634     
   2563047165.6730189     
   2641846170.9584174     
   2729696025.3693895     
   2826653273.2516489     
   2483717906.6104469     
   2557624394.5994606     
   2637947658.4670515     
   2724675581.6383224     
   2817825619.1547894     
   2496256335.5442514     
   2573208733.3475685     
   2654202345.0711751     
   2739231889.4796858     
   2828300239.5881572     
   2528809981.6229620     
   2608616747.0794706     
   2690300649.9912047     
   2773861690.3581614     
   2859299868.1803470     
   1135230742.5801151     
   1333555680.2115388     
   1532142373.8452821     
   1730990823.4813452     
   1930101029.1197288     
   1205725153.2070017     
   1397702690.6657965     
   1589218460.9529271     
   1779490063.1191859     
   1968055812.3904161     
   1392826765.1703331     
   1570255136.3872392     
   1748661597.5950885     
   1926030088.4537897     
   2101102587.1286678     
   1653564215.8888397     
   1820124472.8860426     
   1988357865.4183538     
   2155553494.8813567     
   2319943323.1133862     
   1955504498.2788305     
   2119763957.8135414     
   2285353643.3755140     
   2449298985.2662492     
   2609630935.5084004     
   1930101029.1197288     
   2055485129.1520736     
   2175227039.1040554     
   2289326758.9756751     
   2397784288.7669325     
   1968055812.3904161     
   2084100317.0116320     
   2197146815.3808274     
   2307121839.4355364     
   2413973941.9086881     
   2101102587.1286678     
   2204052644.1360931     
   2306836178.6916142     
   2409221818.0661764     
   2511044621.9865317     
   2319943323.1133862     
   2406536840.0622759     
   2495564615.4764323     
   2586645445.9673672     
   2679506786.3482313     
   2609630935.5084004     
   2677409723.4792557     
   2749759635.4813948     
   2826184869.8317289     
   2906337170.5253258     
   2397784288.7669325     
   2433265506.2104917     
   2473698266.5178809     
   2519082569.6890993     
   2569418415.7241507     
   2413973941.9086881     
   2447969380.5675826     
   2485908895.2219329     
   2527793839.9100595     
   2573626722.0899215     
   2511044621.9865317     
   2540594451.6282983     
   2573071032.6091766     
   2608469206.6973567     
   2646788785.3878407     
   2679506786.3482313     
   2703131931.6444430     
   2728672246.7946873     
   2756098319.2021079     
   2785391697.2117419     
   2906337170.5253258     
   2923950833.1082945     
   2942499551.6812234     
   2961912159.0596166     
   2982135298.2930112     
   2569418415.7241507     
   2572512707.0291500     
   2581188542.7744989     
   2595445922.9601946     
   2615284847.5862389     
   2573626722.0899215     
   2572150635.1622658     
   2577012641.6422768     
   2588222848.3306365     
   2605796386.4809079     
   2646788785.3878407     
   2636878883.3642569     
   2633811056.7905078     
   2637626849.1129694     
   2648389271.6752815     
   2785391697.2117419     
   2763503140.0964413     
   2748671288.2726583     
   2740980893.3605866     
   2740567257.2520947     
   2982135298.2930112     
   2945351693.5273290     
   2915558408.4242053     
   2892875584.2301936     
   2877514135.8274326     
   2615284847.5862389     
   2607720931.3860860     
   2608640430.8717623     
   2618043346.0432649     
   2635929676.9005966     
   2605796386.4809079     
   2596897883.7315450     
   2596116141.7165556     
   2603465334.9998698     
   2618959900.6080613     
   2648389271.6752815     
   2635346147.3396106     
   2630036117.0342078     
   2632510294.7721157     
   2642821412.5998721     
   2740567257.2520947     
   2721097574.5052700     
   2708954922.5630460     
   2704238843.2336259     
   2707053854.5532598     
   2877514135.8274326     
   2850007545.3838763     
   2829401300.0035396     
   2815842966.7395973     
   2809490683.9502749     
   2635929676.9005966     
   2624786211.1198821     
   2619784655.9930124     
   2620925011.5199895     
   2628207277.7008109     
   2618959900.6080613     
   2605919958.4942040     
   2599618938.9780803     
   2600065570.8115349     
   2607268911.2668390     
   2642821412.5998721     
   2625471154.6377530     
   2615388560.5196233     
   2612612407.6363506     
   2617183293.7839136     
   2707053854.5532598     
   2682897081.1665511     
   2666445229.3350973     
   2657790926.6320343     
   2657032494.3578892     
   2809490683.9502749     
   2776138137.3337040     
   2750817064.3713789     
   2733695088.0582218     
   2724953330.1110401     
   2628207277.7008109     
   2587088615.4163284     
   2556816178.6418552     
   2537389967.3773999     
   2528809981.6229620     
   2607268911.2668390     
   2565323651.2662745     
   2532828670.6220756     
   2509800396.3644042     
   2496256335.5493155     
   2617183293.7839136     
   2571755796.9588790     
   2534333910.5924611     
   2504969215.0856595     
   2483717906.6205025     
   2657032494.3578892     
   2606250487.9477425     
   2561975734.3031931     
   2524293597.4456840     
   2493299601.6214523     
   2724953330.1110401     
   2667796502.6176562     
   2615610915.7883921     
   2568499788.3387523     
   2526582239.6525712     
   2528809981.6229620     
   2608616747.0794706     
   2690300649.9912047     
   2773861690.3581614     
   2859299868.1803470     
   2496256335.5493155     
   2573208733.3524404     
   2654202345.0758300     
   2739231889.4840932     
   2828300239.5923171     
   2483717906.6205025     
   2557624394.6094799     
   2637947658.4770069     
   2724675581.6481919     
   2817825619.1645446     
   2493299601.6214523     
   2563047165.6881900     
   2641846170.9740477     
   2729696025.3854742     
   2826653273.2681646     
   2526582239.6525712     
   2590169797.1830831     
   2665753951.3173718     
   2753393789.1203456     
   2853228668.7374172     
   1955504498.2788305     
   2119763957.8135414     
   2285353643.3755140     
   2449298985.2662492     
   2609630935.5084004     
   2299267240.2221169     
   2450274654.7543988     
   2605992640.7569041     
   2764488400.0194602     
   2924324206.9681172     
   2695358840.8793054     
   2831519101.2466044     
   2974997817.7897606     
   3124705927.2505789     
   3279726975.4804163     
   3138599010.7010903     
   3256562186.5805402     
   3383967875.6557074     
   3520344287.8590322     
   3665231345.4225688     
   3625519788.4913492     
   3720630177.7493224     
   3827035728.0069046     
   3944675310.2248816     
   4073458431.3851671     
   2609630935.5084004     
   2677409723.4792557     
   2749759635.4813948     
   2826184869.8317289     
   2906337170.5253258     
   2924324206.9681172     
   2977319910.4690971     
   3032609740.1137433     
   3089519993.0121956     
   3147522298.3114095     
   3279726975.4804163     
   3323115167.3759503     
   3366814397.4547849     
   3410002343.9031086     
   3452001182.3608356     
   3665231345.4225688     
   3704758570.2612686     
   3742960641.5384016     
   3778928941.3884211     
   3811906663.5366664     
   4073458431.3851671     
   4114896503.6222458     
   4153719842.1182070     
   4189008948.2771587     
   4220014836.0130863     
   2906337170.5253258     
   2923950833.1082945     
   2942499551.6812234     
   2961912159.0596166     
   2982135298.2930112     
   3147522298.3114095     
   3147299943.9431734     
   3150615339.9538460     
   3157358860.6721559     
   3167506329.5088525     
   3452001182.3608356     
   3429575152.9036584     
   3412476888.2891707     
   3400486885.9932680     
   3393594643.4441404     
   3811906663.5366664     
   3762436770.6550064     
   3719442656.6458259     
   3682491858.6687255     
   3651524631.2496138     
   4220014836.0130863     
   4138324048.2722211     
   4063819814.5004854     
   3995733397.6463819     
   3933849948.8795314     
   2982135298.2930112     
   2945351693.5273290     
   2915558408.4242053     
   2892875584.2301936     
   2877514135.8274326     
   3167506329.5088525     
   3118368431.7813082     
   3075175404.0153775     
   3038101739.2081852     
   3007390401.3467436     
   3393594643.4441404     
   3332559073.4797492     
   3276593190.2142143     
   3225898482.5044050     
   3180729010.7222433     
   3651524631.2496138     
   3579439752.3750772     
   3511740467.6277556     
   3448635825.7423573     
   3390377246.9821658     
   3933849948.8795314     
   3851729865.4772234     
   3773503586.3385816     
   3699376110.9161878     
   3629590028.6060243     
   2877514135.8274326     
   2850007545.3838763     
   2829401300.0035396     
   2815842966.7395973     
   2809490683.9502749     
   3007390401.3467436     
   2970542108.0347700     
   2940178494.3719072     
   2916541055.1532598     
   2899887951.4738603     
   3180729010.7222433     
   3132178770.2548838     
   3089462206.1565342     
   3052898307.6567268     
   3022843507.9275441     
   3390377246.9821658     
   3328497243.2339058     
   3271609542.4008698     
   3220079251.1045947     
   3174339622.8881044     
   3629590028.6060243     
   3553346316.5577102     
   3481119609.1571517     
   3413282897.7727227     
   3350312420.9451327     
   2809490683.9502749     
   2776138137.3337040     
   2750817064.3713789     
   2733695088.0582218     
   2724953330.1110401     
   2899887951.4738603     
   2856636212.7041736     
   2821172620.3715115     
   2793749818.5464644     
   2774642573.3842530     
   3022843507.9275441     
   2968064403.8597550     
   2920788748.4309793     
   2881349855.1228256     
   2850115579.0411634     
   3174339622.8881044     
   3106836530.3386006     
   3046514290.8304691     
   2993775239.5929670     
   2949071440.9039636     
   3350312420.9451327     
   3269252203.3777852     
   3195023519.4761133     
   3128081893.7141218     
   3068948932.9617381     
   2724953330.1110401     
   2667796502.6176562     
   2615610915.7883921     
   2568499788.3387523     
   2526582239.6525712     
   2774642573.3842530     
   2711615774.7059989     
   2654976945.1987047     
   2604886595.4961724     
   2561526057.4278159     
   2850115579.0411634     
   2779692034.9286041     
   2716974052.2660570     
   2662214607.3320737     
   2615706019.0060830     
   2949071440.9039636     
   2869209248.7676945     
   2798267985.1115055     
   2736641880.0543489     
   2684799062.4184065     
   3068948932.9617381     
   2977214284.6057372     
   2895523318.2848282     
   2824472472.9307642     
   2764785633.6991801     
   2526582239.6525712     
   2590169797.1830831     
   2665753951.3173718     
   2753393789.1203456     
   2853228668.7374172     
   2561526057.4278159     
   2620488841.4080157     
   2687620073.5055470     
   2763106926.7042527     
   2847110860.6786208     
   2615706019.0060830     
   2660734946.8286457     
   2709453753.6550651     
   2762862639.7626109     
   2822324560.2929277     
   2684799062.4184065     
   2709667851.5351071     
   2732838367.4762068     
   2756793826.3550205     
   2785367103.4726825     
   2764785633.6991801     
   2766197433.7532506     
   2759762860.7357755     
   2750103648.8952298     
   2744904227.8444843     
   3625519788.4913492     
   3720630177.7493224     
   3827035728.0069046     
   3944675310.2248816     
   4073458431.3851671     
   4134534356.3290396     
   4225103448.1562676     
   4321638008.3983507     
   4422483571.1838388     
   4526186819.1440077     
   4643743725.8559608     
   4756025638.4533100     
   4869472644.3341742     
   4981450110.6748266     
   5090030279.1149082     
   5151634066.1978226     
   5311580663.9653139     
   5468194477.4680681     
   5618577189.2621813     
   5761255519.5343227     
   5657942494.7444487     
   5890933917.1863708     
   6116315237.0250082     
   6331621227.0139503     
   6536616152.6000338     
   4073458431.3851671     
   4114896503.6222458     
   4153719842.1182070     
   4189008948.2771587     
   4220014836.0130863     
   4526186819.1440077     
   4540789712.7771997     
   4560051731.2904253     
   4581479536.1112099     
   4603345590.4626665     
   5090030279.1149082     
   5055075640.8093195     
   5030604498.2806664     
   5011403788.1961555     
   4994271437.2459097     
   5761255519.5343227     
   5652464697.3071642     
   5559646079.0296516     
   5473740129.2251425     
   5389205220.4819174     
   6536616152.6000338     
   6328386169.0554686     
   6142324263.4024944     
   5964537371.3720245     
   5786018868.1592932     
   4220014836.0130863     
   4138324048.2722211     
   4063819814.5004854     
   3995733397.6463819     
   3933849948.8795314     
   4603345590.4626665     
   4496006559.5574141     
   4393258840.1947165     
   4294835000.2541170     
   4200710150.4958868     
   4994271437.2459097     
   4866778943.8273382     
   4742551786.9119282     
   4621578455.3936996     
   4503931846.9440975     
   5389205220.4819174     
   5246837658.2521362     
   5107501409.6706085     
   4971240277.7725267     
   4838144136.9085617     
   5786018868.1592932     
   5633615764.5196543     
   5484979366.6462231     
   5340020870.7282124     
   5198751209.2963428     
   3933849948.8795314     
   3851729865.4772234     
   3773503586.3385816     
   3699376110.9161878     
   3629590028.6060243     
   4200710150.4958868     
   4104832228.3325148     
   4013077445.3534527     
   3925692488.3927550     
   3842991828.8906198     
   4503931846.9440975     
   4391506239.3701191     
   4283105769.4820471     
   4178998340.6890249     
   4079558177.9136744     
   4838144136.9085617     
   4706316563.6446419     
   4578153968.6185389     
   4453918363.5086269     
   4334021204.7630405     
   5198751209.2963428     
   5044651170.2447681     
   4893657191.9920454     
   4745993484.9819298     
   4602077570.0901079     
   3629590028.6060243     
   3553346316.5577102     
   3481119609.1571517     
   3413282897.7727227     
   3350312420.9451327     
   3842991828.8906198     
   3753561925.5271354     
   3666701407.0277972     
   3582694418.4577432     
   3501898076.6657596     
   4079558177.9136744     
   3979707943.1321197     
   3881312472.8392601     
   3784562866.2815590     
   3689694024.5217128     
   4334021204.7630405     
   4226659142.5070381     
   4119969075.9442949     
   4014060139.0229692     
   3909062106.5584879     
   4602077570.0901079     
   4490103075.7228241     
   4378327072.6461763     
   4266793353.0733356     
   4155551753.9461045     
   3350312420.9451327     
   3269252203.3777852     
   3195023519.4761133     
   3128081893.7141218     
   3068948932.9617381     
   3501898076.6657596     
   3404408554.6599278     
   3312509431.8515396     
   3226698972.3280497     
   3147567189.2409687     
   3689694024.5217128     
   3575404007.1953449     
   3465328122.8248930     
   3359948126.1310101     
   3259862361.4206619     
   3909062106.5584879     
   3778188433.1839018     
   3650114921.9219561     
   3525256057.5757561     
   3404161248.9716139     
   4155551753.9461045     
   4008712491.1835132     
   3863308270.7325549     
   3719652879.1162539     
   3578205741.4157844     
   3068948932.9617381     
   2977214284.6057372     
   2895523318.2848282     
   2824472472.9307642     
   2764785633.6991801     
   3147567189.2409687     
   3036859488.0910668     
   2936287052.8504648     
   2846643548.8674359     
   2768925244.9756856     
   3259862361.4206619     
   3127162333.4585109     
   3004329678.0441008     
   2892348557.8163166     
   2792505609.3356891     
   3404161248.9716139     
   3246778537.9687791     
   3098643076.4747534     
   2960890408.9139643     
   2835076109.6321235     
   3578205741.4157844     
   3393800816.0126920     
   3217710608.3824768     
   3051155162.5179296     
   2895896138.2539148     
   2764785633.6991801     
   2766197433.7532506     
   2759762860.7357755     
   2750103648.8952298     
   2744904227.8444843     
   2768925244.9756856     
   2749883821.6436214     
   2734240697.3973098     
   2724273056.9584956     
   2723231179.0856161     
   2792505609.3356891     
   2750851703.7856359     
   2724071954.8583965     
   2714066999.2757292     
   2722999955.1173711     
   2835076109.6321235     
   2762347859.7490616     
   2717078536.4831119     
   2703913211.9270167     
   2728266494.8689933     
   2895896138.2539148     
   2778335181.1252108     
   2703829627.1463513     
   2684494271.4489312     
   2734409250.6583161     
   5657942494.7444487     
   5890933917.1863708     
   6116315237.0250082     
   6331621227.0139503     
   6536616152.6000338     
   6491681221.9785929     
   6586650803.2921801     
   6756942092.5325766     
   6960473839.6250801     
   7170592616.3010197     
   7982140162.3869534     
   7734498458.3360081     
   7668391795.4610643     
   7668513945.6574821     
   7664946646.2020206     
   10129767770.196295     
   9321314454.1400566     
   8825476747.9760761     
   8442413382.6932859     
   8034326814.8329067     
   12934651850.407238     
   11339808167.515991     
   10209356143.586872     
   9271938169.8219223     
   8303132594.9385147     
   6536616152.6000338     
   6328386169.0554686     
   6142324263.4024944     
   5964537371.3720245     
   5786018868.1592932     
   7170592616.3010197     
   6909913492.6617279     
   6657191027.6003675     
   6408569481.1704693     
   6160902657.3650017     
   7664946646.2020206     
   7379462721.3770456     
   7099476232.2277880     
   6825056078.3553953     
   6556400486.3430548     
   8034326814.8329067     
   7744691489.8598576     
   7470855249.5469217     
   7210845131.7987251     
   6964665749.9848738     
   8303132594.9385147     
   8018177823.4412556     
   7775453758.8358765     
   7564278470.1341467     
   7379701120.7457628     
   5786018868.1592932     
   5633615764.5196543     
   5484979366.6462231     
   5340020870.7282124     
   5198751209.2963428     
   6160902657.3650017     
   6010498856.9180489     
   5860947337.4527626     
   5712278231.0441275     
   5564532491.7451820     
   6556400486.3430548     
   6405820071.5626116     
   6253150930.8996429     
   6098346296.9170752     
   5941428801.7171078     
   6964665749.9848738     
   6813030178.5642309     
   6656406373.2351866     
   6494501445.9325027     
   6327270875.8174934     
   7379701120.7457628     
   7227069868.1949234     
   7066686409.0900269     
   6897872398.5986443     
   6720477058.6499786     
   5198751209.2963428     
   5044651170.2447681     
   4893657191.9920454     
   4745993484.9819298     
   4602077570.0901079     
   5564532491.7451820     
   5389886011.1896801     
   5217151649.0146255     
   5046422548.1474915     
   4877854804.6465845     
   5941428801.7171078     
   5755892289.0931997     
   5572106091.6476097     
   5390086963.7357817     
   5209882043.4189072     
   6327270875.8174934     
   6140152627.3138285     
   5955530954.3726206     
   5773359556.0549870     
   5593670390.8032990     
   6720477058.6499786     
   6540616859.8308992     
   6364802210.2337580     
   6192878343.1355114     
   6024873913.0965891     
   4602077570.0901079     
   4490103075.7228241     
   4378327072.6461763     
   4266793353.0733356     
   4155551753.9461045     
   4877854804.6465845     
   4755991296.7412395     
   4634514759.9294472     
   4513479420.5062551     
   4392968467.5917921     
   5209882043.4189072     
   5075339874.9689903     
   4940958252.4365730     
   4806682543.4935617     
   4672523209.3648043     
   5593670390.8032990     
   5443097155.3689127     
   5292151537.8353100     
   5140564042.6054745     
   4988172916.8904476     
   6024873913.0965891     
   5854442788.6701717     
   5682926653.7018909     
   5509750774.3909006     
   5334490668.8197079     
   4155551753.9461045     
   4008712491.1835132     
   3863308270.7325549     
   3719652879.1162539     
   3578205741.4157844     
   4392968467.5917921     
   4231434118.1684151     
   4070116959.2606282     
   3909123010.2346768     
   3748637598.5035906     
   4672523209.3648043     
   4501110599.8158426     
   4329328206.9874372     
   4157168652.2545428     
   3984656971.2884345     
   4988172916.8904476     
   4811223024.9104834     
   4633853611.0033340     
   4456032308.4456730     
   4277736459.4392853     
   5334490668.8197079     
   5155773404.1884317     
   4976992984.8048496     
   4798153360.4088669     
   4619263572.6806498     
   3578205741.4157844     
   3393800816.0126920     
   3217710608.3824768     
   3051155162.5179296     
   2895896138.2539148     
   3748637598.5035906     
   3539381541.1162395     
   3333125422.2034512     
   3130143628.7620339     
   2930870811.0869164     
   3984656971.2884345     
   3767482118.3758602     
   3550969041.3632126     
   3335130341.0684061     
   3119990164.5478997     
   4277736459.4392853     
   4069602429.7213140     
   3862569439.9892511     
   3657166347.5100036     
   3454119416.8156152     
   4619263572.6806498     
   4435968817.9557686     
   4256203376.0776391     
   4081415941.1133900     
   3913543361.1081367     
   2895896138.2539148     
   2778335181.1252108     
   2703829627.1463513     
   2684494271.4489312     
   2734409250.6583161     
   2930870811.0869164     
   2742195681.0256338     
   2570186473.9310713     
   2420521783.3859477     
   2302489885.2652378     
   3119990164.5478997     
   2937864577.4653244     
   2763853453.7223463     
   2602552719.8512082     
   2464378073.4958429     
   3454119416.8156152     
   3359442844.4955597     
   3283953028.3168035     
   3238259673.0478520     
   3241891203.5961795     
   3913543361.1081367     
   3976862468.6677847     
   4079314650.0176935     
   4234901532.8256564     
   4467099156.4151917     
 </DataArray>
 <DataArray  type="Float64" Name="strain" NumberOfComponents="3" format="ascii">
  0.20346202773886071        0.0000000000000000       0.12542584010691149     
  0.18663573588915380       -2.7327038756079190E-002   7.4370761104984792E-002
  0.16980944403944689       -4.4675932685912557E-002   3.5143275684853037E-002
  0.15298315218973996       -5.2046681789500102E-002   7.7433838465162108E-003
  0.13615686034003305       -4.9439286066841809E-002  -7.8289144100256308E-003
  0.15984115490509015        0.0000000000000000        9.6465302543869966E-002
  0.15316203497900457       -2.1845934612856315E-002   6.2708334508431066E-002
  0.14648291505291899       -3.6173810537663387E-002   3.7418116738439859E-002
  0.13980379512683341       -4.2983627774421204E-002   2.0594649233896412E-002
  0.13312467520074783       -4.2275386323129799E-002   1.2237931994800680E-002
  0.12645071293883348        0.0000000000000000        7.4215912193149602E-002
  0.12655792162002200       -1.6364830469633440E-002   5.5296968986001942E-002
  0.12666513030121052       -2.7671688389414216E-002   4.1483932727954725E-002
  0.12677233898239904       -3.3920573759342307E-002   3.2776803419008044E-002
  0.12687954766358758       -3.5111486579417733E-002   2.9175581059161841E-002
  0.10329070184009069        0.0000000000000000        5.8677669054750407E-002
  0.10682339581220608       -1.0883726326410567E-002   5.2136664537697400E-002
  0.11035608978432146       -1.9169566241165038E-002   4.7340723653397629E-002
  0.11388878375643686       -2.4857519744263413E-002   4.4289846401851102E-002
  0.11742147772855226       -2.7947586835705689E-002   4.2984032783057860E-002
   9.0361121608861769E-002   0.0000000000000000        4.9850573128672374E-002
   9.3958457555556804E-002  -5.4026221831876909E-003   5.3227421163517419E-002
   9.7555793502251825E-002  -1.0667444092915864E-002   5.4988489514768507E-002
  0.10115312944894685       -1.5794465729184519E-002   5.5133778182425618E-002
  0.10475046539564188       -2.0783687091993658E-002   5.3663287166488702E-002
  0.13615686034003305       -4.9439286066841809E-002  -7.8289144100256308E-003
  0.13292237904910170       -4.2896393599893570E-002  -3.4131707287366891E-003
  0.12968789775817038       -3.8460652470611284E-002  -3.9247850675279763E-004
  0.12645341646723898       -3.6132062678994978E-002   1.2331622559259812E-003
  0.12321893517630769       -3.5910624225044679E-002   1.4637515592996753E-003
  0.13312467520074783       -4.2275386323129799E-002   1.2237931994800680E-002
  0.12888016562958540       -3.8402964819749863E-002   1.2177331496519447E-002
  0.12463565605842294       -3.5720241900242297E-002   1.1491725897081174E-002
  0.12039114648726051       -3.4227217564606977E-002   1.0181115196485697E-002
  0.11614663691609803       -3.3923891812844026E-002   8.2454993947332078E-003
  0.12687954766358758       -3.5111486579417733E-002   2.9175581059161841E-002
  0.12239505617034202       -3.3909536039606149E-002   2.5556089135104071E-002
  0.11791056467709644       -3.2979831329873269E-002   2.2081638468037200E-002
  0.11342607318385085       -3.2322372450219010E-002   1.8752229057961159E-002
  0.10894158169060530       -3.1937159400643442E-002   1.5567860904876114E-002
  0.11742147772855226       -2.7947586835705689E-002   4.2984032783057860E-002
  0.11346705067137153       -2.9416107259462431E-002   3.6723102187017201E-002
  0.10951262361419085       -3.0239420759504212E-002   3.1377259206115449E-002
  0.10555819655701018       -3.0417527335831012E-002   2.6946503840352475E-002
  0.10160376949982948       -2.9950426988442809E-002   2.3430836089728485E-002
  0.10475046539564188       -2.0783687091993658E-002   5.3663287166488702E-002
  0.10209614913267406       -2.4922678479318727E-002   4.5678370652258785E-002
   9.9441832869706231E-002  -2.7499010189135181E-002   3.9378588111315796E-002
   9.6787516606738386E-002  -2.8512682221443007E-002   3.4763939543659632E-002
   9.4133200343770568E-002  -2.7963694576242190E-002   3.1834424949290271E-002
  0.12321893517630769       -3.5910624225044679E-002   1.4637515592996753E-003
  0.12038136399269658       -3.6426559144771387E-002   6.7113617800204639E-004
  0.11754379280908543       -3.6310089474186215E-002   1.1758702193817583E-005
  0.11470622162547428       -3.5561215213289289E-002  -5.1438086812490708E-004
  0.11186865044186317       -3.4179936362080499E-002  -9.0728253295435657E-004
  0.11614663691609803       -3.3923891812844026E-002   8.2454993947332078E-003
  0.11343539803679135       -3.4007974586146253E-002   7.8368645089944566E-003
  0.11072415915748461       -3.3677175825706396E-002   7.5476563263752391E-003
  0.10801292027817791       -3.2931495531524593E-002   7.3778748468752986E-003
  0.10530168139887119       -3.1770933703600707E-002   7.3275200704949472E-003
  0.10894158169060530       -3.1937159400643442E-002   1.5567860904876114E-002
  0.10634286391323311       -3.1589390027521091E-002   1.5325683458126488E-002
  0.10374414613586086       -3.1044262177226545E-002   1.5189121512126268E-002
  0.10114542835848864       -3.0301775849759755E-002   1.5158175066875624E-002
   9.8546710581116442E-002  -2.9361931045120859E-002   1.5232844122374384E-002
  0.10160376949982948       -2.9950426988442809E-002   2.3430836089728485E-002
   9.9103761622021808E-002  -2.9170805468895930E-002   2.3137593025398036E-002
   9.6603753744214121E-002  -2.8411348528746681E-002   2.2936154259447197E-002
   9.4103745866406407E-002  -2.7672056167995045E-002   2.2826519791875822E-002
   9.1603737988598777E-002  -2.6952928386640984E-002   2.2808689622684085E-002
   9.4133200343770568E-002  -2.7963694576242190E-002   3.1834424949290271E-002
   9.1718091163157489E-002  -2.6752220910270810E-002   3.1272593210809219E-002
   8.9302981982544397E-002  -2.5778434880266810E-002   3.0788754568337844E-002
   8.6887872801931304E-002  -2.5042336486230252E-002   3.0382909021876101E-002
   8.4472763621318198E-002  -2.4543925728161137E-002   3.0055056571423905E-002
  0.11186865044186317       -3.4179936362080499E-002  -9.0728253295435657E-004
  0.10902684047452388       -3.2628101144495963E-002  -6.9584807098335699E-004
  0.10618503050718453       -3.1367557784471450E-002  -7.6743642687107649E-004
  0.10334322053984518       -3.0398306282007161E-002  -1.1220476006175428E-003
  0.10050141057250589       -2.9720346637102990E-002  -1.7596815922227838E-003
  0.10530168139887119       -3.1770933703600707E-002   7.3275200704949472E-003
  0.10226180849614175       -3.0504889156412154E-002   7.1883086637853782E-003
   9.9221935593412303E-002  -2.9442760704436348E-002   6.9359942041545136E-003
   9.6182062690682857E-002  -2.8584548347673072E-002   6.5705766916019648E-003
   9.3142189787953411E-002  -2.7930252086122542E-002   6.0920561261280093E-003
   9.8546710581116442E-002  -2.9361931045120859E-002   1.5232844122374384E-002
   9.5478694507934142E-002  -2.8381677168328387E-002   1.4830362609331856E-002
   9.2410678434751772E-002  -2.7517963624401134E-002   1.4484697808304914E-002
   8.9342662361569486E-002  -2.6770790413339036E-002   1.4195849719293975E-002
   8.6274646288387200E-002  -2.6140157535142039E-002   1.3963818342298762E-002
   9.1603737988598777E-002  -2.6952928386640984E-002   2.2808689622684085E-002
   8.8677498509900893E-002  -2.6258465180244571E-002   2.2230313765655818E-002
   8.5751259031203050E-002  -2.5593166544365921E-002   2.1878674385580710E-002
   8.2825019552505222E-002  -2.4957032479004847E-002   2.1753771482458641E-002
   7.9898780073807338E-002  -2.4350062984161536E-002   2.1855605056289758E-002
   8.4472763621318198E-002  -2.4543925728161137E-002   3.0055056571423905E-002
   8.1858220502042139E-002  -2.4135253192160755E-002   2.9388162132757509E-002
   7.9243677382766067E-002  -2.3668369464330749E-002   2.9117923935981560E-002
   7.6629134263490051E-002  -2.3143274544670769E-002   2.9244341981096024E-002
   7.4014591144213965E-002  -2.2559968433181116E-002   2.9767416268100810E-002
  0.10050141057250589       -2.9720346637102990E-002  -1.7596815922227838E-003
   9.7574861578296312E-002  -2.9131085513115662E-002  -3.6416588164291941E-003
   9.4648312584086708E-002  -2.8427929573402261E-002  -5.0505588299667448E-003
   9.1721763589877117E-002  -2.7610878817962987E-002  -5.9863816328347280E-003
   8.8795214595667527E-002  -2.6679933246797405E-002  -6.4491272250335463E-003
   9.3142189787953411E-002  -2.7930252086122542E-002   6.0920561261280093E-003
   9.0631598252136375E-002  -2.7332592877196610E-002   4.7469048374758627E-003
   8.8121006716319339E-002  -2.6644291678307314E-002   3.7605912549394660E-003
   8.5610415180502358E-002  -2.5865348489454855E-002   3.1331153785189164E-003
   8.3099823644685322E-002  -2.4995763310639019E-002   2.8644772082140890E-003
   8.6274646288387200E-002  -2.6140157535142039E-002   1.3963818342298762E-002
   8.4065772706409359E-002  -2.5534100241277363E-002   1.3132240163437975E-002
   8.1856899124431504E-002  -2.4860653783212353E-002   1.2545260186139898E-002
   7.9648025542453676E-002  -2.4119818160946663E-002   1.2202878410403975E-002
   7.7439151960475822E-002  -2.3311593374480577E-002   1.2105094836230706E-002
   7.9898780073807338E-002  -2.4350062984161536E-002   2.1855605056289758E-002
   7.7877384941115305E-002  -2.3735607605358242E-002   2.1514347161457788E-002
   7.5855989808423216E-002  -2.3077015888117176E-002   2.1303447963634769E-002
   7.3834594675731113E-002  -2.2374287832438555E-002   2.1222907462820850E-002
   7.1813199543039108E-002  -2.1627423438322274E-002   2.1272725659016160E-002
   7.4014591144213965E-002  -2.2559968433181116E-002   2.9767416268100810E-002
   7.2066434956254199E-002  -2.1937114969439092E-002   2.9893225831534725E-002
   7.0118278768294476E-002  -2.1293377993022118E-002   3.0035154587424298E-002
   6.8170122580334724E-002  -2.0628757503930520E-002   3.0193202535769563E-002
   6.6221966392374987E-002  -1.9943253502163916E-002   3.0367369676570222E-002
   8.8795214595667527E-002  -2.6679933246797405E-002  -6.4491272250335463E-003
   8.5801820306883658E-002  -2.5676677429009309E-002  -7.4060112760646613E-003
   8.2808426018099790E-002  -2.4642695933702857E-002  -8.3150327555055470E-003
   7.9815031729315949E-002  -2.3577988760878112E-002  -9.1761916633567031E-003
   7.6821637440532053E-002  -2.2482555910534607E-002  -9.9894879996182961E-003
   8.3099823644685322E-002  -2.4995763310639019E-002   2.8644772082140890E-003
   8.0175289841130731E-002  -2.4055529109178686E-002   2.0040012040171973E-003
   7.7250756037576224E-002  -2.3064638852393460E-002   1.2333835986893249E-003
   7.4326222234021744E-002  -2.2023092540282854E-002   5.5262439223009718E-004
   7.1401688430467125E-002  -2.0930890172847327E-002  -3.8276415359972393E-005
   7.7439151960475822E-002  -2.3311593374480577E-002   1.2105094836230706E-002
   7.4625474469429603E-002  -2.2434380789348202E-002   1.1360957256674742E-002
   7.1811796978383427E-002  -2.1486581771084048E-002   1.0748673903266559E-002
   6.8998119487337195E-002  -2.0468196319687815E-002   1.0268244776006220E-002
   6.6184441996290949E-002  -1.9379224435159603E-002   9.9196698748935663E-003
   7.1813199543039108E-002  -2.1627423438322274E-002   2.1272725659016160E-002
   6.9152374191780164E-002  -2.0813232469517759E-002   2.0664856881907459E-002
   6.6491548840521233E-002  -1.9908524689774533E-002   2.0230838158226034E-002
   6.3830723489262345E-002  -1.8913300099092777E-002   1.9970669487971091E-002
   6.1169898138003373E-002  -1.7827558697472101E-002   1.9884350871143042E-002
   6.6221966392374987E-002  -1.9943253502163916E-002   3.0367369676570222E-002
   6.3755989008182357E-002  -1.9192084149687039E-002   2.9915700079716029E-002
   6.1290011623989754E-002  -1.8330467608465184E-002   2.9679876363567725E-002
   5.8824034239797166E-002  -1.7358403878497367E-002   2.9659898528125034E-002
   5.6358056855604521E-002  -1.6275892959784599E-002   2.9855766573388176E-002
   7.6821637440532053E-002  -2.2482555910534607E-002  -9.9894879996182961E-003
   7.3699840364710500E-002  -2.1371762408940786E-002  -1.1411271241755450E-002
   7.0578043288888892E-002  -2.0260973282364647E-002  -1.3280472330851112E-002
   6.7456246213067339E-002  -1.9150188530806633E-002  -1.5597091266904339E-002
   6.4334449137245731E-002  -1.8039408154265857E-002  -1.8361128049915965E-002
   7.1401688430467125E-002  -2.0930890172847327E-002  -3.8276415359972393E-005
   6.7942609489845651E-002  -1.9825983628611765E-002  -1.1598471378226338E-003
   6.4483530549224177E-002  -1.8746324786102053E-002  -2.5085637429267393E-003
   6.1024451608602648E-002  -1.7691913645318053E-002  -4.0844262306731910E-003
   5.7565372667981229E-002  -1.6662750206260180E-002  -5.8874346010614476E-003
   6.6184441996290949E-002  -1.9379224435159603E-002   9.9196698748935663E-003
   6.2608353155185717E-002  -1.8280204848282466E-002   9.0730683453978944E-003
   5.9032264314080457E-002  -1.7231676289839126E-002   8.2195928975767607E-003
   5.5456175472975183E-002  -1.6233638759829805E-002   7.3592435314298252E-003
   5.1880086631869937E-002  -1.5286092258254058E-002   6.4920202469572752E-003
   6.1169898138003373E-002  -1.7827558697472101E-002   1.9884350871143042E-002
   5.7697071360730587E-002  -1.6734426067953084E-002   1.9287475207906246E-002
   5.4224244583457711E-002  -1.5717027793576033E-002   1.8903997590659957E-002
   5.0751417806184917E-002  -1.4775363874341391E-002   1.8733918019404123E-002
   4.7278591028912041E-002  -1.3909434310248381E-002   1.8777236494138719E-002
   5.6358056855604521E-002  -1.6275892959784599E-002   2.9855766573388176E-002
   5.3208764106480233E-002  -1.5188647287623980E-002   2.9483373449702199E-002
   5.0059471357356028E-002  -1.4202379297313342E-002   2.9544650336322725E-002
   4.6910178608231753E-002  -1.3317088988852661E-002   3.0039597233250018E-002
   4.3760885859107479E-002  -1.2532776362242426E-002   3.0968214140484063E-002
   6.4334449137245731E-002  -1.8039408154265857E-002  -1.8361128049915965E-002
   6.5439289489738428E-002  -1.7366299259797380E-002  -1.9637900547374132E-002
   6.6544129842231237E-002  -1.7568528954455653E-002  -2.4153441643630646E-002
   6.7648970194724017E-002  -1.8646097238240469E-002  -3.1907751338686952E-002
   6.8753810547216743E-002  -2.0599004111152119E-002  -4.2900829632541271E-002
   5.7565372667981229E-002  -1.6662750206260180E-002  -5.8874346010614476E-003
   5.5984735782922956E-002  -1.6066757300195356E-002  -6.3853412808117516E-003
   5.4404098897864683E-002  -1.6311857758391168E-002  -9.0154338368650944E-003
   5.2823462012806466E-002  -1.7398051580848228E-002  -1.3777712269221948E-002
   5.1242825127748137E-002  -1.9325338767565370E-002  -2.0672176577881896E-002
   5.1880086631869937E-002  -1.5286092258254058E-002   6.4920202469572752E-003
   4.8720555231756446E-002  -1.4767215340592887E-002   6.8072246097803935E-003
   4.5561023831643108E-002  -1.5055186562326767E-002   6.0968258187956981E-003
   4.2401492431529735E-002  -1.6150005923455814E-002   4.3608238740037858E-003
   3.9241961031416250E-002  -1.8051673423979286E-002   1.5992187754046983E-003
   4.7278591028912041E-002  -1.3909434310248381E-002   1.8777236494138719E-002
   4.3646747836239237E-002  -1.3467673380990863E-002   1.9939797124401082E-002
   4.0014904643566426E-002  -1.3798515366262545E-002   2.1183337323351578E-002
   3.6383061450893581E-002  -1.4901960266063042E-002   2.2507857090990565E-002
   3.2751218258220735E-002  -1.6778008080392870E-002   2.3913356427318205E-002
   4.3760885859107479E-002  -1.2532776362242426E-002   3.0968214140484063E-002
   4.0763313596371031E-002  -1.2168131421388617E-002   3.3012376263051202E-002
   3.7765741333634556E-002  -1.2541844170198060E-002   3.6244100676802643E-002
   3.4768169070898025E-002  -1.3653914608670870E-002   4.0663387381738483E-002
   3.1770596808161633E-002  -1.5504342736806453E-002   4.6270236377858653E-002
   9.0361121608861769E-002   0.0000000000000000        4.9850573128672374E-002
   9.3958457555556804E-002  -5.4026221831876909E-003   5.3227421163517419E-002
   9.7555793502251825E-002  -1.0667444092915864E-002   5.4988489514768507E-002
  0.10115312944894685       -1.5794465729184519E-002   5.5133778182425618E-002
  0.10475046539564188       -2.0783687091993658E-002   5.3663287166488702E-002
   8.2425247163557980E-002   0.0000000000000000        4.4799964722814112E-002
   8.4635678861892064E-002  -4.5742045550705712E-003   4.8287058970686816E-002
   8.6846110560226134E-002  -9.0374292366841476E-003   5.0616124405431562E-002
   8.9056542258560190E-002  -1.3389674044840729E-002   5.1787161027048376E-002
   9.1266973956894260E-002  -1.7630938979540323E-002   5.1800168835537272E-002
   7.4246353422590561E-002   0.0000000000000000        4.0591184145074247E-002
   7.5527631743029719E-002  -3.7457869269534485E-003   4.4161704205972055E-002
   7.6808910063468863E-002  -7.4074143804524293E-003   4.7031946324207957E-002
   7.8090188383908035E-002  -1.0984882360496946E-002   4.9201910499781981E-002
   7.9371466704347166E-002  -1.4478190867086994E-002   5.0671596732694099E-002
   6.5824440385959512E-002   0.0000000000000000        3.7224231395452757E-002
   6.6634316198969798E-002  -2.9173692988363276E-003   4.0851356869373155E-002
   6.7444192011980056E-002  -5.7773995242207136E-003   4.4235955271097693E-002
   6.8254067824990328E-002  -8.5800906761531633E-003   4.7378026600626386E-002
   6.9063943638000613E-002  -1.1325442754633666E-002   5.0277570857959225E-002
   5.7159508053664834E-002   0.0000000000000000        3.4699106473949651E-002
   5.7955732229712273E-002  -2.0889516707192062E-003   3.8356016960890117E-002
   5.8751956405759698E-002  -4.1473846679889962E-003   4.2228151246100770E-002
   5.9548180581807136E-002  -6.1752989918093717E-003   4.6315509329581603E-002
   6.0344404757854561E-002  -8.1726946421803327E-003   5.0618091211332587E-002
  0.10475046539564188       -2.0783687091993658E-002   5.3663287166488702E-002
  0.10209614913267406       -2.4922678479318727E-002   4.5678370652258785E-002
   9.9441832869706231E-002  -2.7499010189135181E-002   3.9378588111315796E-002
   9.6787516606738386E-002  -2.8512682221443007E-002   3.4763939543659632E-002
   9.4133200343770568E-002  -2.7963694576242190E-002   3.1834424949290271E-002
   9.1266973956894260E-002  -1.7630938979540323E-002   5.1800168835537272E-002
   9.0060919515784432E-002  -2.1205765158843363E-002   4.6558643013501350E-002
   8.8854865074674577E-002  -2.3558693700810266E-002   4.2528506861894660E-002
   8.7648810633564722E-002  -2.4689724605441044E-002   3.9709760380717024E-002
   8.6442756192454867E-002  -2.4598857872735705E-002   3.8102403569968482E-002
   7.9371466704347166E-002  -1.4478190867086994E-002   5.0671596732694099E-002
   7.9139929782237564E-002  -1.7488851838368000E-002   4.7832699562679784E-002
   7.8908392860127963E-002  -1.9618377212485372E-002   4.5731447760236799E-002
   7.8676855938018375E-002  -2.0866766989439105E-002   4.4367841325365198E-002
   7.8445319015908788E-002  -2.1234021169229213E-002   4.3741880258064969E-002
   6.9063943638000613E-002  -1.1325442754633666E-002   5.0277570857959225E-002
   6.9333179932033501E-002  -1.3771938517892636E-002   4.9500540299793928E-002
   6.9602416226066402E-002  -1.5678060724160454E-002   4.8987410806342259E-002
   6.9871652520099289E-002  -1.7043809373437167E-002   4.8738182377604244E-002
   7.0140888814132177E-002  -1.7869184465722738E-002   4.8752855013579816E-002
   6.0344404757854561E-002  -8.1726946421803327E-003   5.0618091211332587E-002
   6.0640669965172221E-002  -1.0055025197417269E-002   5.1562165224843831E-002
   6.0936935172489874E-002  -1.1737744235835573E-002   5.2296396000211007E-002
   6.1233200379807534E-002  -1.3220851757435216E-002   5.2820783537433996E-002
   6.1529465587125173E-002  -1.4504347762216228E-002   5.3135327836512904E-002
   9.4133200343770568E-002  -2.7963694576242190E-002   3.1834424949290271E-002
   9.1718091163157489E-002  -2.6752220910270810E-002   3.1272593210809219E-002
   8.9302981982544397E-002  -2.5778434880266810E-002   3.0788754568337844E-002
   8.6887872801931304E-002  -2.5042336486230252E-002   3.0382909021876101E-002
   8.4472763621318198E-002  -2.4543925728161137E-002   3.0055056571423905E-002
   8.6442756192454867E-002  -2.4598857872735705E-002   3.8102403569968482E-002
   8.4155721140703382E-002  -2.3939702603401010E-002   3.7122155739086525E-002
   8.1868686088951870E-002  -2.3365867898143863E-002   3.6320063069918120E-002
   7.9581651037200385E-002  -2.2877353756964130E-002   3.5696125562463307E-002
   7.7294615985448845E-002  -2.2474160179861910E-002   3.5250343216721963E-002
   7.8445319015908788E-002  -2.1234021169229213E-002   4.3741880258064969E-002
   7.6386520158722770E-002  -2.1127184296531272E-002   4.2495583406672047E-002
   7.4327721301536767E-002  -2.0953300916020871E-002   4.1527603782696550E-002
   7.2268922444350778E-002  -2.0712371027698007E-002   4.0837941386138540E-002
   7.0210123587164774E-002  -2.0404394631562670E-002   4.0426596216998040E-002
   7.0140888814132177E-002  -1.7869184465722738E-002   4.8752855013579816E-002
   6.8410488217215640E-002  -1.8314665989661517E-002   4.7392876213565790E-002
   6.6680087620299047E-002  -1.8540733933897897E-002   4.6411376706673259E-002
   6.4949687023382469E-002  -1.8547388298431854E-002   4.5808356492901964E-002
   6.3219286426465918E-002  -1.8334629083263464E-002   4.5583815572252107E-002
   6.1529465587125173E-002  -1.4504347762216228E-002   5.3135327836512904E-002
   6.0227625316181962E-002  -1.5502147682791741E-002   5.1814034159767756E-002
   5.8925785045238745E-002  -1.6128166951774922E-002   5.0971381841848018E-002
   5.7623944774295527E-002  -1.6382405569165762E-002   5.0607370882753522E-002
   5.6322104503352302E-002  -1.6264863534964188E-002   5.0722001282484372E-002
   8.4472763621318198E-002  -2.4543925728161137E-002   3.0055056571423905E-002
   8.1858220502042139E-002  -2.4135253192160755E-002   2.9388162132757509E-002
   7.9243677382766067E-002  -2.3668369464330749E-002   2.9117923935981560E-002
   7.6629134263490051E-002  -2.3143274544670769E-002   2.9244341981096024E-002
   7.4014591144213965E-002  -2.2559968433181116E-002   2.9767416268100810E-002
   7.7294615985448845E-002  -2.2474160179861910E-002   3.5250343216721963E-002
   7.5047080394400667E-002  -2.2093757132378350E-002   3.4696430650313137E-002
   7.2799544803352462E-002  -2.1673614580054641E-002   3.4479876898469680E-002
   7.0552009212304270E-002  -2.1213732522890733E-002   3.4600681961191593E-002
   6.8304473621256065E-002  -2.0714110960886739E-002   3.5058845838478875E-002
   7.0210123587164774E-002  -2.0404394631562670E-002   4.0426596216998040E-002
   6.8270298097019344E-002  -2.0052261072595862E-002   3.9967193835857215E-002
   6.6330472606873872E-002  -1.9678859695778532E-002   3.9785852841956730E-002
   6.4390647116728428E-002  -1.9284190501110673E-002   3.9882573235296481E-002
   6.2450821626583018E-002  -1.8868253488592321E-002   4.0257355015876330E-002
   6.3219286426465918E-002  -1.8334629083263464E-002   4.5583815572252107E-002
   6.1527873609898115E-002  -1.8010765012813373E-002   4.5200451689389777E-002
   5.9836460793330319E-002  -1.7684104811502479E-002   4.5035851766442529E-002
   5.8145047976762544E-002  -1.7354648479330638E-002   4.5090015803410412E-002
   5.6453635160194714E-002  -1.7022396016297923E-002   4.5362943800293286E-002
   5.6322104503352302E-002  -1.6264863534964188E-002   5.0722001282484372E-002
   5.4819806933037035E-002  -1.5969268953030941E-002   5.0396204210910692E-002
   5.3317509362721789E-002  -1.5689349927226374E-002   5.0229873671927112E-002
   5.1815211792406515E-002  -1.5425106457550589E-002   5.0223009665533433E-002
   5.0312914222091276E-002  -1.5176538544003554E-002   5.0375612191729896E-002
   7.4014591144213965E-002  -2.2559968433181116E-002   2.9767416268100810E-002
   7.2066434956254199E-002  -2.1937114969439092E-002   2.9893225831534725E-002
   7.0118278768294476E-002  -2.1293377993022118E-002   3.0035154587424298E-002
   6.8170122580334724E-002  -2.0628757503930520E-002   3.0193202535769563E-002
   6.6221966392374987E-002  -1.9943253502163916E-002   3.0367369676570222E-002
   6.8304473621256065E-002  -2.0714110960886739E-002   3.5058845838478875E-002
   6.6395001656886221E-002  -2.0173636994731792E-002   3.5095110369399968E-002
   6.4485529692516391E-002  -1.9591197725115243E-002   3.5192624155045343E-002
   6.2576057728146492E-002  -1.8966793152037156E-002   3.5351387195414731E-002
   6.0666585763776648E-002  -1.8300423275497302E-002   3.5571399490508360E-002
   6.2450821626583018E-002  -1.8868253488592321E-002   4.0257355015876330E-002
   6.0625163948071534E-002  -1.8410159020024477E-002   4.0225156305071515E-002
   5.8799506269560028E-002  -1.7889017457208282E-002   4.0299336911259379E-002
   5.6973848591048558E-002  -1.7304828800143703E-002   4.0479896834439991E-002
   5.5148190912537087E-002  -1.6657593048830660E-002   4.0766836074612983E-002
   5.6453635160194714E-002  -1.7022396016297923E-002   4.5362943800293286E-002
   5.4756921829810123E-002  -1.6646681045317198E-002   4.5283363638549415E-002
   5.3060208499425519E-002  -1.6186837189301279E-002   4.5355292856066501E-002
   5.1363495169040894E-002  -1.5642864448250266E-002   4.5578731452844926E-002
   4.9666781838656290E-002  -1.5014762822163977E-002   4.5953679428884314E-002
   5.0312914222091276E-002  -1.5176538544003554E-002   5.0375612191729896E-002
   4.8790275302102032E-002  -1.4883203070609849E-002   5.0269732369833564E-002
   4.7267636382112760E-002  -1.4484656921394397E-002   5.0360491989466863E-002
   4.5744997462123529E-002  -1.3980900096356859E-002   5.0647891050629799E-002
   4.4222358542134271E-002  -1.3371932595497404E-002   5.1131929553322242E-002
   6.6221966392374987E-002  -1.9943253502163916E-002   3.0367369676570222E-002
   6.3755989008182357E-002  -1.9192084149687039E-002   2.9915700079716029E-002
   6.1290011623989754E-002  -1.8330467608465184E-002   2.9679876363567725E-002
   5.8824034239797166E-002  -1.7358403878497367E-002   2.9659898528125034E-002
   5.6358056855604521E-002  -1.6275892959784599E-002   2.9855766573388176E-002
   6.0666585763776648E-002  -1.8300423275497302E-002   3.5571399490508360E-002
   5.8416433050292788E-002  -1.7575691058326404E-002   3.5249297744288838E-002
   5.6166280336808982E-002  -1.6776199463355054E-002   3.5142999458781035E-002
   5.3916127623325157E-002  -1.5901948490583209E-002   3.5252504633984896E-002
   5.1665974909841317E-002  -1.4952938140010974E-002   3.5577813269900782E-002
   5.5148190912537087E-002  -1.6657593048830660E-002   4.0766836074612983E-002
   5.3113820449767965E-002  -1.5959297966965574E-002   4.0538614368083231E-002
   5.1079449986998836E-002  -1.5221931318245091E-002   4.0526153702271334E-002
   4.9045079524229734E-002  -1.4445493102668940E-002   4.0729454077176944E-002
   4.7010709061460584E-002  -1.3629983320237293E-002   4.1148515492800256E-002
   4.9666781838656290E-002  -1.5014762822163977E-002   4.5953679428884314E-002
   4.7848151206607847E-002  -1.4342904875604814E-002   4.5783649951099417E-002
   4.6029520574559404E-002  -1.3667663173135072E-002   4.5829339094038156E-002
   4.4210889942510975E-002  -1.2989037714754726E-002   4.6090746857700621E-002
   4.2392259310462518E-002  -1.2307028500463585E-002   4.6567873242086472E-002
   4.4222358542134271E-002  -1.3371932595497404E-002   5.1131929553322242E-002
   4.2619425320812448E-002  -1.2726511784244054E-002   5.0984404493337271E-002
   4.1016492099490640E-002  -1.2113395028024970E-002   5.1052555634081842E-002
   3.9413558878168810E-002  -1.1532582326840506E-002   5.1336382975556136E-002
   3.7810625656847008E-002  -1.0984073680689987E-002   5.1835886517759833E-002
   5.6358056855604521E-002  -1.6275892959784599E-002   2.9855766573388176E-002
   5.3208764106480233E-002  -1.5188647287623980E-002   2.9483373449702199E-002
   5.0059471357356028E-002  -1.4202379297313342E-002   2.9544650336322725E-002
   4.6910178608231753E-002  -1.3317088988852661E-002   3.0039597233250018E-002
   4.3760885859107479E-002  -1.2532776362242426E-002   3.0968214140484063E-002
   5.1665974909841317E-002  -1.4952938140010974E-002   3.5577813269900782E-002
   4.8933796874267133E-002  -1.4015097015852490E-002   3.5126643190601464E-002
   4.6201618838692976E-002  -1.3174353722322951E-002   3.5076032528095547E-002
   4.3469440803118785E-002  -1.2430708259421427E-002   3.5425981282383320E-002
   4.0737262767544635E-002  -1.1784160627148821E-002   3.6176489453464633E-002
   4.7010709061460584E-002  -1.3629983320237293E-002   4.1148515492800256E-002
   4.4662535145923388E-002  -1.2841546744081361E-002   4.0622448309109119E-002
   4.2314361230386198E-002  -1.2146328147332387E-002   4.0463829948698508E-002
   3.9966187314849022E-002  -1.1544327529990303E-002   4.0672660411568154E-002
   3.7618013399311825E-002  -1.1035544892055354E-002   4.1248939697718354E-002
   4.2392259310462518E-002  -1.2307028500463585E-002   4.6567873242086472E-002
   4.0394978921449186E-002  -1.1667996472309969E-002   4.5970788805225274E-002
   3.8397698532435832E-002  -1.1118302572341855E-002   4.5708042598131222E-002
   3.6400418143422458E-002  -1.0657946800559068E-002   4.5779634620804477E-002
   3.4403137754409091E-002  -1.0286929156961708E-002   4.6185564873245114E-002
   3.7810625656847008E-002  -1.0984073680689987E-002   5.1835886517759833E-002
   3.6131128200844354E-002  -1.0494446200538771E-002   5.1171664678949902E-002
   3.4451630744841741E-002  -1.0090276997351433E-002   5.0808670476394174E-002
   3.2772133288839093E-002  -9.7715660711278629E-003   5.0746903910092539E-002
   3.1092635832836446E-002  -9.5383134218682830E-003   5.0986364980044940E-002
   4.3760885859107479E-002  -1.2532776362242426E-002   3.0968214140484063E-002
   4.0763313596371031E-002  -1.2168131421388617E-002   3.3012376263051202E-002
   3.7765741333634556E-002  -1.2541844170198060E-002   3.6244100676802643E-002
   3.4768169070898025E-002  -1.3653914608670870E-002   4.0663387381738483E-002
   3.1770596808161633E-002  -1.5504342736806453E-002   4.6270236377858653E-002
   4.0737262767544635E-002  -1.1784160627148821E-002   3.6176489453464633E-002
   3.8763546941005006E-002  -1.1351296989177945E-002   3.7427005520555334E-002
   3.6789831114465404E-002  -1.1248703509181918E-002   3.9537672168855453E-002
   3.4816115287925713E-002  -1.1476380187161232E-002   4.2508489398364935E-002
   3.2842399461386229E-002  -1.2034327023115354E-002   4.6339457209084278E-002
   3.7618013399311825E-002  -1.1035544892055354E-002   4.1248939697718354E-002
   3.6340742298994200E-002  -1.0534462556967328E-002   4.2113897241020687E-002
   3.5063471198676560E-002  -9.9555628481661010E-003   4.3511593655557811E-002
   3.3786200098358962E-002  -9.2988457656518423E-003   4.5442028941329149E-002
   3.2508928998041309E-002  -8.5643113094243661E-003   4.7905203098335236E-002
   3.4403137754409091E-002  -1.0286929156961708E-002   4.6185564873245114E-002
   3.3494899670338606E-002  -9.7176281247566276E-003   4.7073051424447461E-002
   3.2586661586268120E-002  -8.6624221871501768E-003   4.8165865136909271E-002
   3.1678423502197635E-002  -7.1213113441423283E-003   4.9464006010630827E-002
   3.0770185418127143E-002  -5.0942955957333780E-003   5.0967474045612235E-002
   3.1092635832836446E-002  -9.5383134218682830E-003   5.0986364980044940E-002
   3.0226019055038245E-002  -8.9007936925459830E-003   5.2304468070835164E-002
   2.9359402277239932E-002  -7.3692815261341693E-003   5.3500486612910236E-002
   2.8492785499441689E-002  -4.9437769226329600E-003   5.4574420606270074E-002
   2.7626168721643474E-002  -1.6242798820422788E-003   5.5526270050914706E-002
   5.7159508053664834E-002   0.0000000000000000        3.4699106473949651E-002
   5.7955732229712273E-002  -2.0889516707192062E-003   3.8356016960890117E-002
   5.8751956405759698E-002  -4.1473846679889962E-003   4.2228151246100770E-002
   5.9548180581807136E-002  -6.1752989918093717E-003   4.6315509329581603E-002
   6.0344404757854561E-002  -8.1726946421803327E-003   5.0618091211332587E-002
   4.8662680603365448E-002   0.0000000000000000        3.2792643689827240E-002
   4.9608482813406046E-002  -1.7155199632064811E-003   3.6971591406464048E-002
   5.0554285023446638E-002  -3.4446507312241113E-003   4.1234471392817010E-002
   5.1500087233487229E-002  -5.1873923040528912E-003   4.5581283648886112E-002
   5.2445889443527821E-002  -6.9437446816928185E-003   5.0012028174671347E-002
   4.0745082212720302E-002   0.0000000000000000        3.1281677352347839E-002
   4.1709170928200021E-002  -1.3420882556937543E-003   3.5938532820420435E-002
   4.2673259643679733E-002  -2.7419167944592220E-003   4.0548029029655125E-002
   4.3637348359159452E-002  -4.1994856162964082E-003   4.5110165980051936E-002
   4.4601437074639178E-002  -5.7147947212053069E-003   4.9624943671610834E-002
   3.3406712881729375E-002   0.0000000000000000        3.0166207461511444E-002
   3.4257796574094182E-002  -9.6865654818102795E-004   3.5256841202759244E-002
   3.5108880266458982E-002  -2.0391828576943366E-003   4.0168824156615122E-002
   3.5959963958823789E-002  -3.2115789285399230E-003   4.4902156323079069E-002
   3.6811047651188589E-002  -4.4858447607177953E-003   4.9456837702151084E-002
   2.6647572610392693E-002   0.0000000000000000        2.9446234017318058E-002
   2.7254359751088541E-002  -5.9522484066830243E-004   3.4926516553480523E-002
   2.7861146891784393E-002  -1.3364489209294478E-003   4.0096856773697016E-002
   2.8467934032480241E-002  -2.2236722407834447E-003   4.4957254677967524E-002
   2.9074721173176086E-002  -3.2568948002302776E-003   4.9507710266292068E-002
   6.0344404757854561E-002  -8.1726946421803327E-003   5.0618091211332587E-002
   6.0640669965172221E-002  -1.0055025197417269E-002   5.1562165224843831E-002
   6.0936935172489874E-002  -1.1737744235835573E-002   5.2296396000211007E-002
   6.1233200379807534E-002  -1.3220851757435216E-002   5.2820783537433996E-002
   6.1529465587125173E-002  -1.4504347762216228E-002   5.3135327836512904E-002
   5.2445889443527821E-002  -6.9437446816928185E-003   5.0012028174671347E-002
   5.2571221182020983E-002  -8.6113667899171235E-003   5.1244416333170853E-002
   5.2696552920514166E-002  -1.0087917554498997E-002   5.2344780792165486E-002
   5.2821884659007341E-002  -1.1373396975438469E-002   5.3313121551655282E-002
   5.2947216397500510E-002  -1.2467805052735530E-002   5.4149438611640240E-002
   4.4601437074639178E-002  -5.7147947212053069E-003   4.9624943671610834E-002
   4.4633654882947127E-002  -7.1677083824169662E-003   5.1137105801922329E-002
   4.4665872691255076E-002  -8.4380908731624439E-003   5.2595063771368251E-002
   4.4698090499563040E-002  -9.5259421934417356E-003   5.3998817579948608E-002
   4.4730308307870975E-002  -1.0431262343254834E-002   5.5348367227663356E-002
   3.6811047651188589E-002  -4.4858447607177953E-003   4.9456837702151084E-002
   3.6827971067950591E-002  -5.7240499749168184E-003   5.1240233631098364E-002
   3.6844894484712606E-002  -6.7882641918258924E-003   5.3047244937819350E-002
   3.6861817901474629E-002  -7.6784874114449791E-003   5.4877871622314021E-002
   3.6878741318236624E-002  -8.3947196337741305E-003   5.6732113684582385E-002
   2.9074721173176086E-002  -3.2568948002302776E-003   4.9507710266292068E-002
   2.9154169737031426E-002  -4.2803915674166628E-003   5.1553799820698944E-002
   2.9233618300886756E-002  -5.1384375104893297E-003   5.3701324291518734E-002
   2.9313066864742089E-002  -5.8310326294482512E-003   5.5950283678751496E-002
   2.9392515428597422E-002  -6.3581769242934405E-003   5.8300677982397214E-002
   6.1529465587125173E-002  -1.4504347762216228E-002   5.3135327836512904E-002
   6.0227625316181962E-002  -1.5502147682791741E-002   5.1814034159767756E-002
   5.8925785045238745E-002  -1.6128166951774922E-002   5.0971381841848018E-002
   5.7623944774295527E-002  -1.6382405569165762E-002   5.0607370882753522E-002
   5.6322104503352302E-002  -1.6264863534964188E-002   5.0722001282484372E-002
   5.2947216397500510E-002  -1.2467805052735530E-002   5.4149438611640240E-002
   5.2067212224513673E-002  -1.3318804000612333E-002   5.3470444557416535E-002
   5.1187208051526857E-002  -1.3874056033291017E-002   5.3156481340280420E-002
   5.0307203878540013E-002  -1.4133561150771554E-002   5.3207548960231610E-002
   4.9427199705553197E-002  -1.4097319353054014E-002   5.3623647417270326E-002
   4.4730308307870975E-002  -1.0431262343254834E-002   5.5348367227663356E-002
   4.4158529711102706E-002  -1.1135460318432894E-002   5.5235639059566952E-002
   4.3586751114334417E-002  -1.1619945114807080E-002   5.5374331206820150E-002
   4.3014972517566141E-002  -1.1884716732377372E-002   5.5764443669422958E-002
   4.2443193920797859E-002  -1.1929775171143818E-002   5.6405976447375356E-002
   3.6878741318236624E-002  -8.3947196337741305E-003   5.6732113684582385E-002
   3.6501577775949041E-002  -8.9521166362534644E-003   5.7109617666218970E-002
   3.6124414233661452E-002  -9.3658341963231660E-003   5.7624931441467249E-002
   3.5747250691373848E-002  -9.6358723139832094E-003   5.8278055010327352E-002
   3.5370087149086245E-002  -9.7622309892336188E-003   5.9068988372799225E-002
   2.9392515428597422E-002  -6.3581769242934405E-003   5.8300677982397214E-002
   2.9096356419052671E-002  -6.7687729540740552E-003   5.9092380377372529E-002
   2.8800197409507924E-002  -7.1117232778392311E-003   5.9908282044221758E-002
   2.8504038399963176E-002  -7.3870278955890292E-003   6.0748382982944930E-002
   2.8207879390418418E-002  -7.5946868073234197E-003   6.1612683193542045E-002
   5.6322104503352302E-002  -1.6264863534964188E-002   5.0722001282484372E-002
   5.4819806933037035E-002  -1.5969268953030941E-002   5.0396204210910692E-002
   5.3317509362721789E-002  -1.5689349927226374E-002   5.0229873671927112E-002
   5.1815211792406515E-002  -1.5425106457550589E-002   5.0223009665533433E-002
   5.0312914222091276E-002  -1.5176538544003554E-002   5.0375612191729896E-002
   4.9427199705553197E-002  -1.4097319353054014E-002   5.3623647417270326E-002
   4.8092687871121524E-002  -1.3903729238015611E-002   5.3218705643691605E-002
   4.6758176036689816E-002  -1.3691189403533633E-002   5.2989868809289867E-002
   4.5423664202258122E-002  -1.3459699849608011E-002   5.2937136914065409E-002
   4.4089152367826442E-002  -1.3209260576238779E-002   5.3060509958018073E-002
   4.2443193920797859E-002  -1.1929775171143818E-002   5.6405976447375356E-002
   4.1293106228836904E-002  -1.1838189523000323E-002   5.5956515247363670E-002
   4.0143018536875970E-002  -1.1693028879840863E-002   5.5699797393116313E-002
   3.8992930844915022E-002  -1.1494293241665433E-002   5.5635822884633299E-002
   3.7842843152954081E-002  -1.1241982608474047E-002   5.5764591721914551E-002
   3.5370087149086245E-002  -9.7622309892336188E-003   5.9068988372799225E-002
   3.4421062006183237E-002  -9.7726498079850135E-003   5.8609633021927024E-002
   3.3472036863280236E-002  -9.6948683561481619E-003   5.8359659423406367E-002
   3.2523011720377221E-002  -9.5288866337229113E-003   5.8319067577237184E-002
   3.1573986577474213E-002  -9.2747046407093484E-003   5.8487857483419559E-002
   2.8207879390418418E-002  -7.5946868073234197E-003   6.1612683193542045E-002
   2.7476555203160523E-002  -7.7071100929696768E-003   6.1178058967381710E-002
   2.6745231015902624E-002  -7.6967078324554003E-003   6.0969454900159994E-002
   2.6013906828644726E-002  -7.5634800257802625E-003   6.0986870991877030E-002
   2.5282582641386830E-002  -7.3074266729445392E-003   6.1230307242532783E-002
   5.0312914222091276E-002  -1.5176538544003554E-002   5.0375612191729896E-002
   4.8790275302102032E-002  -1.4883203070609849E-002   5.0269732369833564E-002
   4.7267636382112760E-002  -1.4484656921394397E-002   5.0360491989466863E-002
   4.5744997462123529E-002  -1.3980900096356859E-002   5.0647891050629799E-002
   4.4222358542134271E-002  -1.3371932595497404E-002   5.1131929553322242E-002
   4.4089152367826442E-002  -1.3209260576238779E-002   5.3060509958018073E-002
   4.2760600308186264E-002  -1.2915375421635233E-002   5.3016106553757214E-002
   4.1432048248546086E-002  -1.2553548224006651E-002   5.3163237428664890E-002
   4.0103496188905914E-002  -1.2123778983352868E-002   5.3501902582741095E-002
   3.8774944129265743E-002  -1.1626067699673920E-002   5.4032102015986044E-002
   3.7842843152954081E-002  -1.1241982608474047E-002   5.5764591721914551E-002
   3.6703272791301915E-002  -1.0947547772660542E-002   5.5744396102492412E-002
   3.5563702429649763E-002  -1.0622439526618819E-002   5.5910629599877706E-002
   3.4424132067997611E-002  -1.0266657870348792E-002   5.6263292214070476E-002
   3.3284561706345438E-002  -9.8802028038505463E-003   5.6802383945070839E-002
   3.1573986577474213E-002  -9.2747046407093484E-003   5.8487857483419559E-002
   3.0618292751449006E-002  -8.9797201236858880E-003   5.8454601016039116E-002
   2.9662598925423788E-002  -8.6913308292310854E-003   5.8602668503105179E-002
   2.8706905099398577E-002  -8.4095367573447863E-003   5.8932059944617587E-002
   2.7751211273373357E-002  -8.1343379080271450E-003   5.9442775340576411E-002
   2.5282582641386830E-002  -7.3074266729445392E-003   6.1230307242532783E-002
   2.4505660188627508E-002  -7.0118924747112343E-003   6.1146721294397327E-002
   2.3728737735868165E-002  -6.7602221318432132E-003   6.1239354138347191E-002
   2.2951815283108842E-002  -6.5524156443407741E-003   6.1508205774382485E-002
   2.2174892830349513E-002  -6.3884730122037436E-003   6.1953276202503016E-002
   4.4222358542134271E-002  -1.3371932595497404E-002   5.1131929553322242E-002
   4.2619425320812448E-002  -1.2726511784244054E-002   5.0984404493337271E-002
   4.1016492099490640E-002  -1.2113395028024970E-002   5.1052555634081842E-002
   3.9413558878168810E-002  -1.1532582326840506E-002   5.1336382975556136E-002
   3.7810625656847008E-002  -1.0984073680689987E-002   5.1835886517759833E-002
   3.8774944129265743E-002  -1.1626067699673920E-002   5.4032102015986044E-002
   3.7387735642744294E-002  -1.1105622503575871E-002   5.3814268343409591E-002
   3.6000527156222845E-002  -1.0607651525664542E-002   5.3812207939704065E-002
   3.4613318669701389E-002  -1.0132154765939949E-002   5.4025920804869870E-002
   3.3226110183179960E-002  -9.6791322244021982E-003   5.4455406938906686E-002
   3.3284561706345438E-002  -9.8802028038505463E-003   5.6802383945070839E-002
   3.2113175022765915E-002  -9.4847332229077430E-003   5.6524071496750282E-002
   3.0941788339186375E-002  -9.1019080233040589E-003   5.6461629385442511E-002
   2.9770401655606835E-002  -8.7317272050396154E-003   5.6615057611147275E-002
   2.8599014972027305E-002  -8.3741907681142980E-003   5.6984356173864881E-002
   2.7751211273373357E-002  -8.1343379080271450E-003   5.9442775340576411E-002
   2.6795743460877298E-002  -7.8638439422396428E-003   5.9113813953359538E-002
   2.5840275648381233E-002  -7.5961645209436587E-003   5.9000819971296900E-002
   2.4884807835885162E-002  -7.3312996441392813E-003   5.9103793394388440E-002
   2.3929340023389083E-002  -7.0692493118264255E-003   5.9422734222634277E-002
   2.2174892830349513E-002  -6.3884730122037436E-003   6.1953276202503016E-002
   2.1435440957078458E-002  -6.2429546615714315E-003   6.1583495713237346E-002
   2.0695989083807396E-002  -6.0904210185831337E-003   6.1429779697267400E-002
   1.9956537210536324E-002  -5.9308720832387495E-003   6.1492128154593387E-002
   1.9217085337265294E-002  -5.7643078555386085E-003   6.1770541085214958E-002
   3.7810625656847008E-002  -1.0984073680689987E-002   5.1835886517759833E-002
   3.6131128200844354E-002  -1.0494446200538771E-002   5.1171664678949902E-002
   3.4451630744841741E-002  -1.0090276997351433E-002   5.0808670476394174E-002
   3.2772133288839093E-002  -9.7715660711278629E-003   5.0746903910092539E-002
   3.1092635832836446E-002  -9.5383134218682830E-003   5.0986364980044940E-002
   3.3226110183179960E-002  -9.6791322244021982E-003   5.4455406938906686E-002
   3.1826884700918587E-002  -9.2652336840066130E-003   5.3657033669567478E-002
   3.0427659218657234E-002  -8.9071089277089344E-003   5.3117976711456558E-002
   2.9028433736395878E-002  -8.6047579555091833E-003   5.2838236064574086E-002
   2.7629208254134521E-002  -8.3581807674071307E-003   5.2817811728920028E-002
   2.8599014972027305E-002  -8.3741907681142980E-003   5.6984356173864881E-002
   2.7438150138481485E-002  -8.0360211674744969E-003   5.6081515966862311E-002
   2.6277285304935633E-002  -7.7239408580664914E-003   5.5396080746062296E-002
   2.5116420471389789E-002  -7.4379498398903926E-003   5.4928050511464932E-002
   2.3955555637843962E-002  -7.1780481129459783E-003   5.4677425263070289E-002
   2.3929340023389083E-002  -7.0692493118264255E-003   5.9422734222634277E-002
   2.2964924513533002E-002  -6.8068086509422768E-003   5.8445111570834367E-002
   2.2000509003676897E-002  -6.5407727884241318E-003   5.7642982580211430E-002
   2.1036093493820816E-002  -6.2711417242716574E-003   5.7016347250765216E-002
   2.0071677983964715E-002  -5.9979154584848815E-003   5.6565205582496010E-002
   1.9217085337265294E-002  -5.7643078555386085E-003   6.1770541085214958E-002
   1.8407207826073163E-002  -5.5775961344102509E-003   6.0747820481483750E-002
   1.7597330314881060E-002  -5.3576047187815778E-003   5.9858682213903835E-002
   1.6787452803688943E-002  -5.1043336086529015E-003   5.9103126282474827E-002
   1.5977575292496826E-002  -4.8177828040236736E-003   5.8481152687196891E-002
   3.1092635832836446E-002  -9.5383134218682830E-003   5.0986364980044940E-002
   3.0226019055038245E-002  -8.9007936925459830E-003   5.2304468070835164E-002
   2.9359402277239932E-002  -7.3692815261341693E-003   5.3500486612910236E-002
   2.8492785499441689E-002  -4.9437769226329600E-003   5.4574420606270074E-002
   2.7626168721643474E-002  -1.6242798820422788E-003   5.5526270050914706E-002
   2.7629208254134521E-002  -8.3581807674071307E-003   5.2817811728920028E-002
   2.6687544355728565E-002  -7.8280779313001370E-003   5.4731135968827616E-002
   2.5745880457322602E-002  -6.6751500150851739E-003   5.6616450516235400E-002
   2.4804216558916726E-002  -4.8993970187621999E-003   5.8473755371142452E-002
   2.3862552660510739E-002  -2.5008189423311178E-003   6.0303050533549563E-002
   2.3955555637843962E-002  -7.1780481129459783E-003   5.4677425263070289E-002
   2.3032919475045280E-002  -6.7553621700543187E-003   5.6914803295114141E-002
   2.2110283312246570E-002  -5.9810185040361091E-003   5.9218246490872498E-002
   2.1187647149447850E-002  -4.8550171148912975E-003   6.1587754850345892E-002
   2.0265010986649179E-002  -3.3773580026199568E-003   6.4023328373533861E-002
   2.0071677983964715E-002  -5.9979154584848815E-003   5.6565205582496010E-002
   1.9262144412988208E-002  -5.6826464088086531E-003   5.8855470049694450E-002
   1.8452610842011684E-002  -5.2868869929869680E-003   6.1305874536822708E-002
   1.7643077271035215E-002  -4.8106372110203553E-003   6.3916419043880304E-002
   1.6833543700058684E-002  -4.2538970629087958E-003   6.6687103570867837E-002
   1.5977575292496826E-002  -4.8177828040236736E-003   5.8481152687196891E-002
   1.5375219169557475E-002  -4.6099306475627655E-003   6.0553136232568749E-002
   1.4772863046618095E-002  -4.5927554819380767E-003   6.2879334654085239E-002
   1.4170506923678779E-002  -4.7662573071496420E-003   6.5459747951746167E-002
   1.3568150800739365E-002  -5.1304361231976348E-003   6.8294376125551670E-002
   2.6647572610392693E-002   0.0000000000000000        2.9446234017318058E-002
   2.7254359751088541E-002  -5.9522484066830243E-004   3.4926516553480523E-002
   2.7861146891784393E-002  -1.3364489209294478E-003   4.0096856773697016E-002
   2.8467934032480241E-002  -2.2236722407834447E-003   4.4957254677967524E-002
   2.9074721173176086E-002  -3.2568948002302776E-003   4.9507710266292068E-002
   2.0129955016110646E-002   0.0000000000000000        2.8989286949055226E-002
   2.0466361223553442E-002  -4.4641863050107287E-004   3.4285197827721950E-002
   2.0802767430996238E-002  -1.0023366906967224E-003   3.9350289155828534E-002
   2.1139173638439038E-002  -1.6677541805869434E-003   4.4184560933374993E-002
   2.1475579845881835E-002  -2.4426711001717403E-003   4.8788013160361320E-002
   1.3516153716283641E-002   0.0000000000000000        2.8662896186010485E-002
   1.3661301755859230E-002  -2.9761242033384504E-004   3.3810935217079729E-002
   1.3806449795434821E-002  -6.6822446046399531E-004   3.8807277462974681E-002
   1.3951597835010411E-002  -1.1118361203904491E-003   4.3651922923695359E-002
   1.4096745874586002E-002  -1.6284474001132063E-003   4.8344871599241744E-002
   6.8061687109116868E-003   0.0000000000000000        2.8467061728183841E-002
   6.8391813480059085E-003  -1.4880621016661634E-004   3.3503728721553896E-002
   6.8721939851001321E-003  -3.3411223023126733E-004   3.8467821695135490E-002
   6.9052066221943547E-003  -5.5591806019394951E-004   4.3359340648928643E-002
   6.9382192592885774E-003  -8.1422370005466548E-004   4.8178285582933349E-002
  -5.2232523861661662E-015   0.0000000000000000        2.8401783575575289E-002
  -6.5251623548867599E-015   6.1235738701981290E-016   3.3363578341144409E-002
  -7.8255544405658739E-015   1.4589024432964948E-015   3.8331921852310914E-002
  -9.1275728295037162E-015   2.5448393392579760E-015   4.3306814109074818E-002
  -1.0428723856703570E-014   3.8640965427383378E-015   4.8288255111436126E-002
   2.9074721173176086E-002  -3.2568948002302776E-003   4.9507710266292068E-002
   2.9154169737031426E-002  -4.2803915674166628E-003   5.1553799820698944E-002
   2.9233618300886756E-002  -5.1384375104893297E-003   5.3701324291518734E-002
   2.9313066864742089E-002  -5.8310326294482512E-003   5.5950283678751496E-002
   2.9392515428597422E-002  -6.3581769242934405E-003   5.8300677982397214E-002
   2.1475579845881835E-002  -2.4426711001717403E-003   4.8788013160361320E-002
   2.1626139061805875E-002  -3.2102936755612271E-003   5.1168855277521817E-002
   2.1776698277729920E-002  -3.8538281328655156E-003   5.3590483782406759E-002
   2.1927257493653953E-002  -4.3732744720845927E-003   5.6052898675016179E-002
   2.2077816709577994E-002  -4.7686326932184567E-003   5.8556099955350015E-002
   1.4096745874586002E-002  -1.6284474001132063E-003   4.8344871599241744E-002
   1.4257767213890245E-002  -2.1401957837057848E-003   5.1019103573127333E-002
   1.4418788553194492E-002  -2.5692187552416950E-003   5.3673473406048867E-002
   1.4579809892498742E-002  -2.9155163147209337E-003   5.6307981098006367E-002
   1.4740831231802988E-002  -3.1790884621435145E-003   5.8922626648999825E-002
   6.9382192592885774E-003  -8.1422370005466548E-004   4.8178285582933349E-002
   7.0490541932845324E-003  -1.0700978918503389E-003   5.1104544707515499E-002
   7.1598891272804848E-003  -1.2846093776178846E-003   5.3950293162445088E-002
   7.2707240612764380E-003  -1.4577581573572888E-003   5.6715530947722186E-002
   7.3815589952723939E-003  -1.5895442310685515E-003   5.9400258063346686E-002
  -1.0428723856703570E-014   3.8640965427383378E-015   4.8288255111436126E-002
  -1.1268763699945339E-014   5.0966175724198592E-015   5.1425178680686308E-002
  -1.2107285660145628E-014   5.9412110647860672E-015   5.4420943051595436E-002
  -1.2945699200128669E-014   6.3772229684511128E-015   5.7275548224163517E-002
  -1.3785847463587686E-014   6.4045990733063718E-015   5.9988994198390565E-002
   2.9392515428597422E-002  -6.3581769242934405E-003   5.8300677982397214E-002
   2.9096356419052671E-002  -6.7687729540740552E-003   5.9092380377372529E-002
   2.8800197409507924E-002  -7.1117232778392311E-003   5.9908282044221758E-002
   2.8504038399963176E-002  -7.3870278955890292E-003   6.0748382982944930E-002
   2.8207879390418418E-002  -7.5946868073234197E-003   6.1612683193542045E-002
   2.2077816709577994E-002  -4.7686326932184567E-003   5.8556099955350015E-002
   2.1818317092035168E-002  -5.0765797155539645E-003   5.9397165704461213E-002
   2.1558817474492335E-002  -5.3337924583778968E-003   6.0287350965702383E-002
   2.1299317856949499E-002  -5.5402709216902102E-003   6.1226655739073432E-002
   2.1039818239406680E-002  -5.6960151054909758E-003   6.2215080024574460E-002
   1.4740831231802988E-002  -3.1790884621435145E-003   5.8922626648999825E-002
   1.4542911246518068E-002  -3.3843864770339051E-003   5.9796144325743150E-002
   1.4344991261233155E-002  -3.5558616389165069E-003   6.0743701754872342E-002
   1.4147071275948239E-002  -3.6935139477914198E-003   6.1765298936387471E-002
   1.3949151290663325E-002  -3.7973434036585457E-003   6.2860935870288515E-002
   7.3815589952723939E-003  -1.5895442310685515E-003   5.9400258063346686E-002
   7.2701388825013903E-003  -1.6921932385137953E-003   6.0289316241218249E-002
   7.1587187697303876E-003  -1.7779308194551657E-003   6.1277334411731714E-002
   7.0472986569593823E-003  -1.8467569738925805E-003   6.2364312574887067E-002
   6.9358785441883796E-003  -1.8986717018261087E-003   6.3550250730684363E-002
  -1.3785847463587686E-014   6.4045990733063718E-015   5.9988994198390565E-002
  -1.4879590615191063E-014   6.2554128543723664E-015   6.0876681450886531E-002
  -1.5974201128532428E-014   6.2189836613768534E-015   6.1888248936280393E-002
  -1.7067944280135805E-014   6.2246215126737781E-015   6.3023696654572137E-002
  -1.8162554793477170E-014   6.3143934525555778E-015   6.4283024605761865E-002
   2.8207879390418418E-002  -7.5946868073234197E-003   6.1612683193542045E-002
   2.7476555203160523E-002  -7.7071100929696768E-003   6.1178058967381710E-002
   2.6745231015902624E-002  -7.6967078324554003E-003   6.0969454900159994E-002
   2.6013906828644726E-002  -7.5634800257802625E-003   6.0986870991877030E-002
   2.5282582641386830E-002  -7.3074266729445392E-003   6.1230307242532783E-002
   2.1039818239406680E-002  -5.6960151054909758E-003   6.2215080024574460E-002
   2.0523716933056251E-002  -5.7803325697257865E-003   6.1954525075541826E-002
   2.0007615626705826E-002  -5.7725308743401052E-003   6.1898395729385422E-002
   1.9491514320355403E-002  -5.6726100193341695E-003   6.2046691986105303E-002
   1.8975413014004974E-002  -5.4805700047077244E-003   6.2399413845701440E-002
   1.3949151290663325E-002  -3.7973434036585457E-003   6.2860935870288515E-002
   1.3626678309157933E-002  -3.8535550464817575E-003   6.2743743811843333E-002
   1.3304205327652543E-002  -3.8483539162249246E-003   6.2809382800211921E-002
   1.2981732346147159E-002  -3.7817400128879941E-003   6.3057852835394265E-002
   1.2659259364641774E-002  -3.6537133364709651E-003   6.3489153917390503E-002
   6.9358785441883796E-003  -1.8986717018261087E-003   6.3550250730684363E-002
   6.7854393314655814E-003  -1.9267775232377563E-003   6.3545715176286238E-002
   6.6350001187427780E-003  -1.9241769581096451E-003   6.3702416112639493E-002
   6.4845609060199755E-003  -1.8908700064417905E-003   6.4020353539744099E-002
   6.3341216932971799E-003  -1.8268566682341780E-003   6.4499527457600125E-002
  -1.8162554793477170E-014   6.3143934525555778E-015   6.4283024605761865E-002
  -2.0818416435197662E-014   6.1825544683813405E-015   6.4360439168870548E-002
  -2.3474278076918154E-014   5.5407067822699219E-015   6.4577495666668178E-002
  -2.6128404995162668E-014   4.3133899230163308E-015   6.4934194099154685E-002
  -2.8786001360359137E-014   2.6367796834847468E-015   6.5430534466330126E-002
   2.5282582641386830E-002  -7.3074266729445392E-003   6.1230307242532783E-002
   2.4505660188627508E-002  -7.0118924747112343E-003   6.1146721294397327E-002
   2.3728737735868165E-002  -6.7602221318432132E-003   6.1239354138347191E-002
   2.2951815283108842E-002  -6.5524156443407741E-003   6.1508205774382485E-002
   2.2174892830349513E-002  -6.3884730122037436E-003   6.1953276202503016E-002
   1.8975413014004974E-002  -5.4805700047077244E-003   6.2399413845701440E-002
   1.8379212308607076E-002  -5.2589193560331204E-003   6.2272965957415993E-002
   1.7783011603209185E-002  -5.0701665988823544E-003   6.2331742771768062E-002
   1.7186810897811280E-002  -4.9143117332553308E-003   6.2575744288757604E-002
   1.6590610192413376E-002  -4.7913547591523220E-003   6.3004970508384689E-002
   1.2659259364641774E-002  -3.6537133364709651E-003   6.3489153917390503E-002
   1.2252786317157446E-002  -3.5059462373550621E-003   6.3330810052796727E-002
   1.1846313269673125E-002  -3.3801110659213845E-003   6.3366696801392605E-002
   1.1439840222188804E-002  -3.2762078221699985E-003   6.3596814163178139E-002
   1.1033367174704486E-002  -3.1942365061008726E-003   6.4021162138153356E-002
   6.3341216932971799E-003  -1.8268566682341780E-003   6.4499527457600125E-002
   6.1263822142785841E-003  -1.7529731186769759E-003   6.4320253580539583E-002
   5.9186427352599909E-003  -1.6900555329604702E-003   6.4344216227220766E-002
   5.7109032562413994E-003  -1.6381039110845829E-003   6.4571415397643814E-002
   5.5031637772228028E-003  -1.5971182530494371E-003   6.5001851091808657E-002
  -2.8786001360359137E-014   2.6367796834847468E-015   6.5430534466330126E-002
  -2.9500707432461581E-014   1.0963452368173421E-015   6.5241296540644395E-002
  -3.0213678781088049E-014   4.5102810375396984E-016   6.5264301049252640E-002
  -3.0927517491452505E-014   7.5113526509795747E-016   6.5499547992154794E-002
  -3.1641356201816961E-014   1.9984014443252818E-015   6.5947037369350925E-002
   2.2174892830349513E-002  -6.3884730122037436E-003   6.1953276202503016E-002
   2.1435440957078458E-002  -6.2429546615714315E-003   6.1583495713237346E-002
   2.0695989083807396E-002  -6.0904210185831337E-003   6.1429779697267400E-002
   1.9956537210536324E-002  -5.9308720832387495E-003   6.1492128154593387E-002
   1.9217085337265294E-002  -5.7643078555386085E-003   6.1770541085214958E-002
   1.6590610192413376E-002  -4.7913547591523220E-003   6.3004970508384689E-002
   1.6059422416193368E-002  -4.6822159961775744E-003   6.2660567643913118E-002
   1.5528234639973364E-002  -4.5678157639356259E-003   6.2516628500247862E-002
   1.4997046863753355E-002  -4.4481540624263967E-003   6.2573153077388852E-002
   1.4465859087533339E-002  -4.3232308916502094E-003   6.2830141375336296E-002
   1.1033367174704486E-002  -3.1942365061008726E-003   6.4021162138153356E-002
   1.0694842743046058E-002  -3.1214773307837174E-003   6.3700383075387029E-002
   1.0356318311387636E-002  -3.0452105092880696E-003   6.3564466980937595E-002
   1.0017793879729207E-002  -2.9654360416140457E-003   6.3613413854804998E-002
   9.6792694480707861E-003  -2.8821539277615882E-003   6.3847223696989225E-002
   5.5031637772228028E-003  -1.5971182530494371E-003   6.5001851091808657E-002
   5.3417019376365005E-003  -1.5607386653897770E-003   6.4702942007658873E-002
   5.1802400980501973E-003  -1.5226052546404821E-003   6.4573295139336531E-002
   5.0187782584638898E-003  -1.4827180208016660E-003   6.4612910486841563E-002
   4.8573164188775910E-003  -1.4410769638730780E-003   6.4821788050173745E-002
  -3.1641356201816961E-014   1.9984014443252818E-015   6.5947037369350925E-002
  -3.5294683842224117E-014   4.0523140398818214E-015   6.5668244440728885E-002
  -3.8948011482631273E-014   7.0499162063697440E-015   6.5543112975444739E-002
  -4.2602206484776417E-014   1.0699774399824946E-014   6.5571642973498517E-002
  -4.6254666763445584E-014   1.5432100042289676E-014   6.5753834434890190E-002
   1.9217085337265294E-002  -5.7643078555386085E-003   6.1770541085214958E-002
   1.8407207826073163E-002  -5.5775961344102509E-003   6.0747820481483750E-002
   1.7597330314881060E-002  -5.3576047187815778E-003   5.9858682213903835E-002
   1.6787452803688943E-002  -5.1043336086529015E-003   5.9103126282474827E-002
   1.5977575292496826E-002  -4.8177828040236736E-003   5.8481152687196891E-002
   1.4465859087533339E-002  -4.3232308916502094E-003   6.2830141375336296E-002
   1.3806785672903728E-002  -4.1831971008026991E-003   6.1818398874973562E-002
   1.3147712258274116E-002  -4.0182035390800563E-003   6.0974682231584573E-002
   1.2488638843644512E-002  -3.8282502064826834E-003   6.0298991445169585E-002
   1.1829565429014879E-002  -3.6133371030101502E-003   5.9791326515728438E-002
   9.6792694480707861E-003  -2.8821539277615882E-003   6.3847223696989225E-002
   9.2054436508264559E-003  -2.7887980671949669E-003   6.2838139376369728E-002
   8.7316178535821257E-003  -2.6788023593786320E-003   6.2031524433546745E-002
   8.2577920563377989E-003  -2.5521668043124619E-003   6.1427378868520559E-002
   7.7839662590934583E-003  -2.4088914019962937E-003   6.1025702681290955E-002
   4.8573164188775910E-003  -1.4410769638730780E-003   6.4821788050173745E-002
   4.6031817598413301E-003  -1.3943990335873249E-003   6.3807041985672205E-002
   4.3490471008050743E-003  -1.3394011796771313E-003   6.3029208819790142E-002
   4.0949124417688212E-003  -1.2760834021422977E-003   6.2488288552527589E-002
   3.8407777827325663E-003  -1.2044457009826592E-003   6.2184281183884298E-002
  -4.6254666763445584E-014   1.5432100042289676E-014   6.5753834434890190E-002
  -5.1646187326781501E-014   2.0317081350640365E-014   6.4725106702881452E-002
  -5.7034238443165464E-014   2.4424906541753444E-014   6.3967735390314834E-002
  -6.2422289559549426E-014   2.7866597918091429E-014   6.3481720497190558E-002
  -6.7813810122885343E-014   3.1197266991966899E-014   6.3267062023508625E-002
   1.5977575292496826E-002  -4.8177828040236736E-003   5.8481152687196891E-002
   1.5375219169557475E-002  -4.6099306475627655E-003   6.0553136232568749E-002
   1.4772863046618095E-002  -4.5927554819380767E-003   6.2879334654085239E-002
   1.4170506923678779E-002  -4.7662573071496420E-003   6.5459747951746167E-002
   1.3568150800739365E-002  -5.1304361231976348E-003   6.8294376125551670E-002
   1.1829565429014879E-002  -3.6133371030101502E-003   5.9791326515728438E-002
   1.1455517720867080E-002  -3.4574479856647744E-003   6.1772971926324804E-002
   1.1081470012719266E-002  -3.4445666114489570E-003   6.3957019290359629E-002
   1.0707422304571491E-002  -3.5746929803630242E-003   6.6343468607832690E-002
   1.0333374596423667E-002  -3.8478270924062752E-003   6.8932319878744708E-002
   7.7839662590934583E-003  -2.4088914019962937E-003   6.1025702681290955E-002
   7.5864140430310992E-003  -2.3049653237668388E-003   6.2964679204818519E-002
   7.3888618269687331E-003  -2.2963777409600455E-003   6.5054244759078533E-002
   7.1913096109063549E-003  -2.3831286535761532E-003   6.7294399344070693E-002
   6.9937573948440079E-003  -2.5652180616150266E-003   6.9685142959795388E-002
   3.8407777827325663E-003  -1.2044457009826592E-003   6.2184281183884298E-002
   3.7679081360495244E-003  -1.1524826618689310E-003   6.4128258068049865E-002
   3.6950384893664773E-003  -1.1481888704710300E-003   6.6171011060241772E-002
   3.6221688426834359E-003  -1.1915643267892979E-003   6.8312540160460067E-002
   3.5492991960004022E-003  -1.2826090308237226E-003   7.0552845368704278E-002
  -6.7813810122885343E-014   3.1197266991966899E-014   6.3267062023508625E-002
  -7.7646222784721886E-014   2.9143354396410359E-014   6.5263708516018926E-002
  -8.7485574340462335E-014   1.7957857423311907E-014   6.7307318193849386E-002
  -9.7311048108394971E-014  -2.6437185773886540E-015   6.9397891056999922E-002
  -1.0715039966413542E-013  -3.2418512319054571E-014   7.1535427105470673E-002
  -5.2232523861661662E-015   0.0000000000000000        2.8401783575575289E-002
  -6.5251623548867599E-015   6.1235738701981290E-016   3.3363578341144409E-002
  -7.8255544405658739E-015   1.4589024432964948E-015   3.8331921852310914E-002
  -9.1275728295037162E-015   2.5448393392579760E-015   4.3306814109074818E-002
  -1.0428723856703570E-014   3.8640965427383378E-015   4.8288255111436126E-002
  -6.8061687109220170E-003   0.0000000000000000        2.8467061728185195E-002
  -6.8391813480187923E-003   1.4880621016839096E-004   3.3503728721555812E-002
  -6.8721939851155694E-003   3.3411223023493367E-004   3.8467821695138085E-002
  -6.9052066222123456E-003   5.5591806019961946E-004   4.3359340648932015E-002
  -6.9382192593091209E-003   8.1422370006245959E-004   4.8178285582937602E-002
  -1.3516153716293626E-002   0.0000000000000000        2.8662896186013923E-002
  -1.3661301755871618E-002   2.9761242033617130E-004   3.3810935217083969E-002
  -1.3806449795449613E-002   6.6822446046840237E-004   3.8807277462979919E-002
  -1.3951597835027604E-002   1.1118361203966967E-003   4.3651922923701778E-002
  -1.4096745874605602E-002   1.6284474001210486E-003   4.8344871599249550E-002
  -2.0129955016120048E-002   0.0000000000000000        2.8989286949061478E-002
  -2.0466361223564999E-002   4.4641863050395164E-004   3.4285197827728847E-002
  -2.0802767431009953E-002   1.0023366907018758E-003   3.9350289155836382E-002
  -2.1139173638454911E-002   1.6677541805937726E-003   4.4184560933384083E-002
  -2.1475579845899866E-002   2.4426711001796410E-003   4.8788013160371964E-002
  -2.6647572610401283E-002   0.0000000000000000        2.9446234017327856E-002
  -2.7254359751098942E-002   5.9522484067173111E-004   3.4926516553490466E-002
  -2.7861146891796598E-002   1.3364489209353441E-003   4.0096856773707501E-002
  -2.8467934032494258E-002   2.2236722407908468E-003   4.4957254677978960E-002
  -2.9074721173191917E-002   3.2568948002382305E-003   4.9507710266304850E-002
  -1.0428723856703570E-014   3.8640965427383378E-015   4.8288255111436126E-002
  -1.1268763699945339E-014   5.0966175724198592E-015   5.1425178680686308E-002
  -1.2107285660145628E-014   5.9412110647860672E-015   5.4420943051595436E-002
  -1.2945699200128669E-014   6.3772229684511128E-015   5.7275548224163517E-002
  -1.3785847463587686E-014   6.4045990733063718E-015   5.9988994198390565E-002
  -6.9382192593091209E-003   8.1422370006245959E-004   4.8178285582937602E-002
  -7.0490541933066935E-003   1.0700978918599885E-003   5.1104544707519725E-002
  -7.1598891273042687E-003   1.2846093776287617E-003   5.3950293162449432E-002
  -7.2707240613018396E-003   1.4577581573688143E-003   5.6715530947726668E-002
  -7.3815589952994139E-003   1.5895442310800909E-003   5.9400258063351516E-002
  -1.4096745874605602E-002   1.6284474001210486E-003   4.8344871599249550E-002
  -1.4257767213911289E-002   2.1401957837148770E-003   5.1019103573135258E-002
  -1.4418788553216978E-002   2.5692187552516102E-003   5.3673473406057166E-002
  -1.4579809892522671E-002   2.9155163147312479E-003   5.6307981098015263E-002
  -1.4740831231828360E-002   3.1790884621537667E-003   5.8922626649009546E-002
  -2.1475579845899866E-002   2.4426711001796410E-003   4.8788013160371964E-002
  -2.1626139061825058E-002   3.2102936755697741E-003   5.1168855277532919E-002
  -2.1776698277750250E-002   3.8538281328744446E-003   5.3590483782418701E-002
  -2.1927257493675436E-002   4.3732744720936800E-003   5.6052898675029279E-002
  -2.2077816709600628E-002   4.7686326932274755E-003   5.8556099955364663E-002
  -2.9074721173191917E-002   3.2568948002382305E-003   4.9507710266304850E-002
  -2.9154169737047986E-002   4.2803915674246460E-003   5.1553799820712697E-002
  -2.9233618300904065E-002   5.1384375104972816E-003   5.3701324291534000E-002
  -2.9313066864760137E-002   5.8310326294561095E-003   5.5950283678768711E-002
  -2.9392515428616213E-002   6.3581769243011357E-003   5.8300677982416858E-002
  -1.3785847463587686E-014   6.4045990733063718E-015   5.9988994198390565E-002
  -1.4879590615191063E-014   6.2554128543723664E-015   6.0876681450886531E-002
  -1.5974201128532428E-014   6.2189836613768534E-015   6.1888248936280393E-002
  -1.7067944280135805E-014   6.2246215126737781E-015   6.3023696654572137E-002
  -1.8162554793477170E-014   6.3143934525555778E-015   6.4283024605761865E-002
  -7.3815589952994139E-003   1.5895442310800909E-003   5.9400258063351516E-002
  -7.2701388825305111E-003   1.6921932385249860E-003   6.0289316241224314E-002
  -7.1587187697616022E-003   1.7779308194659036E-003   6.1277334411739166E-002
  -7.0472986569926933E-003   1.8467569739027954E-003   6.2364312574896129E-002
  -6.9358785442237940E-003   1.8986717018357469E-003   6.3550250730695201E-002
  -1.4740831231828360E-002   3.1790884621537667E-003   5.8922626649009546E-002
  -1.4542911246545267E-002   3.3843864770437184E-003   5.9796144325755064E-002
  -1.4344991261262176E-002   3.5558616389255874E-003   6.0743701754886859E-002
  -1.4147071275979089E-002   3.6935139477994074E-003   6.1765298936404957E-002
  -1.3949151290695990E-002   3.7973434036651307E-003   6.2860935870309262E-002
  -2.2077816709600628E-002   4.7686326932274755E-003   5.8556099955364663E-002
  -2.1818317092059166E-002   5.0765797155624360E-003   5.9397165704478866E-002
  -2.1558817474517697E-002   5.3337924583852780E-003   6.0287350965723498E-002
  -2.1299317856976224E-002   5.5402709216959573E-003   6.1226655739098634E-002
  -2.1039818239434765E-002   5.6960151054945528E-003   6.2215080024604200E-002
  -2.9392515428616213E-002   6.3581769243011357E-003   5.8300677982416858E-002
  -2.9096356419072180E-002   6.7687729540811814E-003   5.9092380377395629E-002
  -2.8800197409528164E-002   7.1117232778449471E-003   5.9908282044249056E-002
  -2.8504038399984142E-002   7.3870278955925541E-003   6.0748382982977155E-002
  -2.8207879390440123E-002   7.5946868073239332E-003   6.1612683193579862E-002
  -1.8162554793477170E-014   6.3143934525555778E-015   6.4283024605761865E-002
  -2.0818416435197662E-014   6.1825544683813405E-015   6.4360439168870548E-002
  -2.3474278076918154E-014   5.5407067822699219E-015   6.4577495666668178E-002
  -2.6128404995162668E-014   4.3133899230163308E-015   6.4934194099154685E-002
  -2.8786001360359137E-014   2.6367796834847468E-015   6.5430534466330126E-002
  -6.9358785442237940E-003   1.8986717018357469E-003   6.3550250730695201E-002
  -6.7854393315059831E-003   1.9267775232463327E-003   6.3545715176298201E-002
  -6.6350001187881740E-003   1.9241769581161486E-003   6.3702416112653260E-002
  -6.4845609060703666E-003   1.8908700064453558E-003   6.4020353539760294E-002
  -6.3341216933525540E-003   1.8268566682338727E-003   6.4499527457619374E-002
  -1.3949151290695990E-002   3.7973434036651307E-003   6.2860935870309262E-002
  -1.3626678309194633E-002   3.8535550464864170E-003   6.2743743811866509E-002
  -1.3304205327693285E-002   3.8483539162268380E-003   6.2809382800238830E-002
  -1.2981732346191932E-002   3.7817400128863838E-003   6.3057852835426267E-002
  -1.2659259364690581E-002   3.6537133364650670E-003   6.3489153917428737E-002
  -2.1039818239434765E-002   5.6960151054945528E-003   6.2215080024604200E-002
  -2.0523716933086793E-002   5.7803325697265064E-003   6.1954525075575466E-002
  -2.0007615626738799E-002   5.7725308743374728E-003   6.1898395729424883E-002
  -1.9491514320390823E-002   5.6726100193273633E-003   6.2046691986152466E-002
  -1.8975413014042843E-002   5.4805700046962960E-003   6.2399413845758228E-002
  -2.8207879390440123E-002   7.5946868073239332E-003   6.1612683193579862E-002
  -2.7476555203182422E-002   7.7071100929666583E-003   6.1178058967424981E-002
  -2.6745231015924738E-002   7.6967078324481457E-003   6.0969454900211335E-002
  -2.6013906828667041E-002   7.5634800257684430E-003   6.0986870991938974E-002
  -2.5282582641409347E-002   7.3074266729274973E-003   6.1230307242607834E-002
  -2.8786001360359137E-014   2.6367796834847468E-015   6.5430534466330126E-002
  -2.9500707432461581E-014   1.0963452368173421E-015   6.5241296540644395E-002
  -3.0213678781088049E-014   4.5102810375396984E-016   6.5264301049252640E-002
  -3.0927517491452505E-014   7.5113526509795747E-016   6.5499547992154794E-002
  -3.1641356201816961E-014   1.9984014443252818E-015   6.5947037369350925E-002
  -6.3341216933525540E-003   1.8268566682338727E-003   6.4499527457619374E-002
  -6.1263822143352376E-003   1.7529731186732983E-003   6.4320253580565243E-002
  -5.9186427353179107E-003   1.6900555329553493E-003   6.4344216227253254E-002
  -5.7109032563005847E-003   1.6381039110799443E-003   6.4571415397683338E-002
  -5.5031637772832605E-003   1.5971182530473138E-003   6.5001851091855606E-002
  -1.2659259364690581E-002   3.6537133364650670E-003   6.3489153917428737E-002
  -1.2252786317207047E-002   3.5059462373454517E-003   6.3330810052847908E-002
  -1.1846313269723524E-002   3.3801110659102442E-003   6.3366696801457414E-002
  -1.1439840222239999E-002   3.2762078221592475E-003   6.3596814163257132E-002
  -1.1033367174756465E-002   3.1942365060926292E-003   6.4021162138247156E-002
  -1.8975413014042843E-002   5.4805700046962960E-003   6.2399413845758228E-002
  -1.8379212308644945E-002   5.2589193560176571E-003   6.2272965957492384E-002
  -1.7783011603247044E-002   5.0701665988650852E-003   6.2331742771864984E-002
  -1.7186810897849143E-002   4.9143117332385508E-003   6.2575744288876120E-002
  -1.6590610192451234E-002   4.7913547591379446E-003   6.3004970508525673E-002
  -2.5282582641409347E-002   7.3074266729274973E-003   6.1230307242607834E-002
  -2.4505660188648921E-002   7.0118924746898209E-003   6.1146721294498718E-002
  -2.3728737735888471E-002   6.7602221318199957E-003   6.1239354138476226E-002
  -2.2951815283128035E-002   6.5524156443177335E-003   6.1508205774540331E-002
  -2.2174892830367592E-002   6.3884730121832600E-003   6.1953276202691088E-002
  -3.1641356201816961E-014   1.9984014443252818E-015   6.5947037369350925E-002
  -3.5294683842224117E-014   4.0523140398818214E-015   6.5668244440728885E-002
  -3.8948011482631273E-014   7.0499162063697440E-015   6.5543112975444739E-002
  -4.2602206484776417E-014   1.0699774399824946E-014   6.5571642973498517E-002
  -4.6254666763445584E-014   1.5432100042289676E-014   6.5753834434890190E-002
  -5.5031637772832605E-003   1.5971182530473138E-003   6.5001851091855606E-002
  -5.3417019377040706E-003   1.5607386653920807E-003   6.4702942007713454E-002
  -5.1802400981248772E-003   1.5226052546491592E-003   6.4573295139399078E-002
  -5.0187782585456760E-003   1.4827180208185388E-003   6.4612910486912534E-002
  -4.8573164189664939E-003   1.4410769639001675E-003   6.4821788050253792E-002
  -1.1033367174756465E-002   3.1942365060926292E-003   6.4021162138247156E-002
  -1.0694842743104564E-002   3.1214773307800259E-003   6.3700383075496400E-002
  -1.0356318311452669E-002   3.0452105092912130E-003   6.3564466981063356E-002
  -1.0017793879800764E-002   2.9654360416261558E-003   6.3613413854947842E-002
  -9.6792694481488591E-003   2.8821539277849584E-003   6.3847223697150041E-002
  -1.6590610192451234E-002   4.7913547591379446E-003   6.3004970508525673E-002
  -1.6059422416236774E-002   4.6822159961680959E-003   6.2660567644077819E-002
  -1.5528234640022315E-002   4.5678157639332945E-003   6.2516628500437404E-002
  -1.4997046863807853E-002   4.4481540624339393E-003   6.2573153077604513E-002
  -1.4465859087593402E-002   4.3232308916697215E-003   6.2830141375579060E-002
  -2.2174892830367592E-002   6.3884730121832600E-003   6.1953276202691088E-002
  -2.1435440957100715E-002   6.2429546615559717E-003   6.1583495713457559E-002
  -2.0695989083833834E-002   6.0904210185753760E-003   6.1429779697521308E-002
  -1.9956537210566942E-002   5.9308720832415840E-003   6.1492128154882558E-002
  -1.9217085337300072E-002   5.7643078555544847E-003   6.1770541085541086E-002
  -4.6254666763445584E-014   1.5432100042289676E-014   6.5753834434890190E-002
  -5.1646187326781501E-014   2.0317081350640365E-014   6.4725106702881452E-002
  -5.7034238443165464E-014   2.4424906541753444E-014   6.3967735390314834E-002
  -6.2422289559549426E-014   2.7866597918091429E-014   6.3481720497190558E-002
  -6.7813810122885343E-014   3.1197266991966899E-014   6.3267062023508625E-002
  -4.8573164189664939E-003   1.4410769639001675E-003   6.4821788050253792E-002
  -4.6031817599408633E-003   1.3943990336253986E-003   6.3807041985758678E-002
  -4.3490471009152327E-003   1.3394011797256411E-003   6.3029208819883414E-002
  -4.0949124418896083E-003   1.2760834022005618E-003   6.2488288552627905E-002
  -3.8407777828639855E-003   1.2044457010504384E-003   6.2184281183992274E-002
  -9.6792694481488591E-003   2.8821539277849584E-003   6.3847223697150041E-002
  -9.2054436509147082E-003   2.7887980672307022E-003   6.2838139376544200E-002
  -8.7316178536805487E-003   2.6788023594267463E-003   6.2031524433735635E-002
  -8.2577920564463961E-003   2.5521668043732570E-003   6.1427378868724375E-002
  -7.7839662592122452E-003   2.4088914020699570E-003   6.1025702681510391E-002
  -1.4465859087593402E-002   4.3232308916697215E-003   6.2830141375579060E-002
  -1.3806785672973205E-002   4.1831971008359781E-003   6.1818398875238018E-002
  -1.3147712258353005E-002   4.0182035391280180E-003   6.0974682231871566E-002
  -1.2488638843732799E-002   3.8282502065458412E-003   6.0298991445479996E-002
  -1.1829565429112607E-002   3.6133371030894479E-003   5.9791326516063205E-002
  -1.9217085337300072E-002   5.7643078555544847E-003   6.1770541085541086E-002
  -1.8407207826116313E-002   5.5775961344411429E-003   6.0747820481839909E-002
  -1.7597330314932567E-002   5.3576047188291787E-003   5.9858682214291192E-002
  -1.6787452803748808E-002   5.1043336087185920E-003   5.9103126282894575E-002
  -1.5977575292565056E-002   4.8177828041088278E-003   5.8481152687650528E-002
  -6.7813810122885343E-014   3.1197266991966899E-014   6.3267062023508625E-002
  -7.7646222784721886E-014   2.9143354396410359E-014   6.5263708516018926E-002
  -8.7485574340462335E-014   1.7957857423311907E-014   6.7307318193849386E-002
  -9.7311048108394971E-014  -2.6437185773886540E-015   6.9397891056999922E-002
  -1.0715039966413542E-013  -3.2418512319054571E-014   7.1535427105470673E-002
  -3.8407777828639855E-003   1.2044457010504384E-003   6.2184281183992274E-002
  -3.7679081362006484E-003   1.1524826619404016E-003   6.4128258068151422E-002
  -3.6950384895373042E-003   1.1481888705356380E-003   6.6171011060336710E-002
  -3.6221688428739783E-003   1.1915643268359671E-003   6.8312540160548094E-002
  -3.5492991962106507E-003   1.2826090308416527E-003   7.0552845368785921E-002
  -7.7839662592122452E-003   2.4088914020699570E-003   6.1025702681510391E-002
  -7.5864140431697166E-003   2.3049653238517431E-003   6.2964679205032986E-002
  -7.3888618271271776E-003   2.2963777410532765E-003   6.5054244759287880E-002
  -7.1913096110846394E-003   2.3831286536746370E-003   6.7294399344274891E-002
  -6.9937573950421238E-003   2.5652180617157239E-003   6.9685142959994173E-002
  -1.1829565429112607E-002   3.6133371030894479E-003   5.9791326516063205E-002
  -1.1455517720984843E-002   3.4574479857630985E-003   6.1772971926663742E-002
  -1.1081470012857055E-002   3.4445666115709914E-003   6.3957019290702577E-002
  -1.0707422304729312E-002   3.5746929805133328E-003   6.6343468608179676E-002
  -1.0333374596601518E-002   3.8478270925897951E-003   6.8932319879094872E-002
  -1.5977575292565056E-002   4.8177828041088278E-003   5.8481152687650528E-002
  -1.5375219169646032E-002   4.6099306476743429E-003   6.0553136233043592E-002
  -1.4772863046727001E-002   4.5927554820885952E-003   6.2879334654580898E-002
  -1.4170506923807977E-002   4.7662573073518066E-003   6.5459747952262476E-002
  -1.3568150800888940E-002   5.1304361234638662E-003   6.8294376126088574E-002
  -2.6647572610401283E-002   0.0000000000000000        2.9446234017327856E-002
  -2.7254359751098942E-002   5.9522484067173111E-004   3.4926516553490466E-002
  -2.7861146891796598E-002   1.3364489209353441E-003   4.0096856773707501E-002
  -2.8467934032494258E-002   2.2236722407908468E-003   4.4957254677978960E-002
  -2.9074721173191917E-002   3.2568948002382305E-003   4.9507710266304850E-002
  -3.3406712881736758E-002   0.0000000000000000        3.0166207461524756E-002
  -3.4257796574103008E-002   9.6865654818377618E-004   3.5256841202772386E-002
  -3.5108880266469258E-002   2.0391828576990789E-003   4.0168824156628417E-002
  -3.5959963958835515E-002   3.2115789285459134E-003   4.4902156323092836E-002
  -3.6811047651201759E-002   4.4858447607242728E-003   4.9456837702165642E-002
  -4.0745082212725901E-002   0.0000000000000000        3.1281677352363882E-002
  -4.1709170928206772E-002   1.3420882556958225E-003   3.5938532820436186E-002
  -4.2673259643687650E-002   2.7419167944628146E-003   4.0548029029670855E-002
  -4.3637348359168528E-002   4.1994856163009809E-003   4.5110165980067861E-002
  -4.4601437074649412E-002   5.7147947212103107E-003   4.9624943671627245E-002
  -4.8662680603368702E-002   0.0000000000000000        3.2792643689845226E-002
  -4.9608482813410237E-002   1.7155199632078683E-003   3.6971591406481846E-002
  -5.0554285023451780E-002   3.4446507312265538E-003   4.1234471392834794E-002
  -5.1500087233493322E-002   5.1873923040560450E-003   4.5581283648904056E-002
  -5.2445889443534836E-002   6.9437446816963582E-003   5.0012028174689631E-002
  -5.7159508053665167E-002   0.0000000000000000        3.4699106473968802E-002
  -5.7955732229713397E-002   2.0889516707199140E-003   3.8356016960909373E-002
  -5.8751956405761627E-002   4.1473846679902834E-003   4.2228151246120234E-002
  -5.9548180581809856E-002   6.1752989918111168E-003   4.6315509329601393E-002
  -6.0344404757858086E-002   8.1726946421823918E-003   5.0618091211352821E-002
  -2.9074721173191917E-002   3.2568948002382305E-003   4.9507710266304850E-002
  -2.9154169737047986E-002   4.2803915674246460E-003   5.1553799820712697E-002
  -2.9233618300904065E-002   5.1384375104972816E-003   5.3701324291534000E-002
  -2.9313066864760137E-002   5.8310326294561095E-003   5.5950283678768711E-002
  -2.9392515428616213E-002   6.3581769243011357E-003   5.8300677982416858E-002
  -3.6811047651201759E-002   4.4858447607242728E-003   4.9456837702165642E-002
  -3.6827971067964080E-002   5.7240499749233037E-003   5.1240233631114046E-002
  -3.6844894484726394E-002   6.7882641918321687E-003   5.3047244937836552E-002
  -3.6861817901488722E-002   7.6784874114508746E-003   5.4877871622333110E-002
  -3.6878741318251043E-002   8.3947196337793711E-003   5.6732113684603777E-002
  -4.4601437074649412E-002   5.7147947212103107E-003   4.9624943671627245E-002
  -4.4633654882957299E-002   7.1677083824219587E-003   5.1137105801939822E-002
  -4.4665872691265214E-002   8.4380908731670635E-003   5.2595063771387132E-002
  -4.4698090499573115E-002   9.5259421934456145E-003   5.3998817579969209E-002
  -4.4730308307881023E-002   1.0431262343257617E-002   5.5348367227685998E-002
  -5.2445889443534836E-002   6.9437446816963582E-003   5.0012028174689631E-002
  -5.2571221182027672E-002   8.6113667899206242E-003   5.1244416333189997E-002
  -5.2696552920520508E-002   1.0087917554501939E-002   5.2344780792185790E-002
  -5.2821884659013343E-002   1.1373396975440389E-002   5.3313121551676952E-002
  -5.2947216397506172E-002   1.2467805052735871E-002   5.4149438611663561E-002
  -6.0344404757858086E-002   8.1726946421823918E-003   5.0618091211352821E-002
  -6.0640669965175177E-002   1.0055025197419265E-002   5.1562165224864620E-002
  -6.0936935172492289E-002   1.1737744235836838E-002   5.2296396000232490E-002
  -6.1233200379809394E-002   1.3220851757435129E-002   5.2820783537456402E-002
  -6.1529465587126478E-002   1.4504347762214091E-002   5.3135327836536385E-002
  -2.9392515428616213E-002   6.3581769243011357E-003   5.8300677982416858E-002
  -2.9096356419072180E-002   6.7687729540811814E-003   5.9092380377395629E-002
  -2.8800197409528164E-002   7.1117232778449471E-003   5.9908282044249056E-002
  -2.8504038399984142E-002   7.3870278955925541E-003   6.0748382982977155E-002
  -2.8207879390440123E-002   7.5946868073239332E-003   6.1612683193579862E-002
  -3.6878741318251043E-002   8.3947196337793711E-003   5.6732113684603777E-002
  -3.6501577775963460E-002   8.9521166362576052E-003   5.7109617666243000E-002
  -3.6124414233675906E-002   9.3658341963254316E-003   5.7624931441494623E-002
  -3.5747250691388330E-002   9.6358723139828642E-003   5.8278055010358730E-002
  -3.5370087149100768E-002   9.7622309892298753E-003   5.9068988372835259E-002
  -4.4730308307881023E-002   1.0431262343257617E-002   5.5348367227685998E-002
  -4.4158529711112116E-002   1.1135460318434071E-002   5.5235639059591446E-002
  -4.3586751114343208E-002   1.1619945114805890E-002   5.5374331206847136E-002
  -4.3014972517574281E-002   1.1884716732373133E-002   5.5764443669453018E-002
  -4.2443193920805394E-002   1.1929775171135769E-002   5.6405976447409217E-002
  -5.2947216397506172E-002   1.2467805052735871E-002   5.4149438611663561E-002
  -5.2067212224518135E-002   1.3318804000610494E-002   5.3470444557441030E-002
  -5.1187208051530105E-002   1.3874056033286333E-002   5.3156481340306511E-002
  -5.0307203878542060E-002   1.4133561150763424E-002   5.3207548960260059E-002
  -4.9427199705554023E-002   1.4097319353041701E-002   5.3623647417301620E-002
  -6.1529465587126478E-002   1.4504347762214091E-002   5.3135327836536385E-002
  -6.0227625316181518E-002   1.5502147682786974E-002   5.1814034159791710E-002
  -5.8925785045236566E-002   1.6128166951766845E-002   5.0971381841872859E-002
  -5.7623944774291613E-002   1.6382405569153730E-002   5.0607370882779834E-002
  -5.6322104503346633E-002   1.6264863534947605E-002   5.0722001282512585E-002
  -2.8207879390440123E-002   7.5946868073239332E-003   6.1612683193579862E-002
  -2.7476555203182422E-002   7.7071100929666583E-003   6.1178058967424981E-002
  -2.6745231015924738E-002   7.6967078324481457E-003   6.0969454900211335E-002
  -2.6013906828667041E-002   7.5634800257684430E-003   6.0986870991938974E-002
  -2.5282582641409347E-002   7.3074266729274973E-003   6.1230307242607834E-002
  -3.5370087149100768E-002   9.7622309892298753E-003   5.9068988372835259E-002
  -3.4421062006195685E-002   9.7726498079772697E-003   5.8609633021967526E-002
  -3.3472036863290588E-002   9.6948683561358870E-003   5.8359659423453308E-002
  -3.2523011720385492E-002   9.5288866337057323E-003   5.8319067577292674E-002
  -3.1573986577480409E-002   9.2747046406868039E-003   5.8487857483485520E-002
  -4.2443193920805394E-002   1.1929775171135769E-002   5.6405976447409217E-002
  -4.1293106228840623E-002   1.1838189522987933E-002   5.5956515247401022E-002
  -4.0143018536875852E-002   1.1693028879823713E-002   5.5699797393158619E-002
  -3.8992930844911108E-002   1.1494293241643078E-002   5.5635822884682093E-002
  -3.7842843152946323E-002   1.1241982608446055E-002   5.5764591721971388E-002
  -4.9427199705554023E-002   1.4097319353041701E-002   5.3623647417301620E-002
  -4.8092687871117298E-002   1.3903729237998571E-002   5.3218705643725439E-002
  -4.6758176036680574E-002   1.3691189403511484E-002   5.2989868809327288E-002
  -4.5423664202243835E-002   1.3459699849580394E-002   5.2937136914107279E-002
  -4.4089152367807125E-002   1.3209260576205348E-002   5.3060509958065327E-002
  -5.6322104503346633E-002   1.6264863534947605E-002   5.0722001282512585E-002
  -5.4819806933025669E-002   1.5969268953009222E-002   5.0396204210940765E-002
  -5.3317509362704699E-002   1.5689349927199281E-002   5.0229873671959302E-002
  -5.1815211792383735E-002   1.5425106457517726E-002   5.0223009665568225E-002
  -5.0312914222062771E-002   1.5176538543964613E-002   5.0375612191767533E-002
  -2.5282582641409347E-002   7.3074266729274973E-003   6.1230307242607834E-002
  -2.4505660188648921E-002   7.0118924746898209E-003   6.1146721294498718E-002
  -2.3728737735888471E-002   6.7602221318199957E-003   6.1239354138476226E-002
  -2.2951815283128035E-002   6.5524156443177335E-003   6.1508205774540331E-002
  -2.2174892830367592E-002   6.3884730121832600E-003   6.1953276202691088E-002
  -3.1573986577480409E-002   9.2747046406868039E-003   5.8487857483485520E-002
  -3.0618292751452881E-002   8.9797201236588992E-003   5.8454601016131300E-002
  -2.9662598925425360E-002   8.6913308292018987E-003   5.8602668503224688E-002
  -2.8706905099397852E-002   8.4095367573157817E-003   5.8932059944765525E-002
  -2.7751211273370307E-002   8.1343379080005551E-003   5.9442775340753928E-002
  -3.7842843152946323E-002   1.1241982608446055E-002   5.5764591721971388E-002
  -3.6703272791290820E-002   1.0947547772627915E-002   5.5744396102575283E-002
  -3.5563702429635295E-002   1.0622439526583795E-002   5.5910629599987542E-002
  -3.4424132067979785E-002   1.0266657870313828E-002   5.6263292214208296E-002
  -3.3284561706324295E-002   9.8802028038178502E-003   5.6802383945237567E-002
  -4.4089152367807125E-002   1.3209260576205348E-002   5.3060509958065327E-002
  -4.2760600308162686E-002   1.2915375421596837E-002   5.3016106553830537E-002
  -4.1432048248518233E-002   1.2553548223965805E-002   5.3163237428764984E-002
  -4.0103496188873815E-002   1.2123778983311791E-002   5.3501902582868910E-002
  -3.8774944129229348E-002   1.1626067699635145E-002   5.4032102016142169E-002
  -5.0312914222062771E-002   1.5176538543964613E-002   5.0375612191767533E-002
  -4.8790275302068489E-002   1.4883203070565981E-002   5.0269732369897124E-002
  -4.7267636382074221E-002   1.4484656921347636E-002   5.0360491989556916E-002
  -4.5744997462079939E-002   1.3980900096309919E-002   5.0647891050747143E-002
  -4.4222358542085671E-002   1.3371932595452440E-002   5.1131929553467570E-002
  -2.2174892830367592E-002   6.3884730121832600E-003   6.1953276202691088E-002
  -2.1435440957100715E-002   6.2429546615559717E-003   6.1583495713457559E-002
  -2.0695989083833834E-002   6.0904210185753760E-003   6.1429779697521308E-002
  -1.9956537210566942E-002   5.9308720832415840E-003   6.1492128154882558E-002
  -1.9217085337300072E-002   5.7643078555544847E-003   6.1770541085541086E-002
  -2.7751211273370307E-002   8.1343379080005551E-003   5.9442775340753928E-002
  -2.6795743460876979E-002   7.8638439422181183E-003   5.9113813953568906E-002
  -2.5840275648383614E-002   7.5961645209299544E-003   5.9000819971539512E-002
  -2.4884807835890248E-002   7.3312996441362646E-003   5.9103793394665684E-002
  -2.3929340023396917E-002   7.0692493118371669E-003   5.9422734222947637E-002
  -3.3284561706324295E-002   9.8802028038178502E-003   5.6802383945237567E-002
  -3.2113175022746139E-002   9.4847332228800568E-003   5.6524071496948824E-002
  -3.0941788339168046E-002   9.1019080232844773E-003   5.6461629385673978E-002
  -2.9770401655589945E-002   8.7317272050310007E-003   5.6615057611412958E-002
  -2.8599014972011800E-002   8.3741907681198491E-003   5.6984356174165834E-002
  -3.8774944129229348E-002   1.1626067699635145E-002   5.4032102016142169E-002
  -3.7387735642708232E-002   1.1105622503542016E-002   5.3814268343597392E-002
  -3.6000527156187151E-002   1.0607651525638945E-002   5.3812207939924833E-002
  -3.4613318669666014E-002   1.0132154765925765E-002   5.4025920805124361E-002
  -3.3226110183144933E-002   9.6791322244025313E-003   5.4455406939196080E-002
  -4.4222358542085671E-002   1.3371932595452440E-002   5.1131929553467570E-002
  -4.2619425320763293E-002   1.2726511784204142E-002   5.0984404493514546E-002
  -4.1016492099440902E-002   1.2113395027993579E-002   5.1052555634292063E-002
  -3.9413558878118503E-002   1.1532582326820418E-002   5.1336382975799760E-002
  -3.7810625656796132E-002   1.0984073680685269E-002   5.1835886518038055E-002
  -1.9217085337300072E-002   5.7643078555544847E-003   6.1770541085541086E-002
  -1.8407207826116313E-002   5.5775961344411429E-003   6.0747820481839909E-002
  -1.7597330314932567E-002   5.3576047188291787E-003   5.9858682214291192E-002
  -1.6787452803748808E-002   5.1043336087185920E-003   5.9103126282894575E-002
  -1.5977575292565056E-002   4.8177828041088278E-003   5.8481152687650528E-002
  -2.3929340023396917E-002   7.0692493118371669E-003   5.9422734222947637E-002
  -2.2964924513548066E-002   6.8068086509695536E-003   5.8445111571176128E-002
  -2.2000509003699244E-002   6.5407727884709277E-003   5.7642982580582453E-002
  -2.1036093493850428E-002   6.2711417243411366E-003   5.7016347251166555E-002
  -2.0071677984001581E-002   5.9979154585801941E-003   5.6565205582928602E-002
  -2.8599014972011800E-002   8.3741907681198491E-003   5.6984356174165834E-002
  -2.7438150138472468E-002   8.0360211674979365E-003   5.6081515967191714E-002
  -2.6277285304933055E-002   7.7239408581125102E-003   5.5396080746420870E-002
  -2.5116420471393688E-002   7.4379498399636812E-003   5.4928050511853385E-002
  -2.3955555637854311E-002   7.1780481130512830E-003   5.4677425263489149E-002
  -3.3226110183144933E-002   9.6791322244025313E-003   5.4455406939196080E-002
  -3.1826884700889430E-002   9.2652336840264166E-003   5.3657033669886861E-002
  -3.0427659218633992E-002   8.9071089277542037E-003   5.3117976711806528E-002
  -2.9028433736378520E-002   8.6047579555862258E-003   5.2838236064954823E-002
  -2.7629208254123051E-002   8.3581807675223996E-003   5.2817811729332101E-002
  -3.7810625656796132E-002   1.0984073680685269E-002   5.1835886518038055E-002
  -3.6131128200799098E-002   1.0494446200554675E-002   5.1171664679261430E-002
  -3.4451630744802050E-002   1.0090276997395786E-002   5.0808670476739037E-002
  -3.2772133288804996E-002   9.7715660712088120E-003   5.0746903910471181E-002
  -3.1092635832807969E-002   9.5383134219936827E-003   5.0986364980457444E-002
  -1.5977575292565056E-002   4.8177828041088278E-003   5.8481152687650528E-002
  -1.5375219169646032E-002   4.6099306476743429E-003   6.0553136233043592E-002
  -1.4772863046727001E-002   4.5927554820885952E-003   6.2879334654580898E-002
  -1.4170506923807977E-002   4.7662573073518066E-003   6.5459747952262476E-002
  -1.3568150800888940E-002   5.1304361234638662E-003   6.8294376126088574E-002
  -2.0071677984001581E-002   5.9979154585801941E-003   5.6565205582928602E-002
  -1.9262144413045960E-002   5.6826464089376749E-003   5.8855470050156455E-002
  -1.8452610842090267E-002   5.2868869931632645E-003   6.1305874537313260E-002
  -1.7643077271134570E-002   4.8106372112570739E-003   6.3916419044399181E-002
  -1.6833543700178977E-002   4.2538970632188811E-003   6.6687103571413942E-002
  -2.3955555637854311E-002   7.1780481130512830E-003   5.4677425263489149E-002
  -2.3032919475077244E-002   6.7553621702008959E-003   5.6914803295571026E-002
  -2.2110283312300236E-002   5.9810185042377118E-003   5.9218246491366588E-002
  -2.1187647149523221E-002   4.8550171151621746E-003   6.1587754850875850E-002
  -2.0265010986746105E-002   3.3773580029740069E-003   6.4023328374099076E-002
  -2.7629208254123051E-002   8.3581807675223996E-003   5.2817811729332101E-002
  -2.6687544355739955E-002   7.8280779314640059E-003   5.4731135969287192E-002
  -2.5745880457356814E-002   6.6751500153124366E-003   5.6616450516740788E-002
  -2.4804216558973698E-002   4.8993970190673031E-003   5.8473755371692873E-002
  -2.3862552660590605E-002   2.5008189427291327E-003   6.0303050534143407E-002
  -3.1092635832807969E-002   9.5383134219936827E-003   5.0986364980457444E-002
  -3.0226019055034026E-002   8.9007936927275599E-003   5.2304468071305232E-002
  -2.9359402277260097E-002   7.3692815263867867E-003   5.3500486613436177E-002
  -2.8492785499486174E-002   4.9437769229725599E-003   5.4574420606850180E-002
  -2.7626168721712197E-002   1.6242798824841476E-003   5.5526270051547533E-002
  -5.7159508053665167E-002   0.0000000000000000        3.4699106473968802E-002
  -5.7955732229713397E-002   2.0889516707199140E-003   3.8356016960909373E-002
  -5.8751956405761627E-002   4.1473846679902834E-003   4.2228151246120234E-002
  -5.9548180581809856E-002   6.1752989918111168E-003   4.6315509329601393E-002
  -6.0344404757858086E-002   8.1726946421823918E-003   5.0618091211352821E-002
  -6.5824440385956862E-002   0.0000000000000000        3.7224231395472207E-002
  -6.6634316198967758E-002   2.9173692988362053E-003   4.0851356869392341E-002
  -6.7444192011978640E-002   5.7773995242205653E-003   4.4235955271116872E-002
  -6.8254067824989523E-002   8.5800906761530852E-003   4.7378026600645808E-002
  -6.9063943638000419E-002   1.1325442754633749E-002   5.0277570857979133E-002
  -7.4246353422585371E-002   0.0000000000000000        4.0591184145093065E-002
  -7.5527631743024806E-002   3.7457869269524992E-003   4.4161704205990457E-002
  -7.6808910063464228E-002   7.4074143804508490E-003   4.7031946324226345E-002
  -7.8090188383903678E-002   1.0984882360495052E-002   4.9201910499800751E-002
  -7.9371466704343099E-002   1.4478190867085110E-002   5.0671596732713667E-002
  -8.2425247163550666E-002   0.0000000000000000        4.4799964722831362E-002
  -8.4635678861884528E-002   4.5742045550687931E-003   4.8287058970703699E-002
  -8.6846110560218417E-002   9.0374292366811344E-003   5.0616124405448673E-002
  -8.9056542258552293E-002   1.3389674044837020E-002   5.1787161027066243E-002
  -9.1266973956886155E-002   1.7630938979536458E-002   5.1800168835556444E-002
  -9.0361121608852762E-002   0.0000000000000000        4.9850573128687098E-002
  -9.3958457555546965E-002   5.4026221831850844E-003   5.3227421163532095E-002
  -9.7555793502241167E-002   1.0667444092911411E-002   5.4988489514783828E-002
 -0.10115312944893536        1.5794465729178992E-002   5.5133778182442264E-002
 -0.10475046539562957        2.0783687091987822E-002   5.3663287166507444E-002
  -6.0344404757858086E-002   8.1726946421823918E-003   5.0618091211352821E-002
  -6.0640669965175177E-002   1.0055025197419265E-002   5.1562165224864620E-002
  -6.0936935172492289E-002   1.1737744235836838E-002   5.2296396000232490E-002
  -6.1233200379809394E-002   1.3220851757435129E-002   5.2820783537456402E-002
  -6.1529465587126478E-002   1.4504347762214091E-002   5.3135327836536385E-002
  -6.9063943638000419E-002   1.1325442754633749E-002   5.0277570857979133E-002
  -6.9333179932032613E-002   1.3771938517892681E-002   4.9500540299813919E-002
  -6.9602416226064806E-002   1.5678060724159962E-002   4.8987410806362465E-002
  -6.9871652520097027E-002   1.7043809373435581E-002   4.8738182377624728E-002
  -7.0140888814129221E-002   1.7869184465719591E-002   4.8752855013600729E-002
  -7.9371466704343099E-002   1.4478190867085110E-002   5.0671596732713667E-002
  -7.9139929782232721E-002   1.7488851838366095E-002   4.7832699562699116E-002
  -7.8908392860122356E-002   1.9618377212483076E-002   4.5731447760255978E-002
  -7.8676855938012005E-002   2.0866766989436073E-002   4.4367841325384225E-002
  -7.8445319015901627E-002   2.1234021169225067E-002   4.3741880258083891E-002
  -9.1266973956886155E-002   1.7630938979536458E-002   5.1800168835556444E-002
  -9.0060919515775564E-002   2.1205765158839495E-002   4.6558643013520189E-002
  -8.8854865074664932E-002   2.3558693700806189E-002   4.2528506861913014E-002
  -8.7648810633554355E-002   2.4689724605436537E-002   3.9709760380734933E-002
  -8.6442756192443709E-002   2.4598857872730570E-002   3.8102403569985940E-002
 -0.10475046539562957        2.0783687091987822E-002   5.3663287166507444E-002
 -0.10209614913266106        2.4922678479312919E-002   4.5678370652277124E-002
  -9.9441832869692534E-002   2.7499010189129321E-002   3.9378588111333601E-002
  -9.6787516606724008E-002   2.8512682221437029E-002   3.4763939543676806E-002
  -9.4133200343755510E-002   2.7963694576236028E-002   3.1834424949306758E-002
  -6.1529465587126478E-002   1.4504347762214091E-002   5.3135327836536385E-002
  -6.0227625316181518E-002   1.5502147682786974E-002   5.1814034159791710E-002
  -5.8925785045236566E-002   1.6128166951766845E-002   5.0971381841872859E-002
  -5.7623944774291613E-002   1.6382405569153730E-002   5.0607370882779834E-002
  -5.6322104503346633E-002   1.6264863534947605E-002   5.0722001282512585E-002
  -7.0140888814129221E-002   1.7869184465719591E-002   4.8752855013600729E-002
  -6.8410488217210547E-002   1.8314665989656215E-002   4.7392876213586191E-002
  -6.6680087620291872E-002   1.8540733933889740E-002   4.6411376706693298E-002
  -6.4949687023373198E-002   1.8547388298420148E-002   4.5808356492921962E-002
  -6.3219286426454524E-002   1.8334629083247428E-002   4.5583815572272215E-002
  -7.8445319015901627E-002   2.1234021169225067E-002   4.3741880258083891E-002
  -7.6386520158713486E-002   2.1127184296525471E-002   4.2495583406689429E-002
  -7.4327721301525360E-002   2.0953300916012642E-002   4.1527603782712301E-002
  -7.2268922444337191E-002   2.0712371027686534E-002   4.0837941386152592E-002
  -7.0210123587149051E-002   2.0404394631547251E-002   4.0426596217010197E-002
  -8.6442756192443709E-002   2.4598857872730570E-002   3.8102403569985940E-002
  -8.4155721140690309E-002   2.3939702603394692E-002   3.7122155739101360E-002
  -8.1868686088936923E-002   2.3365867898135526E-002   3.6320063069929909E-002
  -7.9581651037183537E-002   2.2877353756952937E-002   3.5696125562471634E-002
  -7.7294615985430137E-002   2.2474160179847089E-002   3.5250343216726460E-002
  -9.4133200343755510E-002   2.7963694576236028E-002   3.1834424949306758E-002
  -9.1718091163141086E-002   2.6752220910263975E-002   3.1272593210821958E-002
  -8.9302981982526647E-002   2.5778434880258438E-002   3.0788754568346080E-002
  -8.6887872801912250E-002   2.5042336486219348E-002   3.0382909021879116E-002
  -8.4472763621297811E-002   2.4543925728146884E-002   3.0055056571421088E-002
  -5.6322104503346633E-002   1.6264863534947605E-002   5.0722001282512585E-002
  -5.4819806933025669E-002   1.5969268953009222E-002   5.0396204210940765E-002
  -5.3317509362704699E-002   1.5689349927199281E-002   5.0229873671959302E-002
  -5.1815211792383735E-002   1.5425106457517726E-002   5.0223009665568225E-002
  -5.0312914222062771E-002   1.5176538543964613E-002   5.0375612191767533E-002
  -6.3219286426454524E-002   1.8334629083247428E-002   4.5583815572272215E-002
  -6.1527873609880809E-002   1.8010765012792515E-002   4.5200451689409740E-002
  -5.9836460793307095E-002   1.7684104811476378E-002   4.5035851766462347E-002
  -5.8145047976733380E-002   1.7354648479298813E-002   4.5090015803430139E-002
  -5.6453635160159665E-002   1.7022396016260100E-002   4.5362943800313110E-002
  -7.0210123587149051E-002   2.0404394631547251E-002   4.0426596217010197E-002
  -6.8270298096997820E-002   2.0052261072575829E-002   3.9967193835867353E-002
  -6.6330472606846588E-002   1.9678859695753420E-002   3.9785852841964300E-002
  -6.4390647116695343E-002   1.9284190501079941E-002   3.9882573235301276E-002
  -6.2450821626544098E-002   1.8868253488555559E-002   4.0257355015878044E-002
  -7.7294615985430137E-002   2.2474160179847089E-002   3.5250343216726460E-002
  -7.5047080394376617E-002   2.2093757132359160E-002   3.4696430650313512E-002
  -7.2799544803323152E-002   2.1673614580030406E-002   3.4479876898465267E-002
  -7.0552009212269659E-002   2.1213732522861132E-002   3.4600681961181559E-002
  -6.8304473621216166E-002   2.0714110960851032E-002   3.5058845838462555E-002
  -8.4472763621297811E-002   2.4543925728146884E-002   3.0055056571421088E-002
  -8.1858220502017312E-002   2.4135253192142464E-002   2.9388162132748363E-002
  -7.9243677382736799E-002   2.3668369464307570E-002   2.9117923935965066E-002
  -7.6629134263456286E-002   2.3143274544642160E-002   2.9244341981071103E-002
  -7.4014591144175773E-002   2.2559968433146504E-002   2.9767416268066560E-002
  -5.0312914222062771E-002   1.5176538543964613E-002   5.0375612191767533E-002
  -4.8790275302068489E-002   1.4883203070565981E-002   5.0269732369897124E-002
  -4.7267636382074221E-002   1.4484656921347636E-002   5.0360491989556916E-002
  -4.5744997462079939E-002   1.3980900096309919E-002   5.0647891050747143E-002
  -4.4222358542085671E-002   1.3371932595452440E-002   5.1131929553467570E-002
  -5.6453635160159665E-002   1.7022396016260100E-002   4.5362943800313110E-002
  -5.4756921829769573E-002   1.6646681045274322E-002   4.5283363638594420E-002
  -5.3060208499379494E-002   1.6186837189255773E-002   4.5355292856137111E-002
  -5.1363495168989415E-002   1.5642864448204574E-002   4.5578731452941119E-002
  -4.9666781838599329E-002   1.5014762822120720E-002   4.5953679429006383E-002
  -6.2450821626544098E-002   1.8868253488555559E-002   4.0257355015878044E-002
  -6.0625163948027180E-002   1.8410159019982678E-002   4.0225156305098042E-002
  -5.8799506269510242E-002   1.7889017457163946E-002   4.0299336911310428E-002
  -5.6973848590993317E-002   1.7304828800099370E-002   4.0479896834515097E-002
  -5.5148190912476393E-002   1.6657593048788888E-002   4.0766836074712209E-002
  -6.8304473621216166E-002   2.0714110960851032E-002   3.5058845838462555E-002
  -6.6395001656841354E-002   2.0173636994691109E-002   3.5095110369408017E-002
  -6.4485529692466598E-002   1.9591197725072115E-002   3.5192624155076874E-002
  -6.2576057728091813E-002   1.8966793151994149E-002   3.5351387195469146E-002
  -6.0666585763716981E-002   1.8300423275457195E-002   3.5571399490584785E-002
  -7.4014591144175773E-002   2.2559968433146504E-002   2.9767416268066560E-002
  -7.2066434956212094E-002   2.1937114969399485E-002   2.9893225831524400E-002
  -7.0118278768248429E-002   2.1293377992980284E-002   3.0035154587436635E-002
  -6.8170122580284764E-002   2.0628757503888880E-002   3.0193202535803321E-002
  -6.6221966392321113E-002   1.9943253502125335E-002   3.0367369676624345E-002
  -4.4222358542085671E-002   1.3371932595452440E-002   5.1131929553467570E-002
  -4.2619425320763293E-002   1.2726511784204142E-002   5.0984404493514546E-002
  -4.1016492099440902E-002   1.2113395027993579E-002   5.1052555634292063E-002
  -3.9413558878118503E-002   1.1532582326820418E-002   5.1336382975799760E-002
  -3.7810625656796132E-002   1.0984073680685269E-002   5.1835886518038055E-002
  -4.9666781838599329E-002   1.5014762822120720E-002   4.5953679429006383E-002
  -4.7848151206549824E-002   1.4342904875566387E-002   4.5783649951251559E-002
  -4.6029520574500313E-002   1.3667663173104527E-002   4.5829339094220531E-002
  -4.4210889942450822E-002   1.2989037714734641E-002   4.6090746857913339E-002
  -4.2392259310401373E-002   1.2307028500457118E-002   4.6567873242329971E-002
  -5.5148190912476393E-002   1.6657593048788888E-002   4.0766836074712209E-002
  -5.3113820449706431E-002   1.5959297966928854E-002   4.0538614368209977E-002
  -5.1079449986936434E-002   1.5221931318215587E-002   4.0526153702425016E-002
  -4.9045079524166472E-002   1.4445493102648921E-002   4.0729454077357188E-002
  -4.7010709061396476E-002   1.3629983320228939E-002   4.1148515493006688E-002
  -6.0666585763716981E-002   1.8300423275457195E-002   3.5571399490584785E-002
  -5.8416433050233127E-002   1.7575691058291293E-002   3.5249297744389722E-002
  -5.6166280336749252E-002   1.6776199463326646E-002   3.5142999458905436E-002
  -5.3916127623265357E-002   1.5901948490563200E-002   3.5252504634131585E-002
  -5.1665974909781462E-002   1.4952938140000913E-002   3.5577813270068454E-002
  -6.6221966392321113E-002   1.9943253502125335E-002   3.0367369676624345E-002
  -6.3755989008129899E-002   1.9192084149653565E-002   2.9915700079790997E-002
  -6.1290011623938698E-002   1.8330467608437609E-002   2.9679876363661706E-002
  -5.8824034239747504E-002   1.7358403878477400E-002   2.9659898528236264E-002
  -5.6358056855556310E-002   1.6275892959772664E-002   2.9855766573515019E-002
  -3.7810625656796132E-002   1.0984073680685269E-002   5.1835886518038055E-002
  -3.6131128200799098E-002   1.0494446200554675E-002   5.1171664679261430E-002
  -3.4451630744802050E-002   1.0090276997395786E-002   5.0808670476739037E-002
  -3.2772133288804996E-002   9.7715660712088120E-003   5.0746903910471181E-002
  -3.1092635832807969E-002   9.5383134219936827E-003   5.0986364980457444E-002
  -4.2392259310401373E-002   1.2307028500457118E-002   4.6567873242329971E-002
  -4.0394978921393015E-002   1.1667996472322084E-002   4.5970788805502816E-002
  -3.8397698532384700E-002   1.1118302572380459E-002   4.5708042598444021E-002
  -3.6400418143376349E-002   1.0657946800631788E-002   4.5779634621153392E-002
  -3.4403137754368027E-002   1.0286929157076519E-002   4.6185564873631013E-002
  -4.7010709061396476E-002   1.3629983320228939E-002   4.1148515493006688E-002
  -4.4662535145862929E-002   1.2841546744089632E-002   4.0622448309350592E-002
  -4.2314361230329375E-002   1.2146328147364910E-002   4.0463829948976626E-002
  -3.9966187314795856E-002   1.1544327530054764E-002   4.0672660411884859E-002
  -3.7618013399262275E-002   1.1035544892159271E-002   4.1248939698075263E-002
  -5.1665974909781462E-002   1.4952938140000913E-002   3.5577813270068454E-002
  -4.8933796874208770E-002   1.4015097015857139E-002   3.5126643190804718E-002
  -4.6201618838636112E-002   1.3174353722349472E-002   3.5076032528336971E-002
  -4.3469440803063426E-002   1.2430708259477851E-002   3.5425981282665456E-002
  -4.0737262767490755E-002   1.1784160627242121E-002   3.6176489453789901E-002
  -5.6358056855556310E-002   1.6275892959772664E-002   2.9855766573515019E-002
  -5.3208764106430606E-002   1.5188647287624646E-002   2.9483373449865069E-002
  -5.0059471357304888E-002   1.4202379297334020E-002   2.9544650336525091E-002
  -4.6910178608179177E-002   1.3317088988900685E-002   3.0039597233495155E-002
  -4.3760885859053467E-002   1.2532776362324860E-002   3.0968214140775219E-002
  -3.1092635832807969E-002   9.5383134219936827E-003   5.0986364980457444E-002
  -3.0226019055034026E-002   8.9007936927275599E-003   5.2304468071305232E-002
  -2.9359402277260097E-002   7.3692815263867867E-003   5.3500486613436177E-002
  -2.8492785499486174E-002   4.9437769229725599E-003   5.4574420606850180E-002
  -2.7626168721712197E-002   1.6242798824841476E-003   5.5526270051547533E-002
  -3.4403137754368027E-002   1.0286929157076519E-002   4.6185564873631013E-002
  -3.3494899670322494E-002   9.7176281249269358E-003   4.7073051424905255E-002
  -3.2586661586276967E-002   8.6624221873956575E-003   4.8165865137439395E-002
  -3.1678423502231462E-002   7.1213113444830722E-003   4.9464006011233713E-002
  -3.0770185418185908E-002   5.0942955961887915E-003   5.0967474046287764E-002
  -3.7618013399262275E-002   1.1035544892159271E-002   4.1248939698075263E-002
  -3.6340742298968332E-002   1.0534462557126589E-002   4.2113897241468301E-002
  -3.5063471198674409E-002   9.9555628484045769E-003   4.3511593656098239E-002
  -3.3786200098380494E-002   9.2988457659936106E-003   4.5442028941964890E-002
  -3.2508928998086495E-002   8.5643113098935464E-003   4.7905203099068372E-002
  -4.0737262767490755E-002   1.1784160627242121E-002   3.6176489453789901E-002
  -3.8763546940971519E-002   1.1351296989326104E-002   3.7427005520994247E-002
  -3.6789831114452387E-002   1.1248703509413416E-002   3.9537672169412265E-002
  -3.4816115287933207E-002   1.1476380187504135E-002   4.2508489399043926E-002
  -3.2842399461413915E-002   1.2034327023598190E-002   4.6339457209889315E-002
  -4.3760885859053467E-002   1.2532776362324860E-002   3.0968214140775219E-002
  -4.0763313596332174E-002   1.2168131421525730E-002   3.3012376263483301E-002
  -3.7765741333610880E-002   1.2541844170422284E-002   3.6244100677381930E-002
  -3.4768169070889643E-002   1.3653914609014585E-002   4.0663387382471244E-002
  -3.1770596808168294E-002   1.5504342737302945E-002   4.6270236378750829E-002
  -9.0361121608852762E-002   0.0000000000000000        4.9850573128687098E-002
  -9.3958457555546965E-002   5.4026221831850844E-003   5.3227421163532095E-002
  -9.7555793502241167E-002   1.0667444092911411E-002   5.4988489514783828E-002
 -0.10115312944893536        1.5794465729178992E-002   5.5133778182442264E-002
 -0.10475046539562957        2.0783687091987822E-002   5.3663287166507444E-002
 -0.10329070184008053        0.0000000000000000        5.8677669054762308E-002
 -0.10682339581219444        1.0883726326408182E-002   5.2136664537709154E-002
 -0.11035608978430836        1.9169566241160833E-002   4.7340723653409876E-002
 -0.11388878375642228        2.4857519744257969E-002   4.4289846401864452E-002
 -0.11742147772853617        2.7947586835699575E-002   4.2984032783072897E-002
 -0.12645071293882290        0.0000000000000000        7.4215912193158970E-002
 -0.12655792162000937        1.6364830469631275E-002   5.5296968986010921E-002
 -0.12666513030119586        2.7671688389410261E-002   4.1483932727963878E-002
 -0.12677233898238233        3.3920573759336943E-002   3.2776803419017800E-002
 -0.12687954766356882        3.5111486579411336E-002   2.9175581059172777E-002
 -0.15984115490507983        0.0000000000000000        9.6465302543877127E-002
 -0.15316203497899175        2.1845934612854362E-002   6.2708334508437394E-002
 -0.14648291505290362        3.6173810537659647E-002   3.7418116738445799E-002
 -0.13980379512681554        4.2983627774415896E-002   2.0594649233902348E-002
 -0.13312467520072743        4.2275386323123082E-002   1.2237931994807041E-002
 -0.20346202773885136        0.0000000000000000       0.12542584010691676     
 -0.18663573588914151        2.7327038756077459E-002   7.4370761104988581E-002
 -0.16980944403943171        4.4675932685909095E-002   3.5143275684855674E-002
 -0.15298315218972192        5.2046681789494897E-002   7.7433838465180149E-003
 -0.13615686034001206        4.9439286066834856E-002  -7.8289144100242777E-003
 -0.10475046539562957        2.0783687091987822E-002   5.3663287166507444E-002
 -0.10209614913266106        2.4922678479312919E-002   4.5678370652277124E-002
  -9.9441832869692534E-002   2.7499010189129321E-002   3.9378588111333601E-002
  -9.6787516606724008E-002   2.8512682221437029E-002   3.4763939543676806E-002
  -9.4133200343755510E-002   2.7963694576236028E-002   3.1834424949306758E-002
 -0.11742147772853617        2.7947586835699575E-002   4.2984032783072897E-002
 -0.11346705067135465        2.9416107259455961E-002   3.6723102187031037E-002
 -0.10951262361417316        3.0239420759497461E-002   3.1377259206128418E-002
 -0.10555819655699167        3.0417527335824070E-002   2.6946503840365014E-002
 -0.10160376949981012        2.9950426988435697E-002   2.3430836089740857E-002
 -0.12687954766356882        3.5111486579411336E-002   2.9175581059172777E-002
 -0.12239505617032180        3.3909536039599036E-002   2.5556089135113133E-002
 -0.11791056467707482        3.2979831329865573E-002   2.2081638468045197E-002
 -0.11342607318382780        3.2322372450211086E-002   1.8752229057969041E-002
 -0.10894158169058084        3.1937159400635400E-002   1.5567860904884535E-002
 -0.13312467520072743        4.2275386323123082E-002   1.2237931994807041E-002
 -0.12888016562956248        3.8402964819742078E-002   1.2177331496523426E-002
 -0.12463565605839751        3.5720241900233762E-002   1.1491725897083964E-002
 -0.12039114648723255        3.4227217564598046E-002   1.0181115196488797E-002
 -0.11614663691606761        3.3923891812835130E-002   8.2454993947377701E-003
 -0.13615686034001206        4.9439286066834856E-002  -7.8289144100242777E-003
 -0.13292237904907667        4.2896393599885133E-002  -3.4131707287381290E-003
 -0.12968789775814124        3.8460652470601903E-002  -3.9247850675533900E-004
 -0.12645341646720581        3.6132062678985159E-002   1.2331622559243181E-003
 -0.12321893517627042        3.5910624225034743E-002   1.4637515593005634E-003
  -9.4133200343755510E-002   2.7963694576236028E-002   3.1834424949306758E-002
  -9.1718091163141086E-002   2.6752220910263975E-002   3.1272593210821958E-002
  -8.9302981982526647E-002   2.5778434880258438E-002   3.0788754568346080E-002
  -8.6887872801912250E-002   2.5042336486219348E-002   3.0382909021879116E-002
  -8.4472763621297811E-002   2.4543925728146884E-002   3.0055056571421088E-002
 -0.10160376949981012        2.9950426988435697E-002   2.3430836089740857E-002
  -9.9103761622001588E-002   2.9170805468888374E-002   2.3137593025406959E-002
  -9.6603753744193041E-002   2.8411348528737966E-002   2.2936154259452387E-002
  -9.4103745866384536E-002   2.7672056167984370E-002   2.2826519791877151E-002
  -9.1603737988575962E-002   2.6952928386627661E-002   2.2808689622681275E-002
 -0.10894158169058084        3.1937159400635400E-002   1.5567860904884535E-002
 -0.10634286391320771        3.1589390027512820E-002   1.5325683458131831E-002
 -0.10374414613583462        3.1044262177217424E-002   1.5189121512128929E-002
 -0.10114542835846152        3.0301775849749277E-002   1.5158175066875675E-002
  -9.8546710581088381E-002   2.9361931045108446E-002   1.5232844122372417E-002
 -0.11614663691606761        3.3923891812835130E-002   8.2454993947377701E-003
 -0.11343539803675949        3.4007974586137246E-002   7.8368645089965747E-003
 -0.11072415915745142        3.3677175825696924E-002   7.5476563263757561E-003
 -0.10801292027814330        3.2931495531514296E-002   7.3778748468750037E-003
 -0.10530168139883524        3.1770933703589119E-002   7.3275200704944884E-003
 -0.12321893517627042        3.5910624225034743E-002   1.4637515593005634E-003
 -0.12038136399265686        3.6426559144761617E-002   6.7113617800149128E-004
 -0.11754379280904337        3.6310089474176500E-002   1.1758702192818382E-005
 -0.11470622162542986        3.5561215213279186E-002  -5.1438086812516728E-004
 -0.11186865044181632        3.4179936362069951E-002  -9.0728253295241368E-004
  -8.4472763621297811E-002   2.4543925728146884E-002   3.0055056571421088E-002
  -8.1858220502017312E-002   2.4135253192142464E-002   2.9388162132748363E-002
  -7.9243677382736799E-002   2.3668369464307570E-002   2.9117923935965066E-002
  -7.6629134263456286E-002   2.3143274544642160E-002   2.9244341981071103E-002
  -7.4014591144175773E-002   2.2559968433146504E-002   2.9767416268066560E-002
  -9.1603737988575962E-002   2.6952928386627661E-002   2.2808689622681275E-002
  -8.8677498509875358E-002   2.6258465180228015E-002   2.2230313765648331E-002
  -8.5751259031174754E-002   2.5593166544345743E-002   2.1878674385566191E-002
  -8.2825019552474177E-002   2.4957032478980776E-002   2.1753771482434868E-002
  -7.9898780073773587E-002   2.4350062984133142E-002   2.1855605056254362E-002
  -9.8546710581088381E-002   2.9361931045108446E-002   1.5232844122372417E-002
  -9.5478694507906359E-002   2.8381677168313649E-002   1.4830362609327095E-002
  -9.2410678434724294E-002   2.7517963624383975E-002   1.4484697808293872E-002
  -8.9342662361542244E-002   2.6770790413319367E-002   1.4195849719272752E-002
  -8.6274646288360207E-002   2.6140157535119751E-002   1.3963818342263970E-002
 -0.10530168139883524        3.1770933703589119E-002   7.3275200704944884E-003
 -0.10226180849611026        3.0504889156399435E-002   7.1883086637844519E-003
  -9.9221935593385394E-002   2.9442760704422161E-002   6.9359942041479720E-003
  -9.6182062690660430E-002   2.8584548347657945E-002   6.5705766915850590E-003
  -9.3142189787935536E-002   2.7930252086106264E-002   6.0920561260955526E-003
 -0.11186865044181632        3.4179936362069951E-002  -9.0728253295241368E-004
 -0.10902684047448719        3.2628101144484917E-002  -6.9584807097936019E-004
 -0.10618503050715800        3.1367557784460362E-002  -7.6743642687142344E-004
 -0.10334322053982883        3.0398306281996534E-002  -1.1220476006287942E-003
 -0.10050141057249967        2.9720346637093054E-002  -1.7596815922508724E-003
  -7.4014591144175773E-002   2.2559968433146504E-002   2.9767416268066560E-002
  -7.2066434956212094E-002   2.1937114969399485E-002   2.9893225831524400E-002
  -7.0118278768248429E-002   2.1293377992980284E-002   3.0035154587436635E-002
  -6.8170122580284764E-002   2.0628757503888880E-002   3.0193202535803321E-002
  -6.6221966392321113E-002   1.9943253502125335E-002   3.0367369676624345E-002
  -7.9898780073773587E-002   2.4350062984133142E-002   2.1855605056254362E-002
  -7.7877384941079306E-002   2.3735607605326378E-002   2.1514347161445596E-002
  -7.5855989808385094E-002   2.3077015888083939E-002   2.1303447963643779E-002
  -7.3834594675690812E-002   2.2374287832405977E-002   2.1222907462848814E-002
  -7.1813199542996600E-002   2.1627423438292492E-002   2.1272725659060410E-002
  -8.6274646288360207E-002   2.6140157535119751E-002   1.3963818342263970E-002
  -8.4065772706382963E-002   2.5534100241253160E-002   1.3132240163425478E-002
  -8.1856899124405760E-002   2.4860653783187650E-002   1.2545260186146115E-002
  -7.9648025542428572E-002   2.4119818160923154E-002   1.2202878410425916E-002
  -7.7439151960451313E-002   2.3311593374459760E-002   1.2105094836264790E-002
  -9.3142189787935536E-002   2.7930252086106264E-002   6.0920561260955526E-003
  -9.0631598252123011E-002   2.7332592877179998E-002   4.7469048374637959E-003
  -8.8121006716310457E-002   2.6644291678291333E-002   3.7605912549435929E-003
  -8.5610415180497945E-002   2.5865348489440151E-002   3.1331153785349210E-003
  -8.3099823644685461E-002   2.4995763310627028E-002   2.8644772082376604E-003
 -0.10050141057249967        2.9720346637093054E-002  -1.7596815922508724E-003
  -9.7574861578299477E-002   2.9131085513106891E-002  -3.6416588164392971E-003
  -9.4648312584099253E-002   2.8427929573395225E-002  -5.0505588299638304E-003
  -9.1721763589899016E-002   2.7610878817957509E-002  -5.9863816328245487E-003
  -8.8795214595698835E-002   2.6679933246794074E-002  -6.4491272250211673E-003
  -6.6221966392321113E-002   1.9943253502125335E-002   3.0367369676624345E-002
  -6.3755989008129899E-002   1.9192084149653565E-002   2.9915700079790997E-002
  -6.1290011623938698E-002   1.8330467608437609E-002   2.9679876363661706E-002
  -5.8824034239747504E-002   1.7358403878477400E-002   2.9659898528236264E-002
  -5.6358056855556310E-002   1.6275892959772664E-002   2.9855766573515019E-002
  -7.1813199542996600E-002   2.1627423438292492E-002   2.1272725659060410E-002
  -6.9152374191740779E-002   2.0813232469492626E-002   2.0664856881967480E-002
  -6.6491548840484971E-002   1.9908524689755167E-002   2.0230838158299777E-002
  -6.3830723489229177E-002   1.8913300099080137E-002   1.9970669488057397E-002
  -6.1169898137973341E-002   1.7827558697467605E-002   1.9884350871240075E-002
  -7.7439151960451313E-002   2.3311593374459760E-002   1.2105094836264790E-002
  -7.4625474469409703E-002   2.2434380789331410E-002   1.1360957256719220E-002
  -7.1811796978368106E-002   2.1486581771072495E-002   1.0748673903319857E-002
  -6.8998119487326495E-002   2.0468196319682760E-002   1.0268244776067005E-002
  -6.6184441996284898E-002   1.9379224435162462E-002   9.9196698749606238E-003
  -8.3099823644685461E-002   2.4995763310627028E-002   2.8644772082376604E-003
  -8.0175289841136768E-002   2.4055529109170387E-002   2.0040012040459607E-003
  -7.7250756037588103E-002   2.3064638852389994E-002   1.2333835987219759E-003
  -7.4326222234039480E-002   2.2023092540285664E-002   5.5262439226553845E-004
  -7.1401688430490773E-002   2.0930890172857444E-002  -3.8276415323158092E-005
  -8.8795214595698835E-002   2.6679933246794074E-002  -6.4491272250211673E-003
  -8.5801820306921905E-002   2.5676677429009309E-002  -7.4060112760521712E-003
  -8.2808426018145032E-002   2.4642695933707298E-002  -8.3150327554940145E-003
  -7.9815031729368102E-002   2.3577988760888326E-002  -9.1761916633472003E-003
  -7.6821637440591228E-002   2.2482555910552260E-002  -9.9894879996114128E-003
  -5.6358056855556310E-002   1.6275892959772664E-002   2.9855766573515019E-002
  -5.3208764106430606E-002   1.5188647287624646E-002   2.9483373449865069E-002
  -5.0059471357304888E-002   1.4202379297334020E-002   2.9544650336525091E-002
  -4.6910178608179177E-002   1.3317088988900685E-002   3.0039597233495155E-002
  -4.3760885859053467E-002   1.2532776362324860E-002   3.0968214140775219E-002
  -6.1169898137973341E-002   1.7827558697467605E-002   1.9884350871240075E-002
  -5.7697071360698252E-002   1.6734426067960051E-002   1.9287475208037419E-002
  -5.4224244583423127E-002   1.5717027793599861E-002   1.8903997590823354E-002
  -5.0751417806148030E-002   1.4775363874386580E-002   1.8733918019598228E-002
  -4.7278591028872913E-002   1.3909434310320878E-002   1.8777236494361804E-002
  -6.6184441996284898E-002   1.9379224435162462E-002   9.9196698749606238E-003
  -6.2608353155181595E-002   1.8280204848295539E-002   9.0730683454951083E-003
  -5.9032264314078250E-002   1.7231676289865543E-002   8.2195928976969770E-003
  -5.5456175472974926E-002   1.6233638759872590E-002   7.3592435315664451E-003
  -5.1880086631871603E-002   1.5286092258316897E-002   6.4920202471036026E-003
  -7.1401688430490773E-002   2.0930890172857444E-002  -3.8276415323158092E-005
  -6.7942609489880568E-002   1.9825983628630819E-002  -1.1598471377618873E-003
  -6.4483530549270293E-002   1.8746324786131304E-002  -2.5085637428541134E-003
  -6.1024451608660026E-002   1.7691913645358708E-002  -4.0844262306000099E-003
  -5.7565372668049827E-002   1.6662750206312804E-002  -5.8874346009994832E-003
  -7.6821637440591228E-002   2.2482555910552260E-002  -9.9894879996114128E-003
  -7.3699840364795266E-002   2.1371762408966377E-002  -1.1411271241733467E-002
  -7.0578043288999193E-002   2.0260973282397232E-002  -1.3280472330830018E-002
  -6.7456246213203203E-002   1.9150188530844534E-002  -1.5597091266901883E-002
  -6.4334449137407157E-002   1.8039408154308822E-002  -1.8361128049948050E-002
  -4.3760885859053467E-002   1.2532776362324860E-002   3.0968214140775219E-002
  -4.0763313596332174E-002   1.2168131421525730E-002   3.3012376263483301E-002
  -3.7765741333610880E-002   1.2541844170422284E-002   3.6244100677381930E-002
  -3.4768169070889643E-002   1.3653914609014585E-002   4.0663387382471244E-002
  -3.1770596808168294E-002   1.5504342737302945E-002   4.6270236378750829E-002
  -4.7278591028872913E-002   1.3909434310320878E-002   1.8777236494361804E-002
  -4.3646747836210170E-002   1.3467673381109185E-002   1.9939797124770398E-002
  -4.0014904643547441E-002   1.3798515366459041E-002   2.1183337323871121E-002
  -3.6383061450884630E-002   1.4901960266370473E-002   2.2507857091664141E-002
  -3.2751218258221970E-002   1.6778008080843287E-002   2.3913356428149957E-002
  -5.1880086631871603E-002   1.5286092258316897E-002   6.4920202471036026E-003
  -4.8720555231765592E-002   1.4767215340693307E-002   6.8072246100779332E-003
  -4.5561023831659470E-002   1.5055186562496339E-002   6.0968258192464486E-003
  -4.2401492431553417E-002   1.6150005923726358E-002   4.3608238746092112E-003
  -3.9241961031447295E-002   1.8051673424383630E-002   1.5992187761664778E-003
  -5.7565372668049827E-002   1.6662750206312804E-002  -5.8874346009994832E-003
  -5.5984735782998396E-002   1.6066757300276818E-002  -6.3853412805939327E-003
  -5.4404098897946958E-002   1.6311857758533312E-002  -9.0154338364922468E-003
  -5.2823462012895568E-002   1.7398051581082298E-002  -1.3777712268694049E-002
  -5.1242825127844144E-002   1.9325338767923916E-002  -2.0672176577200094E-002
  -6.4334449137407157E-002   1.8039408154308822E-002  -1.8361128049948050E-002
  -6.5439289489908625E-002   1.7366299259860440E-002  -1.9637900547245346E-002
  -6.6544129842410094E-002   1.7568528954569979E-002  -2.4153441643344709E-002
  -6.7648970194911590E-002   1.8646097238438027E-002  -3.1907751338246096E-002
  -6.8753810547413030E-002   2.0599004111464314E-002  -4.2900829631949078E-002
 </DataArray>
 </PointData>
 </Piece>
 <Piece  NumberOfPoints="          1600 "  NumberOfCells="         1024 ">
 <Points>
 <DataArray  type="Float64" NumberOfComponents="3"  format="ascii" >
  0.50000000000000000        0.0000000000000000        0.0000000000000000     
  0.53125000000000000        0.0000000000000000        0.0000000000000000     
  0.56250000000000000        0.0000000000000000        0.0000000000000000     
  0.59375000000000000        0.0000000000000000        0.0000000000000000     
  0.62500000000000000        0.0000000000000000        0.0000000000000000     
  0.50000000000000000        3.1250000000000000E-002   0.0000000000000000     
  0.53125000000000000        3.1250000000000000E-002   0.0000000000000000     
  0.56250000000000000        3.1250000000000000E-002   0.0000000000000000     
  0.59375000000000000        3.1250000000000000E-002   0.0000000000000000     
  0.62500000000000000        3.1250000000000000E-002   0.0000000000000000     
  0.50000000000000000        6.2500000000000000E-002   0.0000000000000000     
  0.53125000000000000        6.2500000000000000E-002   0.0000000000000000     
  0.56250000000000000        6.2500000000000000E-002   0.0000000000000000     
  0.59375000000000000        6.2500000000000000E-002   0.0000000000000000     
  0.62500000000000000        6.2500000000000000E-002   0.0000000000000000     
  0.50000000000000000        9.3750000000000000E-002   0.0000000000000000     
  0.53125000000000000        9.3750000000000000E-002   0.0000000000000000     
  0.56250000000000000        9.3750000000000000E-002   0.0000000000000000     
  0.59375000000000000        9.3750000000000000E-002   0.0000000000000000     
  0.62500000000000000        9.3750000000000000E-002   0.0000000000000000     
  0.50000000000000000       0.12500000000000000        0.0000000000000000     
  0.53125000000000000       0.12500000000000000        0.0000000000000000     
  0.56250000000000000       0.12500000000000000        0.0000000000000000     
  0.59375000000000000       0.12500000000000000        0.0000000000000000     
  0.62500000000000000       0.12500000000000000        0.0000000000000000     
  0.62500000000000000        0.0000000000000000        0.0000000000000000     
  0.65625000000000000        0.0000000000000000        0.0000000000000000     
  0.68750000000000000        0.0000000000000000        0.0000000000000000     
  0.71875000000000000        0.0000000000000000        0.0000000000000000     
  0.75000000000000000        0.0000000000000000        0.0000000000000000     
  0.62500000000000000        3.1250000000000000E-002   0.0000000000000000     
  0.65625000000000000        3.1250000000000000E-002   0.0000000000000000     
  0.68750000000000000        3.1250000000000000E-002   0.0000000000000000     
  0.71875000000000000        3.1250000000000000E-002   0.0000000000000000     
  0.75000000000000000        3.1250000000000000E-002   0.0000000000000000     
  0.62500000000000000        6.2500000000000000E-002   0.0000000000000000     
  0.65625000000000000        6.2500000000000000E-002   0.0000000000000000     
  0.68750000000000000        6.2500000000000000E-002   0.0000000000000000     
  0.71875000000000000        6.2500000000000000E-002   0.0000000000000000     
  0.75000000000000000        6.2500000000000000E-002   0.0000000000000000     
  0.62500000000000000        9.3750000000000000E-002   0.0000000000000000     
  0.65625000000000000        9.3750000000000000E-002   0.0000000000000000     
  0.68750000000000000        9.3750000000000000E-002   0.0000000000000000     
  0.71875000000000000        9.3750000000000000E-002   0.0000000000000000     
  0.75000000000000000        9.3750000000000000E-002   0.0000000000000000     
  0.62500000000000000       0.12500000000000000        0.0000000000000000     
  0.65625000000000000       0.12500000000000000        0.0000000000000000     
  0.68750000000000000       0.12500000000000000        0.0000000000000000     
  0.71875000000000000       0.12500000000000000        0.0000000000000000     
  0.75000000000000000       0.12500000000000000        0.0000000000000000     
  0.75000000000000000        0.0000000000000000        0.0000000000000000     
  0.78125000000000000        0.0000000000000000        0.0000000000000000     
  0.81250000000000000        0.0000000000000000        0.0000000000000000     
  0.84375000000000000        0.0000000000000000        0.0000000000000000     
  0.87500000000000000        0.0000000000000000        0.0000000000000000     
  0.75000000000000000        3.1250000000000000E-002   0.0000000000000000     
  0.78125000000000000        3.1250000000000000E-002   0.0000000000000000     
  0.81250000000000000        3.1250000000000000E-002   0.0000000000000000     
  0.84375000000000000        3.1250000000000000E-002   0.0000000000000000     
  0.87500000000000000        3.1250000000000000E-002   0.0000000000000000     
  0.75000000000000000        6.2500000000000000E-002   0.0000000000000000     
  0.78125000000000000        6.2500000000000000E-002   0.0000000000000000     
  0.81250000000000000        6.2500000000000000E-002   0.0000000000000000     
  0.84375000000000000        6.2500000000000000E-002   0.0000000000000000     
  0.87500000000000000        6.2500000000000000E-002   0.0000000000000000     
  0.75000000000000000        9.3750000000000000E-002   0.0000000000000000     
  0.78125000000000000        9.3750000000000000E-002   0.0000000000000000     
  0.81250000000000000        9.3750000000000000E-002   0.0000000000000000     
  0.84375000000000000        9.3750000000000000E-002   0.0000000000000000     
  0.87500000000000000        9.3750000000000000E-002   0.0000000000000000     
  0.75000000000000000       0.12500000000000000        0.0000000000000000     
  0.78125000000000000       0.12500000000000000        0.0000000000000000     
  0.81250000000000000       0.12500000000000000        0.0000000000000000     
  0.84375000000000000       0.12500000000000000        0.0000000000000000     
  0.87500000000000000       0.12500000000000000        0.0000000000000000     
  0.87500000000000000        0.0000000000000000        0.0000000000000000     
  0.90625000000000000        0.0000000000000000        0.0000000000000000     
  0.93750000000000000        0.0000000000000000        0.0000000000000000     
  0.96875000000000000        0.0000000000000000        0.0000000000000000     
   1.0000000000000000        0.0000000000000000        0.0000000000000000     
  0.87500000000000000        3.1250000000000000E-002   0.0000000000000000     
  0.90625000000000000        3.1250000000000000E-002   0.0000000000000000     
  0.93750000000000000        3.1250000000000000E-002   0.0000000000000000     
  0.96875000000000000        3.1250000000000000E-002   0.0000000000000000     
   1.0000000000000000        3.1250000000000000E-002   0.0000000000000000     
  0.87500000000000000        6.2500000000000000E-002   0.0000000000000000     
  0.90625000000000000        6.2500000000000000E-002   0.0000000000000000     
  0.93750000000000000        6.2500000000000000E-002   0.0000000000000000     
  0.96875000000000000        6.2500000000000000E-002   0.0000000000000000     
   1.0000000000000000        6.2500000000000000E-002   0.0000000000000000     
  0.87500000000000000        9.3750000000000000E-002   0.0000000000000000     
  0.90625000000000000        9.3750000000000000E-002   0.0000000000000000     
  0.93750000000000000        9.3750000000000000E-002   0.0000000000000000     
  0.96875000000000000        9.3750000000000000E-002   0.0000000000000000     
   1.0000000000000000        9.3750000000000000E-002   0.0000000000000000     
  0.87500000000000000       0.12500000000000000        0.0000000000000000     
  0.90625000000000000       0.12500000000000000        0.0000000000000000     
  0.93750000000000000       0.12500000000000000        0.0000000000000000     
  0.96875000000000000       0.12500000000000000        0.0000000000000000     
   1.0000000000000000       0.12500000000000000        0.0000000000000000     
   1.0000000000000000        0.0000000000000000        0.0000000000000000     
   1.0312500000000000        0.0000000000000000        0.0000000000000000     
   1.0625000000000000        0.0000000000000000        0.0000000000000000     
   1.0937500000000000        0.0000000000000000        0.0000000000000000     
   1.1250000000000000        0.0000000000000000        0.0000000000000000     
   1.0000000000000000        3.1250000000000000E-002   0.0000000000000000     
   1.0312500000000000        3.1250000000000000E-002   0.0000000000000000     
   1.0625000000000000        3.1250000000000000E-002   0.0000000000000000     
   1.0937500000000000        3.1250000000000000E-002   0.0000000000000000     
   1.1250000000000000        3.1250000000000000E-002   0.0000000000000000     
   1.0000000000000000        6.2500000000000000E-002   0.0000000000000000     
   1.0312500000000000        6.2500000000000000E-002   0.0000000000000000     
   1.0625000000000000        6.2500000000000000E-002   0.0000000000000000     
   1.0937500000000000        6.2500000000000000E-002   0.0000000000000000     
   1.1250000000000000        6.2500000000000000E-002   0.0000000000000000     
   1.0000000000000000        9.3750000000000000E-002   0.0000000000000000     
   1.0312500000000000        9.3750000000000000E-002   0.0000000000000000     
   1.0625000000000000        9.3750000000000000E-002   0.0000000000000000     
   1.0937500000000000        9.3750000000000000E-002   0.0000000000000000     
   1.1250000000000000        9.3750000000000000E-002   0.0000000000000000     
   1.0000000000000000       0.12500000000000000        0.0000000000000000     
   1.0312500000000000       0.12500000000000000        0.0000000000000000     
   1.0625000000000000       0.12500000000000000        0.0000000000000000     
   1.0937500000000000       0.12500000000000000        0.0000000000000000     
   1.1250000000000000       0.12500000000000000        0.0000000000000000     
   1.1250000000000000        0.0000000000000000        0.0000000000000000     
   1.1562500000000000        0.0000000000000000        0.0000000000000000     
   1.1875000000000000        0.0000000000000000        0.0000000000000000     
   1.2187500000000000        0.0000000000000000        0.0000000000000000     
   1.2500000000000000        0.0000000000000000        0.0000000000000000     
   1.1250000000000000        3.1250000000000000E-002   0.0000000000000000     
   1.1562500000000000        3.1250000000000000E-002   0.0000000000000000     
   1.1875000000000000        3.1250000000000000E-002   0.0000000000000000     
   1.2187500000000000        3.1250000000000000E-002   0.0000000000000000     
   1.2500000000000000        3.1250000000000000E-002   0.0000000000000000     
   1.1250000000000000        6.2500000000000000E-002   0.0000000000000000     
   1.1562500000000000        6.2500000000000000E-002   0.0000000000000000     
   1.1875000000000000        6.2500000000000000E-002   0.0000000000000000     
   1.2187500000000000        6.2500000000000000E-002   0.0000000000000000     
   1.2500000000000000        6.2500000000000000E-002   0.0000000000000000     
   1.1250000000000000        9.3750000000000000E-002   0.0000000000000000     
   1.1562500000000000        9.3750000000000000E-002   0.0000000000000000     
   1.1875000000000000        9.3750000000000000E-002   0.0000000000000000     
   1.2187500000000000        9.3750000000000000E-002   0.0000000000000000     
   1.2500000000000000        9.3750000000000000E-002   0.0000000000000000     
   1.1250000000000000       0.12500000000000000        0.0000000000000000     
   1.1562500000000000       0.12500000000000000        0.0000000000000000     
   1.1875000000000000       0.12500000000000000        0.0000000000000000     
   1.2187500000000000       0.12500000000000000        0.0000000000000000     
   1.2500000000000000       0.12500000000000000        0.0000000000000000     
   1.2500000000000000        0.0000000000000000        0.0000000000000000     
   1.2812500000000000        0.0000000000000000        0.0000000000000000     
   1.3125000000000000        0.0000000000000000        0.0000000000000000     
   1.3437500000000000        0.0000000000000000        0.0000000000000000     
   1.3750000000000000        0.0000000000000000        0.0000000000000000     
   1.2500000000000000        3.1250000000000000E-002   0.0000000000000000     
   1.2812500000000000        3.1250000000000000E-002   0.0000000000000000     
   1.3125000000000000        3.1250000000000000E-002   0.0000000000000000     
   1.3437500000000000        3.1250000000000000E-002   0.0000000000000000     
   1.3750000000000000        3.1250000000000000E-002   0.0000000000000000     
   1.2500000000000000        6.2500000000000000E-002   0.0000000000000000     
   1.2812500000000000        6.2500000000000000E-002   0.0000000000000000     
   1.3125000000000000        6.2500000000000000E-002   0.0000000000000000     
   1.3437500000000000        6.2500000000000000E-002   0.0000000000000000     
   1.3750000000000000        6.2500000000000000E-002   0.0000000000000000     
   1.2500000000000000        9.3750000000000000E-002   0.0000000000000000     
   1.2812500000000000        9.3750000000000000E-002   0.0000000000000000     
   1.3125000000000000        9.3750000000000000E-002   0.0000000000000000     
   1.3437500000000000        9.3750000000000000E-002   0.0000000000000000     
   1.3750000000000000        9.3750000000000000E-002   0.0000000000000000     
   1.2500000000000000       0.12500000000000000        0.0000000000000000     
   1.2812500000000000       0.12500000000000000        0.0000000000000000     
   1.3125000000000000       0.12500000000000000        0.0000000000000000     
   1.3437500000000000       0.12500000000000000        0.0000000000000000     
   1.3750000000000000       0.12500000000000000        0.0000000000000000     
   1.3750000000000000        0.0000000000000000        0.0000000000000000     
   1.4062500000000000        0.0000000000000000        0.0000000000000000     
   1.4375000000000000        0.0000000000000000        0.0000000000000000     
   1.4687500000000000        0.0000000000000000        0.0000000000000000     
   1.5000000000000000        0.0000000000000000        0.0000000000000000     
   1.3750000000000000        3.1250000000000000E-002   0.0000000000000000     
   1.4062500000000000        3.1250000000000000E-002   0.0000000000000000     
   1.4375000000000000        3.1250000000000000E-002   0.0000000000000000     
   1.4687500000000000        3.1250000000000000E-002   0.0000000000000000     
   1.5000000000000000        3.1250000000000000E-002   0.0000000000000000     
   1.3750000000000000        6.2500000000000000E-002   0.0000000000000000     
   1.4062500000000000        6.2500000000000000E-002   0.0000000000000000     
   1.4375000000000000        6.2500000000000000E-002   0.0000000000000000     
   1.4687500000000000        6.2500000000000000E-002   0.0000000000000000     
   1.5000000000000000        6.2500000000000000E-002   0.0000000000000000     
   1.3750000000000000        9.3750000000000000E-002   0.0000000000000000     
   1.4062500000000000        9.3750000000000000E-002   0.0000000000000000     
   1.4375000000000000        9.3750000000000000E-002   0.0000000000000000     
   1.4687500000000000        9.3750000000000000E-002   0.0000000000000000     
   1.5000000000000000        9.3750000000000000E-002   0.0000000000000000     
   1.3750000000000000       0.12500000000000000        0.0000000000000000     
   1.4062500000000000       0.12500000000000000        0.0000000000000000     
   1.4375000000000000       0.12500000000000000        0.0000000000000000     
   1.4687500000000000       0.12500000000000000        0.0000000000000000     
   1.5000000000000000       0.12500000000000000        0.0000000000000000     
  0.50000000000000000       0.12500000000000000        0.0000000000000000     
  0.53125000000000000       0.12500000000000000        0.0000000000000000     
  0.56250000000000000       0.12500000000000000        0.0000000000000000     
  0.59375000000000000       0.12500000000000000        0.0000000000000000     
  0.62500000000000000       0.12500000000000000        0.0000000000000000     
  0.50000000000000000       0.15625000000000000        0.0000000000000000     
  0.53125000000000000       0.15625000000000000        0.0000000000000000     
  0.56250000000000000       0.15625000000000000        0.0000000000000000     
  0.59375000000000000       0.15625000000000000        0.0000000000000000     
  0.62500000000000000       0.15625000000000000        0.0000000000000000     
  0.50000000000000000       0.18750000000000000        0.0000000000000000     
  0.53125000000000000       0.18750000000000000        0.0000000000000000     
  0.56250000000000000       0.18750000000000000        0.0000000000000000     
  0.59375000000000000       0.18750000000000000        0.0000000000000000     
  0.62500000000000000       0.18750000000000000        0.0000000000000000     
  0.50000000000000000       0.21875000000000000        0.0000000000000000     
  0.53125000000000000       0.21875000000000000        0.0000000000000000     
  0.56250000000000000       0.21875000000000000        0.0000000000000000     
  0.59375000000000000       0.21875000000000000        0.0000000000000000     
  0.62500000000000000       0.21875000000000000        0.0000000000000000     
  0.50000000000000000       0.25000000000000000        0.0000000000000000     
  0.53125000000000000       0.25000000000000000        0.0000000000000000     
  0.56250000000000000       0.25000000000000000        0.0000000000000000     
  0.59375000000000000       0.25000000000000000        0.0000000000000000     
  0.62500000000000000       0.25000000000000000        0.0000000000000000     
  0.62500000000000000       0.12500000000000000        0.0000000000000000     
  0.65625000000000000       0.12500000000000000        0.0000000000000000     
  0.68750000000000000       0.12500000000000000        0.0000000000000000     
  0.71875000000000000       0.12500000000000000        0.0000000000000000     
  0.75000000000000000       0.12500000000000000        0.0000000000000000     
  0.62500000000000000       0.15625000000000000        0.0000000000000000     
  0.65625000000000000       0.15625000000000000        0.0000000000000000     
  0.68750000000000000       0.15625000000000000        0.0000000000000000     
  0.71875000000000000       0.15625000000000000        0.0000000000000000     
  0.75000000000000000       0.15625000000000000        0.0000000000000000     
  0.62500000000000000       0.18750000000000000        0.0000000000000000     
  0.65625000000000000       0.18750000000000000        0.0000000000000000     
  0.68750000000000000       0.18750000000000000        0.0000000000000000     
  0.71875000000000000       0.18750000000000000        0.0000000000000000     
  0.75000000000000000       0.18750000000000000        0.0000000000000000     
  0.62500000000000000       0.21875000000000000        0.0000000000000000     
  0.65625000000000000       0.21875000000000000        0.0000000000000000     
  0.68750000000000000       0.21875000000000000        0.0000000000000000     
  0.71875000000000000       0.21875000000000000        0.0000000000000000     
  0.75000000000000000       0.21875000000000000        0.0000000000000000     
  0.62500000000000000       0.25000000000000000        0.0000000000000000     
  0.65625000000000000       0.25000000000000000        0.0000000000000000     
  0.68750000000000000       0.25000000000000000        0.0000000000000000     
  0.71875000000000000       0.25000000000000000        0.0000000000000000     
  0.75000000000000000       0.25000000000000000        0.0000000000000000     
  0.75000000000000000       0.12500000000000000        0.0000000000000000     
  0.78125000000000000       0.12500000000000000        0.0000000000000000     
  0.81250000000000000       0.12500000000000000        0.0000000000000000     
  0.84375000000000000       0.12500000000000000        0.0000000000000000     
  0.87500000000000000       0.12500000000000000        0.0000000000000000     
  0.75000000000000000       0.15625000000000000        0.0000000000000000     
  0.78125000000000000       0.15625000000000000        0.0000000000000000     
  0.81250000000000000       0.15625000000000000        0.0000000000000000     
  0.84375000000000000       0.15625000000000000        0.0000000000000000     
  0.87500000000000000       0.15625000000000000        0.0000000000000000     
  0.75000000000000000       0.18750000000000000        0.0000000000000000     
  0.78125000000000000       0.18750000000000000        0.0000000000000000     
  0.81250000000000000       0.18750000000000000        0.0000000000000000     
  0.84375000000000000       0.18750000000000000        0.0000000000000000     
  0.87500000000000000       0.18750000000000000        0.0000000000000000     
  0.75000000000000000       0.21875000000000000        0.0000000000000000     
  0.78125000000000000       0.21875000000000000        0.0000000000000000     
  0.81250000000000000       0.21875000000000000        0.0000000000000000     
  0.84375000000000000       0.21875000000000000        0.0000000000000000     
  0.87500000000000000       0.21875000000000000        0.0000000000000000     
  0.75000000000000000       0.25000000000000000        0.0000000000000000     
  0.78125000000000000       0.25000000000000000        0.0000000000000000     
  0.81250000000000000       0.25000000000000000        0.0000000000000000     
  0.84375000000000000       0.25000000000000000        0.0000000000000000     
  0.87500000000000000       0.25000000000000000        0.0000000000000000     
  0.87500000000000000       0.12500000000000000        0.0000000000000000     
  0.90625000000000000       0.12500000000000000        0.0000000000000000     
  0.93750000000000000       0.12500000000000000        0.0000000000000000     
  0.96875000000000000       0.12500000000000000        0.0000000000000000     
   1.0000000000000000       0.12500000000000000        0.0000000000000000     
  0.87500000000000000       0.15625000000000000        0.0000000000000000     
  0.90625000000000000       0.15625000000000000        0.0000000000000000     
  0.93750000000000000       0.15625000000000000        0.0000000000000000     
  0.96875000000000000       0.15625000000000000        0.0000000000000000     
   1.0000000000000000       0.15625000000000000        0.0000000000000000     
  0.87500000000000000       0.18750000000000000        0.0000000000000000     
  0.90625000000000000       0.18750000000000000        0.0000000000000000     
  0.93750000000000000       0.18750000000000000        0.0000000000000000     
  0.96875000000000000       0.18750000000000000        0.0000000000000000     
   1.0000000000000000       0.18750000000000000        0.0000000000000000     
  0.87500000000000000       0.21875000000000000        0.0000000000000000     
  0.90625000000000000       0.21875000000000000        0.0000000000000000     
  0.93750000000000000       0.21875000000000000        0.0000000000000000     
  0.96875000000000000       0.21875000000000000        0.0000000000000000     
   1.0000000000000000       0.21875000000000000        0.0000000000000000     
  0.87500000000000000       0.25000000000000000        0.0000000000000000     
  0.90625000000000000       0.25000000000000000        0.0000000000000000     
  0.93750000000000000       0.25000000000000000        0.0000000000000000     
  0.96875000000000000       0.25000000000000000        0.0000000000000000     
   1.0000000000000000       0.25000000000000000        0.0000000000000000     
   1.0000000000000000       0.12500000000000000        0.0000000000000000     
   1.0312500000000000       0.12500000000000000        0.0000000000000000     
   1.0625000000000000       0.12500000000000000        0.0000000000000000     
   1.0937500000000000       0.12500000000000000        0.0000000000000000     
   1.1250000000000000       0.12500000000000000        0.0000000000000000     
   1.0000000000000000       0.15625000000000000        0.0000000000000000     
   1.0312500000000000       0.15625000000000000        0.0000000000000000     
   1.0625000000000000       0.15625000000000000        0.0000000000000000     
   1.0937500000000000       0.15625000000000000        0.0000000000000000     
   1.1250000000000000       0.15625000000000000        0.0000000000000000     
   1.0000000000000000       0.18750000000000000        0.0000000000000000     
   1.0312500000000000       0.18750000000000000        0.0000000000000000     
   1.0625000000000000       0.18750000000000000        0.0000000000000000     
   1.0937500000000000       0.18750000000000000        0.0000000000000000     
   1.1250000000000000       0.18750000000000000        0.0000000000000000     
   1.0000000000000000       0.21875000000000000        0.0000000000000000     
   1.0312500000000000       0.21875000000000000        0.0000000000000000     
   1.0625000000000000       0.21875000000000000        0.0000000000000000     
   1.0937500000000000       0.21875000000000000        0.0000000000000000     
   1.1250000000000000       0.21875000000000000        0.0000000000000000     
   1.0000000000000000       0.25000000000000000        0.0000000000000000     
   1.0312500000000000       0.25000000000000000        0.0000000000000000     
   1.0625000000000000       0.25000000000000000        0.0000000000000000     
   1.0937500000000000       0.25000000000000000        0.0000000000000000     
   1.1250000000000000       0.25000000000000000        0.0000000000000000     
   1.1250000000000000       0.12500000000000000        0.0000000000000000     
   1.1562500000000000       0.12500000000000000        0.0000000000000000     
   1.1875000000000000       0.12500000000000000        0.0000000000000000     
   1.2187500000000000       0.12500000000000000        0.0000000000000000     
   1.2500000000000000       0.12500000000000000        0.0000000000000000     
   1.1250000000000000       0.15625000000000000        0.0000000000000000     
   1.1562500000000000       0.15625000000000000        0.0000000000000000     
   1.1875000000000000       0.15625000000000000        0.0000000000000000     
   1.2187500000000000       0.15625000000000000        0.0000000000000000     
   1.2500000000000000       0.15625000000000000        0.0000000000000000     
   1.1250000000000000       0.18750000000000000        0.0000000000000000     
   1.1562500000000000       0.18750000000000000        0.0000000000000000     
   1.1875000000000000       0.18750000000000000        0.0000000000000000     
   1.2187500000000000       0.18750000000000000        0.0000000000000000     
   1.2500000000000000       0.18750000000000000        0.0000000000000000     
   1.1250000000000000       0.21875000000000000        0.0000000000000000     
   1.1562500000000000       0.21875000000000000        0.0000000000000000     
   1.1875000000000000       0.21875000000000000        0.0000000000000000     
   1.2187500000000000       0.21875000000000000        0.0000000000000000     
   1.2500000000000000       0.21875000000000000        0.0000000000000000     
   1.1250000000000000       0.25000000000000000        0.0000000000000000     
   1.1562500000000000       0.25000000000000000        0.0000000000000000     
   1.1875000000000000       0.25000000000000000        0.0000000000000000     
   1.2187500000000000       0.25000000000000000        0.0000000000000000     
   1.2500000000000000       0.25000000000000000        0.0000000000000000     
   1.2500000000000000       0.12500000000000000        0.0000000000000000     
   1.2812500000000000       0.12500000000000000        0.0000000000000000     
   1.3125000000000000       0.12500000000000000        0.0000000000000000     
   1.3437500000000000       0.12500000000000000        0.0000000000000000     
   1.3750000000000000       0.12500000000000000        0.0000000000000000     
   1.2500000000000000       0.15625000000000000        0.0000000000000000     
   1.2812500000000000       0.15625000000000000        0.0000000000000000     
   1.3125000000000000       0.15625000000000000        0.0000000000000000     
   1.3437500000000000       0.15625000000000000        0.0000000000000000     
   1.3750000000000000       0.15625000000000000        0.0000000000000000     
   1.2500000000000000       0.18750000000000000        0.0000000000000000     
   1.2812500000000000       0.18750000000000000        0.0000000000000000     
   1.3125000000000000       0.18750000000000000        0.0000000000000000     
   1.3437500000000000       0.18750000000000000        0.0000000000000000     
   1.3750000000000000       0.18750000000000000        0.0000000000000000     
   1.2500000000000000       0.21875000000000000        0.0000000000000000     
   1.2812500000000000       0.21875000000000000        0.0000000000000000     
   1.3125000000000000       0.21875000000000000        0.0000000000000000     
   1.3437500000000000       0.21875000000000000        0.0000000000000000     
   1.3750000000000000       0.21875000000000000        0.0000000000000000     
   1.2500000000000000       0.25000000000000000        0.0000000000000000     
   1.2812500000000000       0.25000000000000000        0.0000000000000000     
   1.3125000000000000       0.25000000000000000        0.0000000000000000     
   1.3437500000000000       0.25000000000000000        0.0000000000000000     
   1.3750000000000000       0.25000000000000000        0.0000000000000000     
   1.3750000000000000       0.12500000000000000        0.0000000000000000     
   1.4062500000000000       0.12500000000000000        0.0000000000000000     
   1.4375000000000000       0.12500000000000000        0.0000000000000000     
   1.4687500000000000       0.12500000000000000        0.0000000000000000     
   1.5000000000000000       0.12500000000000000        0.0000000000000000     
   1.3750000000000000       0.15625000000000000        0.0000000000000000     
   1.4062500000000000       0.15625000000000000        0.0000000000000000     
   1.4375000000000000       0.15625000000000000        0.0000000000000000     
   1.4687500000000000       0.15625000000000000        0.0000000000000000     
   1.5000000000000000       0.15625000000000000        0.0000000000000000     
   1.3750000000000000       0.18750000000000000        0.0000000000000000     
   1.4062500000000000       0.18750000000000000        0.0000000000000000     
   1.4375000000000000       0.18750000000000000        0.0000000000000000     
   1.4687500000000000       0.18750000000000000        0.0000000000000000     
   1.5000000000000000       0.18750000000000000        0.0000000000000000     
   1.3750000000000000       0.21875000000000000        0.0000000000000000     
   1.4062500000000000       0.21875000000000000        0.0000000000000000     
   1.4375000000000000       0.21875000000000000        0.0000000000000000     
   1.4687500000000000       0.21875000000000000        0.0000000000000000     
   1.5000000000000000       0.21875000000000000        0.0000000000000000     
   1.3750000000000000       0.25000000000000000        0.0000000000000000     
   1.4062500000000000       0.25000000000000000        0.0000000000000000     
   1.4375000000000000       0.25000000000000000        0.0000000000000000     
   1.4687500000000000       0.25000000000000000        0.0000000000000000     
   1.5000000000000000       0.25000000000000000        0.0000000000000000     
  0.50000000000000000       0.25000000000000000        0.0000000000000000     
  0.53125000000000000       0.25000000000000000        0.0000000000000000     
  0.56250000000000000       0.25000000000000000        0.0000000000000000     
  0.59375000000000000       0.25000000000000000        0.0000000000000000     
  0.62500000000000000       0.25000000000000000        0.0000000000000000     
  0.50000000000000000       0.28125000000000000        0.0000000000000000     
  0.53125000000000000       0.28125000000000000        0.0000000000000000     
  0.56250000000000000       0.28125000000000000        0.0000000000000000     
  0.59375000000000000       0.28125000000000000        0.0000000000000000     
  0.62500000000000000       0.28125000000000000        0.0000000000000000     
  0.50000000000000000       0.31250000000000000        0.0000000000000000     
  0.53125000000000000       0.31250000000000000        0.0000000000000000     
  0.56250000000000000       0.31250000000000000        0.0000000000000000     
  0.59375000000000000       0.31250000000000000        0.0000000000000000     
  0.62500000000000000       0.31250000000000000        0.0000000000000000     
  0.50000000000000000       0.34375000000000000        0.0000000000000000     
  0.53125000000000000       0.34375000000000000        0.0000000000000000     
  0.56250000000000000       0.34375000000000000        0.0000000000000000     
  0.59375000000000000       0.34375000000000000        0.0000000000000000     
  0.62500000000000000       0.34375000000000000        0.0000000000000000     
  0.50000000000000000       0.37500000000000000        0.0000000000000000     
  0.53125000000000000       0.37500000000000000        0.0000000000000000     
  0.56250000000000000       0.37500000000000000        0.0000000000000000     
  0.59375000000000000       0.37500000000000000        0.0000000000000000     
  0.62500000000000000       0.37500000000000000        0.0000000000000000     
  0.62500000000000000       0.25000000000000000        0.0000000000000000     
  0.65625000000000000       0.25000000000000000        0.0000000000000000     
  0.68750000000000000       0.25000000000000000        0.0000000000000000     
  0.71875000000000000       0.25000000000000000        0.0000000000000000     
  0.75000000000000000       0.25000000000000000        0.0000000000000000     
  0.62500000000000000       0.28125000000000000        0.0000000000000000     
  0.65625000000000000       0.28125000000000000        0.0000000000000000     
  0.68750000000000000       0.28125000000000000        0.0000000000000000     
  0.71875000000000000       0.28125000000000000        0.0000000000000000     
  0.75000000000000000       0.28125000000000000        0.0000000000000000     
  0.62500000000000000       0.31250000000000000        0.0000000000000000     
  0.65625000000000000       0.31250000000000000        0.0000000000000000     
  0.68750000000000000       0.31250000000000000        0.0000000000000000     
  0.71875000000000000       0.31250000000000000        0.0000000000000000     
  0.75000000000000000       0.31250000000000000        0.0000000000000000     
  0.62500000000000000       0.34375000000000000        0.0000000000000000     
  0.65625000000000000       0.34375000000000000        0.0000000000000000     
  0.68750000000000000       0.34375000000000000        0.0000000000000000     
  0.71875000000000000       0.34375000000000000        0.0000000000000000     
  0.75000000000000000       0.34375000000000000        0.0000000000000000     
  0.62500000000000000       0.37500000000000000        0.0000000000000000     
  0.65625000000000000       0.37500000000000000        0.0000000000000000     
  0.68750000000000000       0.37500000000000000        0.0000000000000000     
  0.71875000000000000       0.37500000000000000        0.0000000000000000     
  0.75000000000000000       0.37500000000000000        0.0000000000000000     
  0.75000000000000000       0.25000000000000000        0.0000000000000000     
  0.78125000000000000       0.25000000000000000        0.0000000000000000     
  0.81250000000000000       0.25000000000000000        0.0000000000000000     
  0.84375000000000000       0.25000000000000000        0.0000000000000000     
  0.87500000000000000       0.25000000000000000        0.0000000000000000     
  0.75000000000000000       0.28125000000000000        0.0000000000000000     
  0.78125000000000000       0.28125000000000000        0.0000000000000000     
  0.81250000000000000       0.28125000000000000        0.0000000000000000     
  0.84375000000000000       0.28125000000000000        0.0000000000000000     
  0.87500000000000000       0.28125000000000000        0.0000000000000000     
  0.75000000000000000       0.31250000000000000        0.0000000000000000     
  0.78125000000000000       0.31250000000000000        0.0000000000000000     
  0.81250000000000000       0.31250000000000000        0.0000000000000000     
  0.84375000000000000       0.31250000000000000        0.0000000000000000     
  0.87500000000000000       0.31250000000000000        0.0000000000000000     
  0.75000000000000000       0.34375000000000000        0.0000000000000000     
  0.78125000000000000       0.34375000000000000        0.0000000000000000     
  0.81250000000000000       0.34375000000000000        0.0000000000000000     
  0.84375000000000000       0.34375000000000000        0.0000000000000000     
  0.87500000000000000       0.34375000000000000        0.0000000000000000     
  0.75000000000000000       0.37500000000000000        0.0000000000000000     
  0.78125000000000000       0.37500000000000000        0.0000000000000000     
  0.81250000000000000       0.37500000000000000        0.0000000000000000     
  0.84375000000000000       0.37500000000000000        0.0000000000000000     
  0.87500000000000000       0.37500000000000000        0.0000000000000000     
  0.87500000000000000       0.25000000000000000        0.0000000000000000     
  0.90625000000000000       0.25000000000000000        0.0000000000000000     
  0.93750000000000000       0.25000000000000000        0.0000000000000000     
  0.96875000000000000       0.25000000000000000        0.0000000000000000     
   1.0000000000000000       0.25000000000000000        0.0000000000000000     
  0.87500000000000000       0.28125000000000000        0.0000000000000000     
  0.90625000000000000       0.28125000000000000        0.0000000000000000     
  0.93750000000000000       0.28125000000000000        0.0000000000000000     
  0.96875000000000000       0.28125000000000000        0.0000000000000000     
   1.0000000000000000       0.28125000000000000        0.0000000000000000     
  0.87500000000000000       0.31250000000000000        0.0000000000000000     
  0.90625000000000000       0.31250000000000000        0.0000000000000000     
  0.93750000000000000       0.31250000000000000        0.0000000000000000     
  0.96875000000000000       0.31250000000000000        0.0000000000000000     
   1.0000000000000000       0.31250000000000000        0.0000000000000000     
  0.87500000000000000       0.34375000000000000        0.0000000000000000     
  0.90625000000000000       0.34375000000000000        0.0000000000000000     
  0.93750000000000000       0.34375000000000000        0.0000000000000000     
  0.96875000000000000       0.34375000000000000        0.0000000000000000     
   1.0000000000000000       0.34375000000000000        0.0000000000000000     
  0.87500000000000000       0.37500000000000000        0.0000000000000000     
  0.90625000000000000       0.37500000000000000        0.0000000000000000     
  0.93750000000000000       0.37500000000000000        0.0000000000000000     
  0.96875000000000000       0.37500000000000000        0.0000000000000000     
   1.0000000000000000       0.37500000000000000        0.0000000000000000     
   1.0000000000000000       0.25000000000000000        0.0000000000000000     
   1.0312500000000000       0.25000000000000000        0.0000000000000000     
   1.0625000000000000       0.25000000000000000        0.0000000000000000     
   1.0937500000000000       0.25000000000000000        0.0000000000000000     
   1.1250000000000000       0.25000000000000000        0.0000000000000000     
   1.0000000000000000       0.28125000000000000        0.0000000000000000     
   1.0312500000000000       0.28125000000000000        0.0000000000000000     
   1.0625000000000000       0.28125000000000000        0.0000000000000000     
   1.0937500000000000       0.28125000000000000        0.0000000000000000     
   1.1250000000000000       0.28125000000000000        0.0000000000000000     
   1.0000000000000000       0.31250000000000000        0.0000000000000000     
   1.0312500000000000       0.31250000000000000        0.0000000000000000     
   1.0625000000000000       0.31250000000000000        0.0000000000000000     
   1.0937500000000000       0.31250000000000000        0.0000000000000000     
   1.1250000000000000       0.31250000000000000        0.0000000000000000     
   1.0000000000000000       0.34375000000000000        0.0000000000000000     
   1.0312500000000000       0.34375000000000000        0.0000000000000000     
   1.0625000000000000       0.34375000000000000        0.0000000000000000     
   1.0937500000000000       0.34375000000000000        0.0000000000000000     
   1.1250000000000000       0.34375000000000000        0.0000000000000000     
   1.0000000000000000       0.37500000000000000        0.0000000000000000     
   1.0312500000000000       0.37500000000000000        0.0000000000000000     
   1.0625000000000000       0.37500000000000000        0.0000000000000000     
   1.0937500000000000       0.37500000000000000        0.0000000000000000     
   1.1250000000000000       0.37500000000000000        0.0000000000000000     
   1.1250000000000000       0.25000000000000000        0.0000000000000000     
   1.1562500000000000       0.25000000000000000        0.0000000000000000     
   1.1875000000000000       0.25000000000000000        0.0000000000000000     
   1.2187500000000000       0.25000000000000000        0.0000000000000000     
   1.2500000000000000       0.25000000000000000        0.0000000000000000     
   1.1250000000000000       0.28125000000000000        0.0000000000000000     
   1.1562500000000000       0.28125000000000000        0.0000000000000000     
   1.1875000000000000       0.28125000000000000        0.0000000000000000     
   1.2187500000000000       0.28125000000000000        0.0000000000000000     
   1.2500000000000000       0.28125000000000000        0.0000000000000000     
   1.1250000000000000       0.31250000000000000        0.0000000000000000     
   1.1562500000000000       0.31250000000000000        0.0000000000000000     
   1.1875000000000000       0.31250000000000000        0.0000000000000000     
   1.2187500000000000       0.31250000000000000        0.0000000000000000     
   1.2500000000000000       0.31250000000000000        0.0000000000000000     
   1.1250000000000000       0.34375000000000000        0.0000000000000000     
   1.1562500000000000       0.34375000000000000        0.0000000000000000     
   1.1875000000000000       0.34375000000000000        0.0000000000000000     
   1.2187500000000000       0.34375000000000000        0.0000000000000000     
   1.2500000000000000       0.34375000000000000        0.0000000000000000     
   1.1250000000000000       0.37500000000000000        0.0000000000000000     
   1.1562500000000000       0.37500000000000000        0.0000000000000000     
   1.1875000000000000       0.37500000000000000        0.0000000000000000     
   1.2187500000000000       0.37500000000000000        0.0000000000000000     
   1.2500000000000000       0.37500000000000000        0.0000000000000000     
   1.2500000000000000       0.25000000000000000        0.0000000000000000     
   1.2812500000000000       0.25000000000000000        0.0000000000000000     
   1.3125000000000000       0.25000000000000000        0.0000000000000000     
   1.3437500000000000       0.25000000000000000        0.0000000000000000     
   1.3750000000000000       0.25000000000000000        0.0000000000000000     
   1.2500000000000000       0.28125000000000000        0.0000000000000000     
   1.2812500000000000       0.28125000000000000        0.0000000000000000     
   1.3125000000000000       0.28125000000000000        0.0000000000000000     
   1.3437500000000000       0.28125000000000000        0.0000000000000000     
   1.3750000000000000       0.28125000000000000        0.0000000000000000     
   1.2500000000000000       0.31250000000000000        0.0000000000000000     
   1.2812500000000000       0.31250000000000000        0.0000000000000000     
   1.3125000000000000       0.31250000000000000        0.0000000000000000     
   1.3437500000000000       0.31250000000000000        0.0000000000000000     
   1.3750000000000000       0.31250000000000000        0.0000000000000000     
   1.2500000000000000       0.34375000000000000        0.0000000000000000     
   1.2812500000000000       0.34375000000000000        0.0000000000000000     
   1.3125000000000000       0.34375000000000000        0.0000000000000000     
   1.3437500000000000       0.34375000000000000        0.0000000000000000     
   1.3750000000000000       0.34375000000000000        0.0000000000000000     
   1.2500000000000000       0.37500000000000000        0.0000000000000000     
   1.2812500000000000       0.37500000000000000        0.0000000000000000     
   1.3125000000000000       0.37500000000000000        0.0000000000000000     
   1.3437500000000000       0.37500000000000000        0.0000000000000000     
   1.3750000000000000       0.37500000000000000        0.0000000000000000     
   1.3750000000000000       0.25000000000000000        0.0000000000000000     
   1.4062500000000000       0.25000000000000000        0.0000000000000000     
   1.4375000000000000       0.25000000000000000        0.0000000000000000     
   1.4687500000000000       0.25000000000000000        0.0000000000000000     
   1.5000000000000000       0.25000000000000000        0.0000000000000000     
   1.3750000000000000       0.28125000000000000        0.0000000000000000     
   1.4062500000000000       0.28125000000000000        0.0000000000000000     
   1.4375000000000000       0.28125000000000000        0.0000000000000000     
   1.4687500000000000       0.28125000000000000        0.0000000000000000     
   1.5000000000000000       0.28125000000000000        0.0000000000000000     
   1.3750000000000000       0.31250000000000000        0.0000000000000000     
   1.4062500000000000       0.31250000000000000        0.0000000000000000     
   1.4375000000000000       0.31250000000000000        0.0000000000000000     
   1.4687500000000000       0.31250000000000000        0.0000000000000000     
   1.5000000000000000       0.31250000000000000        0.0000000000000000     
   1.3750000000000000       0.34375000000000000        0.0000000000000000     
   1.4062500000000000       0.34375000000000000        0.0000000000000000     
   1.4375000000000000       0.34375000000000000        0.0000000000000000     
   1.4687500000000000       0.34375000000000000        0.0000000000000000     
   1.5000000000000000       0.34375000000000000        0.0000000000000000     
   1.3750000000000000       0.37500000000000000        0.0000000000000000     
   1.4062500000000000       0.37500000000000000        0.0000000000000000     
   1.4375000000000000       0.37500000000000000        0.0000000000000000     
   1.4687500000000000       0.37500000000000000        0.0000000000000000     
   1.5000000000000000       0.37500000000000000        0.0000000000000000     
  0.50000000000000000       0.37500000000000000        0.0000000000000000     
  0.53125000000000000       0.37500000000000000        0.0000000000000000     
  0.56250000000000000       0.37500000000000000        0.0000000000000000     
  0.59375000000000000       0.37500000000000000        0.0000000000000000     
  0.62500000000000000       0.37500000000000000        0.0000000000000000     
  0.50000000000000000       0.40625000000000000        0.0000000000000000     
  0.53125000000000000       0.40625000000000000        0.0000000000000000     
  0.56250000000000000       0.40625000000000000        0.0000000000000000     
  0.59375000000000000       0.40625000000000000        0.0000000000000000     
  0.62500000000000000       0.40625000000000000        0.0000000000000000     
  0.50000000000000000       0.43750000000000000        0.0000000000000000     
  0.53125000000000000       0.43750000000000000        0.0000000000000000     
  0.56250000000000000       0.43750000000000000        0.0000000000000000     
  0.59375000000000000       0.43750000000000000        0.0000000000000000     
  0.62500000000000000       0.43750000000000000        0.0000000000000000     
  0.50000000000000000       0.46875000000000000        0.0000000000000000     
  0.53125000000000000       0.46875000000000000        0.0000000000000000     
  0.56250000000000000       0.46875000000000000        0.0000000000000000     
  0.59375000000000000       0.46875000000000000        0.0000000000000000     
  0.62500000000000000       0.46875000000000000        0.0000000000000000     
  0.50000000000000000       0.50000000000000000        0.0000000000000000     
  0.53125000000000000       0.50000000000000000        0.0000000000000000     
  0.56250000000000000       0.50000000000000000        0.0000000000000000     
  0.59375000000000000       0.50000000000000000        0.0000000000000000     
  0.62500000000000000       0.50000000000000000        0.0000000000000000     
  0.62500000000000000       0.37500000000000000        0.0000000000000000     
  0.65625000000000000       0.37500000000000000        0.0000000000000000     
  0.68750000000000000       0.37500000000000000        0.0000000000000000     
  0.71875000000000000       0.37500000000000000        0.0000000000000000     
  0.75000000000000000       0.37500000000000000        0.0000000000000000     
  0.62500000000000000       0.40625000000000000        0.0000000000000000     
  0.65625000000000000       0.40625000000000000        0.0000000000000000     
  0.68750000000000000       0.40625000000000000        0.0000000000000000     
  0.71875000000000000       0.40625000000000000        0.0000000000000000     
  0.75000000000000000       0.40625000000000000        0.0000000000000000     
  0.62500000000000000       0.43750000000000000        0.0000000000000000     
  0.65625000000000000       0.43750000000000000        0.0000000000000000     
  0.68750000000000000       0.43750000000000000        0.0000000000000000     
  0.71875000000000000       0.43750000000000000        0.0000000000000000     
  0.75000000000000000       0.43750000000000000        0.0000000000000000     
  0.62500000000000000       0.46875000000000000        0.0000000000000000     
  0.65625000000000000       0.46875000000000000        0.0000000000000000     
  0.68750000000000000       0.46875000000000000        0.0000000000000000     
  0.71875000000000000       0.46875000000000000        0.0000000000000000     
  0.75000000000000000       0.46875000000000000        0.0000000000000000     
  0.62500000000000000       0.50000000000000000        0.0000000000000000     
  0.65625000000000000       0.50000000000000000        0.0000000000000000     
  0.68750000000000000       0.50000000000000000        0.0000000000000000     
  0.71875000000000000       0.50000000000000000        0.0000000000000000     
  0.75000000000000000       0.50000000000000000        0.0000000000000000     
  0.75000000000000000       0.37500000000000000        0.0000000000000000     
  0.78125000000000000       0.37500000000000000        0.0000000000000000     
  0.81250000000000000       0.37500000000000000        0.0000000000000000     
  0.84375000000000000       0.37500000000000000        0.0000000000000000     
  0.87500000000000000       0.37500000000000000        0.0000000000000000     
  0.75000000000000000       0.40625000000000000        0.0000000000000000     
  0.78125000000000000       0.40625000000000000        0.0000000000000000     
  0.81250000000000000       0.40625000000000000        0.0000000000000000     
  0.84375000000000000       0.40625000000000000        0.0000000000000000     
  0.87500000000000000       0.40625000000000000        0.0000000000000000     
  0.75000000000000000       0.43750000000000000        0.0000000000000000     
  0.78125000000000000       0.43750000000000000        0.0000000000000000     
  0.81250000000000000       0.43750000000000000        0.0000000000000000     
  0.84375000000000000       0.43750000000000000        0.0000000000000000     
  0.87500000000000000       0.43750000000000000        0.0000000000000000     
  0.75000000000000000       0.46875000000000000        0.0000000000000000     
  0.78125000000000000       0.46875000000000000        0.0000000000000000     
  0.81250000000000000       0.46875000000000000        0.0000000000000000     
  0.84375000000000000       0.46875000000000000        0.0000000000000000     
  0.87500000000000000       0.46875000000000000        0.0000000000000000     
  0.75000000000000000       0.50000000000000000        0.0000000000000000     
  0.78125000000000000       0.50000000000000000        0.0000000000000000     
  0.81250000000000000       0.50000000000000000        0.0000000000000000     
  0.84375000000000000       0.50000000000000000        0.0000000000000000     
  0.87500000000000000       0.50000000000000000        0.0000000000000000     
  0.87500000000000000       0.37500000000000000        0.0000000000000000     
  0.90625000000000000       0.37500000000000000        0.0000000000000000     
  0.93750000000000000       0.37500000000000000        0.0000000000000000     
  0.96875000000000000       0.37500000000000000        0.0000000000000000     
   1.0000000000000000       0.37500000000000000        0.0000000000000000     
  0.87500000000000000       0.40625000000000000        0.0000000000000000     
  0.90625000000000000       0.40625000000000000        0.0000000000000000     
  0.93750000000000000       0.40625000000000000        0.0000000000000000     
  0.96875000000000000       0.40625000000000000        0.0000000000000000     
   1.0000000000000000       0.40625000000000000        0.0000000000000000     
  0.87500000000000000       0.43750000000000000        0.0000000000000000     
  0.90625000000000000       0.43750000000000000        0.0000000000000000     
  0.93750000000000000       0.43750000000000000        0.0000000000000000     
  0.96875000000000000       0.43750000000000000        0.0000000000000000     
   1.0000000000000000       0.43750000000000000        0.0000000000000000     
  0.87500000000000000       0.46875000000000000        0.0000000000000000     
  0.90625000000000000       0.46875000000000000        0.0000000000000000     
  0.93750000000000000       0.46875000000000000        0.0000000000000000     
  0.96875000000000000       0.46875000000000000        0.0000000000000000     
   1.0000000000000000       0.46875000000000000        0.0000000000000000     
  0.87500000000000000       0.50000000000000000        0.0000000000000000     
  0.90625000000000000       0.50000000000000000        0.0000000000000000     
  0.93750000000000000       0.50000000000000000        0.0000000000000000     
  0.96875000000000000       0.50000000000000000        0.0000000000000000     
   1.0000000000000000       0.50000000000000000        0.0000000000000000     
   1.0000000000000000       0.37500000000000000        0.0000000000000000     
   1.0312500000000000       0.37500000000000000        0.0000000000000000     
   1.0625000000000000       0.37500000000000000        0.0000000000000000     
   1.0937500000000000       0.37500000000000000        0.0000000000000000     
   1.1250000000000000       0.37500000000000000        0.0000000000000000     
   1.0000000000000000       0.40625000000000000        0.0000000000000000     
   1.0312500000000000       0.40625000000000000        0.0000000000000000     
   1.0625000000000000       0.40625000000000000        0.0000000000000000     
   1.0937500000000000       0.40625000000000000        0.0000000000000000     
   1.1250000000000000       0.40625000000000000        0.0000000000000000     
   1.0000000000000000       0.43750000000000000        0.0000000000000000     
   1.0312500000000000       0.43750000000000000        0.0000000000000000     
   1.0625000000000000       0.43750000000000000        0.0000000000000000     
   1.0937500000000000       0.43750000000000000        0.0000000000000000     
   1.1250000000000000       0.43750000000000000        0.0000000000000000     
   1.0000000000000000       0.46875000000000000        0.0000000000000000     
   1.0312500000000000       0.46875000000000000        0.0000000000000000     
   1.0625000000000000       0.46875000000000000        0.0000000000000000     
   1.0937500000000000       0.46875000000000000        0.0000000000000000     
   1.1250000000000000       0.46875000000000000        0.0000000000000000     
   1.0000000000000000       0.50000000000000000        0.0000000000000000     
   1.0312500000000000       0.50000000000000000        0.0000000000000000     
   1.0625000000000000       0.50000000000000000        0.0000000000000000     
   1.0937500000000000       0.50000000000000000        0.0000000000000000     
   1.1250000000000000       0.50000000000000000        0.0000000000000000     
   1.1250000000000000       0.37500000000000000        0.0000000000000000     
   1.1562500000000000       0.37500000000000000        0.0000000000000000     
   1.1875000000000000       0.37500000000000000        0.0000000000000000     
   1.2187500000000000       0.37500000000000000        0.0000000000000000     
   1.2500000000000000       0.37500000000000000        0.0000000000000000     
   1.1250000000000000       0.40625000000000000        0.0000000000000000     
   1.1562500000000000       0.40625000000000000        0.0000000000000000     
   1.1875000000000000       0.40625000000000000        0.0000000000000000     
   1.2187500000000000       0.40625000000000000        0.0000000000000000     
   1.2500000000000000       0.40625000000000000        0.0000000000000000     
   1.1250000000000000       0.43750000000000000        0.0000000000000000     
   1.1562500000000000       0.43750000000000000        0.0000000000000000     
   1.1875000000000000       0.43750000000000000        0.0000000000000000     
   1.2187500000000000       0.43750000000000000        0.0000000000000000     
   1.2500000000000000       0.43750000000000000        0.0000000000000000     
   1.1250000000000000       0.46875000000000000        0.0000000000000000     
   1.1562500000000000       0.46875000000000000        0.0000000000000000     
   1.1875000000000000       0.46875000000000000        0.0000000000000000     
   1.2187500000000000       0.46875000000000000        0.0000000000000000     
   1.2500000000000000       0.46875000000000000        0.0000000000000000     
   1.1250000000000000       0.50000000000000000        0.0000000000000000     
   1.1562500000000000       0.50000000000000000        0.0000000000000000     
   1.1875000000000000       0.50000000000000000        0.0000000000000000     
   1.2187500000000000       0.50000000000000000        0.0000000000000000     
   1.2500000000000000       0.50000000000000000        0.0000000000000000     
   1.2500000000000000       0.37500000000000000        0.0000000000000000     
   1.2812500000000000       0.37500000000000000        0.0000000000000000     
   1.3125000000000000       0.37500000000000000        0.0000000000000000     
   1.3437500000000000       0.37500000000000000        0.0000000000000000     
   1.3750000000000000       0.37500000000000000        0.0000000000000000     
   1.2500000000000000       0.40625000000000000        0.0000000000000000     
   1.2812500000000000       0.40625000000000000        0.0000000000000000     
   1.3125000000000000       0.40625000000000000        0.0000000000000000     
   1.3437500000000000       0.40625000000000000        0.0000000000000000     
   1.3750000000000000       0.40625000000000000        0.0000000000000000     
   1.2500000000000000       0.43750000000000000        0.0000000000000000     
   1.2812500000000000       0.43750000000000000        0.0000000000000000     
   1.3125000000000000       0.43750000000000000        0.0000000000000000     
   1.3437500000000000       0.43750000000000000        0.0000000000000000     
   1.3750000000000000       0.43750000000000000        0.0000000000000000     
   1.2500000000000000       0.46875000000000000        0.0000000000000000     
   1.2812500000000000       0.46875000000000000        0.0000000000000000     
   1.3125000000000000       0.46875000000000000        0.0000000000000000     
   1.3437500000000000       0.46875000000000000        0.0000000000000000     
   1.3750000000000000       0.46875000000000000        0.0000000000000000     
   1.2500000000000000       0.50000000000000000        0.0000000000000000     
   1.2812500000000000       0.50000000000000000        0.0000000000000000     
   1.3125000000000000       0.50000000000000000        0.0000000000000000     
   1.3437500000000000       0.50000000000000000        0.0000000000000000     
   1.3750000000000000       0.50000000000000000        0.0000000000000000     
   1.3750000000000000       0.37500000000000000        0.0000000000000000     
   1.4062500000000000       0.37500000000000000        0.0000000000000000     
   1.4375000000000000       0.37500000000000000        0.0000000000000000     
   1.4687500000000000       0.37500000000000000        0.0000000000000000     
   1.5000000000000000       0.37500000000000000        0.0000000000000000     
   1.3750000000000000       0.40625000000000000        0.0000000000000000     
   1.4062500000000000       0.40625000000000000        0.0000000000000000     
   1.4375000000000000       0.40625000000000000        0.0000000000000000     
   1.4687500000000000       0.40625000000000000        0.0000000000000000     
   1.5000000000000000       0.40625000000000000        0.0000000000000000     
   1.3750000000000000       0.43750000000000000        0.0000000000000000     
   1.4062500000000000       0.43750000000000000        0.0000000000000000     
   1.4375000000000000       0.43750000000000000        0.0000000000000000     
   1.4687500000000000       0.43750000000000000        0.0000000000000000     
   1.5000000000000000       0.43750000000000000        0.0000000000000000     
   1.3750000000000000       0.46875000000000000        0.0000000000000000     
   1.4062500000000000       0.46875000000000000        0.0000000000000000     
   1.4375000000000000       0.46875000000000000        0.0000000000000000     
   1.4687500000000000       0.46875000000000000        0.0000000000000000     
   1.5000000000000000       0.46875000000000000        0.0000000000000000     
   1.3750000000000000       0.50000000000000000        0.0000000000000000     
   1.4062500000000000       0.50000000000000000        0.0000000000000000     
   1.4375000000000000       0.50000000000000000        0.0000000000000000     
   1.4687500000000000       0.50000000000000000        0.0000000000000000     
   1.5000000000000000       0.50000000000000000        0.0000000000000000     
  0.50000000000000000       0.50000000000000000        0.0000000000000000     
  0.53125000000000000       0.50000000000000000        0.0000000000000000     
  0.56250000000000000       0.50000000000000000        0.0000000000000000     
  0.59375000000000000       0.50000000000000000        0.0000000000000000     
  0.62500000000000000       0.50000000000000000        0.0000000000000000     
  0.50000000000000000       0.53125000000000000        0.0000000000000000     
  0.53125000000000000       0.53125000000000000        0.0000000000000000     
  0.56250000000000000       0.53125000000000000        0.0000000000000000     
  0.59375000000000000       0.53125000000000000        0.0000000000000000     
  0.62500000000000000       0.53125000000000000        0.0000000000000000     
  0.50000000000000000       0.56250000000000000        0.0000000000000000     
  0.53125000000000000       0.56250000000000000        0.0000000000000000     
  0.56250000000000000       0.56250000000000000        0.0000000000000000     
  0.59375000000000000       0.56250000000000000        0.0000000000000000     
  0.62500000000000000       0.56250000000000000        0.0000000000000000     
  0.50000000000000000       0.59375000000000000        0.0000000000000000     
  0.53125000000000000       0.59375000000000000        0.0000000000000000     
  0.56250000000000000       0.59375000000000000        0.0000000000000000     
  0.59375000000000000       0.59375000000000000        0.0000000000000000     
  0.62500000000000000       0.59375000000000000        0.0000000000000000     
  0.50000000000000000       0.62500000000000000        0.0000000000000000     
  0.53125000000000000       0.62500000000000000        0.0000000000000000     
  0.56250000000000000       0.62500000000000000        0.0000000000000000     
  0.59375000000000000       0.62500000000000000        0.0000000000000000     
  0.62500000000000000       0.62500000000000000        0.0000000000000000     
  0.62500000000000000       0.50000000000000000        0.0000000000000000     
  0.65625000000000000       0.50000000000000000        0.0000000000000000     
  0.68750000000000000       0.50000000000000000        0.0000000000000000     
  0.71875000000000000       0.50000000000000000        0.0000000000000000     
  0.75000000000000000       0.50000000000000000        0.0000000000000000     
  0.62500000000000000       0.53125000000000000        0.0000000000000000     
  0.65625000000000000       0.53125000000000000        0.0000000000000000     
  0.68750000000000000       0.53125000000000000        0.0000000000000000     
  0.71875000000000000       0.53125000000000000        0.0000000000000000     
  0.75000000000000000       0.53125000000000000        0.0000000000000000     
  0.62500000000000000       0.56250000000000000        0.0000000000000000     
  0.65625000000000000       0.56250000000000000        0.0000000000000000     
  0.68750000000000000       0.56250000000000000        0.0000000000000000     
  0.71875000000000000       0.56250000000000000        0.0000000000000000     
  0.75000000000000000       0.56250000000000000        0.0000000000000000     
  0.62500000000000000       0.59375000000000000        0.0000000000000000     
  0.65625000000000000       0.59375000000000000        0.0000000000000000     
  0.68750000000000000       0.59375000000000000        0.0000000000000000     
  0.71875000000000000       0.59375000000000000        0.0000000000000000     
  0.75000000000000000       0.59375000000000000        0.0000000000000000     
  0.62500000000000000       0.62500000000000000        0.0000000000000000     
  0.65625000000000000       0.62500000000000000        0.0000000000000000     
  0.68750000000000000       0.62500000000000000        0.0000000000000000     
  0.71875000000000000       0.62500000000000000        0.0000000000000000     
  0.75000000000000000       0.62500000000000000        0.0000000000000000     
  0.75000000000000000       0.50000000000000000        0.0000000000000000     
  0.78125000000000000       0.50000000000000000        0.0000000000000000     
  0.81250000000000000       0.50000000000000000        0.0000000000000000     
  0.84375000000000000       0.50000000000000000        0.0000000000000000     
  0.87500000000000000       0.50000000000000000        0.0000000000000000     
  0.75000000000000000       0.53125000000000000        0.0000000000000000     
  0.78125000000000000       0.53125000000000000        0.0000000000000000     
  0.81250000000000000       0.53125000000000000        0.0000000000000000     
  0.84375000000000000       0.53125000000000000        0.0000000000000000     
  0.87500000000000000       0.53125000000000000        0.0000000000000000     
  0.75000000000000000       0.56250000000000000        0.0000000000000000     
  0.78125000000000000       0.56250000000000000        0.0000000000000000     
  0.81250000000000000       0.56250000000000000        0.0000000000000000     
  0.84375000000000000       0.56250000000000000        0.0000000000000000     
  0.87500000000000000       0.56250000000000000        0.0000000000000000     
  0.75000000000000000       0.59375000000000000        0.0000000000000000     
  0.78125000000000000       0.59375000000000000        0.0000000000000000     
  0.81250000000000000       0.59375000000000000        0.0000000000000000     
  0.84375000000000000       0.59375000000000000        0.0000000000000000     
  0.87500000000000000       0.59375000000000000        0.0000000000000000     
  0.75000000000000000       0.62500000000000000        0.0000000000000000     
  0.78125000000000000       0.62500000000000000        0.0000000000000000     
  0.81250000000000000       0.62500000000000000        0.0000000000000000     
  0.84375000000000000       0.62500000000000000        0.0000000000000000     
  0.87500000000000000       0.62500000000000000        0.0000000000000000     
  0.87500000000000000       0.50000000000000000        0.0000000000000000     
  0.90625000000000000       0.50000000000000000        0.0000000000000000     
  0.93750000000000000       0.50000000000000000        0.0000000000000000     
  0.96875000000000000       0.50000000000000000        0.0000000000000000     
   1.0000000000000000       0.50000000000000000        0.0000000000000000     
  0.87500000000000000       0.53125000000000000        0.0000000000000000     
  0.90625000000000000       0.53125000000000000        0.0000000000000000     
  0.93750000000000000       0.53125000000000000        0.0000000000000000     
  0.96875000000000000       0.53125000000000000        0.0000000000000000     
   1.0000000000000000       0.53125000000000000        0.0000000000000000     
  0.87500000000000000       0.56250000000000000        0.0000000000000000     
  0.90625000000000000       0.56250000000000000        0.0000000000000000     
  0.93750000000000000       0.56250000000000000        0.0000000000000000     
  0.96875000000000000       0.56250000000000000        0.0000000000000000     
   1.0000000000000000       0.56250000000000000        0.0000000000000000     
  0.87500000000000000       0.59375000000000000        0.0000000000000000     
  0.90625000000000000       0.59375000000000000        0.0000000000000000     
  0.93750000000000000       0.59375000000000000        0.0000000000000000     
  0.96875000000000000       0.59375000000000000        0.0000000000000000     
   1.0000000000000000       0.59375000000000000        0.0000000000000000     
  0.87500000000000000       0.62500000000000000        0.0000000000000000     
  0.90625000000000000       0.62500000000000000        0.0000000000000000     
  0.93750000000000000       0.62500000000000000        0.0000000000000000     
  0.96875000000000000       0.62500000000000000        0.0000000000000000     
   1.0000000000000000       0.62500000000000000        0.0000000000000000     
   1.0000000000000000       0.50000000000000000        0.0000000000000000     
   1.0312500000000000       0.50000000000000000        0.0000000000000000     
   1.0625000000000000       0.50000000000000000        0.0000000000000000     
   1.0937500000000000       0.50000000000000000        0.0000000000000000     
   1.1250000000000000       0.50000000000000000        0.0000000000000000     
   1.0000000000000000       0.53125000000000000        0.0000000000000000     
   1.0312500000000000       0.53125000000000000        0.0000000000000000     
   1.0625000000000000       0.53125000000000000        0.0000000000000000     
   1.0937500000000000       0.53125000000000000        0.0000000000000000     
   1.1250000000000000       0.53125000000000000        0.0000000000000000     
   1.0000000000000000       0.56250000000000000        0.0000000000000000     
   1.0312500000000000       0.56250000000000000        0.0000000000000000     
   1.0625000000000000       0.56250000000000000        0.0000000000000000     
   1.0937500000000000       0.56250000000000000        0.0000000000000000     
   1.1250000000000000       0.56250000000000000        0.0000000000000000     
   1.0000000000000000       0.59375000000000000        0.0000000000000000     
   1.0312500000000000       0.59375000000000000        0.0000000000000000     
   1.0625000000000000       0.59375000000000000        0.0000000000000000     
   1.0937500000000000       0.59375000000000000        0.0000000000000000     
   1.1250000000000000       0.59375000000000000        0.0000000000000000     
   1.0000000000000000       0.62500000000000000        0.0000000000000000     
   1.0312500000000000       0.62500000000000000        0.0000000000000000     
   1.0625000000000000       0.62500000000000000        0.0000000000000000     
   1.0937500000000000       0.62500000000000000        0.0000000000000000     
   1.1250000000000000       0.62500000000000000        0.0000000000000000     
   1.1250000000000000       0.50000000000000000        0.0000000000000000     
   1.1562500000000000       0.50000000000000000        0.0000000000000000     
   1.1875000000000000       0.50000000000000000        0.0000000000000000     
   1.2187500000000000       0.50000000000000000        0.0000000000000000     
   1.2500000000000000       0.50000000000000000        0.0000000000000000     
   1.1250000000000000       0.53125000000000000        0.0000000000000000     
   1.1562500000000000       0.53125000000000000        0.0000000000000000     
   1.1875000000000000       0.53125000000000000        0.0000000000000000     
   1.2187500000000000       0.53125000000000000        0.0000000000000000     
   1.2500000000000000       0.53125000000000000        0.0000000000000000     
   1.1250000000000000       0.56250000000000000        0.0000000000000000     
   1.1562500000000000       0.56250000000000000        0.0000000000000000     
   1.1875000000000000       0.56250000000000000        0.0000000000000000     
   1.2187500000000000       0.56250000000000000        0.0000000000000000     
   1.2500000000000000       0.56250000000000000        0.0000000000000000     
   1.1250000000000000       0.59375000000000000        0.0000000000000000     
   1.1562500000000000       0.59375000000000000        0.0000000000000000     
   1.1875000000000000       0.59375000000000000        0.0000000000000000     
   1.2187500000000000       0.59375000000000000        0.0000000000000000     
   1.2500000000000000       0.59375000000000000        0.0000000000000000     
   1.1250000000000000       0.62500000000000000        0.0000000000000000     
   1.1562500000000000       0.62500000000000000        0.0000000000000000     
   1.1875000000000000       0.62500000000000000        0.0000000000000000     
   1.2187500000000000       0.62500000000000000        0.0000000000000000     
   1.2500000000000000       0.62500000000000000        0.0000000000000000     
   1.2500000000000000       0.50000000000000000        0.0000000000000000     
   1.2812500000000000       0.50000000000000000        0.0000000000000000     
   1.3125000000000000       0.50000000000000000        0.0000000000000000     
   1.3437500000000000       0.50000000000000000        0.0000000000000000     
   1.3750000000000000       0.50000000000000000        0.0000000000000000     
   1.2500000000000000       0.53125000000000000        0.0000000000000000     
   1.2812500000000000       0.53125000000000000        0.0000000000000000     
   1.3125000000000000       0.53125000000000000        0.0000000000000000     
   1.3437500000000000       0.53125000000000000        0.0000000000000000     
   1.3750000000000000       0.53125000000000000        0.0000000000000000     
   1.2500000000000000       0.56250000000000000        0.0000000000000000     
   1.2812500000000000       0.56250000000000000        0.0000000000000000     
   1.3125000000000000       0.56250000000000000        0.0000000000000000     
   1.3437500000000000       0.56250000000000000        0.0000000000000000     
   1.3750000000000000       0.56250000000000000        0.0000000000000000     
   1.2500000000000000       0.59375000000000000        0.0000000000000000     
   1.2812500000000000       0.59375000000000000        0.0000000000000000     
   1.3125000000000000       0.59375000000000000        0.0000000000000000     
   1.3437500000000000       0.59375000000000000        0.0000000000000000     
   1.3750000000000000       0.59375000000000000        0.0000000000000000     
   1.2500000000000000       0.62500000000000000        0.0000000000000000     
   1.2812500000000000       0.62500000000000000        0.0000000000000000     
   1.3125000000000000       0.62500000000000000        0.0000000000000000     
   1.3437500000000000       0.62500000000000000        0.0000000000000000     
   1.3750000000000000       0.62500000000000000        0.0000000000000000     
   1.3750000000000000       0.50000000000000000        0.0000000000000000     
   1.4062500000000000       0.50000000000000000        0.0000000000000000     
   1.4375000000000000       0.50000000000000000        0.0000000000000000     
   1.4687500000000000       0.50000000000000000        0.0000000000000000     
   1.5000000000000000       0.50000000000000000        0.0000000000000000     
   1.3750000000000000       0.53125000000000000        0.0000000000000000     
   1.4062500000000000       0.53125000000000000        0.0000000000000000     
   1.4375000000000000       0.53125000000000000        0.0000000000000000     
   1.4687500000000000       0.53125000000000000        0.0000000000000000     
   1.5000000000000000       0.53125000000000000        0.0000000000000000     
   1.3750000000000000       0.56250000000000000        0.0000000000000000     
   1.4062500000000000       0.56250000000000000        0.0000000000000000     
   1.4375000000000000       0.56250000000000000        0.0000000000000000     
   1.4687500000000000       0.56250000000000000        0.0000000000000000     
   1.5000000000000000       0.56250000000000000        0.0000000000000000     
   1.3750000000000000       0.59375000000000000        0.0000000000000000     
   1.4062500000000000       0.59375000000000000        0.0000000000000000     
   1.4375000000000000       0.59375000000000000        0.0000000000000000     
   1.4687500000000000       0.59375000000000000        0.0000000000000000     
   1.5000000000000000       0.59375000000000000        0.0000000000000000     
   1.3750000000000000       0.62500000000000000        0.0000000000000000     
   1.4062500000000000       0.62500000000000000        0.0000000000000000     
   1.4375000000000000       0.62500000000000000        0.0000000000000000     
   1.4687500000000000       0.62500000000000000        0.0000000000000000     
   1.5000000000000000       0.62500000000000000        0.0000000000000000     
  0.50000000000000000       0.62500000000000000        0.0000000000000000     
  0.53125000000000000       0.62500000000000000        0.0000000000000000     
  0.56250000000000000       0.62500000000000000        0.0000000000000000     
  0.59375000000000000       0.62500000000000000        0.0000000000000000     
  0.62500000000000000       0.62500000000000000        0.0000000000000000     
  0.50000000000000000       0.65625000000000000        0.0000000000000000     
  0.53125000000000000       0.65625000000000000        0.0000000000000000     
  0.56250000000000000       0.65625000000000000        0.0000000000000000     
  0.59375000000000000       0.65625000000000000        0.0000000000000000     
  0.62500000000000000       0.65625000000000000        0.0000000000000000     
  0.50000000000000000       0.68750000000000000        0.0000000000000000     
  0.53125000000000000       0.68750000000000000        0.0000000000000000     
  0.56250000000000000       0.68750000000000000        0.0000000000000000     
  0.59375000000000000       0.68750000000000000        0.0000000000000000     
  0.62500000000000000       0.68750000000000000        0.0000000000000000     
  0.50000000000000000       0.71875000000000000        0.0000000000000000     
  0.53125000000000000       0.71875000000000000        0.0000000000000000     
  0.56250000000000000       0.71875000000000000        0.0000000000000000     
  0.59375000000000000       0.71875000000000000        0.0000000000000000     
  0.62500000000000000       0.71875000000000000        0.0000000000000000     
  0.50000000000000000       0.75000000000000000        0.0000000000000000     
  0.53125000000000000       0.75000000000000000        0.0000000000000000     
  0.56250000000000000       0.75000000000000000        0.0000000000000000     
  0.59375000000000000       0.75000000000000000        0.0000000000000000     
  0.62500000000000000       0.75000000000000000        0.0000000000000000     
  0.62500000000000000       0.62500000000000000        0.0000000000000000     
  0.65625000000000000       0.62500000000000000        0.0000000000000000     
  0.68750000000000000       0.62500000000000000        0.0000000000000000     
  0.71875000000000000       0.62500000000000000        0.0000000000000000     
  0.75000000000000000       0.62500000000000000        0.0000000000000000     
  0.62500000000000000       0.65625000000000000        0.0000000000000000     
  0.65625000000000000       0.65625000000000000        0.0000000000000000     
  0.68750000000000000       0.65625000000000000        0.0000000000000000     
  0.71875000000000000       0.65625000000000000        0.0000000000000000     
  0.75000000000000000       0.65625000000000000        0.0000000000000000     
  0.62500000000000000       0.68750000000000000        0.0000000000000000     
  0.65625000000000000       0.68750000000000000        0.0000000000000000     
  0.68750000000000000       0.68750000000000000        0.0000000000000000     
  0.71875000000000000       0.68750000000000000        0.0000000000000000     
  0.75000000000000000       0.68750000000000000        0.0000000000000000     
  0.62500000000000000       0.71875000000000000        0.0000000000000000     
  0.65625000000000000       0.71875000000000000        0.0000000000000000     
  0.68750000000000000       0.71875000000000000        0.0000000000000000     
  0.71875000000000000       0.71875000000000000        0.0000000000000000     
  0.75000000000000000       0.71875000000000000        0.0000000000000000     
  0.62500000000000000       0.75000000000000000        0.0000000000000000     
  0.65625000000000000       0.75000000000000000        0.0000000000000000     
  0.68750000000000000       0.75000000000000000        0.0000000000000000     
  0.71875000000000000       0.75000000000000000        0.0000000000000000     
  0.75000000000000000       0.75000000000000000        0.0000000000000000     
  0.75000000000000000       0.62500000000000000        0.0000000000000000     
  0.78125000000000000       0.62500000000000000        0.0000000000000000     
  0.81250000000000000       0.62500000000000000        0.0000000000000000     
  0.84375000000000000       0.62500000000000000        0.0000000000000000     
  0.87500000000000000       0.62500000000000000        0.0000000000000000     
  0.75000000000000000       0.65625000000000000        0.0000000000000000     
  0.78125000000000000       0.65625000000000000        0.0000000000000000     
  0.81250000000000000       0.65625000000000000        0.0000000000000000     
  0.84375000000000000       0.65625000000000000        0.0000000000000000     
  0.87500000000000000       0.65625000000000000        0.0000000000000000     
  0.75000000000000000       0.68750000000000000        0.0000000000000000     
  0.78125000000000000       0.68750000000000000        0.0000000000000000     
  0.81250000000000000       0.68750000000000000        0.0000000000000000     
  0.84375000000000000       0.68750000000000000        0.0000000000000000     
  0.87500000000000000       0.68750000000000000        0.0000000000000000     
  0.75000000000000000       0.71875000000000000        0.0000000000000000     
  0.78125000000000000       0.71875000000000000        0.0000000000000000     
  0.81250000000000000       0.71875000000000000        0.0000000000000000     
  0.84375000000000000       0.71875000000000000        0.0000000000000000     
  0.87500000000000000       0.71875000000000000        0.0000000000000000     
  0.75000000000000000       0.75000000000000000        0.0000000000000000     
  0.78125000000000000       0.75000000000000000        0.0000000000000000     
  0.81250000000000000       0.75000000000000000        0.0000000000000000     
  0.84375000000000000       0.75000000000000000        0.0000000000000000     
  0.87500000000000000       0.75000000000000000        0.0000000000000000     
  0.87500000000000000       0.62500000000000000        0.0000000000000000     
  0.90625000000000000       0.62500000000000000        0.0000000000000000     
  0.93750000000000000       0.62500000000000000        0.0000000000000000     
  0.96875000000000000       0.62500000000000000        0.0000000000000000     
   1.0000000000000000       0.62500000000000000        0.0000000000000000     
  0.87500000000000000       0.65625000000000000        0.0000000000000000     
  0.90625000000000000       0.65625000000000000        0.0000000000000000     
  0.93750000000000000       0.65625000000000000        0.0000000000000000     
  0.96875000000000000       0.65625000000000000        0.0000000000000000     
   1.0000000000000000       0.65625000000000000        0.0000000000000000     
  0.87500000000000000       0.68750000000000000        0.0000000000000000     
  0.90625000000000000       0.68750000000000000        0.0000000000000000     
  0.93750000000000000       0.68750000000000000        0.0000000000000000     
  0.96875000000000000       0.68750000000000000        0.0000000000000000     
   1.0000000000000000       0.68750000000000000        0.0000000000000000     
  0.87500000000000000       0.71875000000000000        0.0000000000000000     
  0.90625000000000000       0.71875000000000000        0.0000000000000000     
  0.93750000000000000       0.71875000000000000        0.0000000000000000     
  0.96875000000000000       0.71875000000000000        0.0000000000000000     
   1.0000000000000000       0.71875000000000000        0.0000000000000000     
  0.87500000000000000       0.75000000000000000        0.0000000000000000     
  0.90625000000000000       0.75000000000000000        0.0000000000000000     
  0.93750000000000000       0.75000000000000000        0.0000000000000000     
  0.96875000000000000       0.75000000000000000        0.0000000000000000     
   1.0000000000000000       0.75000000000000000        0.0000000000000000     
   1.0000000000000000       0.62500000000000000        0.0000000000000000     
   1.0312500000000000       0.62500000000000000        0.0000000000000000     
   1.0625000000000000       0.62500000000000000        0.0000000000000000     
   1.0937500000000000       0.62500000000000000        0.0000000000000000     
   1.1250000000000000       0.62500000000000000        0.0000000000000000     
   1.0000000000000000       0.65625000000000000        0.0000000000000000     
   1.0312500000000000       0.65625000000000000        0.0000000000000000     
   1.0625000000000000       0.65625000000000000        0.0000000000000000     
   1.0937500000000000       0.65625000000000000        0.0000000000000000     
   1.1250000000000000       0.65625000000000000        0.0000000000000000     
   1.0000000000000000       0.68750000000000000        0.0000000000000000     
   1.0312500000000000       0.68750000000000000        0.0000000000000000     
   1.0625000000000000       0.68750000000000000        0.0000000000000000     
   1.0937500000000000       0.68750000000000000        0.0000000000000000     
   1.1250000000000000       0.68750000000000000        0.0000000000000000     
   1.0000000000000000       0.71875000000000000        0.0000000000000000     
   1.0312500000000000       0.71875000000000000        0.0000000000000000     
   1.0625000000000000       0.71875000000000000        0.0000000000000000     
   1.0937500000000000       0.71875000000000000        0.0000000000000000     
   1.1250000000000000       0.71875000000000000        0.0000000000000000     
   1.0000000000000000       0.75000000000000000        0.0000000000000000     
   1.0312500000000000       0.75000000000000000        0.0000000000000000     
   1.0625000000000000       0.75000000000000000        0.0000000000000000     
   1.0937500000000000       0.75000000000000000        0.0000000000000000     
   1.1250000000000000       0.75000000000000000        0.0000000000000000     
   1.1250000000000000       0.62500000000000000        0.0000000000000000     
   1.1562500000000000       0.62500000000000000        0.0000000000000000     
   1.1875000000000000       0.62500000000000000        0.0000000000000000     
   1.2187500000000000       0.62500000000000000        0.0000000000000000     
   1.2500000000000000       0.62500000000000000        0.0000000000000000     
   1.1250000000000000       0.65625000000000000        0.0000000000000000     
   1.1562500000000000       0.65625000000000000        0.0000000000000000     
   1.1875000000000000       0.65625000000000000        0.0000000000000000     
   1.2187500000000000       0.65625000000000000        0.0000000000000000     
   1.2500000000000000       0.65625000000000000        0.0000000000000000     
   1.1250000000000000       0.68750000000000000        0.0000000000000000     
   1.1562500000000000       0.68750000000000000        0.0000000000000000     
   1.1875000000000000       0.68750000000000000        0.0000000000000000     
   1.2187500000000000       0.68750000000000000        0.0000000000000000     
   1.2500000000000000       0.68750000000000000        0.0000000000000000     
   1.1250000000000000       0.71875000000000000        0.0000000000000000     
   1.1562500000000000       0.71875000000000000        0.0000000000000000     
   1.1875000000000000       0.71875000000000000        0.0000000000000000     
   1.2187500000000000       0.71875000000000000        0.0000000000000000     
   1.2500000000000000       0.71875000000000000        0.0000000000000000     
   1.1250000000000000       0.75000000000000000        0.0000000000000000     
   1.1562500000000000       0.75000000000000000        0.0000000000000000     
   1.1875000000000000       0.75000000000000000        0.0000000000000000     
   1.2187500000000000       0.75000000000000000        0.0000000000000000     
   1.2500000000000000       0.75000000000000000        0.0000000000000000     
   1.2500000000000000       0.62500000000000000        0.0000000000000000     
   1.2812500000000000       0.62500000000000000        0.0000000000000000     
   1.3125000000000000       0.62500000000000000        0.0000000000000000     
   1.3437500000000000       0.62500000000000000        0.0000000000000000     
   1.3750000000000000       0.62500000000000000        0.0000000000000000     
   1.2500000000000000       0.65625000000000000        0.0000000000000000     
   1.2812500000000000       0.65625000000000000        0.0000000000000000     
   1.3125000000000000       0.65625000000000000        0.0000000000000000     
   1.3437500000000000       0.65625000000000000        0.0000000000000000     
   1.3750000000000000       0.65625000000000000        0.0000000000000000     
   1.2500000000000000       0.68750000000000000        0.0000000000000000     
   1.2812500000000000       0.68750000000000000        0.0000000000000000     
   1.3125000000000000       0.68750000000000000        0.0000000000000000     
   1.3437500000000000       0.68750000000000000        0.0000000000000000     
   1.3750000000000000       0.68750000000000000        0.0000000000000000     
   1.2500000000000000       0.71875000000000000        0.0000000000000000     
   1.2812500000000000       0.71875000000000000        0.0000000000000000     
   1.3125000000000000       0.71875000000000000        0.0000000000000000     
   1.3437500000000000       0.71875000000000000        0.0000000000000000     
   1.3750000000000000       0.71875000000000000        0.0000000000000000     
   1.2500000000000000       0.75000000000000000        0.0000000000000000     
   1.2812500000000000       0.75000000000000000        0.0000000000000000     
   1.3125000000000000       0.75000000000000000        0.0000000000000000     
   1.3437500000000000       0.75000000000000000        0.0000000000000000     
   1.3750000000000000       0.75000000000000000        0.0000000000000000     
   1.3750000000000000       0.62500000000000000        0.0000000000000000     
   1.4062500000000000       0.62500000000000000        0.0000000000000000     
   1.4375000000000000       0.62500000000000000        0.0000000000000000     
   1.4687500000000000       0.62500000000000000        0.0000000000000000     
   1.5000000000000000       0.62500000000000000        0.0000000000000000     
   1.3750000000000000       0.65625000000000000        0.0000000000000000     
   1.4062500000000000       0.65625000000000000        0.0000000000000000     
   1.4375000000000000       0.65625000000000000        0.0000000000000000     
   1.4687500000000000       0.65625000000000000        0.0000000000000000     
   1.5000000000000000       0.65625000000000000        0.0000000000000000     
   1.3750000000000000       0.68750000000000000        0.0000000000000000     
   1.4062500000000000       0.68750000000000000        0.0000000000000000     
   1.4375000000000000       0.68750000000000000        0.0000000000000000     
   1.4687500000000000       0.68750000000000000        0.0000000000000000     
   1.5000000000000000       0.68750000000000000        0.0000000000000000     
   1.3750000000000000       0.71875000000000000        0.0000000000000000     
   1.4062500000000000       0.71875000000000000        0.0000000000000000     
   1.4375000000000000       0.71875000000000000        0.0000000000000000     
   1.4687500000000000       0.71875000000000000        0.0000000000000000     
   1.5000000000000000       0.71875000000000000        0.0000000000000000     
   1.3750000000000000       0.75000000000000000        0.0000000000000000     
   1.4062500000000000       0.75000000000000000        0.0000000000000000     
   1.4375000000000000       0.75000000000000000        0.0000000000000000     
   1.4687500000000000       0.75000000000000000        0.0000000000000000     
   1.5000000000000000       0.75000000000000000        0.0000000000000000     
  0.50000000000000000       0.75000000000000000        0.0000000000000000     
  0.53125000000000000       0.75000000000000000        0.0000000000000000     
  0.56250000000000000       0.75000000000000000        0.0000000000000000     
  0.59375000000000000       0.75000000000000000        0.0000000000000000     
  0.62500000000000000       0.75000000000000000        0.0000000000000000     
  0.50000000000000000       0.78125000000000000        0.0000000000000000     
  0.53125000000000000       0.78125000000000000        0.0000000000000000     
  0.56250000000000000       0.78125000000000000        0.0000000000000000     
  0.59375000000000000       0.78125000000000000        0.0000000000000000     
  0.62500000000000000       0.78125000000000000        0.0000000000000000     
  0.50000000000000000       0.81250000000000000        0.0000000000000000     
  0.53125000000000000       0.81250000000000000        0.0000000000000000     
  0.56250000000000000       0.81250000000000000        0.0000000000000000     
  0.59375000000000000       0.81250000000000000        0.0000000000000000     
  0.62500000000000000       0.81250000000000000        0.0000000000000000     
  0.50000000000000000       0.84375000000000000        0.0000000000000000     
  0.53125000000000000       0.84375000000000000        0.0000000000000000     
  0.56250000000000000       0.84375000000000000        0.0000000000000000     
  0.59375000000000000       0.84375000000000000        0.0000000000000000     
  0.62500000000000000       0.84375000000000000        0.0000000000000000     
  0.50000000000000000       0.87500000000000000        0.0000000000000000     
  0.53125000000000000       0.87500000000000000        0.0000000000000000     
  0.56250000000000000       0.87500000000000000        0.0000000000000000     
  0.59375000000000000       0.87500000000000000        0.0000000000000000     
  0.62500000000000000       0.87500000000000000        0.0000000000000000     
  0.62500000000000000       0.75000000000000000        0.0000000000000000     
  0.65625000000000000       0.75000000000000000        0.0000000000000000     
  0.68750000000000000       0.75000000000000000        0.0000000000000000     
  0.71875000000000000       0.75000000000000000        0.0000000000000000     
  0.75000000000000000       0.75000000000000000        0.0000000000000000     
  0.62500000000000000       0.78125000000000000        0.0000000000000000     
  0.65625000000000000       0.78125000000000000        0.0000000000000000     
  0.68750000000000000       0.78125000000000000        0.0000000000000000     
  0.71875000000000000       0.78125000000000000        0.0000000000000000     
  0.75000000000000000       0.78125000000000000        0.0000000000000000     
  0.62500000000000000       0.81250000000000000        0.0000000000000000     
  0.65625000000000000       0.81250000000000000        0.0000000000000000     
  0.68750000000000000       0.81250000000000000        0.0000000000000000     
  0.71875000000000000       0.81250000000000000        0.0000000000000000     
  0.75000000000000000       0.81250000000000000        0.0000000000000000     
  0.62500000000000000       0.84375000000000000        0.0000000000000000     
  0.65625000000000000       0.84375000000000000        0.0000000000000000     
  0.68750000000000000       0.84375000000000000        0.0000000000000000     
  0.71875000000000000       0.84375000000000000        0.0000000000000000     
  0.75000000000000000       0.84375000000000000        0.0000000000000000     
  0.62500000000000000       0.87500000000000000        0.0000000000000000     
  0.65625000000000000       0.87500000000000000        0.0000000000000000     
  0.68750000000000000       0.87500000000000000        0.0000000000000000     
  0.71875000000000000       0.87500000000000000        0.0000000000000000     
  0.75000000000000000       0.87500000000000000        0.0000000000000000     
  0.75000000000000000       0.75000000000000000        0.0000000000000000     
  0.78125000000000000       0.75000000000000000        0.0000000000000000     
  0.81250000000000000       0.75000000000000000        0.0000000000000000     
  0.84375000000000000       0.75000000000000000        0.0000000000000000     
  0.87500000000000000       0.75000000000000000        0.0000000000000000     
  0.75000000000000000       0.78125000000000000        0.0000000000000000     
  0.78125000000000000       0.78125000000000000        0.0000000000000000     
  0.81250000000000000       0.78125000000000000        0.0000000000000000     
  0.84375000000000000       0.78125000000000000        0.0000000000000000     
  0.87500000000000000       0.78125000000000000        0.0000000000000000     
  0.75000000000000000       0.81250000000000000        0.0000000000000000     
  0.78125000000000000       0.81250000000000000        0.0000000000000000     
  0.81250000000000000       0.81250000000000000        0.0000000000000000     
  0.84375000000000000       0.81250000000000000        0.0000000000000000     
  0.87500000000000000       0.81250000000000000        0.0000000000000000     
  0.75000000000000000       0.84375000000000000        0.0000000000000000     
  0.78125000000000000       0.84375000000000000        0.0000000000000000     
  0.81250000000000000       0.84375000000000000        0.0000000000000000     
  0.84375000000000000       0.84375000000000000        0.0000000000000000     
  0.87500000000000000       0.84375000000000000        0.0000000000000000     
  0.75000000000000000       0.87500000000000000        0.0000000000000000     
  0.78125000000000000       0.87500000000000000        0.0000000000000000     
  0.81250000000000000       0.87500000000000000        0.0000000000000000     
  0.84375000000000000       0.87500000000000000        0.0000000000000000     
  0.87500000000000000       0.87500000000000000        0.0000000000000000     
  0.87500000000000000       0.75000000000000000        0.0000000000000000     
  0.90625000000000000       0.75000000000000000        0.0000000000000000     
  0.93750000000000000       0.75000000000000000        0.0000000000000000     
  0.96875000000000000       0.75000000000000000        0.0000000000000000     
   1.0000000000000000       0.75000000000000000        0.0000000000000000     
  0.87500000000000000       0.78125000000000000        0.0000000000000000     
  0.90625000000000000       0.78125000000000000        0.0000000000000000     
  0.93750000000000000       0.78125000000000000        0.0000000000000000     
  0.96875000000000000       0.78125000000000000        0.0000000000000000     
   1.0000000000000000       0.78125000000000000        0.0000000000000000     
  0.87500000000000000       0.81250000000000000        0.0000000000000000     
  0.90625000000000000       0.81250000000000000        0.0000000000000000     
  0.93750000000000000       0.81250000000000000        0.0000000000000000     
  0.96875000000000000       0.81250000000000000        0.0000000000000000     
   1.0000000000000000       0.81250000000000000        0.0000000000000000     
  0.87500000000000000       0.84375000000000000        0.0000000000000000     
  0.90625000000000000       0.84375000000000000        0.0000000000000000     
  0.93750000000000000       0.84375000000000000        0.0000000000000000     
  0.96875000000000000       0.84375000000000000        0.0000000000000000     
   1.0000000000000000       0.84375000000000000        0.0000000000000000     
  0.87500000000000000       0.87500000000000000        0.0000000000000000     
  0.90625000000000000       0.87500000000000000        0.0000000000000000     
  0.93750000000000000       0.87500000000000000        0.0000000000000000     
  0.96875000000000000       0.87500000000000000        0.0000000000000000     
   1.0000000000000000       0.87500000000000000        0.0000000000000000     
   1.0000000000000000       0.75000000000000000        0.0000000000000000     
   1.0312500000000000       0.75000000000000000        0.0000000000000000     
   1.0625000000000000       0.75000000000000000        0.0000000000000000     
   1.0937500000000000       0.75000000000000000        0.0000000000000000     
   1.1250000000000000       0.75000000000000000        0.0000000000000000     
   1.0000000000000000       0.78125000000000000        0.0000000000000000     
   1.0312500000000000       0.78125000000000000        0.0000000000000000     
   1.0625000000000000       0.78125000000000000        0.0000000000000000     
   1.0937500000000000       0.78125000000000000        0.0000000000000000     
   1.1250000000000000       0.78125000000000000        0.0000000000000000     
   1.0000000000000000       0.81250000000000000        0.0000000000000000     
   1.0312500000000000       0.81250000000000000        0.0000000000000000     
   1.0625000000000000       0.81250000000000000        0.0000000000000000     
   1.0937500000000000       0.81250000000000000        0.0000000000000000     
   1.1250000000000000       0.81250000000000000        0.0000000000000000     
   1.0000000000000000       0.84375000000000000        0.0000000000000000     
   1.0312500000000000       0.84375000000000000        0.0000000000000000     
   1.0625000000000000       0.84375000000000000        0.0000000000000000     
   1.0937500000000000       0.84375000000000000        0.0000000000000000     
   1.1250000000000000       0.84375000000000000        0.0000000000000000     
   1.0000000000000000       0.87500000000000000        0.0000000000000000     
   1.0312500000000000       0.87500000000000000        0.0000000000000000     
   1.0625000000000000       0.87500000000000000        0.0000000000000000     
   1.0937500000000000       0.87500000000000000        0.0000000000000000     
   1.1250000000000000       0.87500000000000000        0.0000000000000000     
   1.1250000000000000       0.75000000000000000        0.0000000000000000     
   1.1562500000000000       0.75000000000000000        0.0000000000000000     
   1.1875000000000000       0.75000000000000000        0.0000000000000000     
   1.2187500000000000       0.75000000000000000        0.0000000000000000     
   1.2500000000000000       0.75000000000000000        0.0000000000000000     
   1.1250000000000000       0.78125000000000000        0.0000000000000000     
   1.1562500000000000       0.78125000000000000        0.0000000000000000     
   1.1875000000000000       0.78125000000000000        0.0000000000000000     
   1.2187500000000000       0.78125000000000000        0.0000000000000000     
   1.2500000000000000       0.78125000000000000        0.0000000000000000     
   1.1250000000000000       0.81250000000000000        0.0000000000000000     
   1.1562500000000000       0.81250000000000000        0.0000000000000000     
   1.1875000000000000       0.81250000000000000        0.0000000000000000     
   1.2187500000000000       0.81250000000000000        0.0000000000000000     
   1.2500000000000000       0.81250000000000000        0.0000000000000000     
   1.1250000000000000       0.84375000000000000        0.0000000000000000     
   1.1562500000000000       0.84375000000000000        0.0000000000000000     
   1.1875000000000000       0.84375000000000000        0.0000000000000000     
   1.2187500000000000       0.84375000000000000        0.0000000000000000     
   1.2500000000000000       0.84375000000000000        0.0000000000000000     
   1.1250000000000000       0.87500000000000000        0.0000000000000000     
   1.1562500000000000       0.87500000000000000        0.0000000000000000     
   1.1875000000000000       0.87500000000000000        0.0000000000000000     
   1.2187500000000000       0.87500000000000000        0.0000000000000000     
   1.2500000000000000       0.87500000000000000        0.0000000000000000     
   1.2500000000000000       0.75000000000000000        0.0000000000000000     
   1.2812500000000000       0.75000000000000000        0.0000000000000000     
   1.3125000000000000       0.75000000000000000        0.0000000000000000     
   1.3437500000000000       0.75000000000000000        0.0000000000000000     
   1.3750000000000000       0.75000000000000000        0.0000000000000000     
   1.2500000000000000       0.78125000000000000        0.0000000000000000     
   1.2812500000000000       0.78125000000000000        0.0000000000000000     
   1.3125000000000000       0.78125000000000000        0.0000000000000000     
   1.3437500000000000       0.78125000000000000        0.0000000000000000     
   1.3750000000000000       0.78125000000000000        0.0000000000000000     
   1.2500000000000000       0.81250000000000000        0.0000000000000000     
   1.2812500000000000       0.81250000000000000        0.0000000000000000     
   1.3125000000000000       0.81250000000000000        0.0000000000000000     
   1.3437500000000000       0.81250000000000000        0.0000000000000000     
   1.3750000000000000       0.81250000000000000        0.0000000000000000     
   1.2500000000000000       0.84375000000000000        0.0000000000000000     
   1.2812500000000000       0.84375000000000000        0.0000000000000000     
   1.3125000000000000       0.84375000000000000        0.0000000000000000     
   1.3437500000000000       0.84375000000000000        0.0000000000000000     
   1.3750000000000000       0.84375000000000000        0.0000000000000000     
   1.2500000000000000       0.87500000000000000        0.0000000000000000     
   1.2812500000000000       0.87500000000000000        0.0000000000000000     
   1.3125000000000000       0.87500000000000000        0.0000000000000000     
   1.3437500000000000       0.87500000000000000        0.0000000000000000     
   1.3750000000000000       0.87500000000000000        0.0000000000000000     
   1.3750000000000000       0.75000000000000000        0.0000000000000000     
   1.4062500000000000       0.75000000000000000        0.0000000000000000     
   1.4375000000000000       0.75000000000000000        0.0000000000000000     
   1.4687500000000000       0.75000000000000000        0.0000000000000000     
   1.5000000000000000       0.75000000000000000        0.0000000000000000     
   1.3750000000000000       0.78125000000000000        0.0000000000000000     
   1.4062500000000000       0.78125000000000000        0.0000000000000000     
   1.4375000000000000       0.78125000000000000        0.0000000000000000     
   1.4687500000000000       0.78125000000000000        0.0000000000000000     
   1.5000000000000000       0.78125000000000000        0.0000000000000000     
   1.3750000000000000       0.81250000000000000        0.0000000000000000     
   1.4062500000000000       0.81250000000000000        0.0000000000000000     
   1.4375000000000000       0.81250000000000000        0.0000000000000000     
   1.4687500000000000       0.81250000000000000        0.0000000000000000     
   1.5000000000000000       0.81250000000000000        0.0000000000000000     
   1.3750000000000000       0.84375000000000000        0.0000000000000000     
   1.4062500000000000       0.84375000000000000        0.0000000000000000     
   1.4375000000000000       0.84375000000000000        0.0000000000000000     
   1.4687500000000000       0.84375000000000000        0.0000000000000000     
   1.5000000000000000       0.84375000000000000        0.0000000000000000     
   1.3750000000000000       0.87500000000000000        0.0000000000000000     
   1.4062500000000000       0.87500000000000000        0.0000000000000000     
   1.4375000000000000       0.87500000000000000        0.0000000000000000     
   1.4687500000000000       0.87500000000000000        0.0000000000000000     
   1.5000000000000000       0.87500000000000000        0.0000000000000000     
  0.50000000000000000       0.87500000000000000        0.0000000000000000     
  0.53125000000000000       0.87500000000000000        0.0000000000000000     
  0.56250000000000000       0.87500000000000000        0.0000000000000000     
  0.59375000000000000       0.87500000000000000        0.0000000000000000     
  0.62500000000000000       0.87500000000000000        0.0000000000000000     
  0.50000000000000000       0.90625000000000000        0.0000000000000000     
  0.53125000000000000       0.90625000000000000        0.0000000000000000     
  0.56250000000000000       0.90625000000000000        0.0000000000000000     
  0.59375000000000000       0.90625000000000000        0.0000000000000000     
  0.62500000000000000       0.90625000000000000        0.0000000000000000     
  0.50000000000000000       0.93750000000000000        0.0000000000000000     
  0.53125000000000000       0.93750000000000000        0.0000000000000000     
  0.56250000000000000       0.93750000000000000        0.0000000000000000     
  0.59375000000000000       0.93750000000000000        0.0000000000000000     
  0.62500000000000000       0.93750000000000000        0.0000000000000000     
  0.50000000000000000       0.96875000000000000        0.0000000000000000     
  0.53125000000000000       0.96875000000000000        0.0000000000000000     
  0.56250000000000000       0.96875000000000000        0.0000000000000000     
  0.59375000000000000       0.96875000000000000        0.0000000000000000     
  0.62500000000000000       0.96875000000000000        0.0000000000000000     
  0.50000000000000000        1.0000000000000000        0.0000000000000000     
  0.53125000000000000        1.0000000000000000        0.0000000000000000     
  0.56250000000000000        1.0000000000000000        0.0000000000000000     
  0.59375000000000000        1.0000000000000000        0.0000000000000000     
  0.62500000000000000        1.0000000000000000        0.0000000000000000     
  0.62500000000000000       0.87500000000000000        0.0000000000000000     
  0.65625000000000000       0.87500000000000000        0.0000000000000000     
  0.68750000000000000       0.87500000000000000        0.0000000000000000     
  0.71875000000000000       0.87500000000000000        0.0000000000000000     
  0.75000000000000000       0.87500000000000000        0.0000000000000000     
  0.62500000000000000       0.90625000000000000        0.0000000000000000     
  0.65625000000000000       0.90625000000000000        0.0000000000000000     
  0.68750000000000000       0.90625000000000000        0.0000000000000000     
  0.71875000000000000       0.90625000000000000        0.0000000000000000     
  0.75000000000000000       0.90625000000000000        0.0000000000000000     
  0.62500000000000000       0.93750000000000000        0.0000000000000000     
  0.65625000000000000       0.93750000000000000        0.0000000000000000     
  0.68750000000000000       0.93750000000000000        0.0000000000000000     
  0.71875000000000000       0.93750000000000000        0.0000000000000000     
  0.75000000000000000       0.93750000000000000        0.0000000000000000     
  0.62500000000000000       0.96875000000000000        0.0000000000000000     
  0.65625000000000000       0.96875000000000000        0.0000000000000000     
  0.68750000000000000       0.96875000000000000        0.0000000000000000     
  0.71875000000000000       0.96875000000000000        0.0000000000000000     
  0.75000000000000000       0.96875000000000000        0.0000000000000000     
  0.62500000000000000        1.0000000000000000        0.0000000000000000     
  0.65625000000000000        1.0000000000000000        0.0000000000000000     
  0.68750000000000000        1.0000000000000000        0.0000000000000000     
  0.71875000000000000        1.0000000000000000        0.0000000000000000     
  0.75000000000000000        1.0000000000000000        0.0000000000000000     
  0.75000000000000000       0.87500000000000000        0.0000000000000000     
  0.78125000000000000       0.87500000000000000        0.0000000000000000     
  0.81250000000000000       0.87500000000000000        0.0000000000000000     
  0.84375000000000000       0.87500000000000000        0.0000000000000000     
  0.87500000000000000       0.87500000000000000        0.0000000000000000     
  0.75000000000000000       0.90625000000000000        0.0000000000000000     
  0.78125000000000000       0.90625000000000000        0.0000000000000000     
  0.81250000000000000       0.90625000000000000        0.0000000000000000     
  0.84375000000000000       0.90625000000000000        0.0000000000000000     
  0.87500000000000000       0.90625000000000000        0.0000000000000000     
  0.75000000000000000       0.93750000000000000        0.0000000000000000     
  0.78125000000000000       0.93750000000000000        0.0000000000000000     
  0.81250000000000000       0.93750000000000000        0.0000000000000000     
  0.84375000000000000       0.93750000000000000        0.0000000000000000     
  0.87500000000000000       0.93750000000000000        0.0000000000000000     
  0.75000000000000000       0.96875000000000000        0.0000000000000000     
  0.78125000000000000       0.96875000000000000        0.0000000000000000     
  0.81250000000000000       0.96875000000000000        0.0000000000000000     
  0.84375000000000000       0.96875000000000000        0.0000000000000000     
  0.87500000000000000       0.96875000000000000        0.0000000000000000     
  0.75000000000000000        1.0000000000000000        0.0000000000000000     
  0.78125000000000000        1.0000000000000000        0.0000000000000000     
  0.81250000000000000        1.0000000000000000        0.0000000000000000     
  0.84375000000000000        1.0000000000000000        0.0000000000000000     
  0.87500000000000000        1.0000000000000000        0.0000000000000000     
  0.87500000000000000       0.87500000000000000        0.0000000000000000     
  0.90625000000000000       0.87500000000000000        0.0000000000000000     
  0.93750000000000000       0.87500000000000000        0.0000000000000000     
  0.96875000000000000       0.87500000000000000        0.0000000000000000     
   1.0000000000000000       0.87500000000000000        0.0000000000000000     
  0.87500000000000000       0.90625000000000000        0.0000000000000000     
  0.90625000000000000       0.90625000000000000        0.0000000000000000     
  0.93750000000000000       0.90625000000000000        0.0000000000000000     
  0.96875000000000000       0.90625000000000000        0.0000000000000000     
   1.0000000000000000       0.90625000000000000        0.0000000000000000     
  0.87500000000000000       0.93750000000000000        0.0000000000000000     
  0.90625000000000000       0.93750000000000000        0.0000000000000000     
  0.93750000000000000       0.93750000000000000        0.0000000000000000     
  0.96875000000000000       0.93750000000000000        0.0000000000000000     
   1.0000000000000000       0.93750000000000000        0.0000000000000000     
  0.87500000000000000       0.96875000000000000        0.0000000000000000     
  0.90625000000000000       0.96875000000000000        0.0000000000000000     
  0.93750000000000000       0.96875000000000000        0.0000000000000000     
  0.96875000000000000       0.96875000000000000        0.0000000000000000     
   1.0000000000000000       0.96875000000000000        0.0000000000000000     
  0.87500000000000000        1.0000000000000000        0.0000000000000000     
  0.90625000000000000        1.0000000000000000        0.0000000000000000     
  0.93750000000000000        1.0000000000000000        0.0000000000000000     
  0.96875000000000000        1.0000000000000000        0.0000000000000000     
   1.0000000000000000        1.0000000000000000        0.0000000000000000     
   1.0000000000000000       0.87500000000000000        0.0000000000000000     
   1.0312500000000000       0.87500000000000000        0.0000000000000000     
   1.0625000000000000       0.87500000000000000        0.0000000000000000     
   1.0937500000000000       0.87500000000000000        0.0000000000000000     
   1.1250000000000000       0.87500000000000000        0.0000000000000000     
   1.0000000000000000       0.90625000000000000        0.0000000000000000     
   1.0312500000000000       0.90625000000000000        0.0000000000000000     
   1.0625000000000000       0.90625000000000000        0.0000000000000000     
   1.0937500000000000       0.90625000000000000        0.0000000000000000     
   1.1250000000000000       0.90625000000000000        0.0000000000000000     
   1.0000000000000000       0.93750000000000000        0.0000000000000000     
   1.0312500000000000       0.93750000000000000        0.0000000000000000     
   1.0625000000000000       0.93750000000000000        0.0000000000000000     
   1.0937500000000000       0.93750000000000000        0.0000000000000000     
   1.1250000000000000       0.93750000000000000        0.0000000000000000     
   1.0000000000000000       0.96875000000000000        0.0000000000000000     
   1.0312500000000000       0.96875000000000000        0.0000000000000000     
   1.0625000000000000       0.96875000000000000        0.0000000000000000     
   1.0937500000000000       0.96875000000000000        0.0000000000000000     
   1.1250000000000000       0.96875000000000000        0.0000000000000000     
   1.0000000000000000        1.0000000000000000        0.0000000000000000     
   1.0312500000000000        1.0000000000000000        0.0000000000000000     
   1.0625000000000000        1.0000000000000000        0.0000000000000000     
   1.0937500000000000        1.0000000000000000        0.0000000000000000     
   1.1250000000000000        1.0000000000000000        0.0000000000000000     
   1.1250000000000000       0.87500000000000000        0.0000000000000000     
   1.1562500000000000       0.87500000000000000        0.0000000000000000     
   1.1875000000000000       0.87500000000000000        0.0000000000000000     
   1.2187500000000000       0.87500000000000000        0.0000000000000000     
   1.2500000000000000       0.87500000000000000        0.0000000000000000     
   1.1250000000000000       0.90625000000000000        0.0000000000000000     
   1.1562500000000000       0.90625000000000000        0.0000000000000000     
   1.1875000000000000       0.90625000000000000        0.0000000000000000     
   1.2187500000000000       0.90625000000000000        0.0000000000000000     
   1.2500000000000000       0.90625000000000000        0.0000000000000000     
   1.1250000000000000       0.93750000000000000        0.0000000000000000     
   1.1562500000000000       0.93750000000000000        0.0000000000000000     
   1.1875000000000000       0.93750000000000000        0.0000000000000000     
   1.2187500000000000       0.93750000000000000        0.0000000000000000     
   1.2500000000000000       0.93750000000000000        0.0000000000000000     
   1.1250000000000000       0.96875000000000000        0.0000000000000000     
   1.1562500000000000       0.96875000000000000        0.0000000000000000     
   1.1875000000000000       0.96875000000000000        0.0000000000000000     
   1.2187500000000000       0.96875000000000000        0.0000000000000000     
   1.2500000000000000       0.96875000000000000        0.0000000000000000     
   1.1250000000000000        1.0000000000000000        0.0000000000000000     
   1.1562500000000000        1.0000000000000000        0.0000000000000000     
   1.1875000000000000        1.0000000000000000        0.0000000000000000     
   1.2187500000000000        1.0000000000000000        0.0000000000000000     
   1.2500000000000000        1.0000000000000000        0.0000000000000000     
   1.2500000000000000       0.87500000000000000        0.0000000000000000     
   1.2812500000000000       0.87500000000000000        0.0000000000000000     
   1.3125000000000000       0.87500000000000000        0.0000000000000000     
   1.3437500000000000       0.87500000000000000        0.0000000000000000     
   1.3750000000000000       0.87500000000000000        0.0000000000000000     
   1.2500000000000000       0.90625000000000000        0.0000000000000000     
   1.2812500000000000       0.90625000000000000        0.0000000000000000     
   1.3125000000000000       0.90625000000000000        0.0000000000000000     
   1.3437500000000000       0.90625000000000000        0.0000000000000000     
   1.3750000000000000       0.90625000000000000        0.0000000000000000     
   1.2500000000000000       0.93750000000000000        0.0000000000000000     
   1.2812500000000000       0.93750000000000000        0.0000000000000000     
   1.3125000000000000       0.93750000000000000        0.0000000000000000     
   1.3437500000000000       0.93750000000000000        0.0000000000000000     
   1.3750000000000000       0.93750000000000000        0.0000000000000000     
   1.2500000000000000       0.96875000000000000        0.0000000000000000     
   1.2812500000000000       0.96875000000000000        0.0000000000000000     
   1.3125000000000000       0.96875000000000000        0.0000000000000000     
   1.3437500000000000       0.96875000000000000        0.0000000000000000     
   1.3750000000000000       0.96875000000000000        0.0000000000000000     
   1.2500000000000000        1.0000000000000000        0.0000000000000000     
   1.2812500000000000        1.0000000000000000        0.0000000000000000     
   1.3125000000000000        1.0000000000000000        0.0000000000000000     
   1.3437500000000000        1.0000000000000000        0.0000000000000000     
   1.3750000000000000        1.0000000000000000        0.0000000000000000     
   1.3750000000000000       0.87500000000000000        0.0000000000000000     
   1.4062500000000000       0.87500000000000000        0.0000000000000000     
   1.4375000000000000       0.87500000000000000        0.0000000000000000     
   1.4687500000000000       0.87500000000000000        0.0000000000000000     
   1.5000000000000000       0.87500000000000000        0.0000000000000000     
   1.3750000000000000       0.90625000000000000        0.0000000000000000     
   1.4062500000000000       0.90625000000000000        0.0000000000000000     
   1.4375000000000000       0.90625000000000000        0.0000000000000000     
   1.4687500000000000       0.90625000000000000        0.0000000000000000     
   1.5000000000000000       0.90625000000000000        0.0000000000000000     
   1.3750000000000000       0.93750000000000000        0.0000000000000000     
   1.4062500000000000       0.93750000000000000        0.0000000000000000     
   1.4375000000000000       0.93750000000000000        0.0000000000000000     
   1.4687500000000000       0.93750000000000000        0.0000000000000000     
   1.5000000000000000       0.93750000000000000        0.0000000000000000     
   1.3750000000000000       0.96875000000000000        0.0000000000000000     
   1.4062500000000000       0.96875000000000000        0.0000000000000000     
   1.4375000000000000       0.96875000000000000        0.0000000000000000     
   1.4687500000000000       0.96875000000000000        0.0000000000000000     
   1.5000000000000000       0.96875000000000000        0.0000000000000000     
   1.3750000000000000        1.0000000000000000        0.0000000000000000     
   1.4062500000000000        1.0000000000000000        0.0000000000000000     
   1.4375000000000000        1.0000000000000000        0.0000000000000000     
   1.4687500000000000        1.0000000000000000        0.0000000000000000     
   1.5000000000000000        1.0000000000000000        0.0000000000000000     
 </DataArray>
 </Points>
 <Cells>
 <DataArray  type="Int32"  Name="connectivity"  format="ascii">
           0           1           6           5
           1           2           7           6
           2           3           8           7
           3           4           9           8
           5           6          11          10
           6           7          12          11
           7           8          13          12
           8           9          14          13
          10          11          16          15
          11          12          17          16
          12          13          18          17
          13          14          19          18
          15          16          21          20
          16          17          22          21
          17          18          23          22
          18          19          24          23
          25          26          31          30
          26          27          32          31
          27          28          33          32
          28          29          34          33
          30          31          36          35
          31          32          37          36
          32          33          38          37
          33          34          39          38
          35          36          41          40
          36          37          42          41
          37          38          43          42
          38          39          44          43
          40          41          46          45
          41          42          47          46
          42          43          48          47
          43          44          49          48
          50          51          56          55
          51          52          57          56
          52          53          58          57
          53          54          59          58
          55          56          61          60
          56          57          62          61
          57          58          63          62
          58          59          64          63
          60          61          66          65
          61          62          67          66
          62          63          68          67
          63          64          69          68
          65          66          71          70
          66          67          72          71
          67          68          73          72
          68          69          74          73
          75          76          81          80
          76          77          82          81
          77          78          83          82
          78          79          84          83
          80          81          86          85
          81          82          87          86
          82          83          88          87
          83          84          89          88
          85          86          91          90
          86          87          92          91
          87          88          93          92
          88          89          94          93
          90          91          96          95
          91          92          97          96
          92          93          98          97
          93          94          99          98
         100         101         106         105
         101         102         107         106
         102         103         108         107
         103         104         109         108
         105         106         111         110
         106         107         112         111
         107         108         113         112
         108         109         114         113
         110         111         116         115
         111         112         117         116
         112         113         118         117
         113         114         119         118
         115         116         121         120
         116         117         122         121
         117         118         123         122
         118         119         124         123
         125         126         131         130
         126         127         132         131
         127         128         133         132
         128         129         134         133
         130         131         136         135
         131         132         137         136
         132         133         138         137
         133         134         139         138
         135         136         141         140
         136         137         142         141
         137         138         143         142
         138         139         144         143
         140         141         146         145
         141         142         147         146
         142         143         148         147
         143         144         149         148
         150         151         156         155
         151         152         157         156
         152         153         158         157
         153         154         159         158
         155         156         161         160
         156         157         162         161
         157         158         163         162
         158         159         164         163
         160         161         166         165
         161         162         167         166
         162         163         168         167
         163         164         169         168
         165         166         171         170
         166         167         172         171
         167         168         173         172
         168         169         174         173
         175         176         181         180
         176         177         182         181
         177         178         183         182
         178         179         184         183
         180         181         186         185
         181         182         187         186
         182         183         188         187
         183         184         189         188
         185         186         191         190
         186         187         192         191
         187         188         193         192
         188         189         194         193
         190         191         196         195
         191         192         197         196
         192         193         198         197
         193         194         199         198
         200         201         206         205
         201         202         207         206
         202         203         208         207
         203         204         209         208
         205         206         211         210
         206         207         212         211
         207         208         213         212
         208         209         214         213
         210         211         216         215
         211         212         217         216
         212         213         218         217
         213         214         219         218
         215         216         221         220
         216         217         222         221
         217         218         223         222
         218         219         224         223
         225         226         231         230
         226         227         232         231
         227         228         233         232
         228         229         234         233
         230         231         236         235
         231         232         237         236
         232         233         238         237
         233         234         239         238
         235         236         241         240
         236         237         242         241
         237         238         243         242
         238         239         244         243
         240         241         246         245
         241         242         247         246
         242         243         248         247
         243         244         249         248
         250         251         256         255
         251         252         257         256
         252         253         258         257
         253         254         259         258
         255         256         261         260
         256         257         262         261
         257         258         263         262
         258         259         264         263
         260         261         266         265
         261         262         267         266
         262         263         268         267
         263         264         269         268
         265         266         271         270
         266         267         272         271
         267         268         273         272
         268         269         274         273
         275         276         281         280
         276         277         282         281
         277         278         283         282
         278         279         284         283
         280         281         286         285
         281         282         287         286
         282         283         288         287
         283         284         289         288
         285         286         291         290
         286         287         292         291
         287         288         293         292
         288         289         294         293
         290         291         296         295
         291         292         297         296
         292         293         298         297
         293         294         299         298
         300         301         306         305
         301         302         307         306
         302         303         308         307
         303         304         309         308
         305         306         311         310
         306         307         312         311
         307         308         313         312
         308         309         314         313
         310         311         316         315
         311         312         317         316
         312         313         318         317
         313         314         319         318
         315         316         321         320
         316         317         322         321
         317         318         323         322
         318         319         324         323
         325         326         331         330
         326         327         332         331
         327         328         333         332
         328         329         334         333
         330         331         336         335
         331         332         337         336
         332         333         338         337
         333         334         339         338
         335         336         341         340
         336         337         342         341
         337         338         343         342
         338         339         344         343
         340         341         346         345
         341         342         347         346
         342         343         348         347
         343         344         349         348
         350         351         356         355
         351         352         357         356
         352         353         358         357
         353         354         359         358
         355         356         361         360
         356         357         362         361
         357         358         363         362
         358         359         364         363
         360         361         366         365
         361         362         367         366
         362         363         368         367
         363         364         369         368
         365         366         371         370
         366         367         372         371
         367         368         373         372
         368         369         374         373
         375         376         381         380
         376         377         382         381
         377         378         383         382
         378         379         384         383
         380         381         386         385
         381         382         387         386
         382         383         388         387
         383         384         389         388
         385         386         391         390
         386         387         392         391
         387         388         393         392
         388         389         394         393
         390         391         396         395
         391         392         397         396
         392         393         398         397
         393         394         399         398
         400         401         406         405
         401         402         407         406
         402         403         408         407
         403         404         409         408
         405         406         411         410
         406         407         412         411
         407         408         413         412
         408         409         414         413
         410         411         416         415
         411         412         417         416
         412         413         418         417
         413         414         419         418
         415         416         421         420
         416         417         422         421
         417         418         423         422
         418         419         424         423
         425         426         431         430
         426         427         432         431
         427         428         433         432
         428         429         434         433
         430         431         436         435
         431         432         437         436
         432         433         438         437
         433         434         439         438
         435         436         441         440
         436         437         442         441
         437         438         443         442
         438         439         444         443
         440         441         446         445
         441         442         447         446
         442         443         448         447
         443         444         449         448
         450         451         456         455
         451         452         457         456
         452         453         458         457
         453         454         459         458
         455         456         461         460
         456         457         462         461
         457         458         463         462
         458         459         464         463
         460         461         466         465
         461         462         467         466
         462         463         468         467
         463         464         469         468
         465         466         471         470
         466         467         472         471
         467         468         473         472
         468         469         474         473
         475         476         481         480
         476         477         482         481
         477         478         483         482
         478         479         484         483
         480         481         486         485
         481         482         487         486
         482         483         488         487
         483         484         489         488
         485         486         491         490
         486         487         492         491
         487         488         493         492
         488         489         494         493
         490         491         496         495
         491         492         497         496
         492         493         498         497
         493         494         499         498
         500         501         506         505
         501         502         507         506
         502         503         508         507
         503         504         509         508
         505         506         511         510
         506         507         512         511
         507         508         513         512
         508         509         514         513
         510         511         516         515
         511         512         517         516
         512         513         518         517
         513         514         519         518
         515         516         521         520
         516         517         522         521
         517         518         523         522
         518         519         524         523
         525         526         531         530
         526         527         532         531
         527         528         533         532
         528         529         534         533
         530         531         536         535
         531         532         537         536
         532         533         538         537
         533         534         539         538
         535         536         541         540
         536         537         542         541
         537         538         543         542
         538         539         544         543
         540         541         546         545
         541         542         547         546
         542         543         548         547
         543         544         549         548
         550         551         556         555
         551         552         557         556
         552         553         558         557
         553         554         559         558
         555         556         561         560
         556         557         562         561
         557         558         563         562
         558         559         564         563
         560         561         566         565
         561         562         567         566
         562         563         568         567
         563         564         569         568
         565         566         571         570
         566         567         572         571
         567         568         573         572
         568         569         574         573
         575         576         581         580
         576         577         582         581
         577         578         583         582
         578         579         584         583
         580         581         586         585
         581         582         587         586
         582         583         588         587
         583         584         589         588
         585         586         591         590
         586         587         592         591
         587         588         593         592
         588         589         594         593
         590         591         596         595
         591         592         597         596
         592         593         598         597
         593         594         599         598
         600         601         606         605
         601         602         607         606
         602         603         608         607
         603         604         609         608
         605         606         611         610
         606         607         612         611
         607         608         613         612
         608         609         614         613
         610         611         616         615
         611         612         617         616
         612         613         618         617
         613         614         619         618
         615         616         621         620
         616         617         622         621
         617         618         623         622
         618         619         624         623
         625         626         631         630
         626         627         632         631
         627         628         633         632
         628         629         634         633
         630         631         636         635
         631         632         637         636
         632         633         638         637
         633         634         639         638
         635         636         641         640
         636         637         642         641
         637         638         643         642
         638         639         644         643
         640         641         646         645
         641         642         647         646
         642         643         648         647
         643         644         649         648
         650         651         656         655
         651         652         657         656
         652         653         658         657
         653         654         659         658
         655         656         661         660
         656         657         662         661
         657         658         663         662
         658         659         664         663
         660         661         666         665
         661         662         667         666
         662         663         668         667
         663         664         669         668
         665         666         671         670
         666         667         672         671
         667         668         673         672
         668         669         674         673
         675         676         681         680
         676         677         682         681
         677         678         683         682
         678         679         684         683
         680         681         686         685
         681         682         687         686
         682         683         688         687
         683         684         689         688
         685         686         691         690
         686         687         692         691
         687         688         693         692
         688         689         694         693
         690         691         696         695
         691         692         697         696
         692         693         698         697
         693         694         699         698
         700         701         706         705
         701         702         707         706
         702         703         708         707
         703         704         709         708
         705         706         711         710
         706         707         712         711
         707         708         713         712
         708         709         714         713
         710         711         716         715
         711         712         717         716
         712         713         718         717
         713         714         719         718
         715         716         721         720
         716         717         722         721
         717         718         723         722
         718         719         724         723
         725         726         731         730
         726         727         732         731
         727         728         733         732
         728         729         734         733
         730         731         736         735
         731         732         737         736
         732         733         738         737
         733         734         739         738
         735         736         741         740
         736         737         742         741
         737         738         743         742
         738         739         744         743
         740         741         746         745
         741         742         747         746
         742         743         748         747
         743         744         749         748
         750         751         756         755
         751         752         757         756
         752         753         758         757
         753         754         759         758
         755         756         761         760
         756         757         762         761
         757         758         763         762
         758         759         764         763
         760         761         766         765
         761         762         767         766
         762         763         768         767
         763         764         769         768
         765         766         771         770
         766         767         772         771
         767         768         773         772
         768         769         774         773
         775         776         781         780
         776         777         782         781
         777         778         783         782
         778         779         784         783
         780         781         786         785
         781         782         787         786
         782         783         788         787
         783         784         789         788
         785         786         791         790
         786         787         792         791
         787         788         793         792
         788         789         794         793
         790         791         796         795
         791         792         797         796
         792         793         798         797
         793         794         799         798
         800         801         806         805
         801         802         807         806
         802         803         808         807
         803         804         809         808
         805         806         811         810
         806         807         812         811
         807         808         813         812
         808         809         814         813
         810         811         816         815
         811         812         817         816
         812         813         818         817
         813         814         819         818
         815         816         821         820
         816         817         822         821
         817         818         823         822
         818         819         824         823
         825         826         831         830
         826         827         832         831
         827         828         833         832
         828         829         834         833
         830         831         836         835
         831         832         837         836
         832         833         838         837
         833         834         839         838
         835         836         841         840
         836         837         842         841
         837         838         843         842
         838         839         844         843
         840         841         846         845
         841         842         847         846
         842         843         848         847
         843         844         849         848
         850         851         856         855
         851         852         857         856
         852         853         858         857
         853         854         859         858
         855         856         861         860
         856         857         862         861
         857         858         863         862
         858         859         864         863
         860         861         866         865
         861         862         867         866
         862         863         868         867
         863         864         869         868
         865         866         871         870
         866         867         872         871
         867         868         873         872
         868         869         874         873
         875         876         881         880
         876         877         882         881
         877         878         883         882
         878         879         884         883
         880         881         886         885
         881         882         887         886
         882         883         888         887
         883         884         889         888
         885         886         891         890
         886         887         892         891
         887         888         893         892
         888         889         894         893
         890         891         896         895
         891         892         897         896
         892         893         898         897
         893         894         899         898
         900         901         906         905
         901         902         907         906
         902         903         908         907
         903         904         909         908
         905         906         911         910
         906         907         912         911
         907         908         913         912
         908         909         914         913
         910         911         916         915
         911         912         917         916
         912         913         918         917
         913         914         919         918
         915         916         921         920
         916         917         922         921
         917         918         923         922
         918         919         924         923
         925         926         931         930
         926         927         932         931
         927         928         933         932
         928         929         934         933
         930         931         936         935
         931         932         937         936
         932         933         938         937
         933         934         939         938
         935         936         941         940
         936         937         942         941
         937         938         943         942
         938         939         944         943
         940         941         946         945
         941         942         947         946
         942         943         948         947
         943         944         949         948
         950         951         956         955
         951         952         957         956
         952         953         958         957
         953         954         959         958
         955         956         961         960
         956         957         962         961
         957         958         963         962
         958         959         964         963
         960         961         966         965
         961         962         967         966
         962         963         968         967
         963         964         969         968
         965         966         971         970
         966         967         972         971
         967         968         973         972
         968         969         974         973
         975         976         981         980
         976         977         982         981
         977         978         983         982
         978         979         984         983
         980         981         986         985
         981         982         987         986
         982         983         988         987
         983         984         989         988
         985         986         991         990
         986         987         992         991
         987         988         993         992
         988         989         994         993
         990         991         996         995
         991         992         997         996
         992         993         998         997
         993         994         999         998
        1000        1001        1006        1005
        1001        1002        1007        1006
        1002        1003        1008        1007
        1003        1004        1009        1008
        1005        1006        1011        1010
        1006        1007        1012        1011
        1007        1008        1013        1012
        1008        1009        1014        1013
        1010        1011        1016        1015
        1011        1012        1017        1016
        1012        1013        1018        1017
        1013        1014        1019        1018
        1015        1016        1021        1020
        1016        1017        1022        1021
        1017        1018        1023        1022
        1018        1019        1024        1023
        1025        1026        1031        1030
        1026        1027        1032        1031
        1027        1028        1033        1032
        1028        1029        1034        1033
        1030        1031        1036        1035
        1031        1032        1037        1036
        1032        1033        1038        1037
        1033        1034        1039        1038
        1035        1036        1041        1040
        1036        1037        1042        1041
        1037        1038        1043        1042
        1038        1039        1044        1043
        1040        1041        1046        1045
        1041        1042        1047        1046
        1042        1043        1048        1047
        1043        1044        1049        1048
        1050        1051        1056        1055
        1051        1052        1057        1056
        1052        1053        1058        1057
        1053        1054        1059        1058
        1055        1056        1061        1060
        1056        1057        1062        1061
        1057        1058        1063        1062
        1058        1059        1064        1063
        1060        1061        1066        1065
        1061        1062        1067        1066
        1062        1063        1068        1067
        1063        1064        1069        1068
        1065        1066        1071        1070
        1066        1067        1072        1071
        1067        1068        1073        1072
        1068        1069        1074        1073
        1075        1076        1081        1080
        1076        1077        1082        1081
        1077        1078        1083        1082
        1078        1079        1084        1083
        1080        1081        1086        1085
        1081        1082        1087        1086
        1082        1083        1088        1087
        1083        1084        1089        1088
        1085        1086        1091        1090
        1086        1087        1092        1091
        1087        1088        1093        1092
        1088        1089        1094        1093
        1090        1091        1096        1095
        1091        1092        1097        1096
        1092        1093        1098        1097
        1093        1094        1099        1098
        1100        1101        1106        1105
        1101        1102        1107        1106
        1102        1103        1108        1107
        1103        1104        1109        1108
        1105        1106        1111        1110
        1106        1107        1112        1111
        1107        1108        1113        1112
        1108        1109        1114        1113
        1110        1111        1116        1115
        1111        1112        1117        1116
        1112        1113        1118        1117
        1113        1114        1119        1118
        1115        1116        1121        1120
        1116        1117        1122        1121
        1117        1118        1123        1122
        1118        1119        1124        1123
        1125        1126        1131        1130
        1126        1127        1132        1131
        1127        1128        1133        1132
        1128        1129        1134        1133
        1130        1131        1136        1135
        1131        1132        1137        1136
        1132        1133        1138        1137
        1133        1134        1139        1138
        1135        1136        1141        1140
        1136        1137        1142        1141
        1137        1138        1143        1142
        1138        1139        1144        1143
        1140        1141        1146        1145
        1141        1142        1147        1146
        1142        1143        1148        1147
        1143        1144        1149        1148
        1150        1151        1156        1155
        1151        1152        1157        1156
        1152        1153        1158        1157
        1153        1154        1159        1158
        1155        1156        1161        1160
        1156        1157        1162        1161
        1157        1158        1163        1162
        1158        1159        1164        1163
        1160        1161        1166        1165
        1161        1162        1167        1166
        1162        1163        1168        1167
        1163        1164        1169        1168
        1165        1166        1171        1170
        1166        1167        1172        1171
        1167        1168        1173        1172
        1168        1169        1174        1173
        1175        1176        1181        1180
        1176        1177        1182        1181
        1177        1178        1183        1182
        1178        1179        1184        1183
        1180        1181        1186        1185
        1181        1182        1187        1186
        1182        1183        1188        1187
        1183        1184        1189        1188
        1185        1186        1191        1190
        1186        1187        1192        1191
        1187        1188        1193        1192
        1188        1189        1194        1193
        1190        1191        1196        1195
        1191        1192        1197        1196
        1192        1193        1198        1197
        1193        1194        1199        1198
        1200        1201        1206        1205
        1201        1202        1207        1206
        1202        1203        1208        1207
        1203        1204        1209        1208
        1205        1206        1211        1210
        1206        1207        1212        1211
        1207        1208        1213        1212
        1208        1209        1214        1213
        1210        1211        1216        1215
        1211        1212        1217        1216
        1212        1213        1218        1217
        1213        1214        1219        1218
        1215        1216        1221        1220
        1216        1217        1222        1221
        1217        1218        1223        1222
        1218        1219        1224        1223
        1225        1226        1231        1230
        1226        1227        1232        1231
        1227        1228        1233        1232
        1228        1229        1234        1233
        1230        1231        1236        1235
        1231        1232        1237        1236
        1232        1233        1238        1237
        1233        1234        1239        1238
        1235        1236        1241        1240
        1236        1237        1242        1241
        1237        1238        1243        1242
        1238        1239        1244        1243
        1240        1241        1246        1245
        1241        1242        1247        1246
        1242        1243        1248        1247
        1243        1244        1249        1248
        1250        1251        1256        1255
        1251        1252        1257        1256
        1252        1253        1258        1257
        1253        1254        1259        1258
        1255        1256        1261        1260
        1256        1257        1262        1261
        1257        1258        1263        1262
        1258        1259        1264        1263
        1260        1261        1266        1265
        1261        1262        1267        1266
        1262        1263        1268        1267
        1263        1264        1269        1268
        1265        1266        1271        1270
        1266        1267        1272        1271
        1267        1268        1273        1272
        1268        1269        1274        1273
        1275        1276        1281        1280
        1276        1277        1282        1281
        1277        1278        1283        1282
        1278        1279        1284        1283
        1280        1281        1286        1285
        1281        1282        1287        1286
        1282        1283        1288        1287
        1283        1284        1289        1288
        1285        1286        1291        1290
        1286        1287        1292        1291
        1287        1288        1293        1292
        1288        1289        1294        1293
        1290        1291        1296        1295
        1291        1292        1297        1296
        1292        1293        1298        1297
        1293        1294        1299        1298
        1300        1301        1306        1305
        1301        1302        1307        1306
        1302        1303        1308        1307
        1303        1304        1309        1308
        1305        1306        1311        1310
        1306        1307        1312        1311
        1307        1308        1313        1312
        1308        1309        1314        1313
        1310        1311        1316        1315
        1311        1312        1317        1316
        1312        1313        1318        1317
        1313        1314        1319        1318
        1315        1316        1321        1320
        1316        1317        1322        1321
        1317        1318        1323        1322
        1318        1319        1324        1323
        1325        1326        1331        1330
        1326        1327        1332        1331
        1327        1328        1333        1332
        1328        1329        1334        1333
        1330        1331        1336        1335
        1331        1332        1337        1336
        1332        1333        1338        1337
        1333        1334        1339        1338
        1335        1336        1341        1340
        1336        1337        1342        1341
        1337        1338        1343        1342
        1338        1339        1344        1343
        1340        1341        1346        1345
        1341        1342        1347        1346
        1342        1343        1348        1347
        1343        1344        1349        1348
        1350        1351        1356        1355
        1351        1352        1357        1356
        1352        1353        1358        1357
        1353        1354        1359        1358
        1355        1356        1361        1360
        1356        1357        1362        1361
        1357        1358        1363        1362
        1358        1359        1364        1363
        1360        1361        1366        1365
        1361        1362        1367        1366
        1362        1363        1368        1367
        1363        1364        1369        1368
        1365        1366        1371        1370
        1366        1367        1372        1371
        1367        1368        1373        1372
        1368        1369        1374        1373
        1375        1376        1381        1380
        1376        1377        1382        1381
        1377        1378        1383        1382
        1378        1379        1384        1383
        1380        1381        1386        1385
        1381        1382        1387        1386
        1382        1383        1388        1387
        1383        1384        1389        1388
        1385        1386        1391        1390
        1386        1387        1392        1391
        1387        1388        1393        1392
        1388        1389        1394        1393
        1390        1391        1396        1395
        1391        1392        1397        1396
        1392        1393        1398        1397
        1393        1394        1399        1398
        1400        1401        1406        1405
        1401        1402        1407        1406
        1402        1403        1408        1407
        1403        1404        1409        1408
        1405        1406        1411        1410
        1406        1407        1412        1411
        1407        1408        1413        1412
        1408        1409        1414        1413
        1410        1411        1416        1415
        1411        1412        1417        1416
        1412        1413        1418        1417
        1413        1414        1419        1418
        1415        1416        1421        1420
        1416        1417        1422        1421
        1417        1418        1423        1422
        1418        1419        1424        1423
        1425        1426        1431        1430
        1426        1427        1432        1431
        1427        1428        1433        1432
        1428        1429        1434        1433
        1430        1431        1436        1435
        1431        1432        1437        1436
        1432        1433        1438        1437
        1433        1434        1439        1438
        1435        1436        1441        1440
        1436        1437        1442        1441
        1437        1438        1443        1442
        1438        1439        1444        1443
        1440        1441        1446        1445
        1441        1442        1447        1446
        1442        1443        1448        1447
        1443        1444        1449        1448
        1450        1451        1456        1455
        1451        1452        1457        1456
        1452        1453        1458        1457
        1453        1454        1459        1458
        1455        1456        1461        1460
        1456        1457        1462        1461
        1457        1458        1463        1462
        1458        1459        1464        1463
        1460        1461        1466        1465
        1461        1462        1467        1466
        1462        1463        1468        1467
        1463        1464        1469        1468
        1465        1466        1471        1470
        1466        1467        1472        1471
        1467        1468        1473        1472
        1468        1469        1474        1473
        1475        1476        1481        1480
        1476        1477        1482        1481
        1477        1478        1483        1482
        1478        1479        1484        1483
        1480        1481        1486        1485
        1481        1482        1487        1486
        1482        1483        1488        1487
        1483        1484        1489        1488
        1485        1486        1491        1490
        1486        1487        1492        1491
        1487        1488        1493        1492
        1488        1489        1494        1493
        1490        1491        1496        1495
        1491        1492        1497        1496
        1492        1493        1498        1497
        1493        1494        1499        1498
        1500        1501        1506        1505
        1501        1502        1507        1506
        1502        1503        1508        1507
        1503        1504        1509        1508
        1505        1506        1511        1510
        1506        1507        1512        1511
        1507        1508        1513        1512
        1508        1509        1514        1513
        1510        1511        1516        1515
        1511        1512        1517        1516
        1512        1513        1518        1517
        1513        1514        1519        1518
        1515        1516        1521        1520
        1516        1517        1522        1521
        1517        1518        1523        1522
        1518        1519        1524        1523
        1525        1526        1531        1530
        1526        1527        1532        1531
        1527        1528        1533        1532
        1528        1529        1534        1533
        1530        1531        1536        1535
        1531        1532        1537        1536
        1532        1533        1538        1537
        1533        1534        1539        1538
        1535        1536        1541        1540
        1536        1537        1542        1541
        1537        1538        1543        1542
        1538        1539        1544        1543
        1540        1541        1546        1545
        1541        1542        1547        1546
        1542        1543        1548        1547
        1543        1544        1549        1548
        1550        1551        1556        1555
        1551        1552        1557        1556
        1552        1553        1558        1557
        1553        1554        1559        1558
        1555        1556        1561        1560
        1556        1557        1562        1561
        1557        1558        1563        1562
        1558        1559        1564        1563
        1560        1561        1566        1565
        1561        1562        1567        1566
        1562        1563        1568        1567
        1563        1564        1569        1568
        1565        1566        1571        1570
        1566        1567        1572        1571
        1567        1568        1573        1572
        1568        1569        1574        1573
        1575        1576        1581        1580
        1576        1577        1582        1581
        1577        1578        1583        1582
        1578        1579        1584        1583
        1580        1581        1586        1585
        1581        1582        1587        1586
        1582        1583        1588        1587
        1583        1584        1589        1588
        1585        1586        1591        1590
        1586        1587        1592        1591
        1587        1588        1593        1592
        1588        1589        1594        1593
        1590        1591        1596        1595
        1591        1592        1597        1596
        1592        1593        1598        1597
        1593        1594        1599        1598
 </DataArray>
 <DataArray  type="Int32"  Name="offsets"  format="ascii"> 
           4
           8
          12
          16
          20
          24
          28
          32
          36
          40
          44
          48
          52
          56
          60
          64
          68
          72
          76
          80
          84
          88
          92
          96
         100
         104
         108
         112
         116
         120
         124
         128
         132
         136
         140
         144
         148
         152
         156
         160
         164
         168
         172
         176
         180
         184
         188
         192
         196
         200
         204
         208
         212
         216
         220
         224
         228
         232
         236
         240
         244
         248
         252
         256
         260
         264
         268
         272
         276
         280
         284
         288
         292
         296
         300
         304
         308
         312
         316
         320
         324
         328
         332
         336
         340
         344
         348
         352
         356
         360
         364
         368
         372
         376
         380
         384
         388
         392
         396
         400
         404
         408
         412
         416
         420
         424
         428
         432
         436
         440
         444
         448
         452
         456
         460
         464
         468
         472
         476
         480
         484
         488
         492
         496
         500
         504
         508
         512
         516
         520
         524
         528
         532
         536
         540
         544
         548
         552
         556
         560
         564
         568
         572
         576
         580
         584
         588
         592
         596
         600
         604
         608
         612
         616
         620
         624
         628
         632
         636
         640
         644
         648
         652
         656
         660
         664
         668
         672
         676
         680
         684
         688
         692
         696
         700
         704
         708
         712
         716
         720
         724
         728
         732
         736
         740
         744
         748
         752
         756
         760
         764
         768
         772
         776
         780
         784
         788
         792
         796
         800
         804
         808
         812
         816
         820
         824
         828
         832
         836
         840
         844
         848
         852
         856
         860
         864
         868
         872
         876
         880
         884
         888
         892
         896
         900
         904
         908
         912
         916
         920
         924
         928
         932
         936
         940
         944
         948
         952
         956
         960
         964
         968
         972
         976
         980
         984
         988
         992
         996
        1000
        1004
        1008
        1012
        1016
        1020
        1024
        1028
        1032
        1036
        1040
        1044
        1048
        1052
        1056
        1060
        1064
        1068
        1072
        1076
        1080
        1084
        1088
        1092
        1096
        1100
        1104
        1108
        1112
        1116
        1120
        1124
        1128
        1132
        1136
        1140
        1144
        1148
        1152
        1156
        1160
        1164
        1168
        1172
        1176
        1180
        1184
        1188
        1192
        1196
        1200
        1204
        1208
        1212
        1216
        1220
        1224
        1228
        1232
        1236
        1240
        1244
        1248
        1252
        1256
        1260
        1264
        1268
        1272
        1276
        1280
        1284
        1288
        1292
        1296
        1300
        1304
        1308
        1312
        1316
        1320
        1324
        1328
        1332
        1336
        1340
        1344
        1348
        1352
        1356
        1360
        1364
        1368
        1372
        1376
        1380
        1384
        1388
        1392
        1396
        1400
        1404
        1408
        1412
        1416
        1420
        1424
        1428
        1432
        1436
        1440
        1444
        1448
        1452
        1456
        1460
        1464
        1468
        1472
        1476
        1480
        1484
        1488
        1492
        1496
        1500
        1504
        1508
        1512
        1516
        1520
        1524
        1528
        1532
        1536
        1540
        1544
        1548
        1552
        1556
        1560
        1564
        1568
        1572
        1576
        1580
        1584
        1588
        1592
        1596
        1600
        1604
        1608
        1612
        1616
        1620
        1624
        1628
        1632
        1636
        1640
        1644
        1648
        1652
        1656
        1660
        1664
        1668
        1672
        1676
        1680
        1684
        1688
        1692
        1696
        1700
        1704
        1708
        1712
        1716
        1720
        1724
        1728
        1732
        1736
        1740
        1744
        1748
        1752
        1756
        1760
        1764
        1768
        1772
        1776
        1780
        1784
        1788
        1792
        1796
        1800
        1804
        1808
        1812
        1816
        1820
        1824
        1828
        1832
        1836
        1840
        1844
        1848
        1852
        1856
        1860
        1864
        1868
        1872
        1876
        1880
        1884
        1888
        1892
        1896
        1900
        1904
        1908
        1912
        1916
        1920
        1924
        1928
        1932
        1936
        1940
        1944
        1948
        1952
        1956
        1960
        1964
        1968
        1972
        1976
        1980
        1984
        1988
        1992
        1996
        2000
        2004
        2008
        2012
        2016
        2020
        2024
        2028
        2032
        2036
        2040
        2044
        2048
        2052
        2056
        2060
        2064
        2068
        2072
        2076
        2080
        2084
        2088
        2092
        2096
        2100
        2104
        2108
        2112
        2116
        2120
        2124
        2128
        2132
        2136
        2140
        2144
        2148
        2152
        2156
        2160
        2164
        2168
        2172
        2176
        2180
        2184
        2188
        2192
        2196
        2200
        2204
        2208
        2212
        2216
        2220
        2224
        2228
        2232
        2236
        2240
        2244
        2248
        2252
        2256
        2260
        2264
        2268
        2272
        2276
        2280
        2284
        2288
        2292
        2296
        2300
        2304
        2308
        2312
        2316
        2320
        2324
        2328
        2332
        2336
        2340
        2344
        2348
        2352
        2356
        2360
        2364
        2368
        2372
        2376
        2380
        2384
        2388
        2392
        2396
        2400
        2404
        2408
        2412
        2416
        2420
        2424
        2428
        2432
        2436
        2440
        2444
        2448
        2452
        2456
        2460
        2464
        2468
        2472
        2476
        2480
        2484
        2488
        2492
        2496
        2500
        2504
        2508
        2512
        2516
        2520
        2524
        2528
        2532
        2536
        2540
        2544
        2548
        2552
        2556
        2560
        2564
        2568
        2572
        2576
        2580
        2584
        2588
        2592
        2596
        2600
        2604
        2608
        2612
        2616
        2620
        2624
        2628
        2632
        2636
        2640
        2644
        2648
        2652
        2656
        2660
        2664
        2668
        2672
        2676
        2680
        2684
        2688
        2692
        2696
        2700
        2704
        2708
        2712
        2716
        2720
        2724
        2728
        2732
        2736
        2740
        2744
        2748
        2752
        2756
        2760
        2764
        2768
        2772
        2776
        2780
        2784
        2788
        2792
        2796
        2800
        2804
        2808
        2812
        2816
        2820
        2824
        2828
        2832
        2836
        2840
        2844
        2848
        2852
        2856
        2860
        2864
        2868
        2872
        2876
        2880
        2884
        2888
        2892
        2896
        2900
        2904
        2908
        2912
        2916
        2920
        2924
        2928
        2932
        2936
        2940
        2944
        2948
        2952
        2956
        2960
        2964
        2968
        2972
        2976
        2980
        2984
        2988
        2992
        2996
        3000
        3004
        3008
        3012
        3016
        3020
        3024
        3028
        3032
        3036
        3040
        3044
        3048
        3052
        3056
        3060
        3064
        3068
        3072
        3076
        3080
        3084
        3088
        3092
        3096
        3100
        3104
        3108
        3112
        3116
        3120
        3124
        3128
        3132
        3136
        3140
        3144
        3148
        3152
        3156
        3160
        3164
        3168
        3172
        3176
        3180
        3184
        3188
        3192
        3196
        3200
        3204
        3208
        3212
        3216
        3220
        3224
        3228
        3232
        3236
        3240
        3244
        3248
        3252
        3256
        3260
        3264
        3268
        3272
        3276
        3280
        3284
        3288
        3292
        3296
        3300
        3304
        3308
        3312
        3316
        3320
        3324
        3328
        3332
        3336
        3340
        3344
        3348
        3352
        3356
        3360
        3364
        3368
        3372
        3376
        3380
        3384
        3388
        3392
        3396
        3400
        3404
        3408
        3412
        3416
        3420
        3424
        3428
        3432
        3436
        3440
        3444
        3448
        3452
        3456
        3460
        3464
        3468
        3472
        3476
        3480
        3484
        3488
        3492
        3496
        3500
        3504
        3508
        3512
        3516
        3520
        3524
        3528
        3532
        3536
        3540
        3544
        3548
        3552
        3556
        3560
        3564
        3568
        3572
        3576
        3580
        3584
        3588
        3592
        3596
        3600
        3604
        3608
        3612
        3616
        3620
        3624
        3628
        3632
        3636
        3640
        3644
        3648
        3652
        3656
        3660
        3664
        3668
        3672
        3676
        3680
        3684
        3688
        3692
        3696
        3700
        3704
        3708
        3712
        3716
        3720
        3724
        3728
        3732
        3736
        3740
        3744
        3748
        3752
        3756
        3760
        3764
        3768
        3772
        3776
        3780
        3784
        3788
        3792
        3796
        3800
        3804
        3808
        3812
        3816
        3820
        3824
        3828
        3832
        3836
        3840
        3844
        3848
        3852
        3856
        3860
        3864
        3868
        3872
        3876
        3880
        3884
        3888
        3892
        3896
        3900
        3904
        3908
        3912
        3916
        3920
        3924
        3928
        3932
        3936
        3940
        3944
        3948
        3952
        3956
        3960
        3964
        3968
        3972
        3976
        3980
        3984
        3988
        3992
        3996
        4000
        4004
        4008
        4012
        4016
        4020
        4024
        4028
        4032
        4036
        4040
        4044
        4048
        4052
        4056
        4060
        4064
        4068
        4072
        4076
        4080
        4084
        4088
        4092
        4096
 </DataArray>
 <DataArray  type="UInt8"  Name="types"  format="ascii">
 9
 9
 9
 9
 9
 9
 9
 9
 9
 9
 9
 9
 9
 9
 9
 9
 9
 9
 9
 9
 9
 9
 9
 9
 9
 9
 9
 9
 9
 9
 9
 9
 9
 9
 9
 9
 9
 9
 9
 9
 9
 9
 9
 9
 9
 9
 9
 9
 9
 9
 9
 9
 9
 9
 9
 9
 9
 9
 9
 9
 9
 9
 9
 9
 9
 9
 9
 9
 9
 9
 9
 9
 9
 9
 9
 9
 9
 9
 9
 9
 9
 9
 9
 9
 9
 9
 9
 9
 9
 9
 9
 9
 9
 9
 9
 9
 9
 9
 9
 9
 9
 9
 9
 9
 9
 9
 9
 9
 9
 9
 9
 9
 9
 9
 9
 9
 9
 9
 9
 9
 9
 9
 9
 9
 9
 9
 9
 9
 9
 9
 9
 9
 9
 9
 9
 9
 9
 9
 9
 9
 9
 9
 9
 9
 9
 9
 9
 9
 9
 9
 9
 9
 9
 9
 9
 9
 9
 9
 9
 9
 9
 9
 9
 9
 9
 9
 9
 9
 9
 9
 9
 9
 9
 9
 9
 9
 9
 9
 9
 9
 9
 9
 9
 9
 9
 9
 9
 9
 9
 9
 9
 9
 9
 9
 9
 9
 9
 9
 9
 9
 9
 9
 9
 9
 9
 9
 9
 9
 9
 9
 9
 9
 9
 9
 9
 9
 9
 9
 9
 9
 9
 9
 9
 9
 9
 9
 9
 9
 9
 9
 9
 9
 9
 9
 9
 9
 9
 9
 9
 9
 9
 9
 9
 9
 9
 9
 9
 9
 9
 9
 9
 9
 9
 9
 9
 9
 9
 9
 9
 9
 9
 9
 9
 9
 9
 9
 9
 9
 9
 9
 9
 9
 9
 9
 9
 9
 9
 9
 9
 9
 9
 9
 9
 9
 9
 9
 9
 9
 9
 9
 9
 9
 9
 9
 9
 9
 9
 9
 9
 9
 9
 9
 9
 9
 9
 9
 9
 9
 9
 9
 9
 9
 9
 9
 9
 9
 9
 9
 9
 9
 9
 9
 9
 9
 9
 9
 9
 9
 9
 9
 9
 9
 9
 9
 9
 9
 9
 9
 9
 9
 9
 9
 9
 9
 9
 9
 9
 9
 9
 9
 9
 9
 9
 9
 9
 9
 9
 9
 9
 9
 9
 9
 9
 9
 9
 9
 9
 9
 9
 9
 9
 9
 9
 9
 9
 9
 9
 9
 9
 9
 9
 9
 9
 9
 9
 9
 9
 9
 9
 9
 9
 9
 9
 9
 9
 9
 9
 9
 9
 9
 9
 9
 9
 9
 9
 9
 9
 9
 9
 9
 9
 9
 9
 9
 9
 9
 9
 9
 9
 9
 9
 9
 9
 9
 9
 9
 9
 9
 9
 9
 9
 9
 9
 9
 9
 9
 9
 9
 9
 9
 9
 9
 9
 9
 9
 9
 9
 9
 9
 9
 9
 9
 9
 9
 9
 9
 9
 9
 9
 9
 9
 9
 9
 9
 9
 9
 9
 9
 9
 9
 9
 9
 9
 9
 9
 9
 9
 9
 9
 9
 9
 9
 9
 9
 9
 9
 9
 9
 9
 9
 9
 9
 9
 9
 9
 9
 9
 9
 9
 9
 9
 9
 9
 9
 9
 9
 9
 9
 9
 9
 9
 9
 9
 9
 9
 9
 9
 9
 9
 9
 9
 9
 9
 9
 9
 9
 9
 9
 9
 9
 9
 9
 9
 9
 9
 9
 9
 9
 9
 9
 9
 9
 9
 9
 9
 9
 9
 9
 9
 9
 9
 9
 9
 9
 9
 9
 9
 9
 9
 9
 9
 9
 9
 9
 9
 9
 9
 9
 9
 9
 9
 9
 9
 9
 9
 9
 9
 9
 9
 9
 9
 9
 9
 9
 9
 9
 9
 9
 9
 9
 9
 9
 9
 9
 9
 9
 9
 9
 9
 9
 9
 9
 9
 9
 9
 9
 9
 9
 9
 9
 9
 9
 9
 9
 9
 9
 9
 9
 9
 9
 9
 9
 9
 9
 9
 9
 9
 9
 9
 9
 9
 9
 9
 9
 9
 9
 9
 9
 9
 9
 9
 9
 9
 9
 9
 9
 9
 9
 9
 9
 9
 9
 9
 9
 9
 9
 9
 9
 9
 9
 9
 9
 9
 9
 9
 9
 9
 9
 9
 9
 9
 9
 9
 9
 9
 9
 9
 9
 9
 9
 9
 9
 9
 9
 9
 9
 9
 9
 9
 9
 9
 9
 9
 9
 9
 9
 9
 9
 9
 9
 9
 9
 9
 9
 9
 9
 9
 9
 9
 9
 9
 9
 9
 9
 9
 9
 9
 9
 9
 9
 9
 9
 9
 9
 9
 9
 9
 9
 9
 9
 9
 9
 9
 9
 9
 9
 9
 9
 9
 9
 9
 9
 9
 9
 9
 9
 9
 9
 9
 9
 9
 9
 9
 9
 9
 9
 9
 9
 9
 9
 9
 9
 9
 9
 9
 9
 9
 9
 9
 9
 9
 9
 9
 9
 9
 9
 9
 9
 9
 9
 9
 9
 9
 9
 9
 9
 9
 9
 9
 9
 9
 9
 9
 9
 9
 9
 9
 9
 9
 9
 9
 9
 9
 9
 9
 9
 9
 9
 9
 9
 9
 9
 9
 9
 9
 9
 9
 9
 9
 9
 9
 9
 9
 9
 9
 9
 9
 9
 9
 9
 9
 9
 9
 9
 9
 9
 9
 9
 9
 9
 9
 9
 9
 9
 9
 9
 9
 9
 9
 9
 9
 9
 9
 9
 9
 9
 9
 9
 9
 9
 9
 9
 9
 9
 9
 9
 9
 9
 9
 9
 9
 9
 9
 9
 9
 9
 9
 9
 9
 9
 9
 9
 9
 9
 9
 9
 9
 9
 9
 9
 9
 9
 9
 9
 9
 9
 9
 9
 9
 9
 9
 9
 9
 9
 9
 9
 9
 9
 9
 9
 9
 9
 9
 9
 9
 9
 9
 9
 9
 9
 9
 9
 9
 9
 9
 9
 9
 9
 9
 9
 9
 9
 9
 9
 9
 9
 9
 9
 9
 9
 9
 9
 9
 9
 9
 9
 9
 9
 9
 9
 9
 9
 9
 9
 9
 9
 9
 9
 9
 9
 9
 9
 9
 9
 9
 9
 9
 9
 9
 9
 9
 9
 9
 9
 9
 9
 9
 9
 9
 9
 9
 9
 9
 9
 9
 9
 9
 9
 9
 9
 9
 9
 9
 9
 9
 9
 9
 9
 9
 9
 9
 9
 9
 9
 9
 9
 9
 9
 9
 9
 9
 9
 9
 9
 9
 9
 9
 9
 9
 9
 9
 9
 9
 9
 </DataArray>
 </Cells> 
 <PointData>
 <DataArray  type="Float64" Name="disp" NumberOfComponents="3" format="ascii">
   6.1294231519523949E-002   6.4298496347789003E-002   0.0000000000000000     
   6.5897296461498001E-002   6.8860319074266485E-002   0.0000000000000000     
   6.9974491933792543E-002   7.3859900671560383E-002   0.0000000000000000     
   7.3525817936407598E-002   7.9297241139670710E-002   0.0000000000000000     
   7.6551274469343150E-002   8.5172340478597452E-002   0.0000000000000000     
   5.9121330585477243E-002   6.2653831043086722E-002   0.0000000000000000     
   6.2607755290951195E-002   6.7587374256208615E-002   0.0000000000000000     
   6.5795783375131270E-002   7.2857207377293537E-002   0.0000000000000000     
   6.8685414838017517E-002   7.8463330406341486E-002   0.0000000000000000     
   7.1276649679609921E-002   8.4405743343352463E-002   0.0000000000000000     
   5.6017217130368203E-002   6.1230222111156869E-002   0.0000000000000000     
   5.8731218757712790E-002   6.6474294218108798E-002   0.0000000000000000     
   6.1293597857061496E-002   7.1968595674806748E-002   0.0000000000000000     
   6.3704354428414295E-002   7.7713126481250727E-002   0.0000000000000000     
   6.5963488471771220E-002   8.3707886637440734E-002   0.0000000000000000     
   5.1981891154196817E-002   6.0027669551999438E-002   0.0000000000000000     
   5.4267686861782821E-002   6.5521078959967005E-002   0.0000000000000000     
   5.6467935379583195E-002   7.1194065564099990E-002   0.0000000000000000     
   5.8582636707597946E-002   7.7046629364398461E-002   0.0000000000000000     
   6.0611790845827088E-002   8.3078770360862336E-002   0.0000000000000000     
   4.7015352656963091E-002   5.9046173365614428E-002   0.0000000000000000     
   4.9217159603161267E-002   6.4727728481783264E-002   0.0000000000000000     
   5.1318795942696380E-002   7.0533617045173330E-002   0.0000000000000000     
   5.3320261675568463E-002   7.6463839055784660E-002   0.0000000000000000     
   5.5221556801777497E-002   8.2518394513617213E-002   0.0000000000000000     
   7.6551274469343150E-002   8.5172340478597452E-002   0.0000000000000000     
   7.9266206200042710E-002   9.1341798106041844E-002   0.0000000000000000     
   8.1885957795949746E-002   9.7662213439705076E-002   0.0000000000000000     
   8.4410529257064298E-002  0.10413358647958718        0.0000000000000000     
   8.6839920583386340E-002  0.11075591722568809        0.0000000000000000     
   7.1276649679609921E-002   8.4405743343352463E-002   0.0000000000000000     
   7.3688779106384078E-002   9.0592362546127597E-002   0.0000000000000000     
   7.6041094324815664E-002   9.6931104372467977E-002   0.0000000000000000     
   7.8333595334904665E-002  0.10342196882237366        0.0000000000000000     
   8.0566282136651068E-002  0.11006495589584461        0.0000000000000000     
   6.5963488471771220E-002   8.3707886637440734E-002   0.0000000000000000     
   6.8128295074554909E-002   8.9905012216477773E-002   0.0000000000000000     
   7.0256069324188014E-002   9.6256639291462803E-002   0.0000000000000000     
   7.2346811220670562E-002  0.10276276786239583        0.0000000000000000     
   7.4400520764002512E-002  0.10942339792927684        0.0000000000000000     
   6.0611790845827088E-002   8.3078770360862336E-002   0.0000000000000000     
   6.2584754104555163E-002   8.9279747117092426E-002   0.0000000000000000     
   6.4530882794066782E-002   9.5638818196689512E-002   0.0000000000000000     
   6.6450176914361947E-002  0.10215598359965364        0.0000000000000000     
   6.8342636465440615E-002  0.10883124332598473        0.0000000000000000     
   5.5221556801777497E-002   8.2518394513617213E-002   0.0000000000000000     
   5.7058156196384865E-002   8.8716567247971528E-002   0.0000000000000000     
   5.8865534734451982E-002   9.5077641088148160E-002   0.0000000000000000     
   6.0643692415978848E-002  0.10160161603414708        0.0000000000000000     
   6.2392629240965447E-002  0.10828849208596833        0.0000000000000000     
   8.6839920583386340E-002  0.11075591722568809        0.0000000000000000     
   8.9175017071564236E-002  0.11751400484379607        0.0000000000000000     
   9.1416704018246336E-002  0.12439264849969923        0.0000000000000000     
   9.3564981423432642E-002  0.13139184819339761        0.0000000000000000     
   9.5619849287123165E-002  0.13851160392489126        0.0000000000000000     
   8.0566282136651068E-002  0.11006495589584461        0.0000000000000000     
   8.2727015092381728E-002  0.11684542337947729        0.0000000000000000     
   8.4803654564423472E-002  0.12374872905986806        0.0000000000000000     
   8.6796200552776287E-002  0.13077487293701692        0.0000000000000000     
   8.8704653057440186E-002  0.13792385501092397        0.0000000000000000     
   7.4400520764002512E-002  0.10942339792927684        0.0000000000000000     
   7.6397487728627769E-002  0.11622396253464637        0.0000000000000000     
   7.8318001888990255E-002  0.12314989472104494        0.0000000000000000     
   8.0162063245089940E-002  0.13020119448847250        0.0000000000000000     
   8.1929671796926840E-002  0.13737786183692913        0.0000000000000000     
   6.8342636465440615E-002  0.10883124332598473        0.0000000000000000     
   7.0186434980302387E-002  0.11564962230930333        0.0000000000000000     
   7.1959745991946725E-002  0.12259614548322986        0.0000000000000000     
   7.3662569500373615E-002  0.12967081284776438        0.0000000000000000     
   7.5294905505583126E-002  0.13687362440290682        0.0000000000000000     
   6.2392629240965447E-002  0.10828849208596833        0.0000000000000000     
   6.4093856847405525E-002  0.11512240270344815        0.0000000000000000     
   6.5728886873292813E-002  0.12208748134642286        0.0000000000000000     
   6.7297719318627339E-002  0.12918372801489245        0.0000000000000000     
   6.8800354183409074E-002  0.13641114270885699        0.0000000000000000     
   9.5619849287123165E-002  0.13851160392489126        0.0000000000000000     
   9.7579612778335739E-002  0.14574487304325212        0.0000000000000000     
   9.9442577066088195E-002  0.15308461289755221        0.0000000000000000     
  0.10120874215038053       0.16053082348779155        0.0000000000000000     
  0.10287810803121275       0.16808350481397011        0.0000000000000000     
   8.8704653057440186E-002  0.13792385501092397        0.0000000000000000     
   9.0524510411764875E-002  0.14518734766534824        0.0000000000000000     
   9.2251270949100073E-002  0.15255702328404896        0.0000000000000000     
   9.3884934669445752E-002  0.16003288186702605        0.0000000000000000     
   9.5425501572801955E-002  0.16761492341427964        0.0000000000000000     
   8.1929671796926840E-002  0.13737786183692913        0.0000000000000000     
   8.3614672141566412E-002  0.14467025927941762        0.0000000000000000     
   8.5210908876074076E-002  0.15206874932894074        0.0000000000000000     
   8.6718382000449873E-002  0.15957333198549850        0.0000000000000000     
   8.8137091514693774E-002  0.16718400724909102        0.0000000000000000     
   7.5294905505583126E-002  0.13687362440290682        0.0000000000000000     
   7.6850097967740297E-002  0.14419360788546023        0.0000000000000000     
   7.8321490847010206E-002  0.15161979103222759        0.0000000000000000     
   7.9709084143392839E-002  0.15915217384320895        0.0000000000000000     
   8.1012877856888210E-002  0.16679075631840423        0.0000000000000000     
   6.8800354183409074E-002  0.13641114270885699        0.0000000000000000     
   7.0230787890286583E-002  0.14375739348347610        0.0000000000000000     
   7.1583016861908461E-002  0.15121014839390950        0.0000000000000000     
   7.2857041098274677E-002  0.15876940744015727        0.0000000000000000     
   7.4052860599385290E-002  0.16643517062221933        0.0000000000000000     
  0.10287810803121275       0.16808350481397011        0.0000000000000000     
  0.10445249902510201       0.17573807050301904        0.0000000000000000     
  0.10593373944856550       0.18348993418186951        0.0000000000000000     
  0.10732182930160318       0.19133909585052145        0.0000000000000000     
  0.10861676858421510       0.19928555550897498        0.0000000000000000     
   9.5425501572801955E-002  0.16761492341427964        0.0000000000000000     
   9.6877029612327123E-002  0.17529836733392823        0.0000000000000000     
   9.8243576741179769E-002  0.18307843303409058        0.0000000000000000     
   9.9525142959359866E-002  0.19095512051476657        0.0000000000000000     
  0.10072172826686744       0.19892842977595626        0.0000000000000000     
   8.8137091514693774E-002  0.16718400724909102        0.0000000000000000     
   8.9472159484615690E-002  0.17489550336748683        0.0000000000000000     
   9.0728707976025419E-002  0.18270254858845464        0.0000000000000000     
   9.1906736988923016E-002  0.19060514291199449        0.0000000000000000     
   9.3006246523308467E-002  0.19860328633810631        0.0000000000000000     
   8.1012877856888210E-002  0.16679075631840423        0.0000000000000000     
   8.2237888641967641E-002  0.17452947860369475        0.0000000000000000     
   8.3389133153102452E-002  0.18236228084496178        0.0000000000000000     
   8.4466611390292642E-002  0.19028916304220519        0.0000000000000000     
   8.5470323353538200E-002  0.19831012519542512        0.0000000000000000     
   7.4052860599385290E-002  0.16643517062221933        0.0000000000000000     
   7.5174217084383071E-002  0.17420029304255205        0.0000000000000000     
   7.6224852272410895E-002  0.18205762980361190        0.0000000000000000     
   7.7204766163468760E-002  0.19000718090539873        0.0000000000000000     
   7.8113958757556654E-002  0.19804894634791270        0.0000000000000000     
  0.10861676858421510       0.19928555550897498        0.0000000000000000     
  0.10982685091742042       0.20732030752362279        0.0000000000000000     
  0.11096036992223843       0.21543434626085770        0.0000000000000000     
  0.11201732559866909       0.22362767172067974        0.0000000000000000     
  0.11299771794671241       0.23190028390308892        0.0000000000000000     
  0.10072172826686744       0.19892842977595626        0.0000000000000000     
  0.10183903345127321       0.20698779271342296        0.0000000000000000     
  0.10288275930014798       0.21512264122292996        0.0000000000000000     
  0.10385290581349171       0.22333297530447724        0.0000000000000000     
  0.10474947299130444       0.23161879495806484        0.0000000000000000     
   9.3006246523308467E-002  0.19860328633810631        0.0000000000000000     
   9.4030534494272636E-002  0.20668594730691950        0.0000000000000000     
   9.4982898816906344E-002  0.21484209425856318        0.0000000000000000     
   9.5863339491209662E-002  0.22307172719303756        0.0000000000000000     
   9.6671856517182519E-002  0.23137484611034245        0.0000000000000000     
   8.5470323353538200E-002  0.19831012519542512        0.0000000000000000     
   8.6401354046418674E-002  0.20641477130411226        0.0000000000000000     
   8.7260788472513562E-002  0.21459270536775746        0.0000000000000000     
   8.8048626631822904E-002  0.22284392738636058        0.0000000000000000     
   8.8764868524346660E-002  0.23116843735992179        0.0000000000000000     
   7.8113958757556654E-002  0.19804894634791270        0.0000000000000000     
   7.8951492107711352E-002  0.20617426470500144        0.0000000000000000     
   7.9716428266969619E-002  0.21437447455051267        0.0000000000000000     
   8.0408767235331469E-002  0.22264957588444648        0.0000000000000000     
   8.1028509012796873E-002  0.23099956870680277        0.0000000000000000     
  0.11299771794671241       0.23190028390308892        0.0000000000000000     
  0.11393060720117479       0.24027016345930638        0.0000000000000000     
  0.11484505359686263       0.24875529104055336        0.0000000000000000     
  0.11574105713377592       0.25735566664682979        0.0000000000000000     
  0.11661861781191465       0.26607129027813575        0.0000000000000000     
  0.10474947299130444       0.23161879495806484        0.0000000000000000     
  0.10557781695882851       0.24000470979976218        0.0000000000000000     
  0.10634329384130629       0.24851532944563889        0.0000000000000000     
  0.10704590363873775       0.25715065389569475        0.0000000000000000     
  0.10768564635112296       0.26591068314992994        0.0000000000000000     
   9.6671856517182519E-002  0.23137484611034245        0.0000000000000000     
   9.7399238906245453E-002  0.23977874028349308        0.0000000000000000     
   9.8036275669818901E-002  0.24831069898550456        0.0000000000000000     
   9.8582966807902891E-002  0.25697072221637685        0.0000000000000000     
   9.9039312320497411E-002  0.26575880997610996        0.0000000000000000     
   8.8764868524346660E-002  0.23116843735992179        0.0000000000000000     
   8.9394873043425610E-002  0.23959225491049904        0.0000000000000000     
   8.9923999082400494E-002  0.24814139966015047        0.0000000000000000     
   9.0352246641271283E-002  0.25681587160887609        0.0000000000000000     
   9.0679615720038034E-002  0.26561567075667586        0.0000000000000000     
   8.1028509012796873E-002  0.23099956870680277        0.0000000000000000     
   8.1564719370369021E-002  0.23944525368078001        0.0000000000000000     
   8.2006464079051045E-002  0.24800743146957654        0.0000000000000000     
   8.2353743138842986E-002  0.25668610207319242        0.0000000000000000     
   8.2606556549744817E-002  0.26548126549162765        0.0000000000000000     
  0.11661861781191465       0.26607129027813575        0.0000000000000000     
  0.11741773576655376       0.27506650634187146        0.0000000000000000     
  0.11807841113296814       0.28450565924543714        0.0000000000000000     
  0.11860064391115782       0.29438874898883277        0.0000000000000000     
  0.11898443410112280       0.30471577557205837        0.0000000000000000     
  0.10768564635112296       0.26591068314992994        0.0000000000000000     
  0.10824342704566169       0.27492746479081931        0.0000000000000000     
  0.10870015078955382       0.28433304640083784        0.0000000000000000     
  0.10905581758279935       0.29412742797998537        0.0000000000000000     
  0.10931042742539826       0.30431060952826211        0.0000000000000000     
   9.9039312320497411E-002  0.26575880997610996        0.0000000000000000     
   9.9416356895036348E-002  0.27477327461522816        0.0000000000000000     
   9.9725145218953495E-002  0.28411242848425555        0.0000000000000000     
   9.9965677292248936E-002  0.29377627158319231        0.0000000000000000     
  0.10013795311492260       0.30376480391203825        0.0000000000000000     
   9.0679615720038034E-002  0.26561567075667586        0.0000000000000000     
   9.0936525314677677E-002  0.27460393581509795        0.0000000000000000     
   9.1153394421167197E-002  0.28384380549569049        0.0000000000000000     
   9.1330223039506581E-002  0.29333527979845342        0.0000000000000000     
   9.1467011169695842E-002  0.30307835872338673        0.0000000000000000     
   8.2606556549744817E-002  0.26548126549162765        0.0000000000000000     
   8.2803932304585715E-002  0.27441944839042876        0.0000000000000000     
   8.2984898396194884E-002  0.28352717743514244        0.0000000000000000     
   8.3149454824572297E-002  0.29280445262576876        0.0000000000000000     
   8.3297601589717968E-002  0.30225127396230766        0.0000000000000000     
   4.7015352656963091E-002   5.9046173365614428E-002   0.0000000000000000     
   4.9217159603161267E-002   6.4727728481783264E-002   0.0000000000000000     
   5.1318795942696380E-002   7.0533617045173330E-002   0.0000000000000000     
   5.3320261675568463E-002   7.6463839055784660E-002   0.0000000000000000     
   5.5221556801777497E-002   8.2518394513617213E-002   0.0000000000000000     
   4.1763466333201216E-002   5.8268067250837149E-002   0.0000000000000000     
   4.4012073688703510E-002   6.4069291799528777E-002   0.0000000000000000     
   4.6116001747976636E-002   6.9959147367912256E-002   0.0000000000000000     
   4.8075250511020601E-002   7.5937633955987557E-002   0.0000000000000000     
   4.9889819977835384E-002   8.2004751563754696E-002   0.0000000000000000     
   3.6872096877445387E-002   5.7675684906502885E-002   0.0000000000000000     
   3.9084865825264936E-002   6.3520817929174786E-002   0.0000000000000000     
   4.1129374996999507E-002   6.9442553782202307E-002   0.0000000000000000     
   4.3005624392649086E-002   7.5440892465585413E-002   0.0000000000000000     
   4.4713614012213694E-002   8.1515833979324145E-002   0.0000000000000000     
   3.2341244289695627E-002   5.7269026332611668E-002   0.0000000000000000     
   3.4435536012845568E-002   6.3082306870721278E-002   0.0000000000000000     
   3.6358915689765015E-002   6.8983836288043471E-002   0.0000000000000000     
   3.8111383320453968E-002   7.4973614584578227E-002   0.0000000000000000     
   3.9692938904912434E-002   8.1051641760325532E-002   0.0000000000000000     
   2.8170908569951910E-002   5.7048091529163458E-002   0.0000000000000000     
   3.0064084251445376E-002   6.2753758624168265E-002   0.0000000000000000     
   3.1804623826273144E-002   6.8582994885435775E-002   0.0000000000000000     
   3.3392527294435211E-002   7.4535800312965972E-002   0.0000000000000000     
   3.4827794655931589E-002   8.0612174906758871E-002   0.0000000000000000     
   5.5221556801777497E-002   8.2518394513617213E-002   0.0000000000000000     
   5.7058156196384865E-002   8.8716567247971528E-002   0.0000000000000000     
   5.8865534734451982E-002   9.5077641088148160E-002   0.0000000000000000     
   6.0643692415978848E-002  0.10160161603414708        0.0000000000000000     
   6.2392629240965447E-002  0.10828849208596833        0.0000000000000000     
   4.9889819977835384E-002   8.2004751563754696E-002   0.0000000000000000     
   5.1613703479811909E-002   8.8199946148404776E-002   0.0000000000000000     
   5.3300894348341052E-002   9.4562663667128913E-002   0.0000000000000000     
   5.4951392583422826E-002  0.10109290411992709        0.0000000000000000     
   5.6565198185057217E-002  0.10779066750679933        0.0000000000000000     
   4.4713614012213694E-002   8.1515833979324145E-002   0.0000000000000000     
   4.6316598084604192E-002   8.7714357357681891E-002   0.0000000000000000     
   4.7877830838731442E-002   9.4083441634922022E-002   0.0000000000000000     
   4.9397312274595442E-002  0.10062308681104458        0.0000000000000000     
   5.0875042392196201E-002  0.10733329288604955        0.0000000000000000     
   3.9692938904912434E-002   8.1051641760325532E-002   0.0000000000000000     
   4.1166840010761721E-002   8.7259800875802832E-002   0.0000000000000000     
   4.2596344205623152E-002   9.3639974991527500E-002   0.0000000000000000     
   4.3981451489496719E-002  0.10019216410749954        0.0000000000000000     
   4.5322161862382422E-002  0.10691636822371896        0.0000000000000000     
   3.4827794655931589E-002   8.0612174906758871E-002   0.0000000000000000     
   3.6164429258284503E-002   8.6836276702767598E-002   0.0000000000000000     
   3.7456434449016182E-002   9.3232263736945278E-002   0.0000000000000000     
   3.8703810228126641E-002   9.9800136009291940E-002   0.0000000000000000     
   3.9906556595615858E-002  0.10653989351980755        0.0000000000000000     
   6.2392629240965447E-002  0.10828849208596833        0.0000000000000000     
   6.4093856847405525E-002  0.11512240270344815        0.0000000000000000     
   6.5728886873292813E-002  0.12208748134642286        0.0000000000000000     
   6.7297719318627339E-002  0.12918372801489245        0.0000000000000000     
   6.8800354183409074E-002  0.13641114270885699        0.0000000000000000     
   5.6565198185057217E-002  0.10779066750679933        0.0000000000000000     
   5.8129327735991589E-002  0.11463919879297776        0.0000000000000000     
   5.9630797818973319E-002  0.12162174294369456        0.0000000000000000     
   6.1069608434002366E-002  0.12873829995894975        0.0000000000000000     
   6.2445759581078779E-002  0.13598886983874325        0.0000000000000000     
   5.0875042392196201E-002  0.10733329288604955        0.0000000000000000     
   5.2302422052114959E-002  0.11419690565378915        0.0000000000000000     
   5.3670852114932902E-002  0.12119677090811562        0.0000000000000000     
   5.4980332580650056E-002  0.12833288864902895        0.0000000000000000     
   5.6230863449266408E-002  0.13560525887652916        0.0000000000000000     
   4.5322161862382422E-002  0.10691636822371896        0.0000000000000000     
   4.6613139795775596E-002  0.11379552328588229        0.0000000000000000     
   4.7849049761171589E-002  0.12081256523968602        0.0000000000000000     
   4.9029891758570372E-002  0.12796749408513017        0.0000000000000000     
   5.0155665787971968E-002  0.13526030982221479        0.0000000000000000     
   3.9906556595615858E-002  0.10653989351980755        0.0000000000000000     
   4.1061480966973533E-002  0.11343505168925715        0.0000000000000000     
   4.2165390757689367E-002  0.12046912593840578        0.0000000000000000     
   4.3218285967763337E-002  0.12764211626725344        0.0000000000000000     
   4.4220166597195451E-002  0.13495402267580009        0.0000000000000000     
   6.8800354183409074E-002  0.13641114270885699        0.0000000000000000     
   7.0230787890286583E-002  0.14375739348347610        0.0000000000000000     
   7.1583016861908461E-002  0.15121014839390950        0.0000000000000000     
   7.2857041098274677E-002  0.15876940744015727        0.0000000000000000     
   7.4052860599385290E-002  0.16643517062221933        0.0000000000000000     
   6.2445759581078779E-002  0.13598886983874325        0.0000000000000000     
   6.3754449625119308E-002  0.14335986671682244        0.0000000000000000     
   6.4990876931040747E-002  0.15083770472693464        0.0000000000000000     
   6.6155041498843090E-002  0.15842238386907981        0.0000000000000000     
   6.7246943328526335E-002  0.16611390414325797        0.0000000000000000     
   5.6230863449266408E-002  0.13560525887652916        0.0000000000000000     
   5.7418790888152528E-002  0.14299927822885647        0.0000000000000000     
   5.8540461064678966E-002  0.15050034334425100        0.0000000000000000     
   5.9595873978845706E-002  0.15810845422271283        0.0000000000000000     
   6.0585029630652772E-002  0.16582361086424191        0.0000000000000000     
   5.0155665787971968E-002  0.13526030982221479        0.0000000000000000     
   5.1223811679386250E-002  0.14267562801957820        0.0000000000000000     
   5.2231769262823122E-002  0.15019806424585871        0.0000000000000000     
   5.3179538538282563E-002  0.15782761850105634        0.0000000000000000     
   5.4067119505764573E-002  0.16556429078517110        0.0000000000000000     
   4.4220166597195451E-002  0.13495402267580009        0.0000000000000000     
   4.5169511998820487E-002  0.14238891608898757        0.0000000000000000     
   4.6064801525473223E-002  0.14993086743175765        0.0000000000000000     
   4.6906035177153652E-002  0.15757987670411036        0.0000000000000000     
   4.7693212953861766E-002  0.16533594390604561        0.0000000000000000     
   7.4052860599385290E-002  0.16643517062221933        0.0000000000000000     
   7.5174217084383071E-002  0.17420029304255205        0.0000000000000000     
   7.6224852272410895E-002  0.18205762980361190        0.0000000000000000     
   7.7204766163468760E-002  0.19000718090539873        0.0000000000000000     
   7.8113958757556654E-002  0.19804894634791270        0.0000000000000000     
   6.7246943328526335E-002  0.16611390414325797        0.0000000000000000     
   6.8268626017712358E-002  0.17390408641840002        0.0000000000000000     
   6.9222133164023009E-002  0.18178475156343696        0.0000000000000000     
   7.0107464767458313E-002  0.18975589957836875        0.0000000000000000     
   7.0924620828018231E-002  0.19781753046319539        0.0000000000000000     
   6.0585029630652772E-002  0.16582361086424191        0.0000000000000000     
   6.1508596647805967E-002  0.17363699846558003        0.0000000000000000     
   6.2367243658011134E-002  0.18153980222346902        0.0000000000000000     
   6.3160970661268273E-002  0.18953202213790890        0.0000000000000000     
   6.3889777657577390E-002  0.19761365820889959        0.0000000000000000     
   5.4067119505764573E-002  0.16556429078517110        0.0000000000000000     
   5.4894128974663906E-002  0.17339902918409203        0.0000000000000000     
   5.5660183754375252E-002  0.18132278178370803        0.0000000000000000     
   5.6365283844898674E-002  0.18933554858401916        0.0000000000000000     
   5.7009429246234103E-002  0.19743732958502538        0.0000000000000000     
   4.7693212953861766E-002  0.16533594390604561        0.0000000000000000     
   4.8425222998286166E-002  0.17319017857393604        0.0000000000000000     
   4.9100953453115395E-002  0.18113369024415402        0.0000000000000000     
   4.9720404318349468E-002  0.18916647891669955        0.0000000000000000     
   5.0283575593988390E-002  0.19728854459157263        0.0000000000000000     
   7.8113958757556654E-002  0.19804894634791270        0.0000000000000000     
   7.8951492107711352E-002  0.20617426470500144        0.0000000000000000     
   7.9716428266969619E-002  0.21437447455051267        0.0000000000000000     
   8.0408767235331469E-002  0.22264957588444648        0.0000000000000000     
   8.1028509012796873E-002  0.23099956870680277        0.0000000000000000     
   7.0924620828018231E-002  0.19781753046319539        0.0000000000000000     
   7.1671126701395554E-002  0.20596269132100581        0.0000000000000000     
   7.2344507743283007E-002  0.21418442925488904        0.0000000000000000     
   7.2944763953680616E-002  0.22248274426484499        0.0000000000000000     
   7.3471895332588355E-002  0.23085763635087375        0.0000000000000000     
   6.3889777657577390E-002  0.19761365820889959        0.0000000000000000     
   6.4550435850716140E-002  0.20577831496354443        0.0000000000000000     
   6.5139716444462231E-002  0.21401959692894659        0.0000000000000000     
   6.5657619438815637E-002  0.22233750410510608        0.0000000000000000     
   6.6104144833776385E-002  0.23073203649202287        0.0000000000000000     
   5.7009429246234103E-002  0.19743732958502538        0.0000000000000000     
   5.7589419555673121E-002  0.20562113563261725        0.0000000000000000     
   5.8102054370507264E-002  0.21387997757268537        0.0000000000000000     
   5.8547333690736517E-002  0.22221385540522973        0.0000000000000000     
   5.8925257516360907E-002  0.23062276913025029        0.0000000000000000     
   5.0283575593988390E-002  0.19728854459157263        0.0000000000000000     
   5.0788077816266500E-002  0.20549115332822426        0.0000000000000000     
   5.1231521521418133E-002  0.21376557118610537        0.0000000000000000     
   5.1613906709443269E-002  0.22211179816521587        0.0000000000000000     
   5.1935233380341950E-002  0.23052983426555584        0.0000000000000000     
   8.1028509012796873E-002  0.23099956870680277        0.0000000000000000     
   8.1564719370369021E-002  0.23944525368078001        0.0000000000000000     
   8.2006464079051045E-002  0.24800743146957654        0.0000000000000000     
   8.2353743138842986E-002  0.25668610207319242        0.0000000000000000     
   8.2606556549744817E-002  0.26548126549162765        0.0000000000000000     
   7.3471895332588355E-002  0.23085763635087375        0.0000000000000000     
   7.3922377500197242E-002  0.23932268667957188        0.0000000000000000     
   7.4292686076698228E-002  0.24789147641753609        0.0000000000000000     
   7.4582821062091298E-002  0.25656400556476650        0.0000000000000000     
   7.4792782456376466E-002  0.26534027412126293        0.0000000000000000     
   6.6104144833776385E-002  0.23073203649202287        0.0000000000000000     
   6.6481447046031900E-002  0.23920950399211055        0.0000000000000000     
   6.6791680492269606E-002  0.24777621650778253        0.0000000000000000     
   6.7034845172489546E-002  0.25643217403903884        0.0000000000000000     
   6.7210941086691692E-002  0.26517737658587948        0.0000000000000000     
   5.8925257516360907E-002  0.23062276913025029        0.0000000000000000     
   5.9241928007872965E-002  0.23910570561839595        0.0000000000000000     
   5.9503447325765235E-002  0.24766165174031568        0.0000000000000000     
   5.9709815470037744E-002  0.25629060749600940        0.0000000000000000     
   5.9861032440690479E-002  0.26499257288547723        0.0000000000000000     
   5.1935233380341950E-002  0.23052983426555584        0.0000000000000000     
   5.2203820385720454E-002  0.23901129155842815        0.0000000000000000     
   5.2427986577185101E-002  0.24754778211513565        0.0000000000000000     
   5.2607731954735899E-002  0.25613930593567830        0.0000000000000000     
   5.2743056518372841E-002  0.26478586302005619        0.0000000000000000     
   8.2606556549744817E-002  0.26548126549162765        0.0000000000000000     
   8.2803932304585715E-002  0.27441944839042876        0.0000000000000000     
   8.2984898396194884E-002  0.28352717743514244        0.0000000000000000     
   8.3149454824572297E-002  0.29280445262576876        0.0000000000000000     
   8.3297601589717968E-002  0.30225127396230766        0.0000000000000000     
   7.4792782456376466E-002  0.26534027412126293        0.0000000000000000     
   7.4963502296646514E-002  0.27421407403001991        0.0000000000000000     
   7.5135912619994208E-002  0.28317919723403179        0.0000000000000000     
   7.5310013426419561E-002  0.29223564373329863        0.0000000000000000     
   7.5485804715922547E-002  0.30138341352782039        0.0000000000000000     
   6.7210941086691692E-002  0.26517737658587948        0.0000000000000000     
   6.7360159722746088E-002  0.27398207442267064        0.0000000000000000     
   6.7522692568522780E-002  0.28281651782377853        0.0000000000000000     
   6.7698539624021795E-002  0.29168070678920310        0.0000000000000000     
   6.7887700889243119E-002  0.30057464131894446        0.0000000000000000     
   5.9861032440690479E-002  0.26499257288547723        0.0000000000000000     
   5.9993904582884429E-002  0.27372344956838102        0.0000000000000000     
   6.0145238241780620E-002  0.28243913920438268        0.0000000000000000     
   6.0315033417379052E-002  0.29113964179348234        0.0000000000000000     
   6.0503290109679690E-002  0.29982495733567993        0.0000000000000000     
   5.2743056518372841E-002  0.26478586302005619        0.0000000000000000     
   5.2864736877061572E-002  0.27343819946715098        0.0000000000000000     
   5.3003549639767708E-002  0.28204706137584429        0.0000000000000000     
   5.3159494806491278E-002  0.29061244874613618        0.0000000000000000     
   5.3332572377232268E-002  0.29913436157802664        0.0000000000000000     
   2.8170908569951910E-002   5.7048091529163458E-002   0.0000000000000000     
   3.0064084251445376E-002   6.2753758624168265E-002   0.0000000000000000     
   3.1804623826273144E-002   6.8582994885435775E-002   0.0000000000000000     
   3.3392527294435211E-002   7.4535800312965972E-002   0.0000000000000000     
   3.4827794655931589E-002   8.0612174906758871E-002   0.0000000000000000     
   2.4256821552528077E-002   5.6875946285923171E-002   0.0000000000000000     
   2.5909410174817345E-002   6.2468739999919649E-002   0.0000000000000000     
   2.7435864323994648E-002   6.8222391219333101E-002   0.0000000000000000     
   2.8836184000059974E-002   7.4136899944163531E-002   0.0000000000000000     
   3.0110369203013330E-002   8.0212266174410948E-002   0.0000000000000000     
   2.0494715071737949E-002   5.6615656392655679E-002   0.0000000000000000     
   2.1910413416714455E-002   6.2160817808379315E-002   0.0000000000000000     
   2.3222002100400260E-002   6.7884386934689331E-002   0.0000000000000000     
   2.4429481122795384E-002   7.3786363771585747E-002   0.0000000000000000     
   2.5532850483899815E-002   7.9866748319068551E-002   0.0000000000000000     
   1.6884589127581527E-002   5.6267221849360977E-002   0.0000000000000000     
   1.8067093977136687E-002   6.1829992049547276E-002   0.0000000000000000     
   1.9163037155489993E-002   6.7568982031504493E-002   0.0000000000000000     
   2.0172418662641450E-002   7.3484191795232634E-002   0.0000000000000000     
   2.1095238498591053E-002   7.9575621340731664E-002   0.0000000000000000     
   1.3426443720058816E-002   5.5830642656039070E-002   0.0000000000000000     
   1.4379451856084054E-002   6.1476262723423519E-002   0.0000000000000000     
   1.5258969489263835E-002   6.7276176509778546E-002   0.0000000000000000     
   1.6064996619598162E-002   7.3230384015104150E-002   0.0000000000000000     
   1.6797533247087038E-002   7.9338885239400331E-002   0.0000000000000000     
   3.4827794655931589E-002   8.0612174906758871E-002   0.0000000000000000     
   3.6164429258284503E-002   8.6836276702767598E-002   0.0000000000000000     
   3.7456434449016182E-002   9.3232263736945278E-002   0.0000000000000000     
   3.8703810228126641E-002   9.9800136009291940E-002   0.0000000000000000     
   3.9906556595615858E-002  0.10653989351980755        0.0000000000000000     
   3.0110369203013330E-002   8.0212266174410948E-002   0.0000000000000000     
   3.1300203240607907E-002   8.6453722831128996E-002   0.0000000000000000     
   3.2447469420596918E-002   9.2866502835371387E-002   0.0000000000000000     
   3.3552167742980345E-002   9.9450606187138066E-002   0.0000000000000000     
   3.4614298207758201E-002  0.10620603288642907        0.0000000000000000     
   2.5532850483899815E-002   7.9866748319068551E-002   0.0000000000000000     
   2.6564999371167339E-002   8.6122077253439844E-002   0.0000000000000000     
   2.7558816972051738E-002   9.2548887251001716E-002   0.0000000000000000     
   2.8514303286553001E-002   9.9147178311754194E-002   0.0000000000000000     
   2.9431458314671144E-002  0.10591695043569725        0.0000000000000000     
   2.1095238498591053E-002   7.9575621340731664E-002   0.0000000000000000     
   2.1958817649962787E-002   8.5841339969700087E-002   0.0000000000000000     
   2.2790477103380641E-002   9.2279416983836293E-002   0.0000000000000000     
   2.3590216858844604E-002   9.8889852383140298E-002   0.0000000000000000     
   2.4358036916354683E-002  0.10567264616761204        0.0000000000000000     
   1.6797533247087038E-002   7.9338885239400331E-002   0.0000000000000000     
   1.7481658076994262E-002   8.5611510979909766E-002   0.0000000000000000     
   1.8142449814583631E-002   9.2058092033875105E-002   0.0000000000000000     
   1.8779908459855155E-002   9.8678628401296362E-002   0.0000000000000000     
   1.9394034012808828E-002  0.10547312008217352        0.0000000000000000     
   3.9906556595615858E-002  0.10653989351980755        0.0000000000000000     
   4.1061480966973533E-002  0.11343505168925715        0.0000000000000000     
   4.2165390757689367E-002  0.12046912593840578        0.0000000000000000     
   4.3218285967763337E-002  0.12764211626725344        0.0000000000000000     
   4.4220166597195451E-002  0.13495402267580009        0.0000000000000000     
   3.4614298207758201E-002  0.10620603288642907        0.0000000000000000     
   3.5631884966650477E-002  0.11311685912485672        0.0000000000000000     
   3.6602952171377205E-002  0.12016716109403341        0.0000000000000000     
   3.7527499821938363E-002  0.12735693879395910        0.0000000000000000     
   3.8405527918333959E-002  0.13468619222463379        0.0000000000000000     
   2.9431458314671144E-002  0.10591695043569725        0.0000000000000000     
   3.0308791195748166E-002  0.11284231385362398        0.0000000000000000     
   3.1144811069126081E-002  0.11990737879632744        0.0000000000000000     
   3.1939517934804887E-002  0.12711214526380765        0.0000000000000000     
   3.2692911792784593E-002  0.13445661325606467        0.0000000000000000     
   2.4358036916354683E-002  0.10567264616761204        0.0000000000000000     
   2.5092199654266577E-002  0.11261141587555885        0.0000000000000000     
   2.5790967450935988E-002  0.11968977904528789        0.0000000000000000     
   2.6454340306362914E-002  0.12690773567679917        0.0000000000000000     
   2.7082318220547352E-002  0.13426528577009267        0.0000000000000000     
   1.9394034012808828E-002  0.10547312008217352        0.0000000000000000     
   1.9982110342205723E-002  0.11242416519066141        0.0000000000000000     
   2.0541421316806925E-002  0.11951436184091475        0.0000000000000000     
   2.1071966936612438E-002  0.12674371003293355        0.0000000000000000     
   2.1573747201622244E-002  0.13411220976671784        0.0000000000000000     
   4.4220166597195451E-002  0.13495402267580009        0.0000000000000000     
   4.5169511998820487E-002  0.14238891608898757        0.0000000000000000     
   4.6064801525473223E-002  0.14993086743175765        0.0000000000000000     
   4.6906035177153652E-002  0.15757987670411036        0.0000000000000000     
   4.7693212953861766E-002  0.16533594390604561        0.0000000000000000     
   3.8405527918333959E-002  0.13468619222463379        0.0000000000000000     
   3.9236396388580196E-002  0.14213864076131286        0.0000000000000000     
   4.0019465160693317E-002  0.14969800377925160        0.0000000000000000     
   4.0754734234673295E-002  0.15736428127845001        0.0000000000000000     
   4.1442203610520159E-002  0.16513747325890815        0.0000000000000000     
   3.2692911792784593E-002  0.13445661325606467        0.0000000000000000     
   3.3404969390790386E-002  0.14192430036078224        0.0000000000000000     
   3.4075667476547486E-002  0.14949872416564419        0.0000000000000000     
   3.4705006050055873E-002  0.15717988467065050        0.0000000000000000     
   3.5292985111315574E-002  0.16496778187580130        0.0000000000000000     
   2.7082318220547352E-002  0.13426528577009267        0.0000000000000000     
   2.7675231005451037E-002  0.14174589488739567        0.0000000000000000     
   2.8233408473035713E-002  0.14933302859093542        0.0000000000000000     
   2.8756850623301362E-002  0.15702668688071186        0.0000000000000000     
   2.9245557456248007E-002  0.16482686975672511        0.0000000000000000     
   2.1573747201622244E-002  0.13411220976671784        0.0000000000000000     
   2.2047181232562170E-002  0.14160342434115322        0.0000000000000000     
   2.2492688150158015E-002  0.14920091705512531        0.0000000000000000     
   2.2910267954409778E-002  0.15690468790863410        0.0000000000000000     
   2.3299920645317461E-002  0.16471473690167962        0.0000000000000000     
   4.7693212953861766E-002  0.16533594390604561        0.0000000000000000     
   4.8425222998286166E-002  0.17319017857393604        0.0000000000000000     
   4.9100953453115395E-002  0.18113369024415402        0.0000000000000000     
   4.9720404318349468E-002  0.18916647891669955        0.0000000000000000     
   5.0283575593988390E-002  0.19728854459157263        0.0000000000000000     
   4.1442203610520159E-002  0.16513747325890815        0.0000000000000000     
   4.2080312690658837E-002  0.17300902749421745        0.0000000000000000     
   4.2667500877514294E-002  0.18097039175796945        0.0000000000000000     
   4.3203768171086544E-002  0.18902156605016418        0.0000000000000000     
   4.3689114571375587E-002  0.19716255037080155        0.0000000000000000     
   3.5292985111315574E-002  0.16496778187580130        0.0000000000000000     
   3.5837832023768036E-002  0.17285415680404170        0.0000000000000000     
   3.6337774150854762E-002  0.18083075047831698        0.0000000000000000     
   3.6792811492575746E-002  0.18889756289862711        0.0000000000000000     
   3.7202944048931000E-002  0.19705459406497211        0.0000000000000000     
   2.9245557456248007E-002  0.16482686975672511        0.0000000000000000     
   2.9697780997613759E-002  0.17272556650340876        0.0000000000000000     
   3.0111773273136782E-002  0.18071476640519654        0.0000000000000000     
   3.0487534282817075E-002  0.18879446946208836        0.0000000000000000     
   3.0825064026654636E-002  0.19696467567408432        0.0000000000000000     
   2.3299920645317461E-002  0.16471473690167962        0.0000000000000000     
   2.3660159612196009E-002  0.17262325659231870        0.0000000000000000     
   2.3989498244360370E-002  0.18062243953860813        0.0000000000000000     
   2.4287936541810533E-002  0.18871228574054796        0.0000000000000000     
   2.4555474504546506E-002  0.19689279519813821        0.0000000000000000     
   5.0283575593988390E-002  0.19728854459157263        0.0000000000000000     
   5.0788077816266500E-002  0.20549115332822426        0.0000000000000000     
   5.1231521521418133E-002  0.21376557118610537        0.0000000000000000     
   5.1613906709443269E-002  0.22211179816521587        0.0000000000000000     
   5.1935233380341950E-002  0.23052983426555584        0.0000000000000000     
   4.3689114571375587E-002  0.19716255037080155        0.0000000000000000     
   4.4122223843571992E-002  0.20538235650128697        0.0000000000000000     
   4.4501779752866392E-002  0.21366999622302577        0.0000000000000000     
   4.4827782299258760E-002  0.22202546953601796        0.0000000000000000     
   4.5100231482749109E-002  0.23044877644026349        0.0000000000000000     
   3.7202944048931000E-002  0.19705459406497211        0.0000000000000000     
   3.7567670848665337E-002  0.20528873360272673        0.0000000000000000     
   3.7886490920523617E-002  0.21358687113726574        0.0000000000000000     
   3.8159404264505828E-002  0.22194900666858916        0.0000000000000000     
   3.8386410880611982E-002  0.23037514019669694        0.0000000000000000     
   3.0825064026654636E-002  0.19696467567408432        0.0000000000000000     
   3.1124418831546524E-002  0.20521028463254357        0.0000000000000000     
   3.1385655024389801E-002  0.21351619592882534        0.0000000000000000     
   3.1608772605184486E-002  0.22188240956292954        0.0000000000000000     
   3.1793771573930547E-002  0.23030892553485632        0.0000000000000000     
   2.4555474504546506E-002  0.19689279519813821        0.0000000000000000     
   2.4792467792215559E-002  0.20514700959073748        0.0000000000000000     
   2.4999272064464964E-002  0.21345797059770444        0.0000000000000000     
   2.5175887321294721E-002  0.22182567821903915        0.0000000000000000     
   2.5322313562704840E-002  0.23025013245474152        0.0000000000000000     
   5.1935233380341950E-002  0.23052983426555584        0.0000000000000000     
   5.2203820385720454E-002  0.23901129155842815        0.0000000000000000     
   5.2427986577185101E-002  0.24754778211513565        0.0000000000000000     
   5.2607731954735899E-002  0.25613930593567830        0.0000000000000000     
   5.2743056518372841E-002  0.26478586302005619        0.0000000000000000     
   4.5100231482749109E-002  0.23044877644026349        0.0000000000000000     
   4.5328358246665056E-002  0.23892481014342984        0.0000000000000000     
   4.5521393534334202E-002  0.24743846385318441        0.0000000000000000     
   4.5679337345756570E-002  0.25598973756952714        0.0000000000000000     
   4.5802189680932151E-002  0.26457863129245823        0.0000000000000000     
   3.8386410880611982E-002  0.23037514019669694        0.0000000000000000     
   3.8576775657797421E-002  0.23884480970462371        0.0000000000000000     
   3.8739763485017537E-002  0.24733755317540404        0.0000000000000000     
   3.8875374362272314E-002  0.25585337060903790        0.0000000000000000     
   3.8983608289561766E-002  0.26439226200552518        0.0000000000000000     
   3.1793771573930547E-002  0.23030892553485632        0.0000000000000000     
   3.1949072619117565E-002  0.23877129024200985        0.0000000000000000     
   3.2083096429235097E-002  0.24724505008179451        0.0000000000000000     
   3.2195843004283138E-002  0.25573020505421024        0.0000000000000000     
   3.2287312344261687E-002  0.26422675515925714        0.0000000000000000     
   2.5322313562704840E-002  0.23025013245474152        0.0000000000000000     
   2.5445249130625496E-002  0.23870425175558821        0.0000000000000000     
   2.5551392366986891E-002  0.24716095457235582        0.0000000000000000     
   2.5640743271789029E-002  0.25562024090504437        0.0000000000000000     
   2.5713301845031900E-002  0.26408211075365384        0.0000000000000000     
   5.2743056518372841E-002  0.26478586302005619        0.0000000000000000     
   5.2864736877061572E-002  0.27343819946715098        0.0000000000000000     
   5.3003549639767708E-002  0.28204706137584429        0.0000000000000000     
   5.3159494806491278E-002  0.29061244874613618        0.0000000000000000     
   5.3332572377232268E-002  0.29913436157802664        0.0000000000000000     
   4.5802189680932151E-002  0.26457863129245823        0.0000000000000000     
   4.5914055714739617E-002  0.27315509189709519        0.0000000000000000     
   4.6039040622057631E-002  0.28166906625855570        0.0000000000000000     
   4.6177144402886214E-002  0.29012055437683976        0.0000000000000000     
   4.6328367057225338E-002  0.29850955625194742        0.0000000000000000     
   3.8983608289561766E-002  0.26439226200552518        0.0000000000000000     
   3.9083260205380700E-002  0.27290289463632827        0.0000000000000000     
   3.9193125048223948E-002  0.28133393577290927        0.0000000000000000     
   3.9313202818091517E-002  0.28968538541526817        0.0000000000000000     
   3.9443493514983392E-002  0.29795724356340497        0.0000000000000000     
   3.2287312344261687E-002  0.26422675515925714        0.0000000000000000     
   3.2372350348984835E-002  0.27268160768485022        0.0000000000000000     
   3.2465802918266666E-002  0.28104166991890506        0.0000000000000000     
   3.2567670052107214E-002  0.28930694186142142        0.0000000000000000     
   3.2677951750506445E-002  0.29747742351239936        0.0000000000000000     
   2.5713301845031900E-002  0.26408211075365384        0.0000000000000000     
   2.5781326145551994E-002  0.27249123104266110        0.0000000000000000     
   2.5857074232185796E-002  0.28079226869654295        0.0000000000000000     
   2.5940546104933286E-002  0.28898522371529944        0.0000000000000000     
   2.6031741763794483E-002  0.29707009609893054        0.0000000000000000     
   1.3426443720058816E-002   5.5830642656039070E-002   0.0000000000000000     
   1.4379451856084054E-002   6.1476262723423519E-002   0.0000000000000000     
   1.5258969489263835E-002   6.7276176509778546E-002   0.0000000000000000     
   1.6064996619598162E-002   7.3230384015104150E-002   0.0000000000000000     
   1.6797533247087038E-002   7.9338885239400331E-002   0.0000000000000000     
   1.0050674633152930E-002   5.5410072577495348E-002   0.0000000000000000     
   1.0773383518738227E-002   6.1156729252375086E-002   0.0000000000000000     
   1.1435319626023560E-002   6.7029858907656656E-002   0.0000000000000000     
   1.2036482955008929E-002   7.3029461543340127E-002   0.0000000000000000     
   1.2576873505694331E-002   7.9155537159425415E-002   0.0000000000000000     
   6.6876776508469887E-003   5.5109665378535219E-002   0.0000000000000000     
   7.1747854302808851E-003   6.0928491058768984E-002   0.0000000000000000     
   7.6176080900709322E-003   6.6853917763284004E-002   0.0000000000000000     
   8.0161456302171325E-003   7.2885945492080301E-002   0.0000000000000000     
   8.3703980507194853E-003   7.9024574245157894E-002   0.0000000000000000     
   3.3374527731409925E-003   5.4929421059158663E-002   0.0000000000000000     
   3.5836575907120258E-003   6.0791548142605199E-002   0.0000000000000000     
   3.8058348814059566E-003   6.6748353076660563E-002   0.0000000000000000     
   4.0039846452227818E-003   7.2799835861324713E-002   0.0000000000000000     
   4.1781068821625036E-003   7.8945996496597698E-002   0.0000000000000000     
   3.4941233933993843E-014   5.4869339619365687E-002   0.0000000000000000     
   3.1650680340500337E-014   6.0745900503883760E-002   0.0000000000000000     
   2.8627274162307259E-014   6.6713164847786305E-002   0.0000000000000000     
   2.5872641702673338E-014   7.2771132651073350E-002   0.0000000000000000     
   2.3384506137036354E-014   7.8919803913744868E-002   0.0000000000000000     
   1.6797533247087038E-002   7.9338885239400331E-002   0.0000000000000000     
   1.7481658076994262E-002   8.5611510979909766E-002   0.0000000000000000     
   1.8142449814583631E-002   9.2058092033875105E-002   0.0000000000000000     
   1.8779908459855155E-002   9.8678628401296362E-002   0.0000000000000000     
   1.9394034012808828E-002  0.10547312008217352        0.0000000000000000     
   1.2576873505694331E-002   7.9155537159425415E-002   0.0000000000000000     
   1.3079568073045552E-002   8.5432682992446191E-002   0.0000000000000000     
   1.3567643452028376E-002   9.1885496278935996E-002   0.0000000000000000     
   1.4041099642642798E-002   9.8513977018894874E-002   0.0000000000000000     
   1.4499936644888826E-002  0.10531812521232280        0.0000000000000000     
   8.3703980507194853E-003   7.9024574245157894E-002   0.0000000000000000     
   8.6985950589004591E-003   8.5304948715686738E-002   0.0000000000000000     
   9.0189663620825252E-003   9.1762213596836867E-002   0.0000000000000000     
   9.3315119602656853E-003   9.8396368888608296E-002   0.0000000000000000     
   9.6362318534499378E-003  0.10520741459100102        0.0000000000000000     
   4.1781068821625036E-003   7.8945996496597698E-002   0.0000000000000000     
   4.3387390345589836E-003   8.5228308149631407E-002   0.0000000000000000     
   4.4964185447460862E-003   9.1688243987577717E-002   0.0000000000000000     
   4.6511454127238124E-003   9.8325804010436640E-002   0.0000000000000000     
   4.8029196384921603E-003  0.10514098821820818        0.0000000000000000     
   2.3384506137036354E-014   7.8919803913744868E-002   0.0000000000000000     
   2.1125679330880054E-014   8.5202761294280172E-002   0.0000000000000000     
   1.9058214208167445E-014   9.1663587451158504E-002   0.0000000000000000     
   1.7181487352649349E-014   9.8302282384379866E-002   0.0000000000000000     
   1.5497152172638806E-014  0.10511884609394428        0.0000000000000000     
   1.9394034012808828E-002  0.10547312008217352        0.0000000000000000     
   1.9982110342205723E-002  0.11242416519066141        0.0000000000000000     
   2.0541421316806925E-002  0.11951436184091475        0.0000000000000000     
   2.1071966936612438E-002  0.12674371003293355        0.0000000000000000     
   2.1573747201622244E-002  0.13411220976671784        0.0000000000000000     
   1.4499936644888826E-002  0.10531812521232280        0.0000000000000000     
   1.4940599797805876E-002  0.11227941653213702        0.0000000000000000     
   1.5359534440433377E-002  0.11937932665125484        0.0000000000000000     
   1.5756740572771322E-002  0.12661785556967622        0.0000000000000000     
   1.6132218194819720E-002  0.13399500328740113        0.0000000000000000     
   9.6362318534499378E-003  0.10520741459100102        0.0000000000000000     
   9.9297445593073009E-003  0.11217602463319118        0.0000000000000000     
   1.0208668595509807E-002  0.11928287294435500        0.0000000000000000     
   1.0473003962057447E-002  0.12652795952449244        0.0000000000000000     
   1.0722750658950224E-002  0.13391128437360350        0.0000000000000000     
   4.8029196384921603E-003  0.10514098821820818        0.0000000000000000     
   4.9495446267100061E-003  0.11211398949382385        0.0000000000000000     
   5.0888237820362206E-003  0.11922500072021523        0.0000000000000000     
   5.2207571044708065E-003  0.12647402189738227        0.0000000000000000     
   5.3453445940137654E-003  0.13386105302532497        0.0000000000000000     
   1.5497152172638806E-014  0.10511884609394428        0.0000000000000000     
   1.3981871216373065E-014  0.11209331111403509        0.0000000000000000     
   1.2618378564255295E-014  0.11920570997883553        0.0000000000000000     
   1.1402337407595553E-014  0.12645604268834568        0.0000000000000000     
   1.0337217193345793E-014  0.13384430924256555        0.0000000000000000     
   2.1573747201622244E-002  0.13411220976671784        0.0000000000000000     
   2.2047181232562170E-002  0.14160342434115322        0.0000000000000000     
   2.2492688150158015E-002  0.14920091705512531        0.0000000000000000     
   2.2910267954409778E-002  0.15690468790863410        0.0000000000000000     
   2.3299920645317461E-002  0.16471473690167962        0.0000000000000000     
   1.6132218194819720E-002  0.13399500328740113        0.0000000000000000     
   1.6486328305529891E-002  0.14149448414381660        0.0000000000000000     
   1.6819431903853165E-002  0.14910001247830962        0.0000000000000000     
   1.7131528989789542E-002  0.15681158829088016        0.0000000000000000     
   1.7422619563339029E-002  0.16462921158152821        0.0000000000000000     
   1.0722750658950224E-002  0.13391128437360350        0.0000000000000000     
   1.0958180457760331E-002  0.14141666971714761        0.0000000000000000     
   1.1179565130059960E-002  0.14902793778058412        0.0000000000000000     
   1.1386904675849113E-002  0.15674508856391300        0.0000000000000000     
   1.1580199095127782E-002  0.16456812206713436        0.0000000000000000     
   5.3453445940137654E-003  0.13386105302532497        0.0000000000000000     
   5.4627376892534933E-003  0.14136998106114620        0.0000000000000000     
   5.5730878287783983E-003  0.14898469296194874        0.0000000000000000     
   5.6763950125884744E-003  0.15670518872773273        0.0000000000000000     
   5.7726592406837267E-003  0.16453146835849805        0.0000000000000000     
   1.0337217193345793E-014  0.13384430924256555        0.0000000000000000     
   9.3766140685236365E-015  0.14135441817581240        0.0000000000000000     
   8.4758589036226795E-015  0.14897027802240365        0.0000000000000000     
   7.6366864221188990E-015  0.15669188878233922        0.0000000000000000     
   6.8556271770603416E-015  0.16451925045561927        0.0000000000000000     
   2.3299920645317461E-002  0.16471473690167962        0.0000000000000000     
   2.3660159612196009E-002  0.17262325659231870        0.0000000000000000     
   2.3989498244360370E-002  0.18062243953860813        0.0000000000000000     
   2.4287936541810533E-002  0.18871228574054796        0.0000000000000000     
   2.4555474504546506E-002  0.19689279519813821        0.0000000000000000     
   1.7422619563339029E-002  0.16462921158152821        0.0000000000000000     
   1.7691594712647030E-002  0.17254523309053982        0.0000000000000000     
   1.7937345525858961E-002  0.18055200355820109        0.0000000000000000     
   1.8159872002974822E-002  0.18864952298451190        0.0000000000000000     
   1.8359174143994617E-002  0.19683779136947235        0.0000000000000000     
   1.1580199095127782E-002  0.16456812206713436        0.0000000000000000     
   1.1758713144099060E-002  0.17248950201784069        0.0000000000000000     
   1.1921711578966016E-002  0.18050169214362458        0.0000000000000000     
   1.2069194399728655E-002  0.18860469244448622        0.0000000000000000     
   1.2201161606386977E-002  0.19679850292042536        0.0000000000000000     
   5.7726592406837267E-003  0.16453146835849805        0.0000000000000000     
   5.8615149065520972E-003  0.17245606337422123        0.0000000000000000     
   5.9425964036815314E-003  0.18047150529487885        0.0000000000000000     
   6.0159037320720301E-003  0.18857779412047079        0.0000000000000000     
   6.0814368917235942E-003  0.19677492985099723        0.0000000000000000     
   6.8556271770603416E-015  0.16451925045561927        0.0000000000000000     
   6.1443905519098507E-015  0.17244491715968144        0.0000000000000000     
   5.5066628340538770E-015  0.18046144301196362        0.0000000000000000     
   4.9469434625082354E-015  0.18856882801246580        0.0000000000000000     
   4.4625761419503363E-015  0.19676707216118797        0.0000000000000000     
   2.4555474504546506E-002  0.19689279519813821        0.0000000000000000     
   2.4792467792215559E-002  0.20514700959073748        0.0000000000000000     
   2.4999272064464964E-002  0.21345797059770444        0.0000000000000000     
   2.5175887321294721E-002  0.22182567821903915        0.0000000000000000     
   2.5322313562704840E-002  0.23025013245474152        0.0000000000000000     
   1.8359174143994617E-002  0.19683779136947235        0.0000000000000000     
   1.8535713142374559E-002  0.20509828252282214        0.0000000000000000     
   1.8689950191570864E-002  0.21341247025430105        0.0000000000000000     
   1.8821885291583535E-002  0.22178035456390902        0.0000000000000000     
   1.8931518442412577E-002  0.23020193545164613        0.0000000000000000     
   1.2201161606386977E-002  0.19679850292042536        0.0000000000000000     
   1.2318050293725636E-002  0.20506347747431122        0.0000000000000000     
   1.2420297556529278E-002  0.21337997000901296        0.0000000000000000     
   1.2507903394797907E-002  0.22174798052453046        0.0000000000000000     
   1.2580867808531524E-002  0.23016750902086383        0.0000000000000000     
   6.0814368917235942E-003  0.19677492985099723        0.0000000000000000     
   6.1394792462687959E-003  0.20504259444520476        0.0000000000000000     
   6.1903141593402100E-003  0.21336046986184012        0.0000000000000000     
   6.2339416309378356E-003  0.22172855610090342        0.0000000000000000     
   6.2703616610616710E-003  0.23014685316239453        0.0000000000000000     
   4.4625761419503363E-015  0.19676707216118797        0.0000000000000000     
   4.0380025712050127E-015  0.20503563343550271        0.0000000000000000     
   3.6574476086626007E-015  0.21335396981278268        0.0000000000000000     
   3.3176044376970193E-015  0.22172208129302790        0.0000000000000000     
   3.0214546142826038E-015  0.23013996787623825        0.0000000000000000     
   2.5322313562704840E-002  0.23025013245474152        0.0000000000000000     
   2.5445249130625496E-002  0.23870425175558821        0.0000000000000000     
   2.5551392366986891E-002  0.24716095457235582        0.0000000000000000     
   2.5640743271789029E-002  0.25562024090504437        0.0000000000000000     
   2.5713301845031900E-002  0.26408211075365384        0.0000000000000000     
   1.8931518442412577E-002  0.23020193545164613        0.0000000000000000     
   1.9023508274912934E-002  0.23864842850705340        0.0000000000000000     
   1.9102513419939553E-002  0.24709104931967177        0.0000000000000000     
   1.9168533877492438E-002  0.25552979788950131        0.0000000000000000     
   1.9221569647571587E-002  0.26396467421654191        0.0000000000000000     
   1.2580867808531524E-002  0.23016750902086383        0.0000000000000000     
   1.2642053134571627E-002  0.23860855475810003        0.0000000000000000     
   1.2694321709759721E-002  0.24704111699632611        0.0000000000000000     
   1.2737673534095807E-002  0.25546519573554199        0.0000000000000000     
   1.2772108607579885E-002  0.26388079097574779        0.0000000000000000     
   6.2703616610616710E-003  0.23014685316239453        0.0000000000000000     
   6.3008837096015739E-003  0.23858463050872808        0.0000000000000000     
   6.3268172364473957E-003  0.24701115760231879        0.0000000000000000     
   6.3481622415991375E-003  0.25542643444316659        0.0000000000000000     
   6.3649187250568000E-003  0.26383046103127145        0.0000000000000000     
   3.0214546142826038E-015  0.23013996787623825        0.0000000000000000     
   2.7731723167834232E-015  0.23857665575893763        0.0000000000000000     
   2.5754138405220672E-015  0.24700117113764988        0.0000000000000000     
   2.4293175977796455E-015  0.25541351401237494        0.0000000000000000     
   2.3327693943198113E-015  0.26381368438311281        0.0000000000000000     
   2.5713301845031900E-002  0.26408211075365384        0.0000000000000000     
   2.5781326145551994E-002  0.27249123104266110        0.0000000000000000     
   2.5857074232185796E-002  0.28079226869654295        0.0000000000000000     
   2.5940546104933286E-002  0.28898522371529944        0.0000000000000000     
   2.6031741763794483E-002  0.29707009609893054        0.0000000000000000     
   1.9221569647571587E-002  0.26396467421654191        0.0000000000000000     
   1.9271682228741652E-002  0.27233817474105948        0.0000000000000000     
   1.9328933119567307E-002  0.28059279590331965        0.0000000000000000     
   1.9393322320048534E-002  0.28872853770332230        0.0000000000000000     
   1.9464849830185343E-002  0.29674540014106771        0.0000000000000000     
   1.2772108607579885E-002  0.26388079097574779        0.0000000000000000     
   1.2804913232213248E-002  0.27222884881134413        0.0000000000000000     
   1.2843373709997200E-002  0.28045031533673165        0.0000000000000000     
   1.2887490040931740E-002  0.28854519055191025        0.0000000000000000     
   1.2937262225016864E-002  0.29651347445688014        0.0000000000000000     
   6.3649187250568000E-003  0.26383046103127145        0.0000000000000000     
   6.3810191559667820E-003  0.27216325325351498        0.0000000000000000     
   6.4003960034754821E-003  0.28036482699677895        0.0000000000000000     
   6.4230492675829021E-003  0.28843518226106318        0.0000000000000000     
   6.4489789482890421E-003  0.29637431904636780        0.0000000000000000     
   2.3327693943198113E-015  0.26381368438311281        0.0000000000000000     
   2.2518879122523927E-015  0.27214138806757215        0.0000000000000000     
   2.1498644878215067E-015  0.28033633088346160        0.0000000000000000     
   2.0243409813019975E-015  0.28839851283078111        0.0000000000000000     
   1.8778381627448937E-015  0.29632793390953072        0.0000000000000000     
   3.4941233933993843E-014   5.4869339619365687E-002   0.0000000000000000     
   3.1650680340500337E-014   6.0745900503883760E-002   0.0000000000000000     
   2.8627274162307259E-014   6.6713164847786305E-002   0.0000000000000000     
   2.5872641702673338E-014   7.2771132651073350E-002   0.0000000000000000     
   2.3384506137036354E-014   7.8919803913744868E-002   0.0000000000000000     
  -3.3374527730732732E-003   5.4929421059157546E-002   0.0000000000000000     
  -3.5836575906507693E-003   6.0791548142605442E-002   0.0000000000000000     
  -3.8058348813506193E-003   6.6748353076661743E-002   0.0000000000000000     
  -4.0039846451728209E-003   7.2799835861326434E-002   0.0000000000000000     
  -4.1781068821173791E-003   7.8945996496599544E-002   0.0000000000000000     
  -6.6876776507857599E-003   5.5109665378535490E-002   0.0000000000000000     
  -7.1747854302257599E-003   6.0928491058771093E-002   0.0000000000000000     
  -7.6176080900213520E-003   6.6853917763287363E-002   0.0000000000000000     
  -8.0161456301725293E-003   7.2885945492084256E-002   0.0000000000000000     
  -8.3703980506792935E-003   7.9024574245161849E-002   0.0000000000000000     
  -1.0050674633102517E-002   5.5410072577499504E-002   0.0000000000000000     
  -1.0773383518693325E-002   6.1156729252380693E-002   0.0000000000000000     
  -1.1435319625983568E-002   6.7029858907663123E-002   0.0000000000000000     
  -1.2036482954973246E-002   7.3029461543346816E-002   0.0000000000000000     
  -1.2576873505662363E-002   7.9155537159431785E-002   0.0000000000000000     
  -1.3426443720023547E-002   5.5830642656049617E-002   0.0000000000000000     
  -1.4379451856053459E-002   6.1476262723434254E-002   0.0000000000000000     
  -1.5258969489237268E-002   6.7276176509789093E-002   0.0000000000000000     
  -1.6064996619574976E-002   7.3230384015114128E-002   0.0000000000000000     
  -1.6797533247066582E-002   7.9338885239409351E-002   0.0000000000000000     
   2.3384506137036354E-014   7.8919803913744868E-002   0.0000000000000000     
   2.1125679330880054E-014   8.5202761294280172E-002   0.0000000000000000     
   1.9058214208167445E-014   9.1663587451158504E-002   0.0000000000000000     
   1.7181487352649349E-014   9.8302282384379866E-002   0.0000000000000000     
   1.5497152172638806E-014  0.10511884609394428        0.0000000000000000     
  -4.1781068821173791E-003   7.8945996496599544E-002   0.0000000000000000     
  -4.3387390345182349E-003   8.5228308149633114E-002   0.0000000000000000     
  -4.4964185447093387E-003   9.1688243987579271E-002   0.0000000000000000     
  -4.6511454126906887E-003   9.8325804010438000E-002   0.0000000000000000     
  -4.8029196384622849E-003  0.10514098821820932        0.0000000000000000     
  -8.3703980506792935E-003   7.9024574245161849E-002   0.0000000000000000     
  -8.6985950588642225E-003   8.5304948715690332E-002   0.0000000000000000     
  -9.0189663620498864E-003   9.1762213596840073E-002   0.0000000000000000     
  -9.3315119602362818E-003   9.8396368888610988E-002   0.0000000000000000     
  -9.6362318534234138E-003  0.10520741459100312        0.0000000000000000     
  -1.2576873505662363E-002   7.9155537159431785E-002   0.0000000000000000     
  -1.3079568073016834E-002   8.5432682992451839E-002   0.0000000000000000     
  -1.3567643452002580E-002   9.1885496278940840E-002   0.0000000000000000     
  -1.4041099642619599E-002   9.8513977018898830E-002   0.0000000000000000     
  -1.4499936644867893E-002  0.10531812521232581        0.0000000000000000     
  -1.6797533247066582E-002   7.9338885239409351E-002   0.0000000000000000     
  -1.7481658076976072E-002   8.5611510979917579E-002   0.0000000000000000     
  -1.8142449814567422E-002   9.2058092033881628E-002   0.0000000000000000     
  -1.8779908459840643E-002   9.8678628401301552E-002   0.0000000000000000     
  -1.9394034012795727E-002  0.10547312008217727        0.0000000000000000     
   1.5497152172638806E-014  0.10511884609394428        0.0000000000000000     
   1.3981871216373065E-014  0.11209331111403509        0.0000000000000000     
   1.2618378564255295E-014  0.11920570997883553        0.0000000000000000     
   1.1402337407595553E-014  0.12645604268834568        0.0000000000000000     
   1.0337217193345793E-014  0.13384430924256555        0.0000000000000000     
  -4.8029196384622849E-003  0.10514098821820932        0.0000000000000000     
  -4.9495446266830424E-003  0.11211398949382473        0.0000000000000000     
  -5.0888237820118799E-003  0.11922500072021582        0.0000000000000000     
  -5.2207571044487946E-003  0.12647402189738260        0.0000000000000000     
  -5.3453445939937866E-003  0.13386105302532508        0.0000000000000000     
  -9.6362318534234138E-003  0.10520741459100312        0.0000000000000000     
  -9.9297445592833478E-003  0.11217602463319272        0.0000000000000000     
  -1.0208668595488146E-002  0.11928287294435597        0.0000000000000000     
  -1.0473003962037812E-002  0.12652795952449289        0.0000000000000000     
  -1.0722750658932341E-002  0.13391128437360350        0.0000000000000000     
  -1.4499936644867893E-002  0.10531812521232581        0.0000000000000000     
  -1.4940599797786933E-002  0.11227941653213903        0.0000000000000000     
  -1.5359534440416187E-002  0.11937932665125597        0.0000000000000000     
  -1.5756740572755647E-002  0.12661785556967659        0.0000000000000000     
  -1.6132218194805328E-002  0.13399500328740083        0.0000000000000000     
  -1.9394034012795727E-002  0.10547312008217727        0.0000000000000000     
  -1.9982110342193798E-002  0.11242416519066373        0.0000000000000000     
  -2.0541421316795993E-002  0.11951436184091584        0.0000000000000000     
  -2.1071966936602307E-002  0.12674371003293361        0.0000000000000000     
  -2.1573747201612741E-002  0.13411220976671703        0.0000000000000000     
   1.0337217193345793E-014  0.13384430924256555        0.0000000000000000     
   9.3766140685236365E-015  0.14135441817581240        0.0000000000000000     
   8.4758589036226795E-015  0.14897027802240365        0.0000000000000000     
   7.6366864221188990E-015  0.15669188878233922        0.0000000000000000     
   6.8556271770603416E-015  0.16451925045561927        0.0000000000000000     
  -5.3453445939937866E-003  0.13386105302532508        0.0000000000000000     
  -5.4627376892353516E-003  0.14136998106114609        0.0000000000000000     
  -5.5730878287619757E-003  0.14898469296194861        0.0000000000000000     
  -5.6763950125736607E-003  0.15670518872773256        0.0000000000000000     
  -5.7726592406704075E-003  0.16453146835849797        0.0000000000000000     
  -1.0722750658932341E-002  0.13391128437360350        0.0000000000000000     
  -1.0958180457744025E-002  0.14141666971714725        0.0000000000000000     
  -1.1179565130045133E-002  0.14902793778058357        0.0000000000000000     
  -1.1386904675835672E-002  0.15674508856391256        0.0000000000000000     
  -1.1580199095115642E-002  0.16456812206713409        0.0000000000000000     
  -1.6132218194805328E-002  0.13399500328740083        0.0000000000000000     
  -1.6486328305516638E-002  0.14149448414381582        0.0000000000000000     
  -1.6819431903840998E-002  0.14910001247830865        0.0000000000000000     
  -1.7131528989778398E-002  0.15681158829087921        0.0000000000000000     
  -1.7422619563328860E-002  0.16462921158152760        0.0000000000000000     
  -2.1573747201612741E-002  0.13411220976671703        0.0000000000000000     
  -2.2047181232553191E-002  0.14160342434115183        0.0000000000000000     
  -2.2492688150149556E-002  0.14920091705512367        0.0000000000000000     
  -2.2910267954401837E-002  0.15690468790863257        0.0000000000000000     
  -2.3299920645310036E-002  0.16471473690167854        0.0000000000000000     
   6.8556271770603416E-015  0.16451925045561927        0.0000000000000000     
   6.1443905519098507E-015  0.17244491715968144        0.0000000000000000     
   5.5066628340538770E-015  0.18046144301196362        0.0000000000000000     
   4.9469434625082354E-015  0.18856882801246580        0.0000000000000000     
   4.4625761419503363E-015  0.19676707216118797        0.0000000000000000     
  -5.7726592406704075E-003  0.16453146835849797        0.0000000000000000     
  -5.8615149065401450E-003  0.17245606337422126        0.0000000000000000     
  -5.9425964036708030E-003  0.18047150529487899        0.0000000000000000     
  -6.0159037320623842E-003  0.18857779412047107        0.0000000000000000     
  -6.0814368917148868E-003  0.19677492985099751        0.0000000000000000     
  -1.1580199095115642E-002  0.16456812206713409        0.0000000000000000     
  -1.1758713144088115E-002  0.17248950201784069        0.0000000000000000     
  -1.1921711578956148E-002  0.18050169214362485        0.0000000000000000     
  -1.2069194399719752E-002  0.18860469244448655        0.0000000000000000     
  -1.2201161606378921E-002  0.19679850292042586        0.0000000000000000     
  -1.7422619563328860E-002  0.16462921158152760        0.0000000000000000     
  -1.7691594712637763E-002  0.17254523309053965        0.0000000000000000     
  -1.7937345525850530E-002  0.18055200355820122        0.0000000000000000     
  -1.8159872002967165E-002  0.18864952298451235        0.0000000000000000     
  -1.8359174143987651E-002  0.19683779136947296        0.0000000000000000     
  -2.3299920645310036E-002  0.16471473690167854        0.0000000000000000     
  -2.3660159612189095E-002  0.17262325659231814        0.0000000000000000     
  -2.3989498244353945E-002  0.18062243953860813        0.0000000000000000     
  -2.4287936541804604E-002  0.18871228574054832        0.0000000000000000     
  -2.4555474504541059E-002  0.19689279519813885        0.0000000000000000     
   4.4625761419503363E-015  0.19676707216118797        0.0000000000000000     
   4.0380025712050127E-015  0.20503563343550271        0.0000000000000000     
   3.6574476086626007E-015  0.21335396981278268        0.0000000000000000     
   3.3176044376970193E-015  0.22172208129302790        0.0000000000000000     
   3.0214546142826038E-015  0.23013996787623825        0.0000000000000000     
  -6.0814368917148868E-003  0.19677492985099751        0.0000000000000000     
  -6.1394792462609133E-003  0.20504259444520512        0.0000000000000000     
  -6.1903141593330682E-003  0.21336046986184051        0.0000000000000000     
  -6.2339416309313504E-003  0.22172855610090383        0.0000000000000000     
  -6.2703616610557591E-003  0.23014685316239497        0.0000000000000000     
  -1.2201161606378921E-002  0.19679850292042586        0.0000000000000000     
  -1.2318050293718330E-002  0.20506347747431181        0.0000000000000000     
  -1.2420297556522646E-002  0.21337997000901360        0.0000000000000000     
  -1.2507903394791870E-002  0.22174798052453124        0.0000000000000000     
  -1.2580867808526002E-002  0.23016750902086466        0.0000000000000000     
  -1.8359174143987651E-002  0.19683779136947296        0.0000000000000000     
  -1.8535713142368210E-002  0.20509828252282292        0.0000000000000000     
  -1.8689950191565080E-002  0.21341247025430193        0.0000000000000000     
  -1.8821885291578244E-002  0.22178035456391010        0.0000000000000000     
  -1.8931518442407709E-002  0.23020193545164730        0.0000000000000000     
  -2.4555474504541059E-002  0.19689279519813885        0.0000000000000000     
  -2.4792467792210560E-002  0.20514700959073834        0.0000000000000000     
  -2.4999272064460371E-002  0.21345797059770552        0.0000000000000000     
  -2.5175887321290474E-002  0.22182567821904040        0.0000000000000000     
  -2.5322313562700885E-002  0.23025013245474291        0.0000000000000000     
   3.0214546142826038E-015  0.23013996787623825        0.0000000000000000     
   2.7731723167834232E-015  0.23857665575893763        0.0000000000000000     
   2.5754138405220672E-015  0.24700117113764988        0.0000000000000000     
   2.4293175977796455E-015  0.25541351401237494        0.0000000000000000     
   2.3327693943198113E-015  0.26381368438311281        0.0000000000000000     
  -6.2703616610557591E-003  0.23014685316239497        0.0000000000000000     
  -6.3008837095961433E-003  0.23858463050872858        0.0000000000000000     
  -6.3268172364423494E-003  0.24701115760231934        0.0000000000000000     
  -6.3481622415943800E-003  0.25542643444316709        0.0000000000000000     
  -6.3649187250522342E-003  0.26383046103127189        0.0000000000000000     
  -1.2580867808526002E-002  0.23016750902086466        0.0000000000000000     
  -1.2642053134566542E-002  0.23860855475810094        0.0000000000000000     
  -1.2694321709754992E-002  0.24704111699632705        0.0000000000000000     
  -1.2737673534091351E-002  0.25546519573554299        0.0000000000000000     
  -1.2772108607575614E-002  0.26388079097574879        0.0000000000000000     
  -1.8931518442407709E-002  0.23020193545164730        0.0000000000000000     
  -1.9023508274908427E-002  0.23864842850705464        0.0000000000000000     
  -1.9102513419935348E-002  0.24709104931967316        0.0000000000000000     
  -1.9168533877488476E-002  0.25552979788950270        0.0000000000000000     
  -1.9221569647567809E-002  0.26396467421654346        0.0000000000000000     
  -2.5322313562700885E-002  0.23025013245474291        0.0000000000000000     
  -2.5445249130621798E-002  0.23870425175558974        0.0000000000000000     
  -2.5551392366983422E-002  0.24716095457235751        0.0000000000000000     
  -2.5640743271785765E-002  0.25562024090504615        0.0000000000000000     
  -2.5713301845028819E-002  0.26408211075365584        0.0000000000000000     
   2.3327693943198113E-015  0.26381368438311281        0.0000000000000000     
   2.2518879122523927E-015  0.27214138806757215        0.0000000000000000     
   2.1498644878215067E-015  0.28033633088346160        0.0000000000000000     
   2.0243409813019975E-015  0.28839851283078111        0.0000000000000000     
   1.8778381627448937E-015  0.29632793390953072        0.0000000000000000     
  -6.3649187250522342E-003  0.26383046103127189        0.0000000000000000     
  -6.3810191559623766E-003  0.27216325325351554        0.0000000000000000     
  -6.4003960034712832E-003  0.28036482699677950        0.0000000000000000     
  -6.4230492675789522E-003  0.28843518226106396        0.0000000000000000     
  -6.4489789482853818E-003  0.29637431904636885        0.0000000000000000     
  -1.2772108607575614E-002  0.26388079097574879        0.0000000000000000     
  -1.2804913232209144E-002  0.27222884881134518        0.0000000000000000     
  -1.2843373709993302E-002  0.28045031533673281        0.0000000000000000     
  -1.2887490040928084E-002  0.28854519055191180        0.0000000000000000     
  -1.2937262225013494E-002  0.29651347445688209        0.0000000000000000     
  -1.9221569647567809E-002  0.26396467421654346        0.0000000000000000     
  -1.9271682228738048E-002  0.27233817474106115        0.0000000000000000     
  -1.9328933119563903E-002  0.28059279590332153        0.0000000000000000     
  -1.9393322320045370E-002  0.28872853770332468        0.0000000000000000     
  -1.9464849830182453E-002  0.29674540014107054        0.0000000000000000     
  -2.5713301845028819E-002  0.26408211075365584        0.0000000000000000     
  -2.5781326145549090E-002  0.27249123104266337        0.0000000000000000     
  -2.5857074232183093E-002  0.28079226869654555        0.0000000000000000     
  -2.5940546104930812E-002  0.28898522371530250        0.0000000000000000     
  -2.6031741763792270E-002  0.29707009609893409        0.0000000000000000     
  -1.3426443720023547E-002   5.5830642656049617E-002   0.0000000000000000     
  -1.4379451856053459E-002   6.1476262723434254E-002   0.0000000000000000     
  -1.5258969489237268E-002   6.7276176509789093E-002   0.0000000000000000     
  -1.6064996619574976E-002   7.3230384015114128E-002   0.0000000000000000     
  -1.6797533247066582E-002   7.9338885239409351E-002   0.0000000000000000     
  -1.6884589127562397E-002   5.6267221849380031E-002   0.0000000000000000     
  -1.8067093977121390E-002   6.1829992049564575E-002   0.0000000000000000     
  -1.9163037155477819E-002   6.7568982031520036E-002   0.0000000000000000     
  -2.0172418662631690E-002   7.3484191795246373E-002   0.0000000000000000     
  -2.1095238498582997E-002   7.9575621340743613E-002   0.0000000000000000     
  -2.0494715071732610E-002   5.6615656392684982E-002   0.0000000000000000     
  -2.1910413416712342E-002   6.2160817808404462E-002   0.0000000000000000     
  -2.3222002100400589E-002   6.7884386934710730E-002   0.0000000000000000     
  -2.4429481122797362E-002   7.3786363771603816E-002   0.0000000000000000     
  -2.5532850483902646E-002   7.9866748319083650E-002   0.0000000000000000     
  -2.4256821552534190E-002   5.6875946285964492E-002   0.0000000000000000     
  -2.5909410174826321E-002   6.2468739999953921E-002   0.0000000000000000     
  -2.7435864324005584E-002   6.8222391219361231E-002   0.0000000000000000     
  -2.8836184000071985E-002   7.4136899944186402E-002   0.0000000000000000     
  -3.0110369203025535E-002   8.0212266174429475E-002   0.0000000000000000     
  -2.8170908569967137E-002   5.7048091529218539E-002   0.0000000000000000     
  -3.0064084251463317E-002   6.2753758624212938E-002   0.0000000000000000     
  -3.1804623826292795E-002   6.8582994885471496E-002   0.0000000000000000     
  -3.3392527294455569E-002   7.4535800312994199E-002   0.0000000000000000     
  -3.4827794655951656E-002   8.0612174906781062E-002   0.0000000000000000     
  -1.6797533247066582E-002   7.9338885239409351E-002   0.0000000000000000     
  -1.7481658076976072E-002   8.5611510979917579E-002   0.0000000000000000     
  -1.8142449814567422E-002   9.2058092033881628E-002   0.0000000000000000     
  -1.8779908459840643E-002   9.8678628401301552E-002   0.0000000000000000     
  -1.9394034012795727E-002  0.10547312008217727        0.0000000000000000     
  -2.1095238498582997E-002   7.9575621340743613E-002   0.0000000000000000     
  -2.1958817649955956E-002   8.5841339969710190E-002   0.0000000000000000     
  -2.2790477103374791E-002   9.2279416983844495E-002   0.0000000000000000     
  -2.3590216858839493E-002   9.8889852383146556E-002   0.0000000000000000     
  -2.4358036916350072E-002  0.10567264616761637        0.0000000000000000     
  -2.5532850483902646E-002   7.9866748319083650E-002   0.0000000000000000     
  -2.6564999371170520E-002   8.6122077253452251E-002   0.0000000000000000     
  -2.7558816972055058E-002   9.2548887251011500E-002   0.0000000000000000     
  -2.8514303286556256E-002   9.9147178311761369E-002   0.0000000000000000     
  -2.9431458314674117E-002  0.10591695043570191        0.0000000000000000     
  -3.0110369203025535E-002   8.0212266174429475E-002   0.0000000000000000     
  -3.1300203240619759E-002   8.6453722831143776E-002   0.0000000000000000     
  -3.2447469420608228E-002   9.2866502835382600E-002   0.0000000000000000     
  -3.3552167742990920E-002   9.9450606187145962E-002   0.0000000000000000     
  -3.4614298207767860E-002  0.10620603288643389        0.0000000000000000     
  -3.4827794655951656E-002   8.0612174906781062E-002   0.0000000000000000     
  -3.6164429258303675E-002   8.6836276702784723E-002   0.0000000000000000     
  -3.7456434449034293E-002   9.3232263736957810E-002   0.0000000000000000     
  -3.8703810228143495E-002   9.9800136009300350E-002   0.0000000000000000     
  -3.9906556595631297E-002  0.10653989351981231        0.0000000000000000     
  -1.9394034012795727E-002  0.10547312008217727        0.0000000000000000     
  -1.9982110342193798E-002  0.11242416519066373        0.0000000000000000     
  -2.0541421316795993E-002  0.11951436184091584        0.0000000000000000     
  -2.1071966936602307E-002  0.12674371003293361        0.0000000000000000     
  -2.1573747201612741E-002  0.13411220976671703        0.0000000000000000     
  -2.4358036916350072E-002  0.10567264616761637        0.0000000000000000     
  -2.5092199654262282E-002  0.11261141587556134        0.0000000000000000     
  -2.5790967450931873E-002  0.11968977904528877        0.0000000000000000     
  -2.6454340306358855E-002  0.12690773567679872        0.0000000000000000     
  -2.7082318220543220E-002  0.13426528577009120        0.0000000000000000     
  -2.9431458314674117E-002  0.10591695043570191        0.0000000000000000     
  -3.0308791195750719E-002  0.11284231385362634        0.0000000000000000     
  -3.1144811069128139E-002  0.11990737879632790        0.0000000000000000     
  -3.1939517934806365E-002  0.12711214526380657        0.0000000000000000     
  -3.2692911792785412E-002  0.13445661325606234        0.0000000000000000     
  -3.4614298207767860E-002  0.10620603288643389        0.0000000000000000     
  -3.5631884966659116E-002  0.11311685912485885        0.0000000000000000     
  -3.6602952171384776E-002  0.12016716109403325        0.0000000000000000     
  -3.7527499821944844E-002  0.12735693879395710        0.0000000000000000     
  -3.8405527918339302E-002  0.13468619222463046        0.0000000000000000     
  -3.9906556595631297E-002  0.10653989351981231        0.0000000000000000     
  -4.1061480966987467E-002  0.11343505168925876        0.0000000000000000     
  -4.2165390757701794E-002  0.12046912593840481        0.0000000000000000     
  -4.3218285967774266E-002  0.12764211626725042        0.0000000000000000     
  -4.4220166597204902E-002  0.13495402267579559        0.0000000000000000     
  -2.1573747201612741E-002  0.13411220976671703        0.0000000000000000     
  -2.2047181232553191E-002  0.14160342434115183        0.0000000000000000     
  -2.2492688150149556E-002  0.14920091705512367        0.0000000000000000     
  -2.2910267954401837E-002  0.15690468790863257        0.0000000000000000     
  -2.3299920645310036E-002  0.16471473690167854        0.0000000000000000     
  -2.7082318220543220E-002  0.13426528577009120        0.0000000000000000     
  -2.7675231005446794E-002  0.14174589488739350        0.0000000000000000     
  -2.8233408473031393E-002  0.14933302859093298        0.0000000000000000     
  -2.8756850623297022E-002  0.15702668688070964        0.0000000000000000     
  -2.9245557456243684E-002  0.16482686975672342        0.0000000000000000     
  -3.2692911792785412E-002  0.13445661325606234        0.0000000000000000     
  -3.3404969390790559E-002  0.14192430036077913        0.0000000000000000     
  -3.4075667476547077E-002  0.14949872416564078        0.0000000000000000     
  -3.4705006050054998E-002  0.15717988467064739        0.0000000000000000     
  -3.5292985111314276E-002  0.16496778187579886        0.0000000000000000     
  -3.8405527918339302E-002  0.13468619222463046        0.0000000000000000     
  -3.9236396388584456E-002  0.14213864076130867        0.0000000000000000     
  -4.0019465160696606E-002  0.14969800377924711        0.0000000000000000     
  -4.0754734234675731E-002  0.15736428127844584        0.0000000000000000     
  -4.1442203610521838E-002  0.16513747325890477        0.0000000000000000     
  -4.4220166597204902E-002  0.13495402267579559        0.0000000000000000     
  -4.5169511998828515E-002  0.14238891608898216        0.0000000000000000     
  -4.6064801525479974E-002  0.14993086743175194        0.0000000000000000     
  -4.6906035177159244E-002  0.15757987670410498        0.0000000000000000     
  -4.7693212953866346E-002  0.16533594390604123        0.0000000000000000     
  -2.3299920645310036E-002  0.16471473690167854        0.0000000000000000     
  -2.3660159612189095E-002  0.17262325659231814        0.0000000000000000     
  -2.3989498244353945E-002  0.18062243953860813        0.0000000000000000     
  -2.4287936541804604E-002  0.18871228574054832        0.0000000000000000     
  -2.4555474504541059E-002  0.19689279519813885        0.0000000000000000     
  -2.9245557456243684E-002  0.16482686975672342        0.0000000000000000     
  -2.9697780997609519E-002  0.17272556650340784        0.0000000000000000     
  -3.0111773273132678E-002  0.18071476640519621        0.0000000000000000     
  -3.0487534282813162E-002  0.18879446946208858        0.0000000000000000     
  -3.0825064026650962E-002  0.19696467567408490        0.0000000000000000     
  -3.5292985111314276E-002  0.16496778187579886        0.0000000000000000     
  -3.5837832023766454E-002  0.17285415680404015        0.0000000000000000     
  -3.6337774150852993E-002  0.18083075047831620        0.0000000000000000     
  -3.6792811492573886E-002  0.18889756289862697        0.0000000000000000     
  -3.7202944048929154E-002  0.19705459406497250        0.0000000000000000     
  -4.1442203610521838E-002  0.16513747325890477        0.0000000000000000     
  -4.2080312690659906E-002  0.17300902749421515        0.0000000000000000     
  -4.2667500877514877E-002  0.18097039175796809        0.0000000000000000     
  -4.3203768171086794E-002  0.18902156605016354        0.0000000000000000     
  -4.3689114571375628E-002  0.19716255037080166        0.0000000000000000     
  -4.7693212953866346E-002  0.16533594390604123        0.0000000000000000     
  -4.8425222998289857E-002  0.17319017857393279        0.0000000000000000     
  -4.9100953453118372E-002  0.18113369024415185        0.0000000000000000     
  -4.9720404318351882E-002  0.18916647891669838        0.0000000000000000     
  -5.0283575593990396E-002  0.19728854459157233        0.0000000000000000     
  -2.4555474504541059E-002  0.19689279519813885        0.0000000000000000     
  -2.4792467792210560E-002  0.20514700959073834        0.0000000000000000     
  -2.4999272064460371E-002  0.21345797059770552        0.0000000000000000     
  -2.5175887321290474E-002  0.22182567821904040        0.0000000000000000     
  -2.5322313562700885E-002  0.23025013245474291        0.0000000000000000     
  -3.0825064026650962E-002  0.19696467567408490        0.0000000000000000     
  -3.1124418831543106E-002  0.20521028463254448        0.0000000000000000     
  -3.1385655024386609E-002  0.21351619592882651        0.0000000000000000     
  -3.1608772605181475E-002  0.22188240956293098        0.0000000000000000     
  -3.1793771573927702E-002  0.23030892553485788        0.0000000000000000     
  -3.7202944048929154E-002  0.19705459406497250        0.0000000000000000     
  -3.7567670848663560E-002  0.20528873360272756        0.0000000000000000     
  -3.7886490920521897E-002  0.21358687113726696        0.0000000000000000     
  -3.8159404264504163E-002  0.22194900666859066        0.0000000000000000     
  -3.8386410880610351E-002  0.23037514019669866        0.0000000000000000     
  -4.3689114571375628E-002  0.19716255037080166        0.0000000000000000     
  -4.4122223843571916E-002  0.20538235650128761        0.0000000000000000     
  -4.4501779752866226E-002  0.21366999622302690        0.0000000000000000     
  -4.4827782299258517E-002  0.22202546953601943        0.0000000000000000     
  -4.5100231482748825E-002  0.23044877644026529        0.0000000000000000     
  -5.0283575593990396E-002  0.19728854459157233        0.0000000000000000     
  -5.0788077816268193E-002  0.20549115332822465        0.0000000000000000     
  -5.1231521521419590E-002  0.21376557118610631        0.0000000000000000     
  -5.1613906709444560E-002  0.22211179816521734        0.0000000000000000     
  -5.1935233380343129E-002  0.23052983426555768        0.0000000000000000     
  -2.5322313562700885E-002  0.23025013245474291        0.0000000000000000     
  -2.5445249130621798E-002  0.23870425175558974        0.0000000000000000     
  -2.5551392366983422E-002  0.24716095457235751        0.0000000000000000     
  -2.5640743271785765E-002  0.25562024090504615        0.0000000000000000     
  -2.5713301845028819E-002  0.26408211075365584        0.0000000000000000     
  -3.1793771573927702E-002  0.23030892553485788        0.0000000000000000     
  -3.1949072619114866E-002  0.23877129024201163        0.0000000000000000     
  -3.2083096429232544E-002  0.24724505008179645        0.0000000000000000     
  -3.2195843004280744E-002  0.25573020505421246        0.0000000000000000     
  -3.2287312344259453E-002  0.26422675515925959        0.0000000000000000     
  -3.8386410880610351E-002  0.23037514019669866        0.0000000000000000     
  -3.8576775657795846E-002  0.23884480970462565        0.0000000000000000     
  -3.8739763485016038E-002  0.24733755317540626        0.0000000000000000     
  -3.8875374362270926E-002  0.25585337060904045        0.0000000000000000     
  -3.8983608289560510E-002  0.26439226200552818        0.0000000000000000     
  -4.5100231482748825E-002  0.23044877644026529        0.0000000000000000     
  -4.5328358246664750E-002  0.23892481014343195        0.0000000000000000     
  -4.5521393534333925E-002  0.24743846385318685        0.0000000000000000     
  -4.5679337345756334E-002  0.25598973756953008        0.0000000000000000     
  -4.5802189680931985E-002  0.26457863129246167        0.0000000000000000     
  -5.1935233380343129E-002  0.23052983426555768        0.0000000000000000     
  -5.2203820385721564E-002  0.23901129155843032        0.0000000000000000     
  -5.2427986577186177E-002  0.24754778211513825        0.0000000000000000     
  -5.2607731954736954E-002  0.25613930593568141        0.0000000000000000     
  -5.2743056518373889E-002  0.26478586302005991        0.0000000000000000     
  -2.5713301845028819E-002  0.26408211075365584        0.0000000000000000     
  -2.5781326145549090E-002  0.27249123104266337        0.0000000000000000     
  -2.5857074232183093E-002  0.28079226869654555        0.0000000000000000     
  -2.5940546104930812E-002  0.28898522371530250        0.0000000000000000     
  -2.6031741763792270E-002  0.29707009609893409        0.0000000000000000     
  -3.2287312344259453E-002  0.26422675515925959        0.0000000000000000     
  -3.2372350348982774E-002  0.27268160768485311        0.0000000000000000     
  -3.2465802918264813E-002  0.28104166991890833        0.0000000000000000     
  -3.2567670052105563E-002  0.28930694186142519        0.0000000000000000     
  -3.2677951750505037E-002  0.29747742351240369        0.0000000000000000     
  -3.8983608289560510E-002  0.26439226200552818        0.0000000000000000     
  -3.9083260205379590E-002  0.27290289463633172        0.0000000000000000     
  -3.9193125048223025E-002  0.28133393577291321        0.0000000000000000     
  -3.9313202818090767E-002  0.28968538541527261        0.0000000000000000     
  -3.9443493514982872E-002  0.29795724356341002        0.0000000000000000     
  -4.5802189680931985E-002  0.26457863129246167        0.0000000000000000     
  -4.5914055714739554E-002  0.27315509189709913        0.0000000000000000     
  -4.6039040622057707E-002  0.28166906625856020        0.0000000000000000     
  -4.6177144402886436E-002  0.29012055437684497        0.0000000000000000     
  -4.6328367057225768E-002  0.29850955625195325        0.0000000000000000     
  -5.2743056518373889E-002  0.26478586302005991        0.0000000000000000     
  -5.2864736877062654E-002  0.27343819946715531        0.0000000000000000     
  -5.3003549639768867E-002  0.28204706137584934        0.0000000000000000     
  -5.3159494806492562E-002  0.29061244874614195        0.0000000000000000     
  -5.3332572377233725E-002  0.29913436157803319        0.0000000000000000     
  -2.8170908569967137E-002   5.7048091529218539E-002   0.0000000000000000     
  -3.0064084251463317E-002   6.2753758624212938E-002   0.0000000000000000     
  -3.1804623826292795E-002   6.8582994885471496E-002   0.0000000000000000     
  -3.3392527294455569E-002   7.4535800312994199E-002   0.0000000000000000     
  -3.4827794655951656E-002   8.0612174906781062E-002   0.0000000000000000     
  -3.2341244289717658E-002   5.7269026332681217E-002   0.0000000000000000     
  -3.4435536012870180E-002   6.3082306870776844E-002   0.0000000000000000     
  -3.6358915689791146E-002   6.8983836288087103E-002   0.0000000000000000     
  -3.8111383320480544E-002   7.4973614584611964E-002   0.0000000000000000     
  -3.9692938904938406E-002   8.1051641760351428E-002   0.0000000000000000     
  -3.6872096877471956E-002   5.7675684906586595E-002   0.0000000000000000     
  -3.9084865825293746E-002   6.3520817929240955E-002   0.0000000000000000     
  -4.1129374997029546E-002   6.9442553782253572E-002   0.0000000000000000     
  -4.3005624392679354E-002   7.5440892465624451E-002   0.0000000000000000     
  -4.4713614012243164E-002   8.1515833979353580E-002   0.0000000000000000     
  -4.1763466333230026E-002   5.8268067250934703E-002   0.0000000000000000     
  -4.4012073688734034E-002   6.4069291799605271E-002   0.0000000000000000     
  -4.6116001748008013E-002   6.9959147367970931E-002   0.0000000000000000     
  -4.8075250511051985E-002   7.5937633956031689E-002   0.0000000000000000     
  -4.9889819977865929E-002   8.2004751563787531E-002   0.0000000000000000     
  -4.7015352656991888E-002   5.9046173365725506E-002   0.0000000000000000     
  -4.9217159603191014E-002   6.4727728481869778E-002   0.0000000000000000     
  -5.1318795942726529E-002   7.0533617045239166E-002   0.0000000000000000     
  -5.3320261675598432E-002   7.6463839055833635E-002   0.0000000000000000     
  -5.5221556801806737E-002   8.2518394513653226E-002   0.0000000000000000     
  -3.4827794655951656E-002   8.0612174906781062E-002   0.0000000000000000     
  -3.6164429258303675E-002   8.6836276702784723E-002   0.0000000000000000     
  -3.7456434449034293E-002   9.3232263736957810E-002   0.0000000000000000     
  -3.8703810228143495E-002   9.9800136009300350E-002   0.0000000000000000     
  -3.9906556595631297E-002  0.10653989351981231        0.0000000000000000     
  -3.9692938904938406E-002   8.1051641760351428E-002   0.0000000000000000     
  -4.1166840010786458E-002   8.7259800875822288E-002   0.0000000000000000     
  -4.2596344205646473E-002   9.3639974991541239E-002   0.0000000000000000     
  -4.3981451489518458E-002  0.10019216410750834        0.0000000000000000     
  -4.5322161862402413E-002  0.10691636822372351        0.0000000000000000     
  -4.4713614012243164E-002   8.1515833979353580E-002   0.0000000000000000     
  -4.6316598084632274E-002   8.7714357357703554E-002   0.0000000000000000     
  -4.7877830838757976E-002   9.4083441634936912E-002   0.0000000000000000     
  -4.9397312274620277E-002  0.10062308681105370        0.0000000000000000     
  -5.0875042392219176E-002  0.10733329288605387        0.0000000000000000     
  -4.9889819977865929E-002   8.2004751563787531E-002   0.0000000000000000     
  -5.1613703479841136E-002   8.8199946148428549E-002   0.0000000000000000     
  -5.3300894348368807E-002   9.4562663667144858E-002   0.0000000000000000     
  -5.4951392583448971E-002  0.10109290411993646        0.0000000000000000     
  -5.6565198185081593E-002  0.10779066750680334        0.0000000000000000     
  -5.5221556801806737E-002   8.2518394513653226E-002   0.0000000000000000     
  -5.7058156196413037E-002   8.8716567247997258E-002   0.0000000000000000     
  -5.8865534734478947E-002   9.5077641088165063E-002   0.0000000000000000     
  -6.0643692416004508E-002  0.10160161603415666        0.0000000000000000     
  -6.2392629240989664E-002  0.10828849208597199        0.0000000000000000     
  -3.9906556595631297E-002  0.10653989351981231        0.0000000000000000     
  -4.1061480966987467E-002  0.11343505168925876        0.0000000000000000     
  -4.2165390757701794E-002  0.12046912593840481        0.0000000000000000     
  -4.3218285967774266E-002  0.12764211626725042        0.0000000000000000     
  -4.4220166597204902E-002  0.13495402267579559        0.0000000000000000     
  -4.5322161862402413E-002  0.10691636822372351        0.0000000000000000     
  -4.6613139795793755E-002  0.11379552328588330        0.0000000000000000     
  -4.7849049761187958E-002  0.12081256523968416        0.0000000000000000     
  -4.9029891758584999E-002  0.12796749408512606        0.0000000000000000     
  -5.0155665787984888E-002  0.13526030982220905        0.0000000000000000     
  -5.0875042392219176E-002  0.10733329288605387        0.0000000000000000     
  -5.2302422052135984E-002  0.11419690565378955        0.0000000000000000     
  -5.3670852114952046E-002  0.12119677090811282        0.0000000000000000     
  -5.4980332580667368E-002  0.12833288864902367        0.0000000000000000     
  -5.6230863449281937E-002  0.13560525887652219        0.0000000000000000     
  -5.6565198185081593E-002  0.10779066750680334        0.0000000000000000     
  -5.8129327736014154E-002  0.11463919879297749        0.0000000000000000     
  -5.9630797818994073E-002  0.12162174294369082        0.0000000000000000     
  -6.1069608434021379E-002  0.12873829995894334        0.0000000000000000     
  -6.2445759581096029E-002  0.13598886983873507        0.0000000000000000     
  -6.2392629240989664E-002  0.10828849208597199        0.0000000000000000     
  -6.4093856847428243E-002  0.11512240270344716        0.0000000000000000     
  -6.5728886873314019E-002  0.12208748134641814        0.0000000000000000     
  -6.7297719318647017E-002  0.12918372801488495        0.0000000000000000     
  -6.8800354183427212E-002  0.13641114270884758        0.0000000000000000     
  -4.4220166597204902E-002  0.13495402267579559        0.0000000000000000     
  -4.5169511998828515E-002  0.14238891608898216        0.0000000000000000     
  -4.6064801525479974E-002  0.14993086743175194        0.0000000000000000     
  -4.6906035177159244E-002  0.15757987670410498        0.0000000000000000     
  -4.7693212953866346E-002  0.16533594390604123        0.0000000000000000     
  -5.0155665787984888E-002  0.13526030982220905        0.0000000000000000     
  -5.1223811679397546E-002  0.14267562801957148        0.0000000000000000     
  -5.2231769262832926E-002  0.15019806424585169        0.0000000000000000     
  -5.3179538538291014E-002  0.15782761850104973        0.0000000000000000     
  -5.4067119505771810E-002  0.16556429078516557        0.0000000000000000     
  -5.6230863449281937E-002  0.13560525887652219        0.0000000000000000     
  -5.7418790888166336E-002  0.14299927822884848        0.0000000000000000     
  -5.8540461064691192E-002  0.15050034334424275        0.0000000000000000     
  -5.9595873978856490E-002  0.15810845422270503        0.0000000000000000     
  -6.0585029630662243E-002  0.16582361086423528        0.0000000000000000     
  -6.2445759581096029E-002  0.13598886983873507        0.0000000000000000     
  -6.3754449625134907E-002  0.14335986671681322        0.0000000000000000     
  -6.4990876931054792E-002  0.15083770472692518        0.0000000000000000     
  -6.6155041498855705E-002  0.15842238386907087        0.0000000000000000     
  -6.7246943328537631E-002  0.16611390414325036        0.0000000000000000     
  -6.8800354183427212E-002  0.13641114270884758        0.0000000000000000     
  -7.0230787890303237E-002  0.14375739348346570        0.0000000000000000     
  -7.1583016861923712E-002  0.15121014839389893        0.0000000000000000     
  -7.2857041098288625E-002  0.15876940744014725        0.0000000000000000     
  -7.4052860599398002E-002  0.16643517062221072        0.0000000000000000     
  -4.7693212953866346E-002  0.16533594390604123        0.0000000000000000     
  -4.8425222998289857E-002  0.17319017857393279        0.0000000000000000     
  -4.9100953453118372E-002  0.18113369024415185        0.0000000000000000     
  -4.9720404318351882E-002  0.18916647891669838        0.0000000000000000     
  -5.0283575593990396E-002  0.19728854459157233        0.0000000000000000     
  -5.4067119505771810E-002  0.16556429078516557        0.0000000000000000     
  -5.4894128974670067E-002  0.17339902918408787        0.0000000000000000     
  -5.5660183754380518E-002  0.18132278178370506        0.0000000000000000     
  -5.6365283844903170E-002  0.18933554858401730        0.0000000000000000     
  -5.7009429246238023E-002  0.19743732958502452        0.0000000000000000     
  -6.0585029630662243E-002  0.16582361086423528        0.0000000000000000     
  -6.1508596647814273E-002  0.17363699846557487        0.0000000000000000     
  -6.2367243658018420E-002  0.18153980222346530        0.0000000000000000     
  -6.3160970661274712E-002  0.18953202213790643        0.0000000000000000     
  -6.3889777657583122E-002  0.19761365820889826        0.0000000000000000     
  -6.7246943328537631E-002  0.16611390414325036        0.0000000000000000     
  -6.8268626017722475E-002  0.17390408641839403        0.0000000000000000     
  -6.9222133164032085E-002  0.18178475156343246        0.0000000000000000     
  -7.0107464767466501E-002  0.18975589957836564        0.0000000000000000     
  -7.0924620828025628E-002  0.19781753046319353        0.0000000000000000     
  -7.4052860599398002E-002  0.16643517062221072        0.0000000000000000     
  -7.5174217084394673E-002  0.17420029304254520        0.0000000000000000     
  -7.6224852272421498E-002  0.18205762980360662        0.0000000000000000     
  -7.7204766163478489E-002  0.19000718090539501        0.0000000000000000     
  -7.8113958757565632E-002  0.19804894634791032        0.0000000000000000     
  -5.0283575593990396E-002  0.19728854459157233        0.0000000000000000     
  -5.0788077816268193E-002  0.20549115332822465        0.0000000000000000     
  -5.1231521521419590E-002  0.21376557118610631        0.0000000000000000     
  -5.1613906709444560E-002  0.22211179816521734        0.0000000000000000     
  -5.1935233380343129E-002  0.23052983426555768        0.0000000000000000     
  -5.7009429246238023E-002  0.19743732958502452        0.0000000000000000     
  -5.7589419555676591E-002  0.20562113563261730        0.0000000000000000     
  -5.8102054370510373E-002  0.21387997757268615        0.0000000000000000     
  -5.8547333690739368E-002  0.22221385540523109        0.0000000000000000     
  -5.8925257516363592E-002  0.23062276913025212        0.0000000000000000     
  -6.3889777657583122E-002  0.19761365820889826        0.0000000000000000     
  -6.4550435850721316E-002  0.20577831496354412        0.0000000000000000     
  -6.5139716444466936E-002  0.21401959692894712        0.0000000000000000     
  -6.5657619438820036E-002  0.22233750410510730        0.0000000000000000     
  -6.6104144833780548E-002  0.23073203649202476        0.0000000000000000     
  -7.0924620828025628E-002  0.19781753046319353        0.0000000000000000     
  -7.1671126701402341E-002  0.20596269132100511        0.0000000000000000     
  -7.2344507743289307E-002  0.21418442925488931        0.0000000000000000     
  -7.2944763953686501E-002  0.22248274426484613        0.0000000000000000     
  -7.3471895332593976E-002  0.23085763635087556        0.0000000000000000     
  -7.8113958757565632E-002  0.19804894634791032        0.0000000000000000     
  -7.8951492107719692E-002  0.20617426470500030        0.0000000000000000     
  -7.9716428266977432E-002  0.21437447455051270        0.0000000000000000     
  -8.0408767235338838E-002  0.22264957588444745        0.0000000000000000     
  -8.1028509012803923E-002  0.23099956870680458        0.0000000000000000     
  -5.1935233380343129E-002  0.23052983426555768        0.0000000000000000     
  -5.2203820385721564E-002  0.23901129155843032        0.0000000000000000     
  -5.2427986577186177E-002  0.24754778211513825        0.0000000000000000     
  -5.2607731954736954E-002  0.25613930593568141        0.0000000000000000     
  -5.2743056518373889E-002  0.26478586302005991        0.0000000000000000     
  -5.8925257516363592E-002  0.23062276913025212        0.0000000000000000     
  -5.9241928007875533E-002  0.23910570561839825        0.0000000000000000     
  -5.9503447325767726E-002  0.24766165174031848        0.0000000000000000     
  -5.9709815470040131E-002  0.25629060749601285        0.0000000000000000     
  -5.9861032440692803E-002  0.26499257288548123        0.0000000000000000     
  -6.6104144833780548E-002  0.23073203649202476        0.0000000000000000     
  -6.6481447046035883E-002  0.23920950399211291        0.0000000000000000     
  -6.6791680492273464E-002  0.24777621650778545        0.0000000000000000     
  -6.7034845172493251E-002  0.25643217403904239        0.0000000000000000     
  -6.7210941086695286E-002  0.26517737658588370        0.0000000000000000     
  -7.3471895332593976E-002  0.23085763635087556        0.0000000000000000     
  -7.3922377500202655E-002  0.23932268667957438        0.0000000000000000     
  -7.4292686076703418E-002  0.24789147641753922        0.0000000000000000     
  -7.4582821062096322E-002  0.25656400556477033        0.0000000000000000     
  -7.4792782456381324E-002  0.26534027412126737        0.0000000000000000     
  -8.1028509012803923E-002  0.23099956870680458        0.0000000000000000     
  -8.1564719370375793E-002  0.23944525368078257        0.0000000000000000     
  -8.2006464079057595E-002  0.24800743146957985        0.0000000000000000     
  -8.2353743138849314E-002  0.25668610207319642        0.0000000000000000     
  -8.2606556549750951E-002  0.26548126549163231        0.0000000000000000     
  -5.2743056518373889E-002  0.26478586302005991        0.0000000000000000     
  -5.2864736877062654E-002  0.27343819946715531        0.0000000000000000     
  -5.3003549639768867E-002  0.28204706137584934        0.0000000000000000     
  -5.3159494806492562E-002  0.29061244874614195        0.0000000000000000     
  -5.3332572377233725E-002  0.29913436157803319        0.0000000000000000     
  -5.9861032440692803E-002  0.26499257288548123        0.0000000000000000     
  -5.9993904582886726E-002  0.27372344956838573        0.0000000000000000     
  -6.0145238241782931E-002  0.28243913920438818        0.0000000000000000     
  -6.0315033417381432E-002  0.29113964179348872        0.0000000000000000     
  -6.0503290109682209E-002  0.29982495733568715        0.0000000000000000     
  -6.7210941086695286E-002  0.26517737658588370        0.0000000000000000     
  -6.7360159722749571E-002  0.27398207442267558        0.0000000000000000     
  -6.7522692568526249E-002  0.28281651782378442        0.0000000000000000     
  -6.7698539624025292E-002  0.29168070678920999        0.0000000000000000     
  -6.7887700889246699E-002  0.30057464131895240        0.0000000000000000     
  -7.4792782456381324E-002  0.26534027412126737        0.0000000000000000     
  -7.4963502296651247E-002  0.27421407403002512        0.0000000000000000     
  -7.5135912619998843E-002  0.28317919723403795        0.0000000000000000     
  -7.5310013426424169E-002  0.29223564373330585        0.0000000000000000     
  -7.5485804715927196E-002  0.30138341352782877        0.0000000000000000     
  -8.2606556549750951E-002  0.26548126549163231        0.0000000000000000     
  -8.2803932304591682E-002  0.27441944839043420        0.0000000000000000     
  -8.2984898396200726E-002  0.28352717743514888        0.0000000000000000     
  -8.3149454824578056E-002  0.29280445262577626        0.0000000000000000     
  -8.3297601589723685E-002  0.30225127396231632        0.0000000000000000     
  -4.7015352656991888E-002   5.9046173365725506E-002   0.0000000000000000     
  -4.9217159603191014E-002   6.4727728481869778E-002   0.0000000000000000     
  -5.1318795942726529E-002   7.0533617045239166E-002   0.0000000000000000     
  -5.3320261675598432E-002   7.6463839055833635E-002   0.0000000000000000     
  -5.5221556801806737E-002   8.2518394513653226E-002   0.0000000000000000     
  -5.1981891154221867E-002   6.0027669552123686E-002   0.0000000000000000     
  -5.4267686861808308E-002   6.5521078960063012E-002   0.0000000000000000     
  -5.6467935379608890E-002   7.1194065564172376E-002   0.0000000000000000     
  -5.8582636707623620E-002   7.7046629364451752E-002   0.0000000000000000     
  -6.0611790845852498E-002   8.3078770360901166E-002   0.0000000000000000     
  -5.6017217130384357E-002   6.1230222111293885E-002   0.0000000000000000     
  -5.8731218757729506E-002   6.6474294218213451E-002   0.0000000000000000     
  -6.1293597857078871E-002   7.1968595674884631E-002   0.0000000000000000     
  -6.3704354428432433E-002   7.7713126481307404E-002   0.0000000000000000     
  -6.5963488471790191E-002   8.3707886637481813E-002   0.0000000000000000     
  -5.9121330585479331E-002   6.2653831043236116E-002   0.0000000000000000     
  -6.2607755290954623E-002   6.7587374256321123E-002   0.0000000000000000     
  -6.5795783375136460E-002   7.2857207377375943E-002   0.0000000000000000     
  -6.8685414838024872E-002   7.8463330406400619E-002   0.0000000000000000     
  -7.1276649679619830E-002   8.4405743343395123E-002   0.0000000000000000     
  -6.1294231519506803E-002   6.4298496347950360E-002   0.0000000000000000     
  -6.5897296461483651E-002   6.8860319074386001E-002   0.0000000000000000     
  -6.9974491933781691E-002   7.3859900671646356E-002   0.0000000000000000     
  -7.3525817936400936E-002   7.9297241139731384E-002   0.0000000000000000     
  -7.6551274469341388E-002   8.5172340478641126E-002   0.0000000000000000     
  -5.5221556801806737E-002   8.2518394513653226E-002   0.0000000000000000     
  -5.7058156196413037E-002   8.8716567247997258E-002   0.0000000000000000     
  -5.8865534734478947E-002   9.5077641088165063E-002   0.0000000000000000     
  -6.0643692416004508E-002  0.10160161603415666        0.0000000000000000     
  -6.2392629240989664E-002  0.10828849208597199        0.0000000000000000     
  -6.0611790845852498E-002   8.3078770360901166E-002   0.0000000000000000     
  -6.2584754104580143E-002   8.9279747117119945E-002   0.0000000000000000     
  -6.4530882794091152E-002   9.5638818196707373E-002   0.0000000000000000     
  -6.6450176914385567E-002  0.10215598359966344        0.0000000000000000     
  -6.8342636465463347E-002  0.10883124332598819        0.0000000000000000     
  -6.5963488471790191E-002   8.3707886637481813E-002   0.0000000000000000     
  -6.8128295074574616E-002   8.9905012216506874E-002   0.0000000000000000     
  -7.0256069324208165E-002   9.6256639291481649E-002   0.0000000000000000     
  -7.2346811220690824E-002  0.10276276786240615        0.0000000000000000     
  -7.4400520764022565E-002  0.10942339792928035        0.0000000000000000     
  -7.1276649679619830E-002   8.4405743343395123E-002   0.0000000000000000     
  -7.3688779106396485E-002   9.0592362546158003E-002   0.0000000000000000     
  -7.6041094324829930E-002   9.6931104372487892E-002   0.0000000000000000     
  -7.8333595334920236E-002  0.10342196882238469        0.0000000000000000     
  -8.0566282136667361E-002  0.11006495589584847        0.0000000000000000     
  -7.6551274469341388E-002   8.5172340478641126E-002   0.0000000000000000     
  -7.9266206200045694E-002   9.1341798106073402E-002   0.0000000000000000     
  -8.1885957795956518E-002   9.7662213439726087E-002   0.0000000000000000     
  -8.4410529257073832E-002  0.10413358647959915        0.0000000000000000     
  -8.6839920583397678E-002  0.11075591722569260        0.0000000000000000     
  -6.2392629240989664E-002  0.10828849208597199        0.0000000000000000     
  -6.4093856847428243E-002  0.11512240270344716        0.0000000000000000     
  -6.5728886873314019E-002  0.12208748134641814        0.0000000000000000     
  -6.7297719318647017E-002  0.12918372801488495        0.0000000000000000     
  -6.8800354183427212E-002  0.13641114270884758        0.0000000000000000     
  -6.8342636465463347E-002  0.10883124332598819        0.0000000000000000     
  -7.0186434980324092E-002  0.11564962230930177        0.0000000000000000     
  -7.1959745991967347E-002  0.12259614548322433        0.0000000000000000     
  -7.3662569500393141E-002  0.12967081284775586        0.0000000000000000     
  -7.5294905505601487E-002  0.13687362440289635        0.0000000000000000     
  -7.4400520764022565E-002  0.10942339792928035        0.0000000000000000     
  -7.6397487728647448E-002  0.11622396253464454        0.0000000000000000     
  -7.8318001889009461E-002  0.12314989472103884        0.0000000000000000     
  -8.0162063245108647E-002  0.13020119448846329        0.0000000000000000     
  -8.1929671796944895E-002  0.13737786183691791        0.0000000000000000     
  -8.0566282136667361E-002  0.11006495589584847        0.0000000000000000     
  -8.2727015092398368E-002  0.11684542337947543        0.0000000000000000     
  -8.4803654564440417E-002  0.12374872905986173        0.0000000000000000     
  -8.6796200552793426E-002  0.13077487293700732        0.0000000000000000     
  -8.8704653057457464E-002  0.13792385501091226        0.0000000000000000     
  -8.6839920583397678E-002  0.11075591722569260        0.0000000000000000     
  -8.9175017071576851E-002  0.11751400484379451        0.0000000000000000     
  -9.1416704018260145E-002  0.12439264849969293        0.0000000000000000     
  -9.3564981423447602E-002  0.13139184819338789        0.0000000000000000     
  -9.5619849287139180E-002  0.13851160392487935        0.0000000000000000     
  -6.8800354183427212E-002  0.13641114270884758        0.0000000000000000     
  -7.0230787890303237E-002  0.14375739348346570        0.0000000000000000     
  -7.1583016861923712E-002  0.15121014839389893        0.0000000000000000     
  -7.2857041098288625E-002  0.15876940744014725        0.0000000000000000     
  -7.4052860599398002E-002  0.16643517062221072        0.0000000000000000     
  -7.5294905505601487E-002  0.13687362440289635        0.0000000000000000     
  -7.6850097967757477E-002  0.14419360788544880        0.0000000000000000     
  -7.8321490847026262E-002  0.15161979103221598        0.0000000000000000     
  -7.9709084143407813E-002  0.15915217384319802        0.0000000000000000     
  -8.1012877856902143E-002  0.16679075631839479        0.0000000000000000     
  -8.1929671796944895E-002  0.13737786183691791        0.0000000000000000     
  -8.3614672141583801E-002  0.14467025927940541        0.0000000000000000     
  -8.5210908876090743E-002  0.15206874932892836        0.0000000000000000     
  -8.6718382000465791E-002  0.15957333198548690        0.0000000000000000     
  -8.8137091514708901E-002  0.16718400724908089        0.0000000000000000     
  -8.8704653057457464E-002  0.13792385501091226        0.0000000000000000     
  -9.0524510411782194E-002  0.14518734766533548        0.0000000000000000     
  -9.2251270949117212E-002  0.15255702328403606        0.0000000000000000     
  -9.3884934669462572E-002  0.16003288186701389        0.0000000000000000     
  -9.5425501572818261E-002  0.16761492341426903        0.0000000000000000     
  -9.5619849287139180E-002  0.13851160392487935        0.0000000000000000     
  -9.7579612778352601E-002  0.14574487304323913        0.0000000000000000     
  -9.9442577066105611E-002  0.15308461289753902        0.0000000000000000     
 -0.10120874215039814       0.16053082348777906        0.0000000000000000     
 -0.10287810803123024       0.16808350481395917        0.0000000000000000     
  -7.4052860599398002E-002  0.16643517062221072        0.0000000000000000     
  -7.5174217084394673E-002  0.17420029304254520        0.0000000000000000     
  -7.6224852272421498E-002  0.18205762980360662        0.0000000000000000     
  -7.7204766163478489E-002  0.19000718090539501        0.0000000000000000     
  -7.8113958757565632E-002  0.19804894634791032        0.0000000000000000     
  -8.1012877856902143E-002  0.16679075631839479        0.0000000000000000     
  -8.2237888641980589E-002  0.17452947860368714        0.0000000000000000     
  -8.3389133153114525E-002  0.18236228084495587        0.0000000000000000     
  -8.4466611390303870E-002  0.19028916304220092        0.0000000000000000     
  -8.5470323353548691E-002  0.19831012519542229        0.0000000000000000     
  -8.8137091514708901E-002  0.16718400724908089        0.0000000000000000     
  -8.9472159484629998E-002  0.17489550336747861        0.0000000000000000     
  -9.0728707976038936E-002  0.18270254858844823        0.0000000000000000     
  -9.1906736988935769E-002  0.19060514291198971        0.0000000000000000     
  -9.3006246523320457E-002  0.19860328633810315        0.0000000000000000     
  -9.5425501572818261E-002  0.16761492341426903        0.0000000000000000     
  -9.6877029612342833E-002  0.17529836733391960        0.0000000000000000     
  -9.8243576741194799E-002  0.18307843303408369        0.0000000000000000     
  -9.9525142959374160E-002  0.19095512051476146        0.0000000000000000     
 -0.10072172826688090       0.19892842977595276        0.0000000000000000     
 -0.10287810803123024       0.16808350481395917        0.0000000000000000     
 -0.10445249902511915       0.17573807050301007        0.0000000000000000     
 -0.10593373944858207       0.18348993418186241        0.0000000000000000     
 -0.10732182930161906       0.19133909585051609        0.0000000000000000     
 -0.10861676858423007       0.19928555550897123        0.0000000000000000     
  -7.8113958757565632E-002  0.19804894634791032        0.0000000000000000     
  -7.8951492107719692E-002  0.20617426470500030        0.0000000000000000     
  -7.9716428266977432E-002  0.21437447455051270        0.0000000000000000     
  -8.0408767235338838E-002  0.22264957588444745        0.0000000000000000     
  -8.1028509012803923E-002  0.23099956870680458        0.0000000000000000     
  -8.5470323353548691E-002  0.19831012519542229        0.0000000000000000     
  -8.6401354046428513E-002  0.20641477130411082        0.0000000000000000     
  -8.7260788472522832E-002  0.21459270536775718        0.0000000000000000     
  -8.8048626631831703E-002  0.22284392738636141        0.0000000000000000     
  -8.8764868524355070E-002  0.23116843735992351        0.0000000000000000     
  -9.3006246523320457E-002  0.19860328633810315        0.0000000000000000     
  -9.4030534494283918E-002  0.20668594730691769        0.0000000000000000     
  -9.4982898816917030E-002  0.21484209425856271        0.0000000000000000     
  -9.5863339491219793E-002  0.22307172719303819        0.0000000000000000     
  -9.6671856517192192E-002  0.23137484611034417        0.0000000000000000     
 -0.10072172826688090       0.19892842977595276        0.0000000000000000     
 -0.10183903345128589       0.20698779271342091        0.0000000000000000     
 -0.10288275930015996       0.21512264122292929        0.0000000000000000     
 -0.10385290581350308       0.22333297530447771        0.0000000000000000     
 -0.10474947299131525       0.23161879495806639        0.0000000000000000     
 -0.10861676858423007       0.19928555550897123        0.0000000000000000     
 -0.10982685091743449       0.20732030752362057        0.0000000000000000     
 -0.11096036992225167       0.21543434626085681        0.0000000000000000     
 -0.11201732559868159       0.22362767172068007        0.0000000000000000     
 -0.11299771794672428       0.23190028390309025        0.0000000000000000     
  -8.1028509012803923E-002  0.23099956870680458        0.0000000000000000     
  -8.1564719370375793E-002  0.23944525368078257        0.0000000000000000     
  -8.2006464079057595E-002  0.24800743146957985        0.0000000000000000     
  -8.2353743138849314E-002  0.25668610207319642        0.0000000000000000     
  -8.2606556549750951E-002  0.26548126549163231        0.0000000000000000     
  -8.8764868524355070E-002  0.23116843735992351        0.0000000000000000     
  -8.9394873043433687E-002  0.23959225491050165        0.0000000000000000     
  -8.9923999082408307E-002  0.24814139966015386        0.0000000000000000     
  -9.0352246641278847E-002  0.25681587160888025        0.0000000000000000     
  -9.0679615720045376E-002  0.26561567075668074        0.0000000000000000     
  -9.6671856517192192E-002  0.23137484611034417        0.0000000000000000     
  -9.7399238906254723E-002  0.23977874028349572        0.0000000000000000     
  -9.8036275669827852E-002  0.24831069898550798        0.0000000000000000     
  -9.8582966807911579E-002  0.25697072221638112        0.0000000000000000     
  -9.9039312320505918E-002  0.26575880997611490        0.0000000000000000     
 -0.10474947299131525       0.23161879495806639        0.0000000000000000     
 -0.10557781695883886       0.24000470979976468        0.0000000000000000     
 -0.10634329384131629       0.24851532944564225        0.0000000000000000     
 -0.10704590363874751       0.25715065389569902        0.0000000000000000     
 -0.10768564635113252       0.26591068314993493        0.0000000000000000     
 -0.11299771794672428       0.23190028390309025        0.0000000000000000     
 -0.11393060720118614       0.24027016345930866        0.0000000000000000     
 -0.11484505359687357       0.24875529104055658        0.0000000000000000     
 -0.11574105713378662       0.25735566664683396        0.0000000000000000     
 -0.11661861781192520       0.26607129027814075        0.0000000000000000     
  -8.2606556549750951E-002  0.26548126549163231        0.0000000000000000     
  -8.2803932304591682E-002  0.27441944839043420        0.0000000000000000     
  -8.2984898396200726E-002  0.28352717743514888        0.0000000000000000     
  -8.3149454824578056E-002  0.29280445262577626        0.0000000000000000     
  -8.3297601589723685E-002  0.30225127396231632        0.0000000000000000     
  -9.0679615720045376E-002  0.26561567075668074        0.0000000000000000     
  -9.0936525314684852E-002  0.27460393581510356        0.0000000000000000     
  -9.1153394421174247E-002  0.28384380549569704        0.0000000000000000     
  -9.1330223039513533E-002  0.29333527979846113        0.0000000000000000     
  -9.1467011169702739E-002  0.30307835872339578        0.0000000000000000     
  -9.9039312320505918E-002  0.26575880997611490        0.0000000000000000     
  -9.9416356895044702E-002  0.27477327461523393        0.0000000000000000     
  -9.9725145218961767E-002  0.28411242848426232        0.0000000000000000     
  -9.9965677292257180E-002  0.29377627158320030        0.0000000000000000     
 -0.10013795311493086       0.30376480391204763        0.0000000000000000     
 -0.10768564635113252       0.26591068314993493        0.0000000000000000     
 -0.10824342704567118       0.27492746479082519        0.0000000000000000     
 -0.10870015078956334       0.28433304640084472        0.0000000000000000     
 -0.10905581758280897       0.29412742797999364        0.0000000000000000     
 -0.10931042742540811       0.30431060952827188        0.0000000000000000     
 -0.11661861781192520       0.26607129027814075        0.0000000000000000     
 -0.11741773576656435       0.27506650634187740        0.0000000000000000     
 -0.11807841113297891       0.28450565924544430        0.0000000000000000     
 -0.11860064391116897       0.29438874898884138        0.0000000000000000     
 -0.11898443410113448       0.30471577557206858        0.0000000000000000     
 </DataArray>
 <DataArray  type="Float64" Name="stress" NumberOfComponents="3" format="ascii">
   9155744976.5005760       -623248009.93973160        1946325132.9627476     
   8300871127.3281384       -107262901.23237133        1317901789.0594485     
   7376894263.7174253        178378826.01402807        887254858.15023518     
   6383814385.6684227        233677171.79947996        654384340.23510003     
   5321631493.1811333        58632136.123982906        619290235.31405854     
   6699706825.0571518       -935631219.64970255        1570627247.6769257     
   6286043428.0158920       -404770833.50660205        1121464109.6941400     
   5813030028.7017918       -71743788.272954464        810484457.87143755     
   5280666627.1148777        63449916.051295757        637688292.20884681     
   4688953223.2551231        810279.46609425545        603075612.70635736     
   5055061804.3346529       -1004596490.1433997        1144052467.5239556     
   4912343354.1845856       -509940478.13657022        885528049.65471232     
   4720027913.9271574       -180607766.48763800        705594191.11158085     
   4478115483.5623627       -16598355.196593046        604250891.89456034     
   4186606063.0901928       -17912244.263460398        581498152.00365341     
   4221809914.3330812       -830143821.42081904        666600792.50385475     
   4179770905.8342514       -422771835.12223125        610093608.94118536     
   4097887919.3935237       -148213108.63001442        572584057.87064815     
   3976160955.0108762       -6467641.9441735744        554072139.29223502     
   3814590012.6863194        2464564.9352972507        554557853.20595324     
   4199951155.0524311       -412273213.48195863        138272222.61659947     
   4088326082.9648838       -143264904.46361065        295160787.55355555     
   3946610045.1008849        25440185.299901009        411454058.14864784     
   3774803041.4604273        93842055.808555365        487152034.40187633     
   3572905072.0435224        61940707.062381029        522254716.31324738     
   5321631493.1811333        58632136.123982906        619290235.31405854     
   5133780840.3467636        41616156.014760494        486674109.03173554     
   4946283345.0300865        25777367.631184340        384820785.51534617     
   4759139007.2310820        11115770.973185539        313730264.76489109     
   4572347826.9497671       -2368633.9591865540        273402546.78036577     
   4688953223.2551231        810279.46609425545        603075612.70635736     
   4571508267.2561283       -7861973.8046665192        512289195.18562359     
   4455184862.2922897       -12795723.624897718        442972727.80960941     
   4339983008.3636112       -13990969.994601250        395126210.57829422     
   4225902705.4700899       -11447712.913776875        368749643.49170119     
   4186606063.0901928       -17912244.263460398        581498152.00365341     
   4113015796.4373574       -26206072.942545652        533437902.34823358     
   4041315474.3371630       -28200086.446172953        497554750.21630418     
   3971505096.7895975       -23894284.774364233        473848695.60787195     
   3903584663.7946730       -13288667.927085638        462319738.52292180     
   3814590012.6863194        2464564.9352972507        554557853.20595324     
   3758303427.8904572       -13416141.398861408        550120230.51956391     
   3704675181.1647096       -20435720.832636118        548566852.73544884     
   3653705272.5090694       -18594173.366054773        549897719.85360157     
   3605393701.9235315       -7891498.9991269112        554112831.87403429     
   3572905072.0435224        61940707.062381029        522254716.31324738     
   3507371161.6154289        30507820.826390982        562336179.69961166     
   3445263982.7749224        10497373.215683222        596009035.36702955     
   3386583535.5220022        1909364.2302689552        623273283.31550097     
   3331329819.8566628        4743793.8701238632        644128923.54501975     
   4572347826.9497671       -2368633.9591865540        273402546.78036577     
   4390152127.0389900       -11866568.088699818        229754843.15726107     
   4209322715.7808785       -16810206.709336042        193605291.16288921     
   4029859593.1754179       -17199549.821135521        164953890.79727328     
   3851762759.2226210       -13034597.424047470        143800642.06037998     
   4225902705.4700899       -11447712.913776875        368749643.49170119     
   4061917962.2268043       -19865228.115644693        334613103.17056978     
   3899455993.1058593       -23206829.576373577        306737511.98162895     
   3738516798.1072664       -21472517.295942545        285122869.92487043     
   3579100377.2310233       -14662291.274344921        269769177.00028968     
   3903584663.7946730       -13288667.927085638        462319738.52292180     
   3754276012.9430122       -21686223.484094858        437876927.88507438     
   3606646621.6833858       -24486247.067642212        418457863.88285100     
   3460696490.0157948       -21688738.677752733        404062546.51626855     
   3316425617.9402432       -13293698.314380884        394690975.78530884     
   3605393701.9235315       -7891498.9991269112        554112831.87403429     
   3467226279.1876388       -17329554.193997860        539546317.30075574     
   3330894601.5134563       -20648459.183150291        528766346.86656153     
   3196398668.9010062       -17848213.966540933        521772920.57144600     
   3063738481.3502798       -8928818.5441797972        518566038.41541010     
   3331329819.8566628        4743793.8701238632        644128923.54501975     
   3200768760.9606605       -6795220.2454037666        639621271.41762388     
   3072199932.5960717       -11693465.922890186        637662960.93275857     
   2945623334.7628942       -9950943.1623450518        638253992.09041953     
   2821038967.4611311       -1567651.9637376070        641394364.89061415     
   3851762759.2226210       -13034597.424047470        143800642.06037998     
   3667074941.1488867       -9145755.5250945091        117245591.31576133     
   3482142494.6893730       -6072341.5787363052        93191692.283465326     
   3296965419.8441234       -3814355.5848448277        71638944.963499054     
   3111543716.6130986       -2371797.5435150862        52587349.355877228     
   3579100377.2310233       -14662291.274344921        269769177.00028968     
   3401389463.7463126       -11212374.157250643        246730204.19285378     
   3223558878.6962028       -8161362.2581546307        226658219.69121572     
   3045608622.0806851       -5509255.5770658255        209553223.49540180     
   2867538693.8997746       -3256054.1139780283        195415215.60537934     
   3316425617.9402432       -13293698.314380884        394690975.78530884     
   3147022570.7402191       -9883417.4704159498        375313863.87212592     
   2977624808.7951441       -6455519.1099532843        359369576.85824394     
   2808232332.1050386       -3010003.2329292297        346858114.74364126     
   2638845140.6698780        453130.16059422493        337779477.52832502     
   3063738481.3502798       -8928818.5441797972        518566038.41541010     
   2903974262.1305895       -5158885.4646522999        502996570.35358310     
   2744340284.9862132       -954812.13409376144        491325763.78453052     
   2584836549.9171515        3683401.4475182295        483553618.70823127     
   2425463056.9234080        8755755.2801975012        479680135.12470305     
   2821038967.4611311       -1567651.9637376070        641394364.89061415     
   2672244537.9174275        2961221.8600318432        629778323.63722217     
   2523705307.2694001        8340758.6693891287        622526780.47007608     
   2375421275.5170398        14570958.464302182        619639735.38917935     
   2227392442.6603613        21651821.244820952        621117188.39452147     
   3111543716.6130986       -2371797.5435150862        52587349.355877228     
   2933546642.7465224        468273.62628901005        31344464.228749275     
   2755247026.4871049        2299870.1532646418        16765288.799838526     
   2576644867.8348894        3122992.0375872850        8849823.0691718813     
   2397740166.7898178        2937639.2790654898        7598067.0367250023     
   2867538693.8997746       -3256054.1139780283        195415215.60537934     
   2706255853.4169436        3012305.9141585827        178401260.05830634     
   2544419518.9537954        7435686.0078891516        166789553.83320716     
   2382029690.5103092        10014086.167178154        160580096.93004340     
   2219086368.0864949        10747506.392029524        159772889.34885088     
   2638845140.6698780        453130.16059422493        337779477.52832502     
   2490672361.0671787        9068527.2960060835        324701674.70922875     
   2341695135.8966532        15002439.205339074        315764660.83582002     
   2191913465.1583018        18254865.888581276        310968435.90810752     
   2041327348.8521235        18825807.345752120        310312999.92607933     
   2425463056.9234080        8755755.2801975012        479680135.12470305     
   2286796165.6972022        18636937.771773219        470245708.18150049     
   2147073877.3156819        25000129.745626092        463690609.80772358     
   2006296191.7788434        27845331.201755643        460014840.00336415     
   1864463109.0866752        27172542.140121698        459218398.76843530     
   2227392442.6603613        21651821.244820952        621117188.39452147     
   2094627267.3070354        31717537.341503263        615033360.47512996     
   1960555743.2108951        37428757.628790021        610567400.74890149     
   1825177870.3719339        38785482.106670141        607719309.21580911     
   1688493648.7901499        35787710.775161564        606489085.87589502     
   2397740166.7898178        2937639.2790654898        7598067.0367250023     
   2252193368.7502971        7786947.4929718971       -2275454.6061478984     
   2103670403.2601869        2715697.5382348299       -9454960.9745633658     
   1952171270.3194542       -12276110.585243821       -13940452.068491934     
   1797695969.9281166       -37188476.877393961       -15731927.887960508     
   2219086368.0864949        10747506.392029524        159772889.34885088     
   2079004450.0426149        14715526.977614999        146915085.72032785     
   1937086693.4823613        12564085.841982365        135770394.72820142     
   1793333098.4057622        4293182.9851850271        126338816.37246768     
   1647743664.8128099       -10097181.592767477        118620350.65313564     
   2041327348.8521235        18825807.345752120        310312999.92607933     
   1903907731.8379118        21071766.613131762        295801298.06855768     
   1765792605.2416072        20999360.606867909        282021806.20935446     
   1626981969.0632188        18608589.326986015        268974524.34847087     
   1487475823.3027408        13899452.773476720        256659452.48590952     
   1864463109.0866752        27172542.140121698        459218398.76843530     
   1726903214.1362083        26855666.399518251        444383182.43854314     
   1589788138.5379291        28021521.832894504        429299273.46889567     
   1453117882.2918036        30670108.440098286        413966671.85949761     
   1316892445.3978581        34801426.221253633        398385377.61034101     
   1688493648.7901499        35787710.775161564        606489085.87589502     
   1547990896.9375117        32067226.336860180        592660738.83027434     
   1409073293.3713069        33630569.520004690        577602796.50682390     
   1271740838.0915248        40477740.324563146        561315258.90554774     
   1135993531.0981901        52608738.750601530        543798126.02644193     
   1797695969.9281166       -37188476.877393961       -15731927.887960508     
   1768318113.1687341       -17080369.918224692       -9151582.8891202807     
   1746855703.0875022        29412559.301434994       -41633688.981505930     
   1733308739.6844344        102290310.78163511       -113178246.16510464     
   1727677222.9594779        201552884.52222896       -223785254.43991899     
   1647743664.8128099       -10097181.592767477        118620350.65313564     
   1525866089.4148753       -14006421.956311285        134830594.20726064     
   1408044726.2185023       -4394954.9812834263        124492123.89740641     
   1294279575.2236910        18737219.332277715        87604939.723590925     
   1184570636.4304380        55390100.984366119        24169041.685806468     
   1487475823.3027408        13899452.773476720        256659452.48590952     
   1308852064.2012343       -3301074.4322892427        277997154.37262613     
   1130425282.8247135       -19845009.221450210        285299879.62264156     
   952195479.17318177       -35732351.593982339        278567628.23591870     
   774162653.24662936       -50963101.549900770        257800400.21249852     
   1316892445.3978581        34801426.221253633        398385377.61034101     
   1117276037.5278058        15035672.653788328        420348097.60698390     
   913997372.90614367       -16937603.419045508        440789578.19416928     
   707056451.53289187       -61118401.997176915        459709819.37187910     
   496453273.40803945       -117506723.08064196        477108821.14012772     
   1135993531.0981901        52608738.750601530        543798126.02644193     
   951138009.39458203        41003819.301913917        561883423.91032624     
   758760996.46279073        4327262.4259259999        590961219.61200607     
   558862492.30282736       -57420931.877293348        631031513.13146901     
   351442496.91467571       -144240763.60780203        682094304.46871579     
   1727677222.9594779        201552884.52222896       -223785254.43991899     
   1456787317.2226100        184619096.70417571       -96549062.676733509     
   1153837671.4964626        60819508.921823978        59987884.548423201     
   818828285.78106630       -169845878.82468545        245825587.23551017     
   451759160.07640398       -507377066.53539264        460964045.38456833     
   1184570636.4304380        55390100.984366119        24169041.685806468     
   977443432.54985631        11730572.187389791        155440386.23646572     
   732576325.74929631       -157728633.00949219        312626686.20976126     
   449969316.02879894       -452987514.60620421        495727941.60569817     
   129622403.38830721       -874046072.60281992        704744152.42424572     
   774162653.24662936       -50963101.549900770        257800400.21249852     
   621124436.82428801       -124250485.64519382        386480040.79811847     
   424666154.55126989       -342271422.57606298        537688836.76707041     
   184787806.42760786       -705025912.34243238        711426788.11933911     
  -98510607.546728551       -1212513954.9443557        907693894.85491669     
   496453273.40803945       -117506723.08064196        477108821.14012772     
   387830330.04589540       -223324076.79363477        596569901.00824773     
   230107157.90239957       -492808859.77783531        735174336.22035670     
   23283756.977504671       -925961072.03330481        892922126.77647269     
  -232639872.72873002       -1522780713.5599942        1069813272.6765836     
   351442496.91467571       -144240763.60780203        682094304.46871579     
   277561112.21469057       -285490201.25791276        785709966.86682534     
   148899335.80263102       -609340944.61494374        905083184.56962764     
  -34542832.321497321       -1115792993.6788735        1040213957.5771190     
  -272765392.15770042       -1804846348.4496970        1191102285.8892698     
   4199951155.0524311       -412273213.48195863        138272222.61659947     
   4088326082.9648838       -143264904.46361065        295160787.55355555     
   3946610045.1008849        25440185.299901009        411454058.14864784     
   3774803041.4604273        93842055.808555365        487152034.40187633     
   3572905072.0435224        61940707.062381029        522254716.31324738     
   4463206121.6706333        23292915.754114866        506053771.63338274     
   4209718416.5199556        104281394.45184755        575551879.08139575     
   3941124757.8997149        134916694.91771412        619909370.12746978     
   3657425145.8099136        115198817.15170360        639126244.77159536     
   3358619580.2505507        45127761.153826952        633202503.01378155     
   4530024154.2924986        399927964.79128575        809147509.47049630     
   4178830038.7641644        306143479.97405171        808737673.78761709     
   3827514982.0731649        211955857.94791949        798641899.64270985     
   3476078984.2194891        117365098.71288216        778860187.03577518     
   3124522045.2031465        22371202.268944740        749392535.96681368     
   4400405252.9180136        717631933.62955153        1047553436.1279480     
   3995660949.6975098        462321352.10299742        994718171.67221642     
   3605780717.6212187        256557674.39050627        947651646.69436443     
   3230764556.6891513        100340900.49208474        906353861.19440663     
   2870612466.9013057       -6328969.5922657251        870824815.17233658     
   4074349417.5471945        976404822.26891851        1221271551.6057379     
   3660211149.3199873        572815010.83867455        1133493372.7351844     
   3275921964.5438876        268722144.24547243        1066938611.2824364     
   2921481863.2189016        64126222.489311218        1021607267.2474959     
   2596890845.3450265       -40972754.429811358        997499340.63036191     
   3572905072.0435224        61940707.062381029        522254716.31324738     
   3507371161.6154289        30507820.826390982        562336179.69961166     
   3445263982.7749224        10497373.215683222        596009035.36702955     
   3386583535.5220022        1909364.2302689552        623273283.31550097     
   3331329819.8566628        4743793.8701238632        644128923.54501975     
   3358619580.2505507        45127761.153826952        633202503.01378155     
   3281313128.8813443        22272443.986342192        670653781.51146114     
   3206430875.7553329        7497787.6295137405        703478427.98834634     
   3133972820.8725224        803792.08335280418        731676442.44443989     
   3063938964.2329092        2190457.3478475809        755247824.87973511     
   3124522045.2031465        22371202.268944740        749392535.96681368     
   3040534412.0304050        9620861.9112384319        783044007.34069180     
   2957968443.7564750        1609404.5495641232        813850822.39192545     
   2876824140.3813581       -1663169.8160618544        841812981.12052202     
   2797101501.9050503       -196861.18565177917        866930483.52647603     
   2870612466.9013057       -6328969.5922657251        870824815.17233658     
   2785035011.0626154       -7446925.3989214897        899506857.18729436     
   2699876686.7783437       -7167776.0241713524        927126218.57776558     
   2615137494.0485053       -5491521.4679847956        953682899.34374380     
   2530817432.8730879       -2418161.7303899527        979176899.48524523     
   2596890845.3450265       -40972754.429811358        997499340.63036191     
   2514814925.9779658       -28930917.944142461        1020042331.0512813     
   2432155604.8209453       -18833754.091679335        1043304616.5458651     
   2348912881.8739653       -10681262.872408986        1067286197.1141160     
   2265086757.1370230       -4473444.2863519192        1091987072.7560370     
   3331329819.8566628        4743793.8701238632        644128923.54501975     
   3200768760.9606605       -6795220.2454037666        639621271.41762388     
   3072199932.5960717       -11693465.922890186        637662960.93275857     
   2945623334.7628942       -9950943.1623450518        638253992.09041953     
   2821038967.4611311       -1567651.9637376070        641394364.89061415     
   3063938964.2329092        2190457.3478475809        755247824.87973511     
   2941134613.4699578       -6136783.6316542625        753098083.05403173     
   2819939410.8328180       -9100197.5251089334        753624519.73367620     
   2700353356.3214836       -6699784.3325390816        756827134.91867340     
   2582376449.9359736        1064455.9460967779        762705928.60901177     
   2797101501.9050503       -196861.18565177917        866930483.52647603     
   2682416250.3117790       -5203611.7181434631        866691722.52925825     
   2568957064.4387197       -6123476.5165899992        869255976.90021789     
   2456723944.2858791       -2956455.5809811354        874623246.63934469     
   2345716889.8532467        4297451.0886617899        882793531.74664664     
   2530817432.8730879       -2418161.7303899527        979176899.48524523     
   2424613671.4861298       -3995704.5048840046        980402189.84331918     
   2319252893.4137893       -2763302.8973097801        984557332.43238914     
   2214735098.6560621        1279043.0922977924        991642327.25245118     
   2111060287.2129455        8131333.4639506340        1001657174.3035065     
   2265086757.1370230       -4473444.2863519192        1091987072.7560370     
   2167726876.9930120       -2513061.9918485880        1094229484.9962018     
   2070826897.7580166        980323.33270132542        1099528586.3301873     
   1974386819.4320424        6006711.6873236895        1107884376.7579844     
   1878406642.0150769        12566103.071975827        1119296856.2795920     
   2821038967.4611311       -1567651.9637376070        641394364.89061415     
   2672244537.9174275        2961221.8600318432        629778323.63722217     
   2523705307.2694001        8340758.6693891287        622526780.47007608     
   2375421275.5170398        14570958.464302182        619639735.38917935     
   2227392442.6603613        21651821.244820952        621117188.39452147     
   2582376449.9359736        1064455.9460967779        762705928.60901177     
   2445027980.9154181        5717749.8397779465        752063219.46732235     
   2307850927.9925003        10942430.725574017        745831884.93336439     
   2170845291.1672158        16738498.603493690        744011925.00715172     
   2034011070.4395766        23105953.473548412        746603339.68866479     
   2345716889.8532467        4297451.0886617899        882793531.74664664     
   2219948314.2743969        9115344.9278270006        873026408.11893880     
   2094267371.9951458        14225349.765648603        867717535.62045932     
   1968674063.0154877        19627465.602123499        866866914.25120795     
   1843168387.3354342        25321692.437265038        870474544.01119757     
   2111060287.2129455        8131333.4639506340        1001657174.3035065     
   1997005537.9943547        13154007.124166608        992667889.59206736     
   1882954639.2773256        18189515.789578676        988183732.53135443     
   1768907591.0618496        23237859.460175753        988204703.12136471     
   1654864393.3479366        28299038.135976732        992730801.36210465     
   1878406642.0150769        12566103.071975827        1119296856.2795920     
   1776199652.0752993        17833736.428805351        1110987663.8867161     
   1673912729.8390388        22834928.797358930        1107230475.6660562     
   1571545875.3062978        27569680.177643716        1108025291.6176212     
   1469099088.4770808        32037990.569681048        1113372111.7413995     
   2227392442.6603613        21651821.244820952        621117188.39452147     
   2094627267.3070354        31717537.341503263        615033360.47512996     
   1960555743.2108951        37428757.628790021        610567400.74890149     
   1825177870.3719339        38785482.106670141        607719309.21580911     
   1688493648.7901499        35787710.775161564        606489085.87589502     
   2034011070.4395766        23105953.473548412        746603339.68866479     
   1905443300.9987543        30870196.406479359        740391501.63763106     
   1775989952.3900819        35682508.779902935        736321678.36392403     
   1645651024.6135504        37542890.593804836        734393869.86754620     
   1514426517.6691649        36451341.848188102        734608076.14849758     
   1843168387.3354342        25321692.437265038        870474544.01119757     
   1720295585.4761825        31233730.707158208        864625593.66597497     
   1596957974.0240445        35596403.667434454        861442804.68225741     
   1473155552.9790218        38409711.318089128        860926177.06003964     
   1348888322.3411100        39673653.659117103        863075710.79932523     
   1654864393.3479366        28299038.135976732        992730801.36210465     
   1539184120.7393203        32808140.243548453        987735636.56015980     
   1423459808.1127903        37170442.291401327        985930779.70389044     
   1307691455.4683385        41385944.279517174        987316230.79330301     
   1191879062.8059711        45454646.207915962        991891989.82839024     
   1469099088.4770808        32037990.569681048        1113372111.7413995     
   1362108906.7881794        35593425.015668333        1109721630.3201885     
   1255495454.6563249        40404624.651814759        1109785603.4288337     
   1149258732.0815220        46471589.478137672        1113564031.0673311     
   1043398739.0637584        53794319.494585812        1121056913.2356818     
   1688493648.7901499        35787710.775161564        606489085.87589502     
   1547990896.9375117        32067226.336860180        592660738.83027434     
   1409073293.3713069        33630569.520004690        577602796.50682390     
   1271740838.0915248        40477740.324563146        561315258.90554774     
   1135993531.0981901        52608738.750601530        543798126.02644193     
   1514426517.6691649        36451341.848188102        734608076.14849758     
   1372591113.3127139        31665582.195091248        725849551.27326393     
   1231304403.4973979        28708804.345777750        717541337.10711968     
   1090566388.2231970        27581008.300178766        709683433.65004110     
   950377067.49012578        28282194.058350742        702275840.90206087     
   1348888322.3411100        39673653.659117103        863075710.79932523     
   1210519996.8720193        35262538.208573222        858177812.05829442     
   1071663912.1987503        29225558.744109273        855410130.01325023     
   932320068.32130408        21562715.265718162        854772664.66419792     
   792488465.23967326        12274007.773380220        856265416.01113868     
   1191879062.8059711        45454646.207915962        991891989.82839024     
   1061777547.6154201        42858094.377293766        989645521.18536389     
   930151819.47538197        35180832.715054542        991209175.22524309     
   797001878.38585722        22422861.221188009        996582951.94801569     
   662327724.34684289        4584179.8956946135        1005766851.3536961     
   1043398739.0637584        53794319.494585812        1121056913.2356818     
   926363765.54291010        54452250.701217681        1120252678.6544714     
   806768125.32726753        46574626.258532643        1124938472.7430713     
   684611818.41684556        30161446.166584283        1135114295.5014868     
   559894844.81162024        5212710.4252913594        1150780146.9297128     
   1135993531.0981901        52608738.750601530        543798126.02644193     
   951138009.39458203        41003819.301913917        561883423.91032624     
   758760996.46279073        4327262.4259259999        590961219.61200607     
   558862492.30282736       -57420931.877293348        631031513.13146901     
   351442496.91467571       -144240763.60780203        682094304.46871579     
   950377067.49012578        28282194.058350742        702275840.90206087     
   791278246.16335034        11063772.726324797        720209627.93549359     
   623555945.51824594       -34899579.666800261        748259187.10640073     
   447210165.55481541       -109607863.12101403        786424518.41477001     
   262240906.27304792       -213061077.63634509        834705621.86061740     
   792488465.23967326        12274007.773380220        856265416.01113868     
   656641413.77454424       -11309394.596529931        872762039.42228055     
   511068894.90093803       -67311021.661362946        898497709.29057682     
   355770908.61885309       -155730873.42111993        933472425.61602461     
   190747454.92829266       -276568949.87580645        977686188.39862561     
   662327724.34684289        4584179.8956946135        1005766851.3536961     
   547227512.22816455       -26115682.666660041        1019540658.3706980     
   421299844.61086810       -92907063.557753831        1041676786.1645417     
   284544721.49494720       -195789962.77759555        1072175234.7352252     
   136962142.88038954       -334764380.32621545        1111036004.0827394     
   559894844.81162024        5212710.4252913594        1150780146.9297128     
   463036541.52421576       -33355091.484054267        1160545484.7807481     
   354248794.64803499       -111687705.35598199        1177796417.7282958     
   233531604.18308637       -229785131.19047469        1202532945.7723694     
   100884970.12935290       -387647368.98757786        1234755068.9129620     
   351442496.91467571       -144240763.60780203        682094304.46871579     
   277561112.21469057       -285490201.25791276        785709966.86682534     
   148899335.80263102       -609340944.61494374        905083184.56962764     
  -34542832.321497321       -1115792993.6788735        1040213957.5771190     
  -272765392.15770042       -1804846348.4496970        1191102285.8892698     
   262240906.27304792       -213061077.63634509        834705621.86061740     
   223561817.97656971       -352810463.65487897        884363272.95847714     
   140638150.01021683       -640041781.90634489        944995892.53168297     
   13469902.373953283       -1074755032.3908355        1016603480.5802168     
  -157942924.93220133       -1656950215.1083126        1099186037.1041119     
   190747454.92829266       -276568949.87580645        977686188.39862561     
   173606129.23720410       -418917644.40219539        985677608.91211700     
   122756035.91840422       -673628897.68761230        999861411.07160258     
   38197174.971893907       -1040702709.7320869        1020237594.8770895     
  -80070453.602336407       -1520139080.5355921        1046806160.3285736     
   136962142.88038954       -334764380.32621545        1111036004.0827394     
   127694045.99657118       -483811743.49989694        1089652974.7277393     
   95252993.527217895       -710102291.95869505        1069679740.1893882     
   39638985.472330213       -1013636025.7025912        1051116300.4677005     
  -39147978.168068469       -1394412944.7315571        1033962655.5626644     
   100884970.12935290       -387647368.98757786        1234755068.9129620     
   85825568.254678667       -547492760.94798970        1196289370.4053507     
   58129022.836653858       -749461964.71956444        1154450879.8850400     
   17795333.875274837       -993554980.30232000        1109239597.3520515     
  -35175498.629452467       -1279771807.6962309        1060655522.8063710     
   4074349417.5471945        976404822.26891851        1221271551.6057379     
   3660211149.3199873        572815010.83867455        1133493372.7351844     
   3275921964.5438876        268722144.24547243        1066938611.2824364     
   2921481863.2189016        64126222.489311218        1021607267.2474959     
   2596890845.3450265       -40972754.429811358        997499340.63036191     
   3482986735.8996210        629758289.72241509        1236382679.7644331     
   3166059456.7699904        380594653.87360132        1178870436.4353249     
   2866487672.9867563        189282669.17944920        1139275649.8600643     
   2584271384.5499215        55822335.639958858        1117598320.0386550     
   2319410591.4594874       -19786346.744861364        1113838446.9710929     
   2904146658.7516890        286868538.52579880        1306959764.6452944     
   2674984766.8226137        189297397.68930519        1265137604.0688019     
   2450684782.1352286        107932614.32510293        1237926939.5821996     
   2231246704.6895266        42774188.433181763        1225327771.1854856     
   2016670534.4855111       -6177879.9864442348        1227340098.8786674     
   2337829186.1034050       -52264431.320919871        1433002806.2483218     
   2186987079.4778690       -1076757.7141969204        1392294875.6356089     
   2028513291.9893041        24671979.682438016        1362892480.4488330     
   1862407823.6377120        24981780.868980765        1344795620.6879902     
   1688670674.4230955       -147354.15455830097        1338004296.3530807     
   1784034317.9547665       -387640619.81774640        1614511804.5735157     
   1702066394.7357450       -190527812.33691621        1560342251.1357574     
   1599973202.5489850       -60499234.748541117        1514172272.4599743     
   1477754741.3944802        2445112.9473505020        1476001868.5461690     
   1335411011.2722425       -1694769.2492033839        1445831039.3943355     
   2596890845.3450265       -40972754.429811358        997499340.63036191     
   2514814925.9779658       -28930917.944142461        1020042331.0512813     
   2432155604.8209453       -18833754.091679335        1043304616.5458651     
   2348912881.8739653       -10681262.872408986        1067286197.1141160     
   2265086757.1370230       -4473444.2863519192        1091987072.7560370     
   2319410591.4594874       -19786346.744861364        1113838446.9710929     
   2239479964.2569761       -13787482.077553749        1127928654.9575183     
   2159421422.3360319       -8214999.8050214052        1144344324.5703201     
   2079234965.6966577       -3068899.9272519350        1163085455.8094983     
   1998920594.3388567        1650817.5557630062        1184152048.6750481     
   2016670534.4855111       -6177879.9864442348        1227340098.8786674     
   1943474246.7410021       -4845272.9494637251        1233508926.0140495     
   1870605531.3495927       -2420758.0688116550        1243609381.3285196     
   1798064388.3112819        1095664.6555012465        1257641464.8220727     
   1725850817.6260753        5703995.2234933376        1275605176.4947135     
   1688670674.4230955       -147354.15455830097        1338004296.3530807     
   1626797773.4300435       -2104290.5598639250        1336783144.2208741     
   1565707931.8616207       -1451028.8830714226        1341099786.8204632     
   1505401149.7178314        1812430.8758338094        1350954224.1518488     
   1445877426.9986734        7686088.7168408036        1366346456.2150280     
   1335411011.2722425       -1694769.2492033839        1445831039.3943355     
   1289450544.3240981       -5564534.9087735415        1437751309.5779943     
   1244728623.8721232       -5305812.2477822304        1436815541.0461552     
   1201245249.9163039       -918601.26627105474        1443023733.7988198     
   1159000422.4566517        7597098.0357992053        1456375887.8359904     
   2265086757.1370230       -4473444.2863519192        1091987072.7560370     
   2167726876.9930120       -2513061.9918485880        1094229484.9962018     
   2070826897.7580166        980323.33270132542        1099528586.3301873     
   1974386819.4320424        6006711.6873236895        1107884376.7579844     
   1878406642.0150769        12566103.071975827        1119296856.2795920     
   1998920594.3388567        1650817.5557630062        1184152048.6750481     
   1910328910.3427377        4070350.8949682713        1184654191.8937705     
   1821985806.7668190        7318485.6348518133        1188738454.3528895     
   1733891283.6111083        11395221.775426984        1196404836.0524094     
   1646045340.8755968        16300559.316661775        1207653336.9923267     
   1725850817.6260753        5703995.2234933376        1275605176.4947135     
   1647528558.7680807        9033048.3044639826        1274120510.1217105     
   1569243559.8414800        12486301.156746507        1276743393.1356883     
   1490995820.8462758        16063753.780350566        1283473825.5366504     
   1412785341.7824619        19765406.175257981        1294311807.3245974     
   1445877426.9986734        7686088.7168408036        1366346456.2150280     
   1379325822.2690442        12375030.236645699        1362628439.6800189     
   1312600156.9820013        16483769.898399293        1363543402.6785779     
   1245700431.1375444        20012307.702112854        1369091345.2107031     
   1178626644.7356665        22960643.647749305        1379272267.2763956     
   1159000422.4566517        7597098.0357992053        1456375887.8359904     
   1105720700.8456345        14096296.691523850        1450177980.5687001     
   1052055598.1883852        19310891.859816074        1449138482.9815600     
   998005114.48491645        23240883.540704191        1453257395.0745726     
   943569249.73521435        25886271.734153748        1462534716.8477380     
   1878406642.0150769        12566103.071975827        1119296856.2795920     
   1776199652.0752993        17833736.428805351        1110987663.8867161     
   1673912729.8390388        22834928.797358930        1107230475.6660562     
   1571545875.3062978        27569680.177643716        1108025291.6176212     
   1469099088.4770808        32037990.569681048        1113372111.7413995     
   1646045340.8755968        16300559.316661775        1207653336.9923267     
   1555571893.3426862        20640468.925668240        1198991611.0477643     
   1464996781.9875739        24641499.127333403        1195017772.8780682     
   1374320006.8102586        28303649.921657801        1195731822.4832406     
   1283541567.8107436        31626921.308646619        1201133759.8632803     
   1412785341.7824619        19765406.175257981        1294311807.3245974     
   1334433675.5211334        23294063.695854068        1285272194.3816714     
   1255958613.9118783        26411403.390035391        1281056352.8162634     
   1177360156.9547038        29117425.257813931        1281664282.6283782     
   1098638304.6496086        31412129.299192965        1287095983.8180075     
   1178626644.7356665        22960643.647749305        1379272267.2763956     
   1112784998.6106274        25794520.739338160        1369829413.8884375     
   1046798225.6119531        28144641.585473359        1365346215.4806480     
   980666325.73962808        30011006.186108828        1365822672.0530264     
   914389298.99366307        31393614.541276097        1371258783.6055703     
   943569249.73521435        25886271.734153748        1462534716.8477380     
   890625862.61118627        28141840.056168258        1452663269.5680680     
   837515617.08779383        29841213.713633686        1447887360.8712189     
   784238513.16504025        30984392.706559896        1448206990.7571888     
   730794550.84292126        31571377.034940332        1453622159.2259774     
   1469099088.4770808        32037990.569681048        1113372111.7413995     
   1362108906.7881794        35593425.015668333        1109721630.3201885     
   1255495454.6563249        40404624.651814759        1109785603.4288337     
   1149258732.0815220        46471589.478137672        1113564031.0673311     
   1043398739.0637584        53794319.494585812        1121056913.2356818     
   1283541567.8107436        31626921.308646619        1201133759.8632803     
   1186275941.3019922        33301883.292046368        1198348624.4467194     
   1089308361.1533382        35970333.142445624        1199763416.7456286     
   992638827.36480129        39632270.859898627        1205378136.7600214     
   896267339.93637204        44287696.444375545        1215192784.4898789     
   1098638304.6496086        31412129.299192965        1287095983.8180075     
   1012484299.5656364        31622738.693360567        1285084397.3429883     
   926549657.64483559        32564558.631434917        1287758211.7690642     
   840834378.88720262        34237589.113402903        1295117427.0962498     
   755338463.29274392        36641830.139282644        1307162043.3245254     
   914389298.99366307        31393614.541276097        1371258783.6055703     
   840733981.57912755        30555991.219648838        1369928949.0090005     
   767219344.13080871        30187301.118747085        1373769988.4991539     
   693845386.64873588        30287544.238663405        1382781902.0760317     
   620612109.13288045        30856720.579310864        1396964689.7396326     
   730794550.84292126        31571377.034940332        1453622159.2259774     
   671024987.34244514        30101640.870851725        1452882279.4447560     
   611317420.61127222        28838560.604437888        1457798746.9358840     
   551671850.64938450        27782136.235643119        1468371561.6993606     
   492088277.45678973        26932367.764490858        1484600723.7351956     
   1043398739.0637584        53794319.494585812        1121056913.2356818     
   926363765.54291010        54452250.701217681        1120252678.6544714     
   806768125.32726753        46574626.258532643        1124938472.7430713     
   684611818.41684556        30161446.166584283        1135114295.5014868     
   559894844.81162024        5212710.4252913594        1150780146.9297128     
   896267339.93637204        44287696.444375545        1215192784.4898789     
   793254608.00865865        43653445.924939871        1213675895.8608277     
   687769783.94888306        34778888.298632801        1217753514.0319219     
   579812867.75705242        17664023.565473229        1227425639.0031755     
   469383859.43315041       -7691148.2745937109        1242692270.7745788     
   755338463.29274392        36641830.139282644        1307162043.3245254     
   666646481.90199482        34804950.576936632        1305035837.6374772     
   575570982.94190979        25023012.450131387        1308608616.8809307     
   482111966.41250139        7296015.7589153051        1317880381.0548699     
   386269432.31375355       -18376039.496760249        1332851130.1593022     
   620612109.13288045        30856720.579310864        1396964689.7396326     
   546539387.22291815        27906764.657180399        1394332503.9844482     
   470171722.30635589        17306998.713058263        1397503781.2900991     
   391509114.38319033       -942577.25307755172        1406478521.6565719     
   310551563.45342523       -26841963.241214514        1421256725.0838888     
   492088277.45678973        26932367.764490858        1484600723.7351956     
   432933323.97144753        22958888.165759265        1481565894.9017229     
   371572002.04222697        11630847.087427646        1484439007.2594197     
   308004311.66914028       -7051755.4704567343        1493220060.8082929     
   242230252.85217541       -33088919.507931933        1507909055.5483356     
   559894844.81162024        5212710.4252913594        1150780146.9297128     
   463036541.52421576       -33355091.484054267        1160545484.7807481     
   354248794.64803499       -111687705.35598199        1177796417.7282958     
   233531604.18308637       -229785131.19047469        1202532945.7723694     
   100884970.12935290       -387647368.98757786        1234755068.9129620     
   469383859.43315041       -7691148.2745937109        1242692270.7745788     
   391614061.12749517       -42338361.313997090        1241591145.2299826     
   303729670.86281240       -110700880.88349527        1246783138.6817768     
   205730688.63909185       -212778706.98311913        1258268251.1299441     
   97617114.456341237       -348571839.61284602        1276046482.5744836     
   386269432.31375355       -18376039.496760249        1332851130.1593022     
   324181064.41800570       -50124786.037780613        1323000868.1204600     
   253792956.19297808       -109539333.67640454        1318251248.9778543     
   175105107.63864970       -196619682.41269761        1318602272.7314737     
   88117518.755032286       -311365832.24661666        1324053939.3813372     
   310551563.45342523       -26841963.241214514        1421256725.0838888     
   260737551.39574885       -56714365.655389354        1404774653.4521596     
   204438650.63853121       -108203063.73470467        1392200748.6165192     
   141654861.18175077       -181308057.47922665        1383535010.5769699     
   72386183.025437757       -276029346.88885969        1378777439.3335028     
   242230252.85217541       -33088919.507931933        1507909055.5483356     
   201283522.06072384       -62107100.166831836        1486912501.2250855     
   155666754.19948110       -106692071.05836911        1468631637.5977812     
   105379949.26840943       -166843832.18267089        1453066464.6664176     
   50423107.267545089       -242562383.53961208        1440216982.4310000     
   100884970.12935290       -387647368.98757786        1234755068.9129620     
   85825568.254678667       -547492760.94798970        1196289370.4053507     
   58129022.836653858       -749461964.71956444        1154450879.8850400     
   17795333.875274837       -993554980.30232000        1109239597.3520515     
  -35175498.629452467       -1279771807.6962309        1060655522.8063710     
   97617114.456341237       -348571839.61284602        1276046482.5744836     
   80449573.850033134       -489757765.43476135        1221769216.3999701     
   51851612.060932159       -669045095.19931948        1164937066.4126174     
   11823229.089022517       -886433828.90656769        1105550032.6124141     
  -39635575.065675437       -1141923966.5564656        1043608114.9993845     
   88117518.755032286       -311365832.24661666        1324053939.3813372     
   71178719.988088518       -433191227.75870264        1255372948.2938919     
   44016222.398893744       -589095619.34496272        1184954981.5934527     
   6630025.9874401689       -779079007.00540769        1112800039.2800198     
  -40979869.246252477       -1003141390.7400066        1038908121.3535877     
   72386183.025437757       -276029346.88885969        1378777439.3335028     
   58013006.668834955       -377793147.91985327        1297100566.0871091     
   34622853.850539774       -509613537.15649062        1214504625.4275644     
   2215724.5705292225       -671490514.59883618        1130989617.3548639     
  -39208381.171177179       -863424080.24685168        1046555541.8690172     
   50423107.267545089       -242562383.53961208        1440216982.4310000     
   40952433.892279208       -323563525.91818124        1346952069.7796261     
   23671506.415862262       -430598848.63392067        1253585997.9149399     
  -1419675.1617269516       -563668351.68689966        1160118766.8369572     
  -34321110.840454191       -722772035.07700253        1066550376.5456659     
   1784034317.9547665       -387640619.81774640        1614511804.5735157     
   1702066394.7357450       -190527812.33691621        1560342251.1357574     
   1599973202.5489850       -60499234.748541117        1514172272.4599743     
   1477754741.3944802        2445112.9473505020        1476001868.5461690     
   1335411011.2722425       -1694769.2492033839        1445831039.3943355     
   1360770847.8798118       -283906932.03975326        1708827433.8999786     
   1287363685.4234016       -139651692.44134504        1630198118.5322411     
   1198862571.2411470       -45709625.262417436        1562352329.2697120     
   1095267505.3330462       -2080730.5029773116        1505290066.1123896     
   976578487.69909918       -8765008.1630260348        1459011329.0602775     
   922343971.52770257       -184722266.14491153        1778890514.2797472     
   865451716.52885771       -90938350.420432329        1681671307.0975711     
   798496827.04606175       -30696549.642456710        1598019577.3638399     
   721479303.07931137       -3996863.8109939396        1527935325.0785460     
   634399144.62860918       -10839292.926039308        1471418550.2416956     
   468753688.89844054       -90086622.133213073        1824701045.7128158     
   436330488.05211067       -44387786.274181396        1714761816.8317480     
   398875969.96372062       -15460007.888681710        1621174016.7423546     
   356390134.63327378       -3303286.9767054468        1543937645.4446363     
   308872982.06076610       -7917623.5382651985        1483052702.9385862     
  -7.9727433446405878E-003  -4.6600086427013715E-003   1846259028.1991918     
  -6.8393093386489552E-003  -2.5930265260994505E-003   1729469647.7347727     
  -5.8677421895717650E-003  -1.0683761567739005E-003   1631815647.4052622     
  -5.0650875435268297E-003  -1.0503274074656057E-004   1553297027.2106566     
  -4.4278225774552447E-003   3.0701174203628229E-004   1493913787.1509562     
   1335411011.2722425       -1694769.2492033839        1445831039.3943355     
   1289450544.3240981       -5564534.9087735415        1437751309.5779943     
   1244728623.8721232       -5305812.2477822304        1436815541.0461552     
   1201245249.9163039       -918601.26627105474        1443023733.7988198     
   1159000422.4566517        7597098.0357992053        1456375887.8359904     
   976578487.69909918       -8765008.1630260348        1459011329.0602775     
   948185952.07082701       -9843988.0328519344        1457315483.6000414     
   920722326.31467223       -7826601.6622830033        1461345442.6883357     
   894187610.43063045       -2712849.0513411164        1471101206.3251641     
   868581804.41870725        5497269.7999988794        1486582774.5105271     
   634399144.62860918       -10839292.926039308        1471418550.2416956     
   619522663.93171108       -10343049.922692120        1475745346.4095109     
   605265456.48288536       -7782562.7591045797        1484379790.3898857     
   591627522.28213167       -3157831.4352754354        1497321882.1828229     
   578608861.32945323        3531144.0488040149        1514571621.7883215     
   308872982.06076610       -7917623.5382651985        1483052702.9385862     
   303460679.90675318       -7061720.5782907158        1493040898.0064027     
   298358014.37677330       -5173695.5382070243        1505918584.1508090     
   293564985.47081798       -2253548.4180426300        1521685761.3718050     
   289081593.18888915        1698720.7822136581        1540342429.6693904     
  -4.4278225774552447E-003   3.0701174203628229E-004   1493913787.1509562     
  -4.0399002824361499E-003   3.7675906350775391E-004   1509202138.3907182     
  -3.6730005483984526E-003   3.7608423701270379E-004   1525961823.9711010     
  -3.3183620686437045E-003   3.3488550760302151E-004   1544192843.8921003     
  -2.9802168059374738E-003   2.3836244333641748E-004   1563895198.1537223     
   1159000422.4566517        7597098.0357992053        1456375887.8359904     
   1105720700.8456345        14096296.691523850        1450177980.5687001     
   1052055598.1883852        19310891.859816074        1449138482.9815600     
   998005114.48491645        23240883.540704191        1453257395.0745726     
   943569249.73521435        25886271.734153748        1462534716.8477380     
   868581804.41870725        5497269.7999988794        1486582774.5105271     
   828296047.44104087        10273879.060909241        1480185472.9970264     
   787721254.67870343        14087035.706249148        1479022639.8432178     
   746857426.13169992        16936739.736035049        1483094275.0490968     
   705704561.80002582        18822991.150253922        1492400378.6146727     
   578608861.32945323        3531144.0488040149        1514571621.7883215     
   551534379.49811649        6650357.0688046515        1508087328.8337617     
   524267207.14366281        9127268.3450821340        1506913562.9184313     
   496807344.26609915        10961877.877657503        1511050324.0423369     
   469154790.86542034        12154185.666520715        1520497612.2054708     
   289081593.18888915        1698720.7822136581        1540342429.6693904     
   275435697.01685542        3225730.7151927948        1533883548.0789156     
   261693455.58326280        4431589.7763102055        1532811252.2072151     
   247854868.88810983        5316297.9655600041        1537125542.0542881     
   233919936.93140379        5879855.2829650342        1546826417.6201351     
  -2.9802168059374738E-003   2.3836244333641748E-004   1563895198.1537223     
  -2.7378740300539797E-003   8.7910448151809245E-005   1557574130.7324846     
  -2.5026684021859334E-003  -8.6332040417623729E-005   1556715707.7095623     
  -2.2612406452787786E-003  -2.3914020946630605E-004   1561319929.0849519     
  -2.0240219756627854E-003  -4.0736644826630742E-004   1571386794.8586602     
   943569249.73521435        25886271.734153748        1462534716.8477380     
   890625862.61118627        28141840.056168258        1452663269.5680680     
   837515617.08779383        29841213.713633686        1447887360.8712189     
   784238513.16504025        30984392.706559896        1448206990.7571888     
   730794550.84292126        31571377.034940332        1453622159.2259774     
   705704561.80002582        18822991.150253922        1492400378.6146727     
   665867943.91043139        20475944.127738714        1482833876.7163017     
   625906182.22132194        21711751.106841385        1478393031.4949503     
   585819276.73269856        22530412.087565422        1479077842.9506195     
   545607227.44456232        22931927.069909990        1484888311.0833158     
   469154790.86542034        12154185.666520715        1520497612.2054708     
   442510993.90798670        13230338.808802217        1511284722.7215517     
   415783767.75089079        14028394.618875042        1507227608.0088575     
   388973112.39412290        14548353.096707493        1508326268.0673862     
   362079027.83769453        14790214.242340341        1514580702.8971441     
   233919936.93140379        5879855.2829650342        1546826417.6201351     
   220555012.60385582        6405024.0993598551        1538015807.5838208     
   207148373.67649567        6791144.2497126311        1534391090.4129386     
   193700020.14931086        7038215.7339852676        1535952266.1074891     
   180209952.02231175        7146238.5522061735        1542699334.6674664     
  -2.0240219756627854E-003  -4.0736644826630742E-004   1571386794.8586602     
  -1.9631732137362144E-003  -5.8895196412086430E-004   1563027131.3031120     
  -1.8644426661891915E-003  -6.4426486124058197E-004   1559883478.7072008     
  -1.7441634217493754E-003  -6.2774876871765542E-004   1561955837.0709178     
  -1.5807867835239727E-003  -4.6757469690944092E-004   1569244206.3942704     
   730794550.84292126        31571377.034940332        1453622159.2259774     
   671024987.34244514        30101640.870851725        1452882279.4447560     
   611317420.61127222        28838560.604437888        1457798746.9358840     
   551671850.64938450        27782136.235643119        1468371561.6993606     
   492088277.45678973        26932367.764490858        1484600723.7351956     
   545607227.44456232        22931927.069909990        1484888311.0833158     
   500676490.73568463        21798555.721828997        1484804495.4741833     
   455792251.60377413        20820176.296977282        1490401192.0902343     
   410954510.04882783        19996788.795333996        1501678400.9314713     
   366163266.07085389        19328393.216934890        1518636121.9978921     
   362079027.83769453        14790214.242340341        1514580702.8971441     
   332056160.64278907        14013920.526955768        1515134869.0690510     
   302064291.83253223        13340954.760394365        1521393712.4189818     
   272103421.40691483        12771316.942634851        1533357232.9469292     
   242173549.36593562        12305007.073667534        1551025430.6528928     
   180209952.02231175        7146238.5522061735        1542699334.6674664     
   165163997.06377164        6747735.2862609550        1543873400.2293711     
   150133541.29754189        6400895.9946831614        1550776307.9221280     
   135118584.72363040        6105720.6774992272        1563408057.7457352     
   120119127.34203953        5862209.3347184844        1581768649.7001996     
  -1.5807867835239727E-003  -4.6757469690944092E-004   1569244206.3942704     
  -1.3844237112015346E-003  -2.9875369577481891E-004   1571020088.9551277     
  -1.1914462090915519E-003  -1.4260570746249779E-004   1578548978.5996690     
  -1.0068868815638918E-003  -1.5212190481642737E-005   1591830875.3278978     
  -8.3614434057895711E-004   6.8900928918357973E-005   1610865779.1398132     
   492088277.45678973        26932367.764490858        1484600723.7351956     
   432933323.97144753        22958888.165759265        1481565894.9017229     
   371572002.04222697        11630847.087427646        1484439007.2594197     
   308004311.66914028       -7051755.4704567343        1493220060.8082929     
   242230252.85217541       -33088919.507931933        1507909055.5483356     
   366163266.07085389        19328393.216934890        1518636121.9978921     
   322514017.73894376        16563373.552485183        1513942665.7250834     
   277209993.07413602        8282432.7783808112        1514989858.3942931     
   230251192.07643542       -5514429.1053684503        1521777700.0055192     
   181637614.74582428       -24827212.098819561        1534306190.5587690     
   242173549.36593562        12305007.073667534        1551025430.6528928     
   213552028.33275285        10605053.987148240        1545316871.0702157     
   183827323.07763925        5227820.1608580574        1545181668.1803994     
   152999433.60058802       -3826694.4052231461        1550619821.9834561     
   121068359.90160504       -16558489.711077616        1561631332.4793706     
   120119127.34203953        5862209.3347184844        1581768649.7001996     
   106047355.75285906        5083929.4696954302        1575688510.9371092     
   91423992.052710712        2467009.2347795479        1575014436.6177337     
   76249036.241601244       -1988551.3700062484        1579746426.7420671     
   60522488.319520675       -8282752.3446968757        1589884481.3101158     
  -8.3614434057895711E-004   6.8900928918357973E-005   1610865779.1398132     
  -7.4290390688997072E-004   1.0353439717280481E-004   1605057585.3257744     
  -6.3474866388665201E-004   1.8927167525580795E-004   1604488163.7062991     
  -5.3569785969791032E-004   2.4396693456649643E-004   1609157514.2813802     
  -4.2456880502148844E-004   3.3892302883611924E-004   1619065637.0510247     
   242230252.85217541       -33088919.507931933        1507909055.5483356     
   201283522.06072384       -62107100.166831836        1486912501.2250855     
   155666754.19948110       -106692071.05836911        1468631637.5977812     
   105379949.26840943       -166843832.18267089        1453066464.6664176     
   50423107.267545089       -242562383.53961208        1440216982.4310000     
   181637614.74582428       -24827212.098819561        1534306190.5587690     
   150103783.68055022       -46837982.484485954        1508646598.8818729     
   115067424.81292668       -80523845.544654682        1485894913.9276483     
   76528538.142935216       -125884801.27938126        1466051135.6961126     
   34487123.670589775       -182920849.68861821        1449115264.1872463     
   121068359.90160504       -16558489.711077616        1561631332.4793706     
   99496617.210317999       -31397093.229175955        1532670797.5941765     
   75589855.984128773       -54019091.863614962        1506810385.4584002     
   49348076.223023832       -84424485.614436567        1484050096.0720339     
   20771277.927016273       -122613274.48160645        1464389929.4350796     
   60522488.319520675       -8282752.3446968757        1589884481.3101158     
   49462022.650038511       -15784432.400857676        1558985097.3619924     
   37234047.713092081       -27177810.015232719        1531378052.1900187     
   23838563.508683894       -42462885.187813558        1507063345.7941854     
   9275570.0368190259       -61639657.918583475        1486040978.1745017     
  -4.2456880502148844E-004   3.3892302883611924E-004   1619065637.0510247     
  -3.0433531153048932E-004   4.1496110576992454E-004   1587589498.1853302     
  -1.9526504955083110E-004   4.5101285343769750E-004   1559597914.1225064     
  -9.0769882452869957E-005   4.7320206361392829E-004   1535090884.8625705     
   1.0980227716072947E-006   4.5330040087854603E-004   1514068410.4055078     
   50423107.267545089       -242562383.53961208        1440216982.4310000     
   40952433.892279208       -323563525.91818124        1346952069.7796261     
   23671506.415862262       -430598848.63392067        1253585997.9149399     
  -1419675.1617269516       -563668351.68689966        1160118766.8369572     
  -34321110.840454191       -722772035.07700253        1066550376.5456659     
   34487123.670589775       -182920849.68861821        1449115264.1872463     
   30222912.633631930       -242820068.27419591        1348323239.4236028     
   20101011.020811364       -322244922.11264247        1246767670.1812744     
   4121418.8321352303       -421195411.20394230        1144448556.4602449     
  -17715863.932399094       -539671535.54810953        1041365898.2605463     
   20771277.927016273       -122613274.48160645        1464389929.4350796     
   19820999.898694925       -161978328.07309756        1358348783.3386796     
   14965594.819815591       -214360471.83311522        1250881707.4982135     
   6205062.6903691739       -279759705.76169366        1141988701.9136660     
  -6460596.4896351099       -358176029.85879076        1031669766.5850630     
   9275570.0368190259       -61639657.918583475        1486040978.1745017     
   9746695.6874675751       -81038305.314892918        1377028701.5248644     
   8265257.8128542528       -106945497.79540722        1265928109.8657761     
   4831256.4129799753       -139361235.36012185        1152739203.1972177     
  -555308.51216086000       -178285518.00906545        1037461981.5192201     
   1.0980227716072947E-006   4.5330040087854603E-004   1514068410.4055078     
  -4.9502526619962361E-005   4.2479755976557328E-004   1404362993.9821420     
  -5.5953410403155224E-005   5.4276638129013225E-004   1291906877.2839453     
  -3.5525611756377770E-005   7.5206553439056923E-004   1176700060.3108954     
   1.9215398503127739E-005   1.0715787231910885E-003   1058742543.0630199     
  -7.9727433446405878E-003  -4.6600086427013715E-003   1846259028.1991918     
  -6.8393093386489552E-003  -2.5930265260994505E-003   1729469647.7347727     
  -5.8677421895717650E-003  -1.0683761567739005E-003   1631815647.4052622     
  -5.0650875435268297E-003  -1.0503274074656057E-004   1553297027.2106566     
  -4.4278225774552447E-003   3.0701174203628229E-004   1493913787.1509562     
  -468753688.91256022        90086622.129239470        1824701045.7107799     
  -436330488.06450200        44387786.272498220        1714761816.8295851     
  -398875969.97457755        15460007.888643920        1621174016.7400682     
  -356390134.64279318        3303286.9776555598        1543937645.4422383     
  -308872982.06914598        7917623.5395448655        1483052702.9360909     
  -922343971.53950763        184722266.14643097        1778890514.2749455     
  -865451716.53944397        90938350.422408998        1681671307.0926678     
  -798496827.05548811        30696549.644694746        1598019577.3588529     
  -721479303.08764219        3996863.8132816851        1527935325.0734997     
  -634399144.63590372        10839292.928175777        1471418550.2366066     
  -1360770847.8888144        283906932.04691380        1708827433.8916941     
  -1287363685.4316676        139651692.44713283        1630198118.5240345     
  -1198862571.2485983        45709625.267089665        1562352329.2616189     
  -1095267505.3396132        2080730.5067703128        1505290066.1044371     
  -976578487.70470536        8765008.1661911607        1459011329.0524998     
  -1784034317.9604793        387640619.83069086        1614511804.5610192     
  -1702066394.7411695        190527812.34667313        1560342251.1236825     
  -1599973202.5539098        60499234.755820751        1514172272.4483600     
  -1477754741.3987029       -2445112.9418725967        1476001868.5350571     
  -1335411011.2755482        1694769.2535941005        1445831039.3837698     
  -4.4278225774552447E-003   3.0701174203628229E-004   1493913787.1509562     
  -4.0399002824361499E-003   3.7675906350775391E-004   1509202138.3907182     
  -3.6730005483984526E-003   3.7608423701270379E-004   1525961823.9711010     
  -3.3183620686437045E-003   3.3488550760302151E-004   1544192843.8921003     
  -2.9802168059374738E-003   2.3836244333641748E-004   1563895198.1537223     
  -308872982.06914598        7917623.5395448655        1483052702.9360909     
  -303460679.91445047        7061720.5794379413        1493040898.0040820     
  -298358014.38380927        5173695.5391504467        1505918584.1486530     
  -293564985.47721744        2253548.4186990708        1521685761.3698056     
  -289081593.19467777       -1698720.7819276750        1540342429.6675401     
  -634399144.63590372        10839292.928175777        1471418550.2366066     
  -619522663.93843818        10343049.924429327        1475745346.4047818     
  -605265456.48906171        7782562.7603870928        1484379790.3855019     
  -591627522.28776836        3157831.4360678196        1497321882.1787651     
  -578608861.33456206       -3531144.0485430658        1514571621.7845700     
  -976578487.70470536        8765008.1661911607        1459011329.0524998     
  -948185952.07600713        9843988.0353413224        1457315483.5928204     
  -920722326.31942725        7826601.6640945077        1461345442.6816483     
  -894187610.43497097        2712849.0524376035        1471101206.3189812     
  -868581804.42263556       -5497269.7996218801        1486582774.5048215     
  -1335411011.2755482        1694769.2535941005        1445831039.3837698     
  -1289450544.3271496        5564534.9121895432        1437751309.5681965     
  -1244728623.8749096        5305812.2502619028        1436815541.0370932     
  -1201245249.9188256        918601.26781052351        1443023733.7904541     
  -1159000422.4588938       -7597098.0351462364        1456375887.8282864     
  -2.9802168059374738E-003   2.3836244333641748E-004   1563895198.1537223     
  -2.7378740300539797E-003   8.7910448151809245E-005   1557574130.7324846     
  -2.5026684021859334E-003  -8.6332040417623729E-005   1556715707.7095623     
  -2.2612406452787786E-003  -2.3914020946630605E-004   1561319929.0849519     
  -2.0240219756627854E-003  -4.0736644826630742E-004   1571386794.8586602     
  -289081593.19467777       -1698720.7819276750        1540342429.6675401     
  -275435697.02221465       -3225730.7153462917        1533883548.0772419     
  -261693455.58817515       -4431589.7768450975        1532811252.2057076     
  -247854868.89256793       -5316297.9664520621        1537125542.0529382     
  -233919936.93538937       -5879855.2841532081        1546826417.6189330     
  -578608861.33456206       -3531144.0485430658        1514571621.7845700     
  -551534379.50287557       -6650357.0691107810        1508087328.8303812     
  -524267207.14804614       -9127268.3458692133        1506913562.9154038     
  -496807344.27007300       -10961877.878814310        1511050324.0396371     
  -469154790.86896032       -12154185.667960733        1520497612.2030845     
  -868581804.42263556       -5497269.7996218801        1486582774.5048215     
  -828296047.44473088       -10273879.061242670        1480185472.9919062     
  -787721254.68211055       -14087035.707145125        1479022639.8386521     
  -746857426.13477778       -16936739.737338185        1483094275.0450587     
  -705704561.80273485       -18822991.151832670        1492400378.6111217     
  -1159000422.4588938       -7597098.0351462364        1456375887.8282864     
  -1105720700.8477805       -14096296.691736221        1450177980.5618119     
  -1052055598.1903741       -19310891.860687494        1449138482.9754469     
  -998005114.48668444       -23240883.542025983        1453257395.0691910     
  -943569249.73671246       -25886271.735755563        1462534716.8430417     
  -2.0240219756627854E-003  -4.0736644826630742E-004   1571386794.8586602     
  -1.9631732137362144E-003  -5.8895196412086430E-004   1563027131.3031120     
  -1.8644426661891915E-003  -6.4426486124058197E-004   1559883478.7072008     
  -1.7441634217493754E-003  -6.2774876871765542E-004   1561955837.0709178     
  -1.5807867835239727E-003  -4.6757469690944092E-004   1569244206.3942704     
  -233919936.93538937       -5879855.2841532081        1546826417.6189330     
  -220555012.60771042       -6405024.1008326411        1538015807.5828164     
  -207148373.68016213       -6791144.2512824163        1534391090.4121230     
  -193700020.15273580       -7038215.7354715988        1535952266.1068499     
  -180209952.02543050       -7146238.5533982664        1542699334.6669924     
  -469154790.86896032       -12154185.667960733        1520497612.2030845     
  -442510993.91142851       -13230338.810500860        1511284722.7195587     
  -415783767.75417322       -14028394.620628744        1507227608.0072386     
  -388973112.39720285       -14548353.098371610        1508326268.0661199     
  -362079027.84050822       -14790214.243700698        1514580702.8962076     
  -705704561.80273485       -18822991.151832670        1492400378.6111217     
  -665867943.91310322       -20475944.129546106        1482833876.7133358     
  -625906182.22390342       -21711751.108700365        1478393031.4925368     
  -585819276.73514104       -22530412.089312851        1479077842.9487326     
  -545607227.44680798       -22931927.071354747        1484888311.0819132     
  -943569249.73671246       -25886271.735755563        1462534716.8430417     
  -890625862.61273229       -28141840.057960987        1452663269.5641482     
  -837515617.08934534       -29841213.715474725        1447887360.8680291     
  -784238513.16654932       -30984392.708294064        1448206990.7546868     
  -730794550.84433961       -31571377.036398321        1453622159.2241173     
  -1.5807867835239727E-003  -4.6757469690944092E-004   1569244206.3942704     
  -1.3844237112015346E-003  -2.9875369577481891E-004   1571020088.9551277     
  -1.1914462090915519E-003  -1.4260570746249779E-004   1578548978.5996690     
  -1.0068868815638918E-003  -1.5212190481642737E-005   1591830875.3278978     
  -8.3614434057895711E-004   6.8900928918357973E-005   1610865779.1398132     
  -180209952.02543050       -7146238.5533982664        1542699334.6669924     
  -165163997.06650645       -6747735.2870863974        1543873400.2289567     
  -150133541.29990035       -6400895.9951679632        1550776307.9217680     
  -135118584.72564241       -6105720.6777448878        1563408057.7454166     
  -120119127.34371063       -5862209.3347418644        1581768649.6998987     
  -362079027.84050822       -14790214.243700698        1514580702.8962076     
  -332056160.64527118       -14013920.527951866        1515134869.0682459     
  -302064291.83468926       -13340954.761051461        1521393712.4182754     
  -272103421.40876603       -12771316.943014532        1533357232.9462965     
  -242173549.36749527       -12305007.073819011        1551025430.6523132     
  -545607227.44680798       -22931927.071354747        1484888311.0819132     
  -500676490.73768270       -21798555.722905546        1484804495.4729786     
  -455792251.60554194       -20820176.297737032        1490401192.0891860     
  -410954510.05037558       -19996788.795816541        1501678400.9305389     
  -366163266.07219082       -19328393.217169449        1518636121.9970398     
  -730794550.84433961       -31571377.036398321        1453622159.2241173     
  -671024987.34375179       -30101640.871986479        1452882279.4431636     
  -611317420.61246455       -28838560.605246902        1457798746.9345055     
  -551671850.65048087       -27782136.236184776        1468371561.6981468     
  -492088277.45780122       -26932367.764800966        1484600723.7340839     
  -8.3614434057895711E-004   6.8900928918357973E-005   1610865779.1398132     
  -7.4290390688997072E-004   1.0353439717280481E-004   1605057585.3257744     
  -6.3474866388665201E-004   1.8927167525580795E-004   1604488163.7062991     
  -5.3569785969791032E-004   2.4396693456649643E-004   1609157514.2813802     
  -4.2456880502148844E-004   3.3892302883611924E-004   1619065637.0510247     
  -120119127.34371063       -5862209.3347418644        1581768649.6998987     
  -106047355.75432749       -5083929.4695814066        1575688510.9368541     
  -91423992.053975075       -2467009.2345222756        1575014436.6175137     
  -76249036.242662221        1988551.3704049848        1579746426.7418835     
  -60522488.320378736        8282752.3452304937        1589884481.3099623     
  -242173549.36749527       -12305007.073819011        1551025430.6523132     
  -213552028.33411667       -10605053.987144381        1545316871.0697064     
  -183827323.07880417       -5227820.1606871113        1545181668.1799586     
  -152999433.60156420        3826694.4055267051        1550619821.9830742     
  -121068359.90239327        16558489.711510606        1561631332.4790466     
  -366163266.07219082       -19328393.217169449        1518636121.9970398     
  -322514017.74010128       -16563373.552554339        1513942665.7243359     
  -277209993.07511616       -8282432.7782868445        1514989858.3936415     
  -230251192.07723814        5514429.1056234837        1521777700.0049613     
  -181637614.74646854        24827212.099172503        1534306190.5582840     
  -492088277.45780122       -26932367.764800966        1484600723.7340839     
  -432933323.97228944       -22958888.165838659        1481565894.9007416     
  -371572002.04291970       -11630847.087349012        1484439007.2585564     
  -308004311.66968960        7051755.4706766158        1493220060.8075273     
  -242230252.85260645        33088919.508208945        1507909055.5476592     
  -4.2456880502148844E-004   3.3892302883611924E-004   1619065637.0510247     
  -3.0433531153048932E-004   4.1496110576992454E-004   1587589498.1853302     
  -1.9526504955083110E-004   4.5101285343769750E-004   1559597914.1225064     
  -9.0769882452869957E-005   4.7320206361392829E-004   1535090884.8625705     
   1.0980227716072947E-006   4.5330040087854603E-004   1514068410.4055078     
  -60522488.320378736        8282752.3452304937        1589884481.3099623     
  -49462022.650662720        15784432.401552204        1558985097.3618479     
  -37234047.713494197        27177810.016045507        1531378052.1898720     
  -23838563.508876927        42462885.188701764        1507063345.7940364     
  -9275570.0368085466        61639657.919530861        1486040978.1743300     
  -121068359.90239327        16558489.711510606        1561631332.4790466     
  -99496617.210908726        31397093.229736492        1532670797.5938804     
  -75589855.984521687        54019091.864306450        1506810385.4581146     
  -49348076.223222062        84424485.615248904        1484050096.0717449     
  -20771277.927006364        122613274.48257864        1464389929.4347742     
  -181637614.74646854        24827212.099172503        1534306190.5582840     
  -150103783.68105382        46837982.484934390        1508646598.8814397     
  -115067424.81326503        80523845.545273438        1485894913.9272518     
  -76528538.143108279        125884801.28017390        1466051135.6957216     
  -34487123.670595080        182920849.68959582        1449115264.1868479     
  -242230252.85260645        33088919.508208945        1507909055.5476592     
  -201283522.06108540        62107100.167179674        1486912501.2245090     
  -155666754.19974133        106692071.05889225        1468631637.5972750     
  -105379949.26856822        166843832.18336973        1453066464.6659546     
  -50423107.267558709        242562383.54063386        1440216982.4305542     
   1.0980227716072947E-006   4.5330040087854603E-004   1514068410.4055078     
  -4.9502526619962361E-005   4.2479755976557328E-004   1404362993.9821420     
  -5.5953410403155224E-005   5.4276638129013225E-004   1291906877.2839453     
  -3.5525611756377770E-005   7.5206553439056923E-004   1176700060.3108954     
   1.9215398503127739E-005   1.0715787231910885E-003   1058742543.0630199     
  -9275570.0368085466        61639657.919530861        1486040978.1743300     
  -9746695.6875221990        81038305.315889046        1377028701.5247531     
  -8265257.8129458427        106945497.79655422        1265928109.8657267     
  -4831256.4130515754        139361235.36161053        1152739203.1972477     
   555308.51214315742        178285518.01099858        1037461981.5193105     
  -20771277.927006364        122613274.48257864        1464389929.4347742     
  -19820999.898729958        161978328.07417282        1358348783.3384733     
  -14965594.819875032        214360471.83436054        1250881707.4981089     
  -6205062.6904457211        279759705.76312888        1141988701.9136622     
   6460596.4895639718        358176029.86050135        1031669766.5851680     
  -34487123.670595080        182920849.68959582        1449115264.1868479     
  -30222912.633643180        242820068.27536163        1348323239.4233027     
  -20101011.020853713        322244922.11392206        1246767670.1810784     
  -4121418.8322064281        421195411.20534396        1144448556.4601755     
   17715863.932292044        539671535.54959631        1041365898.2605841     
  -50423107.267558709        242562383.54063386        1440216982.4305542     
  -40952433.892262459        323563525.91946524        1346952069.7792494     
  -23671506.415854275        430598848.63533866        1253585997.9146502     
   1419675.1616685390        563668351.68826854        1160118766.8367419     
   34321110.840326101        722772035.07829630        1066550376.5455531     
  -1784034317.9604793        387640619.83069086        1614511804.5610192     
  -1702066394.7411695        190527812.34667313        1560342251.1236825     
  -1599973202.5539098        60499234.755820751        1514172272.4483600     
  -1477754741.3987029       -2445112.9418725967        1476001868.5350571     
  -1335411011.2755482        1694769.2535941005        1445831039.3837698     
  -2337829186.1063108        52264431.338066936        1433002806.2359865     
  -2186987079.4806480        1076757.7272001505        1392294875.6237931     
  -2028513291.9917111       -24671979.672740459        1362892480.4375882     
  -1862407823.6394951       -24981780.861760378        1344795620.6773679     
  -1688670674.4240050        147354.16014313698        1338004296.3431365     
  -2904146658.7522936       -286868538.50460553        1306959764.6327498     
  -2674984766.8232245       -189297397.67320216        1265137604.0569189     
  -2450684782.1355505       -107932614.31311345        1237926939.5710423     
  -2231246704.6892734       -42774188.424345732        1225327771.1751242     
  -2016670534.4843884        6177879.9931110144        1227340098.8691609     
  -3482986735.8984280       -629758289.69732189        1236382679.7513018     
  -3166059456.7688971       -380594653.85453260        1178870436.4230504     
  -2866487672.9854345       -189282669.16529953        1139275649.8487229     
  -2584271384.5480375       -55822335.629627585        1117598320.0283237     
  -2319410591.4567065        19786346.752496839        1113838446.9618485     
  -4074349417.5447178       -976404822.24008489        1221271551.5916505     
  -3660211149.3176699       -572815010.81679463        1133493372.7221937     
  -3275921964.5413551       -268722144.22929585        1066938611.2706311     
  -2921481863.2157845       -64126222.477603316        1021607267.2369655     
  -2596890845.3409486        40972754.438312054        997499340.62119484     
  -1335411011.2755482        1694769.2535941005        1445831039.3837698     
  -1289450544.3271496        5564534.9121895432        1437751309.5681965     
  -1244728623.8749096        5305812.2502619028        1436815541.0370932     
  -1201245249.9188256        918601.26781052351        1443023733.7904541     
  -1159000422.4588938       -7597098.0351462364        1456375887.8282864     
  -1688670674.4240050        147354.16014313698        1338004296.3431365     
  -1626797773.4309199        2104290.5640116334        1336783144.2116055     
  -1565707931.8624227        1451028.8859163523        1341099786.8118427     
  -1505401149.7185023       -1812430.8740987182        1350954224.1438491     
  -1445877426.9991724       -7686088.7160779834        1366346456.2076185     
  -2016670534.4843884        6177879.9931110144        1227340098.8691609     
  -1943474246.7400489        4845272.9542185068        1233508926.0051761     
  -1870605531.3487222        2420758.0719517469        1243609381.3202558     
  -1798064388.3104088       -1095664.6536935568        1257641464.8144040     
  -1725850817.6251059       -5703995.2227078676        1275605176.4876139     
  -2319410591.4567065        19786346.752496839        1113838446.9618485     
  -2239479964.2545404        13787482.082825422        1127928654.9489059     
  -2159421422.3338170        8214999.8083382845        1144344324.5623274     
  -2079234965.6945331        3068899.9290544987        1163085455.8021162     
  -1998920594.3366904       -1650817.5550305843        1184152048.6682675     
  -2596890845.3409486        40972754.438312054        997499340.62119484     
  -2514814925.9743886        28930917.949818611        1020042331.0427958     
  -2432155604.8177009        18833754.095093966        1043304616.5380616     
  -2348912881.8708835        10681262.874133706        1067286197.1069912     
  -2265086757.1339321        4473444.2869495153        1091987072.7495856     
  -1159000422.4588938       -7597098.0351462364        1456375887.8282864     
  -1105720700.8477805       -14096296.691736221        1450177980.5618119     
  -1052055598.1903741       -19310891.860687494        1449138482.9754469     
  -998005114.48668444       -23240883.542025983        1453257395.0691910     
  -943569249.73671246       -25886271.735755563        1462534716.8430417     
  -1445877426.9991724       -7686088.7160779834        1366346456.2076185     
  -1379325822.2695584       -12375030.236760020        1362628439.6734006     
  -1312600156.9824641       -16483769.899180174        1363543402.6727128     
  -1245700431.1378970       -20012307.703356743        1369091345.2055538     
  -1178626644.7358556       -22960643.649278343        1379272267.2719219     
  -1725850817.6251059       -5703995.2227078676        1275605176.4876139     
  -1647528558.7672200       -9033048.3045471907        1274120510.1153748     
  -1569243559.8406687       -12486301.157500684        1276743393.1300828     
  -1490995820.8454545       -16063753.781580865        1283473825.5317383     
  -1412785341.7815745       -19765406.176775336        1294311807.3203421     
  -1998920594.3366904       -1650817.5550305843        1184152048.6682675     
  -1910328910.3407662       -4070350.8950955868        1184654191.8877268     
  -1821985806.7649872       -7318485.6356552839        1188738454.3475561     
  -1733891283.6093550       -11395221.776699662        1196404836.0477474     
  -1646045340.8738739       -16300559.318245709        1207653336.9883094     
  -2265086757.1339321        4473444.2869495153        1091987072.7495856     
  -2167726876.9901996        2513061.9915816784        1094229484.9904628     
  -2070826897.7554264       -980323.33365535736        1099528586.3251281     
  -1974386819.4296103       -6006711.6887454987        1107884376.7535825     
  -1878406642.0127497       -12566103.073689103        1119296856.2758155     
  -943569249.73671246       -25886271.735755563        1462534716.8430417     
  -890625862.61273229       -28141840.057960987        1452663269.5641482     
  -837515617.08934534       -29841213.715474725        1447887360.8680291     
  -784238513.16654932       -30984392.708294064        1448206990.7546868     
  -730794550.84433961       -31571377.036398321        1453622159.2241173     
  -1178626644.7358556       -22960643.649278343        1379272267.2719219     
  -1112784998.6109729       -25794520.741084635        1369829413.8847125     
  -1046798225.6124030       -28144641.587268710        1365346215.4776375     
  -980666325.74015021       -30011006.187844217        1365822672.0506985     
  -914389298.99420369       -31393614.542763859        1371258783.6038923     
  -1412785341.7815745       -19765406.176775336        1294311807.3203421     
  -1334433675.5204775       -23294063.697585702        1285272194.3781414     
  -1255958613.9114163       -26411403.391853034        1281056352.8134325     
  -1177360156.9543896       -29117425.259569347        1281664282.6262205     
  -1098638304.6493988       -31412129.300738752        1287095983.8164971     
  -1646045340.8738739       -16300559.318245709        1207653336.9883094     
  -1555571893.3412495       -20640468.927467883        1198991611.0444376     
  -1464996781.9863806       -24641499.129210949        1195017772.8754206     
  -1374320006.8092716       -28303649.923488915        1195731822.4812574     
  -1283541567.8099246       -31626921.310301125        1201133759.8619421     
  -1878406642.0127497       -12566103.073689103        1119296856.2758155     
  -1776199652.0732861       -17833736.430729508        1110987663.8836007     
  -1673912729.8373008       -22834928.799362242        1107230475.6635954     
  -1571545875.3048007       -27569680.179614246        1108025291.6158013     
  -1469099088.4757867       -32037990.571484387        1113372111.7402184     
  -730794550.84433961       -31571377.036398321        1453622159.2241173     
  -671024987.34375179       -30101640.871986479        1452882279.4431636     
  -611317420.61246455       -28838560.605246902        1457798746.9345055     
  -551671850.65048087       -27782136.236184776        1468371561.6981468     
  -492088277.45780122       -26932367.764800966        1484600723.7340839     
  -914389298.99420369       -31393614.542763859        1371258783.6038923     
  -840733981.57967687       -30555991.220812827        1369928949.0075312     
  -767219344.13139749       -30187301.119683087        1373769988.4978569     
  -693845386.64935064       -30287544.239330798        1382781902.0748661     
  -620612109.13354194       -30856720.579770744        1396964689.7385561     
  -1098638304.6493988       -31412129.300738752        1287095983.8164971     
  -1012484299.5655491       -31622738.694641650        1285084397.3416426     
  -926549657.64487624       -32564558.632469654        1287758211.7678580     
  -840834378.88737690       -34237589.114210486        1295117427.0951452     
  -755338463.29305065       -36641830.139857650        1307162043.3234985     
  -1283541567.8099246       -31626921.310301125        1201133759.8619421     
  -1186275941.3013663       -33301883.293461502        1198348624.4454980     
  -1089308361.1529093       -35970333.143635869        1199763416.7445109     
  -992638827.36456251       -39632270.860837936        1205378136.7589796     
  -896267339.93632543       -44287696.445074320        1215192784.4889059     
  -1469099088.4757867       -32037990.571484387        1113372111.7402184     
  -1362108906.7871118       -35593425.017233193        1109721630.3190947     
  -1255495454.6554902       -40404624.653156340        1109785603.4278152     
  -1149258732.0809143       -46471589.479229391        1113564031.0663786     
  -1043398739.0633737       -53794319.495429635        1121056913.2347851     
  -492088277.45780122       -26932367.764800966        1484600723.7340839     
  -432933323.97228944       -22958888.165838659        1481565894.9007416     
  -371572002.04291970       -11630847.087349012        1484439007.2585564     
  -308004311.66968960        7051755.4706766158        1493220060.8075273     
  -242230252.85260645        33088919.508208945        1507909055.5476592     
  -620612109.13354194       -30856720.579770744        1396964689.7385561     
  -546539387.22344625       -27906764.657411277        1394332503.9834774     
  -470171722.30675280       -17306998.713056624        1397503781.2892175     
  -391509114.38347977        942577.25322659314        1406478521.6557755     
  -310551563.45362151        26841963.241460398        1421256725.0831394     
  -755338463.29305065       -36641830.139857650        1307162043.3234985     
  -666646481.90220392       -34804950.577234179        1305035837.6365421     
  -575570982.94204509       -25023012.450227737        1308608616.8800554     
  -482111966.41256797       -7296015.7588326633        1317880381.0540428     
  -386269432.31377280        18376039.496957615        1332851130.1584938     
  -896267339.93632543       -44287696.445074320        1215192784.4889059     
  -793254608.00857890       -43653445.925363898        1213675895.8599167     
  -687769783.94878232       -34778888.298826188        1217753514.0310621     
  -579812867.75693834       -17664023.565456629        1227425639.0023267     
  -469383859.43304622        7691148.2747315764        1242692270.7737231     
  -1043398739.0633737       -53794319.495429635        1121056913.2347851     
  -926363765.54255795       -54452250.701764822        1120252678.6536257     
  -806768125.32696819       -46574626.258850873        1124938472.7422426     
  -684611818.41660118       -30161446.166682929        1135114295.5006433     
  -559894844.81145597       -5212710.4252487123        1150780146.9288237     
  -242230252.85260645        33088919.508208945        1507909055.5476592     
  -201283522.06108540        62107100.167179674        1486912501.2245090     
  -155666754.19974133        106692071.05889225        1468631637.5972750     
  -105379949.26856822        166843832.18336973        1453066464.6659546     
  -50423107.267558709        242562383.54063386        1440216982.4305542     
  -310551563.45362151        26841963.241460398        1421256725.0831394     
  -260737551.39593911        56714365.655703619        1404774653.4515200     
  -204438650.63868856        108203063.73516831        1392200748.6159649     
  -141654861.18187106        181308057.47985286        1383535010.5764825     
  -72386183.025480852        276029346.88978601        1378777439.3330736     
  -386269432.31377280        18376039.496957615        1332851130.1584938     
  -324181064.41805023        50124786.038060352        1323000868.1197593     
  -253792956.19302213        109539333.67684262        1318251248.9772489     
  -175105107.63869390        196619682.41329348        1318602272.7309568     
  -88117518.755064771        311365832.24741626        1324053939.3808944     
  -469383859.43304622        7691148.2747315764        1242692270.7737231     
  -391614061.12741560        42338361.314252481        1241591145.2292356     
  -303729670.86274666        110700880.88390593        1246783138.6811237     
  -205730688.63903788        212778706.98368436        1258268251.1293936     
  -97617114.456300378        348571839.61356938        1276046482.5740371     
  -559894844.81145597       -5212710.4252487123        1150780146.9288237     
  -463036541.52405381        33355091.484236091        1160545484.7799435     
  -354248794.64787334        111687705.35631523        1177796417.7275925     
  -233531604.18291724        229785131.19098300        1202532945.7717717     
  -100884970.12919077        387647368.98821270        1234755068.9124854     
  -50423107.267558709        242562383.54063386        1440216982.4305542     
  -40952433.892262459        323563525.91946524        1346952069.7792494     
  -23671506.415854275        430598848.63533866        1253585997.9146502     
   1419675.1616685390        563668351.68826854        1160118766.8367419     
   34321110.840326101        722772035.07829630        1066550376.5455531     
  -72386183.025480852        276029346.88978601        1378777439.3330736     
  -58013006.668856204        377793147.92097598        1297100566.0867248     
  -34622853.850550175        509613537.15776986        1214504625.4272387     
  -2215724.5705536902        671490514.60020280        1130989617.3546059     
   39208381.171118379        863424080.24821949        1046555541.8688167     
  -88117518.755064771        311365832.24741626        1324053939.3808944     
  -71178719.988099784        433191227.75971174        1255372948.2935038     
  -44016222.398888111        589095619.34615433        1184954981.5931141     
  -6630025.9874393344        779079007.00672114        1112800039.2797403     
   40979869.246248424        1003141390.7414308        1038908121.3533418     
  -97617114.456300378        348571839.61356938        1276046482.5740371     
  -80449573.849995255        489757765.43564856        1221769216.3995838     
  -51851612.060886651        669045095.20041752        1164937066.4122872     
  -11823229.088977933        886433828.90785217        1105550032.6121395     
   39635575.065736115        1141923966.5579624        1043608114.9991392     
  -100884970.12919077        387647368.98821270        1234755068.9124854     
  -85825568.254546523        547492760.94880211        1196289370.4049561     
  -58129022.836537659        749461964.72059858        1154450879.8847301     
  -17795333.875179589        993554980.30357420        1109239597.3518157     
   35175498.629554212        1279771807.6977801        1060655522.8061864     
  -4074349417.5447178       -976404822.24008489        1221271551.5916505     
  -3660211149.3176699       -572815010.81679463        1133493372.7221937     
  -3275921964.5413551       -268722144.22929585        1066938611.2706311     
  -2921481863.2157845       -64126222.477603316        1021607267.2369655     
  -2596890845.3409486        40972754.438312054        997499340.62119484     
  -4400405252.9155340       -717631933.60131967        1047553436.1126770     
  -3995660949.6950312       -462321352.08161294        994718171.65862870     
  -3605780717.6183729       -256557674.37471926        947651646.68247032     
  -3230764556.6855583       -100340900.48063314        906353861.18420756     
  -2870612466.8965840        6328969.6006424427        870824815.16383910     
  -4530024154.2894449       -399927964.76348794        809147509.45406115     
  -4178830038.7612138       -306143479.95307565        808737673.77346301     
  -3827514982.0699310       -211955857.93249714        798641899.63075411     
  -3476078984.2155952       -117365098.70174718        778860187.02593815     
  -3124522045.1982079       -22371202.260823488        749392535.95901382     
  -4463206121.6664600       -23292915.726586580        506053771.61579716     
  -4209718416.5162196       -104281394.43119001        575551879.06669700     
  -3941124757.8960280       -134916694.90263796        619909370.11548078     
  -3657425145.8058925       -115198817.14093852        639126244.76215446     
  -3358619580.2458153       -45127761.146088004        633202503.00672138     
  -4199951155.0465770        412273213.50938749        138272222.59789521     
  -4088326082.9600453        143264904.48405671        295160787.53833055     
  -3946610045.0966735       -25440185.285148382        411454058.13665104     
  -3774803041.4564557       -93842055.798207998        487152034.39285851     
  -3572905072.0394039       -61940707.055140018        522254716.30695623     
  -2596890845.3409486        40972754.438312054        997499340.62119484     
  -2514814925.9743886        28930917.949818611        1020042331.0427958     
  -2432155604.8177009        18833754.095093966        1043304616.5380616     
  -2348912881.8708835        10681262.874133706        1067286197.1069912     
  -2265086757.1339321        4473444.2869495153        1091987072.7495856     
  -2870612466.8965840        6328969.6006424427        870824815.16383910     
  -2785035011.0583835        7446925.4045609236        899506857.17952561     
  -2699876686.7744398        7167776.0276063681        927126218.57071590     
  -2615137494.0447593        5491521.4697862864        953682899.33741212     
  -2530817432.8693404        2418161.7310869694        979176899.47961617     
  -3124522045.1982079       -22371202.260823488        749392535.95901382     
  -3040534412.0259566       -9620861.9057754278        783044007.33365858     
  -2957968443.7523541       -1609404.5462336540        813850822.38565135     
  -2876824140.3774080        1663169.8177971840        841812981.11499310     
  -2797101501.9011140        196861.18631315231        866930483.52168274     
  -3358619580.2458153       -45127761.146088004        633202503.00672138     
  -3281313128.8771067       -22272443.981185555        670653781.50520205     
  -3206430875.7514386       -7497787.6264230013        703478427.98287153     
  -3133972820.8688211       -803792.08182144165        731676442.43973196     
  -3063938964.2292452       -2190457.3473669291        755247824.87577963     
  -3572905072.0394039       -61940707.055140018        522254716.30695623     
  -3507371161.6118336       -30507820.821661949        562336179.69414735     
  -3445263982.7716980       -10497373.212966681        596009035.36237299     
  -3386583535.5189986       -1909364.2290620804        623273283.31162596     
  -3331329819.8537397       -4743793.8699562550        644128923.54191577     
  -2265086757.1339321        4473444.2869495153        1091987072.7495856     
  -2167726876.9901996        2513061.9915816784        1094229484.9904628     
  -2070826897.7554264       -980323.33365535736        1099528586.3251281     
  -1974386819.4296103       -6006711.6887454987        1107884376.7535825     
  -1878406642.0127497       -12566103.073689103        1119296856.2758155     
  -2530817432.8693404        2418161.7310869694        979176899.47961617     
  -2424613671.4827142        3995704.5047109127        980402189.83831823     
  -2319252893.4106412        2763302.8964935541        984557332.42799997     
  -2214735098.6531219       -1279043.0935693979        991642327.24866283     
  -2111060287.2101579       -8131333.4654999971        1001657174.3003051     
  -2797101501.9011140        196861.18631315231        866930483.52168274     
  -2682416250.3081751        5203611.7179722786        866691722.52501011     
  -2568957064.4353900        6123476.5157816410        869255976.89651012     
  -2456723944.2827539        2956455.5797607899        874623246.63618577     
  -2345716889.8502765       -4297451.0901173353        882793531.74403691     
  -3063938964.2292452       -2190457.3473669291        755247824.87577963     
  -2941134613.4665847        6136783.6313343048        753098083.05053532     
  -2819939410.8296714        9100197.5242103338        753624519.73066020     
  -2700353356.3185134        6699784.3312441111        756827134.91615498     
  -2582376449.9330959       -1064455.9475449324        762705928.60701978     
  -3331329819.8537397       -4743793.8699562550        644128923.54191577     
  -3200768760.9579401        6795220.2448244095        639621271.41490042     
  -3072199932.5934877        11693465.921778560        637662960.93044949     
  -2945623334.7603827        9950943.1609132290        638253992.08856297     
  -2821038967.4586277        1567651.9622071981        641394364.88924468     
  -1878406642.0127497       -12566103.073689103        1119296856.2758155     
  -1776199652.0732861       -17833736.430729508        1110987663.8836007     
  -1673912729.8373008       -22834928.799362242        1107230475.6635954     
  -1571545875.3048007       -27569680.179614246        1108025291.6158013     
  -1469099088.4757867       -32037990.571484387        1113372111.7402184     
  -2111060287.2101579       -8131333.4654999971        1001657174.3003051     
  -1997005537.9918823       -13154007.125884652        992667889.58947396     
  -1882954639.2751310       -18189515.791354775        988183732.52937102     
  -1768907591.0599020       -23237859.461905718        988204703.11999154     
  -1654864393.3462052       -28299038.137550652        992730801.36133778     
  -2345716889.8502765       -4297451.0901173353        882793531.74403691     
  -2219948314.2717185       -9115344.9294182062        873026408.11688054     
  -2094267371.9927278       -14225349.767267466        867717535.61895907     
  -1968674063.0133038       -19627465.603684068        866866914.25027502     
  -1843168387.3334568       -25321692.438676834        870474544.01083565     
  -2582376449.9330959       -1064455.9475449324        762705928.60701978     
  -2445027980.9127932       -5717749.8413169384        752063219.46581137     
  -2307850927.9900999       -10942430.727111101        745831884.93235874     
  -2170845291.1650224       -16738498.604965687        744011925.00665319     
  -2034011070.4375558       -23105953.474848866        746603339.68870473     
  -2821038967.4586277        1567651.9622071981        641394364.88924468     
  -2672244537.9151101       -2961221.8615881205        629778323.63627303     
  -2523705307.2672482       -8340758.6709009409        622526780.46956825     
  -2375421275.5150375       -14570958.465723038        619639735.38912654     
  -2227392442.6584921       -21651821.246085525        621117188.39495182     
  -1469099088.4757867       -32037990.571484387        1113372111.7402184     
  -1362108906.7871118       -35593425.017233193        1109721630.3190947     
  -1255495454.6554902       -40404624.653156340        1109785603.4278152     
  -1149258732.0809143       -46471589.479229391        1113564031.0663786     
  -1043398739.0633737       -53794319.495429635        1121056913.2347851     
  -1654864393.3462052       -28299038.137550652        992730801.36133778     
  -1539184120.7378435       -32808140.244938970        987735636.55941224     
  -1423459808.1115575       -37170442.292577326        985930779.70316768     
  -1307691455.4673548       -41385944.280484498        987316230.79259813     
  -1191879062.8052261       -45454646.208656609        991891989.82770944     
  -1843168387.3334568       -25321692.438676834        870474544.01083565     
  -1720295585.4744546       -31233730.708385170        864625593.66557109     
  -1596957974.0225637       -35596403.668479800        861442804.68181586     
  -1473155552.9777851       -38409711.318943202        860926177.05957067     
  -1348888322.3401222       -39673653.659786701        863075710.79883778     
  -2034011070.4375558       -23105953.474848866        746603339.68870473     
  -1905443300.9969549       -30870196.407606602        740391501.63755870     
  -1775989952.3885024       -35682508.780855536        736321678.36376202     
  -1645651024.6121976       -37542890.594586551        734393869.86730373     
  -1514426517.6680412       -36451341.848825276        734608076.14818776     
  -2227392442.6584921       -21651821.246085525        621117188.39495182     
  -2094627267.3053448       -31717537.342594743        615033360.47539127     
  -1960555743.2093863       -37428757.629727840        610567400.74900138     
  -1825177870.3706081       -38785482.107462764        607719309.21579504     
  -1688493648.7890062       -35787710.775784254        606489085.87575674     
  -1043398739.0633737       -53794319.495429635        1121056913.2347851     
  -926363765.54255795       -54452250.701764822        1120252678.6536257     
  -806768125.32696819       -46574626.258850873        1124938472.7422426     
  -684611818.41660118       -30161446.166682929        1135114295.5006433     
  -559894844.81145597       -5212710.4252487123        1150780146.9288237     
  -1191879062.8052261       -45454646.208656609        991891989.82770944     
  -1061777547.6147835       -42858094.377772212        989645521.18467581     
  -930151819.47486222       -35180832.715306610        991209175.22452986     
  -797001878.38546538       -22422861.221256584        996582951.94726932     
  -662327724.34659696       -4584179.8956291378        1005766851.3528893     
  -1348888322.3401222       -39673653.659786701        863075710.79883778     
  -1210519996.8711874       -35262538.209038079        858177812.05776215     
  -1071663912.1980777       -29225558.744372904        855410130.01266634     
  -932320068.32079279       -21562715.265789330        854772664.66355789     
  -792488465.23933578       -12274007.773288935        856265416.01043081     
  -1514426517.6680412       -36451341.848825276        734608076.14818776     
  -1372591113.3117666       -31665582.195553958        725849551.27287710     
  -1231304403.4966071       -28708804.346019685        717541337.10665190     
  -1090566388.2225811       -27581008.300250351        709683433.64951420     
  -950377067.48967850       -28282194.058233261        702275840.90145552     
  -1688493648.7890062       -35787710.775784254        606489085.87575674     
  -1547990896.9365187       -32067226.337315142        592660738.83002579     
  -1409073293.3704650       -33630569.520293295        577602796.50648570     
  -1271740838.0908301       -40477740.324666619        561315258.90512621     
  -1135993531.0976205       -52608738.750457287        543798126.02595508     
  -559894844.81145597       -5212710.4252487123        1150780146.9288237     
  -463036541.52405381        33355091.484236091        1160545484.7799435     
  -354248794.64787334        111687705.35631523        1177796417.7275925     
  -233531604.18291724        229785131.19098300        1202532945.7717717     
  -100884970.12919077        387647368.98821270        1234755068.9124854     
  -662327724.34659696       -4584179.8956291378        1005766851.3528893     
  -547227512.22789431        26115682.666894346        1019540658.3699820     
  -421299844.61057884        92907063.558142453        1041676786.1639134     
  -284544721.49464124        195789962.77811915        1072175234.7346885     
  -136962142.88008168        334764380.32684404        1111036004.0823176     
  -792488465.23933578       -12274007.773288935        856265416.01043081     
  -656641413.77416432        11309394.596827060        872762039.42164516     
  -511068894.90052974        67311021.661809325        898497709.29001474     
  -355770908.61843634        155730873.42166066        933472425.61553693     
  -190747454.92787462        276568949.87640476        977686188.39822078     
  -950377067.48967850       -28282194.058233261        702275840.90145552     
  -791278246.16285372       -11063772.725961000        720209627.93494260     
  -623555945.51772976        34899579.667314798        748259187.10590148     
  -447210165.55430251        109607863.12158751        786424518.41432500     
  -262240906.27256781        213061077.63689542        834705621.86020803     
  -1135993531.0976205       -52608738.750457287        543798126.02595508     
  -951138009.39397812       -41003819.301499546        561883423.90987277     
  -758760996.46219599       -4327262.4254145026        590961219.61157048     
  -558862492.30226660        57420931.877841294        631031513.13103986     
  -351442496.91416544        144240763.60831481        682094304.46828532     
  -100884970.12919077        387647368.98821270        1234755068.9124854     
  -85825568.254546523        547492760.94880211        1196289370.4049561     
  -58129022.836537659        749461964.72059858        1154450879.8847301     
  -17795333.875179589        993554980.30357420        1109239597.3518157     
   35175498.629554212        1279771807.6977801        1060655522.8061864     
  -136962142.88008168        334764380.32684404        1111036004.0823176     
  -127694045.99633864        483811743.50061780        1089652974.7274017     
  -95252993.527053326        710102291.95954382        1069679740.1891457     
  -39638985.472217500        1013636025.7036268        1051116300.4675415     
   39147978.168167055        1394412944.7328722        1033962655.5625856     
  -190747454.92787462        276568949.87640476        977686188.39822078     
  -173606129.23689854        418917644.40280992        985677608.91181350     
  -122756035.91818464        673628897.68833101        999861411.07141101     
  -38197174.971744895        1040702709.7329391        1020237594.8770069     
   80070453.602421105        1520139080.5366433        1046806160.3286043     
  -262240906.27256781        213061077.63689542        834705621.86020803     
  -223561817.97621450        352810463.65537190        884363272.95818865     
  -140638150.00993711        640041781.90691853        944995892.53152406     
  -13469902.373746932        1074755032.3914993        1016603480.5802013     
   157942924.93235159        1656950215.1091239        1099186037.1042285     
  -351442496.91416544        144240763.60831481        682094304.46828532     
  -277561112.21429455        285490201.25831127        785709966.86653578     
  -148899335.80231076        609340944.61533964        905083184.56947649     
   34542832.321750343        1115792993.6793175        1040213957.5771241     
   272765392.15792739        1804846348.4502981        1191102285.8894646     
  -4199951155.0465770        412273213.50938749        138272222.59789521     
  -4088326082.9600453        143264904.48405671        295160787.53833055     
  -3946610045.0966735       -25440185.285148382        411454058.13665104     
  -3774803041.4564557       -93842055.798207998        487152034.39285851     
  -3572905072.0394039       -61940707.055140018        522254716.30695623     
  -4221809914.3260198        830143821.44783759        666600792.48596203     
  -4179770905.8291888        422771835.14117026        610093608.92683697     
  -4097887919.3898993        148213108.64268088        572584057.85959697     
  -3976160955.0081520        6467641.9523780346        554072139.28423941     
  -3814590012.6839552       -2464564.9297516346        554557853.20076489     
  -5055061804.3277788        1004596490.1695962        1144052467.5064881     
  -4912343354.1806612        509940478.15358496        885528049.64102101     
  -4720027913.9254570        180607766.49781728        705594191.10143185     
  -4478115483.5621986        16598355.202252150        604250891.88772726     
  -4186606063.0908680        17912244.266928196        581498151.99990070     
  -6699706825.0518637        935631219.67465019        1570627247.6594768     
  -6286043428.0144587        404770833.52130890        1121464109.6808786     
  -5813030028.7033634        71743788.280237198        810484457.86216319     
  -5280666627.1185913       -63449916.048560619        637688292.20331740     
  -4688953223.2601404       -810279.46509981155        603075612.70435524     
  -9155744976.4982719        623248009.96301746        1946325132.9449208     
  -8300871127.3305941        107262901.24432421        1317901789.0464141     
  -7376894263.7236099       -178378826.01003122        887254858.14178038     
  -6383814385.6773396       -233677171.80009317        654384340.23101807     
  -5321631493.1917725       -58632136.125828981        619290235.31413543     
  -3572905072.0394039       -61940707.055140018        522254716.30695623     
  -3507371161.6118336       -30507820.821661949        562336179.69414735     
  -3445263982.7716980       -10497373.212966681        596009035.36237299     
  -3386583535.5189986       -1909364.2290620804        623273283.31162596     
  -3331329819.8537397       -4743793.8699562550        644128923.54191577     
  -3814590012.6839552       -2464564.9297516346        554557853.20076489     
  -3758303427.8882961        13416141.402738094        550120230.51492751     
  -3704675181.1626678        20435720.835123777        548566852.73143470     
  -3653705272.5070715        18594173.367394209        549897719.85028267     
  -3605393701.9215088        7891498.9995722771        554112831.87147319     
  -4186606063.0908680        17912244.266928196        581498151.99990070     
  -4113015796.4376688        26206072.945248604        533437902.34467602     
  -4041315474.3370862        28200086.448173046        497554750.21310449     
  -3971505096.7891321        23894284.775664091        473848695.60518771     
  -3903584663.7938042        13288667.927749395        462319738.52091986     
  -4688953223.2601404       -810279.46509981155        603075612.70435524     
  -4571508267.2599382        7861973.8059048653        512289195.18338931     
  -4455184862.2949591        12795723.626172543        442972727.80738676     
  -4339983008.3651934        13990969.995722055        395126210.57633793     
  -4225902705.4706450        11447712.914556026        368749643.49025571     
  -5321631493.1917725       -58632136.125828981        619290235.31413543     
  -5133780840.3551216       -41616156.015329123        486674109.03106558     
  -4946283345.0362711       -25777367.630838156        384820785.51426947     
  -4759139007.2352362       -11115770.972395420        313730264.76374054     
  -4572347826.9520111        2368633.9600121975        273402546.77947932     
  -3331329819.8537397       -4743793.8699562550        644128923.54191577     
  -3200768760.9579401        6795220.2448244095        639621271.41490042     
  -3072199932.5934877        11693465.921778560        637662960.93044949     
  -2945623334.7603827        9950943.1609132290        638253992.08856297     
  -2821038967.4586277        1567651.9622071981        641394364.88924468     
  -3605393701.9215088        7891498.9995722771        554112831.87147319     
  -3467226279.1857157        17329554.193752050        539546317.29854977     
  -3330894601.5115938        20648459.182382822        528766346.86473078     
  -3196398668.8991299        17848213.965480804        521772920.57001710     
  -3063738481.3483319        8928818.5430171490        518566038.41440433     
  -3903584663.7938042        13288667.927749395        462319738.52091986     
  -3754276012.9422016        21686223.484074116        437876927.88338375     
  -3606646621.6825819        24486247.067129135        418457863.88149983     
  -3460696490.0149393        21688738.676926613        404062546.51525015     
  -3316425617.9392734        13293698.313462734        394690975.78464979     
  -4225902705.4706450        11447712.914556026        368749643.49025571     
  -4061917962.2273970        19865228.115784407        334613103.16941237     
  -3899455993.1064534        23206829.576017141        306737511.98075193     
  -3738516798.1078000        21472517.295274973        285122869.92427409     
  -3579100377.2314487        14662291.273524523        269769176.99997950     
  -4572347826.9520111        2368633.9600121975        273402546.77947932     
  -4390152127.0413094        11866568.088859558        229754843.15661800     
  -4209322715.7832131        16810206.709025145        193605291.16249081     
  -4029859593.1777306        17199549.820479393        164953890.79707792     
  -3851762759.2248559        13034597.423237085        143800642.06038767     
  -2821038967.4586277        1567651.9622071981        641394364.88924468     
  -2672244537.9151101       -2961221.8615881205        629778323.63627303     
  -2523705307.2672482       -8340758.6709009409        622526780.46956825     
  -2375421275.5150375       -14570958.465723038        619639735.38912654     
  -2227392442.6584921       -21651821.246085525        621117188.39495182     
  -3063738481.3483319        8928818.5430171490        518566038.41440433     
  -2903974262.1287346        5158885.4634751081        502996570.35288352     
  -2744340284.9844379        954812.13292801380        491325763.78418070     
  -2584836549.9154372       -3683401.4486094713        483553618.70829594     
  -2425463056.9217453       -8755755.2811673880        479680135.12522024     
  -3316425617.9392734        13293698.313462734        394690975.78464979     
  -3147022570.7391639        9883417.4695036411        375313863.87166572     
  -2977624808.7940030        6455519.1090509892        359369576.85804152     
  -2808232332.1037855        3010003.2321232557        346858114.74378437     
  -2638845140.6685119       -453130.16129338741        337779477.52889633     
  -3579100377.2314487        14662291.273524523        269769176.99997950     
  -3401389463.7464046        11212374.156468868        246730204.19260189     
  -3223558878.6959429        8161362.2574647665        226658219.69114512     
  -3045608622.0800881        5509255.5764442682        209553223.49560735     
  -2867538693.8987980        3256054.1135363579        195415215.60598624     
  -3851762759.2248559        13034597.423237085        143800642.06038767     
  -3667074941.1504426        9145755.5244145393        117245591.31571649     
  -3482142494.6902652        6072341.5781507492        93191692.283507600     
  -3296965419.8443203        3814355.5844430923        71638944.963766143     
  -3111543716.6126108        2371797.5432748795        52587349.356486991     
  -2227392442.6584921       -21651821.246085525        621117188.39495182     
  -2094627267.3053448       -31717537.342594743        615033360.47539127     
  -1960555743.2093863       -37428757.629727840        610567400.74900138     
  -1825177870.3706081       -38785482.107462764        607719309.21579504     
  -1688493648.7890062       -35787710.775784254        606489085.87575674     
  -2425463056.9217453       -8755755.2811673880        479680135.12522024     
  -2286796165.6956592       -18636937.772632599        470245708.18181562     
  -2147073877.3142488       -25000129.746342778        463690609.80787247     
  -2006296191.7775183       -27845331.202320933        460014840.00339144     
  -1864463109.0854695       -27172542.140562654        459218398.76836544     
  -2638845140.6685119       -453130.16129338741        337779477.52889633     
  -2490672361.0658126       -9068527.2965921164        324701674.70957977     
  -2341695135.8952918       -15002439.205818295        315764660.83599746     
  -2191913465.1569471       -18254865.888961434        310968435.90816450     
  -2041327348.8507700       -18825807.345998883        310312999.92608124     
  -2867538693.8987980        3256054.1135363579        195415215.60598624     
  -2706255853.4158216       -3012305.9145200253        178401260.05867174     
  -2544419518.9525213       -7435686.0081665516        166789553.83338147     
  -2382029690.5088840       -10014086.167361021        160580096.93011937     
  -2219086368.0849075       -10747506.392082930        159772889.34888881     
  -3111543716.6126108        2371797.5432748795        52587349.356486991     
  -2933546642.7456837       -468273.62642371655        31344464.229100276     
  -2755247026.4859071       -2299870.1533015966        16765288.800015308     
  -2576644867.8333244       -3122992.0374834538        8849823.0692423377     
  -2397740166.7878852       -2937639.2788187265        7598067.0367941773     
  -1688493648.7890062       -35787710.775784254        606489085.87575674     
  -1547990896.9365187       -32067226.337315142        592660738.83002579     
  -1409073293.3704650       -33630569.520293295        577602796.50648570     
  -1271740838.0908301       -40477740.324666619        561315258.90512621     
  -1135993531.0976205       -52608738.750457287        543798126.02595508     
  -1864463109.0854695       -27172542.140562654        459218398.76836544     
  -1726903214.1351306       -26855666.399851203        444383182.43839806     
  -1589788138.5369828       -28021521.833070338        429299273.46868622     
  -1453117882.2909992       -30670108.440166712        413966671.85923064     
  -1316892445.3971763       -34801426.221165597        398385377.61002684     
  -2041327348.8507700       -18825807.345998883        310312999.92608124     
  -1903907731.8366861       -21071766.613286853        295801298.06850326     
  -1765792605.2405283       -20999360.606987953        282021806.20925772     
  -1626981969.0622633       -18608589.327008426        268974524.34832454     
  -1487475823.3019304       -13899452.773456812        256659452.48572442     
  -2219086368.0849075       -10747506.392082930        159772889.34888881     
  -2079004450.0411654       -14715526.977611542        146915085.72033796     
  -1937086693.4810808       -12564085.841991663        135770394.72818068     
  -1793333098.4046438       -4293182.9852051735        126338816.37242265     
  -1647743664.8118751        10097181.592693329        118620350.65305541     
  -2397740166.7878852       -2937639.2788187265        7598067.0367941773     
  -2252193368.7485538       -7786947.4927552938       -2275454.6060966575     
  -2103670403.2586470       -2715697.5380858183       -9454960.9745223727     
  -1952171270.3181202        12276110.585299253       -13940452.068485530     
  -1797695969.9270082        37188476.877313375       -15731927.887986129     
  -1135993531.0976205       -52608738.750457287        543798126.02595508     
  -951138009.39397812       -41003819.301499546        561883423.90987277     
  -758760996.46219599       -4327262.4254145026        590961219.61157048     
  -558862492.30226660        57420931.877841294        631031513.13103986     
  -351442496.91416544        144240763.60831481        682094304.46828532     
  -1316892445.3971763       -34801426.221165597        398385377.61002684     
  -1117276037.5271564       -15035672.653555214        420348097.60667008     
  -913997372.90553963        16937603.419370711        440789578.19384408     
  -707056451.53234029        61118401.997573227        459709819.37153155     
  -496453273.40757054        117506723.08101577        477108821.13973957     
  -1487475823.3019304       -13899452.773456812        256659452.48572442     
  -1308852064.2005329        3301074.4323597550        277997154.37244356     
  -1130425282.8241055        19845009.221603453        285299879.62242669     
  -952195479.17266798        35732351.594229162        278567628.23566359     
  -774162653.24622893        50963101.550180733        257800400.21217057     
  -1647743664.8118751        10097181.592693329        118620350.65305541     
  -1525866089.4141147        14006421.956244767        134830594.20718023     
  -1408044726.2179179        4394954.9812352657        124492123.89731826     
  -1294279575.2232630       -18737219.332261801        87604939.723451257     
  -1184570636.4301779       -55390100.984281480        24169041.685598303     
  -1797695969.9270082        37188476.877313375       -15731927.887986129     
  -1768318113.1679282        17080369.917980194       -9151582.8891190011     
  -1746855703.0869472       -29412559.301671505       -41633688.981483512     
  -1733308739.6840930       -102290310.78174001       -113178246.16511953     
  -1727677222.9593723       -201552884.52227736       -223785254.43999329     
  -351442496.91416544        144240763.60831481        682094304.46828532     
  -277561112.21429455        285490201.25831127        785709966.86653578     
  -148899335.80231076        609340944.61533964        905083184.56947649     
   34542832.321750343        1115792993.6793175        1040213957.5771241     
   272765392.15792739        1804846348.4502981        1191102285.8894646     
  -496453273.40757054        117506723.08101577        477108821.13973957     
  -387830330.04548556        223324076.79403085        596569901.00799024     
  -230107157.90203428        492808859.77829468        735174336.22023928     
  -23283756.977174938        925961072.03387427        892922126.77647126     
   232639872.72904000        1522780713.5607002        1069813272.6767246     
  -774162653.24622893        50963101.550180733        257800400.21217057     
  -621124436.82397664        124250485.64551041        386480040.79792821     
  -424666154.55103087        342271422.57648772        537688836.76697755     
  -184787806.42741057        705025912.34303117        711426788.11930931     
   98510607.546867669        1212513954.9451301        907693894.85496283     
  -1184570636.4301779       -55390100.984281480        24169041.685598303     
  -977443432.54972327       -11730572.187115073        155440386.23637143     
  -732576325.74932981        157728633.00984675        312626686.20972186     
  -449969316.02895200        452987514.60677975        495727941.60566425     
  -129622403.38860989        874046072.60354853        704744152.42419577     
  -1727677222.9593723       -201552884.52227736       -223785254.43999329     
  -1456787317.2227607       -184619096.70396781       -96549062.676718131     
  -1153837671.4968879       -60819508.921465278        59987884.548449464     
  -818828285.78177428        169845878.82520080        245825587.23549622     
  -451759160.07740831        507377066.53599727        460964045.38445562     
 </DataArray>
 <DataArray  type="Float64" Name="VM" NumberOfComponents="1" format="ascii">
   10064141720.103926     
   8661231881.1576824     
   7449575141.9244881     
   6371859699.8510761     
   5400161297.6984186     
   7709120704.8767767     
   6782008087.0176134     
   6015327858.9534492     
   5364172549.2798157     
   4803497081.0688105     
   5963868664.3056669     
   5408201089.0520096     
   4965616362.5930777     
   4606894893.7424059     
   4314788869.5492468     
   4832245542.4265566     
   4531330146.9980965     
   4290171411.8219924     
   4093482864.5707502     
   3932468050.9618793     
   4427012975.9448099     
   4193090544.0643320     
   3997981851.6554646     
   3823043338.6818795     
   3656012719.4432549     
   5400161297.6984186     
   5182117758.4035091     
   4978267002.5527077     
   4784548692.2349520     
   4597982963.9890127     
   4803497081.0688105     
   4660687866.0751381     
   4527087111.4532833     
   4400538944.1557312     
   4279566630.6216011     
   4314788869.5492468     
   4228361346.7823005     
   4146043130.7589612     
   4067175642.0671096     
   3991395981.1467452     
   3932468050.9618793     
   3883728026.4241333     
   3834516957.8659873     
   3784839243.3245845     
   3734769212.9178338     
   3656012719.4432549     
   3625499535.0282950     
   3591582965.0328588     
   3553574851.3798862     
   3510937758.0227065     
   4597982963.9890127     
   4414072316.6913652     
   4231062386.6702676     
   4048580651.8253369     
   3866327495.8252826     
   4279566630.6216011     
   4112926071.8490710     
   3947030949.1503615     
   3781683413.2698555     
   3616763543.8178687     
   3991395981.1467452     
   3840792021.7330375     
   3690817473.3784990     
   3541433094.6242194     
   3392681249.7626801     
   3734769212.9178338     
   3599357519.8616185     
   3464512172.7620869     
   3330326404.2108245     
   3196976850.0049343     
   3510937758.0227065     
   3390289497.5790567     
   3270216504.0628905     
   3150906545.2992201     
   3032630197.4827509     
   3866327495.8252826     
   3677268011.1462007     
   3488918465.6336317     
   3301207013.0067782     
   3114062646.3670373     
   3616763543.8178687     
   3433706602.7434359     
   3251434903.1904869     
   3069898846.4618707     
   2889063333.2504797     
   3392681249.7626801     
   3218312223.7888284     
   3045152339.0215745     
   2873249438.3343325     
   2702701068.8863688     
   3196976850.0049343     
   3034318877.3082452     
   2873713252.8044558     
   2715390372.1273189     
   2559685535.1552362     
   3032630197.4827509     
   2884934789.7471318     
   2740570598.7041535     
   2600016651.7328901     
   2463915273.9350653     
   3114062646.3670373     
   2933814896.7238302     
   2754250892.8369784     
   2575130413.1477051     
   2396308835.1326766     
   2889063333.2504797     
   2722344353.0161810     
   2557080901.9363909     
   2393255059.6229901     
   2230962191.8598537     
   2702701068.8863688     
   2548967997.2013106     
   2397446976.8586559     
   2248312455.3581176     
   2101862173.0656183     
   2559685535.1552362     
   2418792723.4985371     
   2280767647.1977444     
   2145920489.8451118     
   2014681970.7074080     
   2463915273.9350653     
   2335986103.5643601     
   2211374283.3306837     
   2090444078.3876746     
   1973664427.8494604     
   2396308835.1326766     
   2248313463.1026397     
   2102377653.2515979     
   1958487030.9908035     
   1816780074.4128950     
   2230962191.8598537     
   2087255262.5868919     
   1945103028.3954506     
   1804507527.1885400     
   1665536270.3273780     
   2101862173.0656183     
   1961551731.4461238     
   1822084761.9499457     
   1683503089.4519675     
   1545873424.1169243     
   2014681970.7074080     
   1878554774.2057600     
   1742571905.7447164     
   1606869680.0279400     
   1471638489.5803542     
   1973664427.8494604     
   1844289728.7572217     
   1714673611.9578283     
   1585153138.0178106     
   1456240021.6995671     
   1816780074.4128950     
   1776990565.6224864     
   1733836941.9499941     
   1695862539.0338769     
   1681521140.0679998     
   1665536270.3273780     
   1550604170.7612820     
   1426636753.5507593     
   1293941025.8366461     
   1158626167.7233539     
   1545873424.1169243     
   1396163491.3787339     
   1242930612.9226325     
   1083871295.7077758     
   916930706.41361356     
   1471638489.5803542     
   1327332056.4980071     
   1197516330.5153828     
   1086682013.8555872     
   1000754096.4676148     
   1456240021.6995671     
   1347027646.7985384     
   1272854707.4426789     
   1241900626.2639751     
   1261256310.6716146     
   1681521140.0679998     
   1383953721.9156010     
   1129451275.2446382     
   1009798322.4252927     
   1152472827.0944076     
   1158626167.7233539     
   1008242252.8510189     
   985038573.83679378     
   1161352285.9749913     
   1544036080.6095073     
   916930706.41361356     
   962553493.54247153     
   1144626582.7437131     
   1476439123.9927180     
   1957593820.1384473     
   1000754096.4676148     
   1163866314.8988717     
   1425009696.9554894     
   1808711051.0783544     
   2334999832.0689683     
   1261256310.6716146     
   1445616221.5184517     
   1715145642.1800761     
   2110398017.9900329     
   2663784083.7807794     
   4427012975.9448099     
   4193090544.0643320     
   3997981851.6554646     
   3823043338.6818795     
   3656012719.4432549     
   4537076329.4891062     
   4276375608.5538316     
   4021418434.6843228     
   3767511842.6257324     
   3511926999.0866528     
   4564376951.0482950     
   4270736778.1134887     
   3974546345.6190686     
   3675431796.4913716     
   3373130102.1266155     
   4473566279.4127188     
   4159346199.5731258     
   3851819912.5907025     
   3547979996.7418556     
   3245555666.7786946     
   4248527714.7030568     
   3934852028.1177840     
   3652209952.1566086     
   3388638233.7226791     
   3136389230.2779865     
   3656012719.4432549     
   3625499535.0282950     
   3591582965.0328588     
   3553574851.3798862     
   3510937758.0227065     
   3511926999.0866528     
   3470411867.8670421     
   3426639714.9388471     
   3380135866.3212018     
   3330497437.0185571     
   3373130102.1266155     
   3324930565.0354552     
   3275954642.5271673     
   3225965256.0807657     
   3174749262.7346516     
   3245555666.7786946     
   3194456632.3373523     
   3144427879.2379651     
   3095459347.2986684     
   3047544069.1415563     
   3136389230.2779865     
   3085343754.8533263     
   3037597041.3546896     
   2993308312.1550684     
   2952639170.2461715     
   3510937758.0227065     
   3390289497.5790567     
   3270216504.0628905     
   3150906545.2992201     
   3032630197.4827509     
   3330497437.0185571     
   3220222003.1416817     
   3111535448.9772406     
   3004730746.2838378     
   2900186448.6424303     
   3174749262.7346516     
   3076167403.7423382     
   2980289701.4016490     
   2887500986.1399231     
   2798267115.7178349     
   3047544069.1415563     
   2961759751.0484247     
   2879828092.1315851     
   2802192706.9951982     
   2729363882.6977119     
   2952639170.2461715     
   2880365993.8012896     
   2813038261.0369611     
   2751109448.5210824     
   2695077276.3819337     
   3032630197.4827509     
   2884934789.7471318     
   2740570598.7041535     
   2600016651.7328901     
   2463915273.9350653     
   2900186448.6424303     
   2767853269.2328701     
   2640045027.1673937     
   2517374425.5279770     
   2400622168.3349543     
   2798267115.7178349     
   2682264591.8655186     
   2571996824.4497743     
   2468156693.2454824     
   2371585238.7128954     
   2729363882.6977119     
   2630228913.7433028     
   2537936221.9404306     
   2453184469.9579663     
   2376781280.9074740     
   2695077276.3819337     
   2612739508.1930323     
   2538140965.7114277     
   2471912144.2485752     
   2414747183.3448501     
   2463915273.9350653     
   2335986103.5643601     
   2211374283.3306837     
   2090444078.3876746     
   1973664427.8494604     
   2400622168.3349543     
   2284159464.7694020     
   2172222506.4298024     
   2065380675.6552675     
   1964321912.4345067     
   2371585238.7128954     
   2269227500.7050242     
   2172774040.5496035     
   2082945212.1267006     
   2000564276.5311918     
   2376781280.9074740     
   2290530817.5838127     
   2211535064.9590926     
   2140567614.4755809     
   2078464467.4739640     
   2414747183.3448501     
   2345756111.5812078     
   2285179600.0516458     
   2233746161.8889389     
   2192202463.3917437     
   1973664427.8494604     
   1844289728.7572217     
   1714673611.9578283     
   1585153138.0178106     
   1456240021.6995671     
   1964321912.4345067     
   1849896724.1369801     
   1739592528.0597651     
   1634309813.5076778     
   1535158550.2496521     
   2000564276.5311918     
   1906127900.5128398     
   1820213495.4342544     
   1743987165.4017253     
   1678699793.6475339     
   2078464467.4739640     
   2005466875.1533213     
   1944526541.3090768     
   1896675105.7268927     
   1862891214.6315079     
   2192202463.3917437     
   2139058314.7293944     
   2100459183.6818259     
   2077115202.3419893     
   2069655932.6624084     
   1456240021.6995671     
   1347027646.7985384     
   1272854707.4426789     
   1241900626.2639751     
   1261256310.6716146     
   1535158550.2496521     
   1474311660.3189425     
   1446194064.2655082     
   1454791784.3931096     
   1503409149.6710062     
   1678699793.6475339     
   1650415946.9407663     
   1649853678.1268604     
   1679387348.6630242     
   1741620121.5690885     
   1862891214.6315079     
   1852787268.2230029     
   1865620163.2353957     
   1903599120.1993532     
   1969740813.6380558     
   2069655932.6624084     
   2066774659.6696413     
   2083061398.9696634     
   2121145153.9149318     
   2184814933.5220103     
   1261256310.6716146     
   1445616221.5184517     
   1715145642.1800761     
   2110398017.9900329     
   2663784083.7807794     
   1503409149.6710062     
   1612335341.6863039     
   1788434671.6237507     
   2066447331.4035959     
   2476561376.5736361     
   1741620121.5690885     
   1786907607.5013409     
   1884331572.0341611     
   2060807440.7179985     
   2341564709.3130078     
   1969740813.6380558     
   1968296285.5115528     
   2003397615.6907554     
   2093739519.8054583     
   2258000862.8002224     
   2184814933.5220103     
   2155789415.0437946     
   2146370940.3832483     
   2167114733.5548301     
   2229126958.7417507     
   4248527714.7030568     
   3934852028.1177840     
   3652209952.1566086     
   3388638233.7226791     
   3136389230.2779865     
   3862677663.0292668     
   3623948949.5536327     
   3406442438.8819518     
   3206928853.6552310     
   3024542595.3937573     
   3578782550.7396922     
   3389207698.5593204     
   3217201557.0106416     
   3064169734.5140419     
   2932328104.8245511     
   3427951766.7642360     
   3255875237.5640135     
   3104489520.5854917     
   2974573332.6055927     
   2867511812.0397105     
   3441591632.9342189     
   3249865484.6073275     
   3088450189.4497519     
   2952269690.4069161     
   2838462759.7020235     
   3136389230.2779865     
   3085343754.8533263     
   3037597041.3546896     
   2993308312.1550684     
   2952639170.2461715     
   3024542595.3937573     
   2977080204.9766026     
   2934191509.0119667     
   2896189178.4384661     
   2863395648.1081758     
   2932328104.8245511     
   2889838247.9440222     
   2853662922.8771586     
   2824190650.7024450     
   2801830657.6847630     
   2867511812.0397105     
   2830347364.3516412     
   2801671150.4815254     
   2781858986.0405135     
   2771320151.6462464     
   2838462759.7020235     
   2805579324.7479577     
   2783756184.0224390     
   2773273688.0089035     
   2774459737.5580230     
   2952639170.2461715     
   2880365993.8012896     
   2813038261.0369611     
   2751109448.5210824     
   2695077276.3819337     
   2863395648.1081758     
   2802108860.7640190     
   2746934473.5377083     
   2698315095.3770089     
   2656723406.7139063     
   2801830657.6847630     
   2751308591.5255284     
   2708008176.8508315     
   2672319362.4127378     
   2644647042.7747965     
   2771320151.6462464     
   2730548014.6793199     
   2698018925.2093410     
   2674037032.4391184     
   2658909907.1400223     
   2774459737.5580230     
   2741583289.4115829     
   2717882408.9557490     
   2703558949.8998961     
   2698812874.5924959     
   2695077276.3819337     
   2612739508.1930323     
   2538140965.7114277     
   2471912144.2485752     
   2414747183.3448501     
   2656723406.7139063     
   2588602878.2101316     
   2528818991.2035360     
   2477898722.5595050     
   2436401378.5782299     
   2644647042.7747965     
   2589584002.4383950     
   2543280187.0356288     
   2506139075.8220773     
   2478574286.2607751     
   2658909907.1400223     
   2615253319.3114891     
   2580625457.0363626     
   2555306446.2498212     
   2539574633.4378715     
   2698812874.5924959     
   2664513888.8725543     
   2639405966.0642767     
   2623661828.1114602     
   2617448639.8911872     
   2414747183.3448501     
   2345756111.5812078     
   2285179600.0516458     
   2233746161.8889389     
   2192202463.3917437     
   2436401378.5782299     
   2382639854.9787917     
   2338161789.6079922     
   2303556247.4901042     
   2279395410.9012451     
   2478574286.2607751     
   2438940887.5403819     
   2409220968.2478867     
   2389848106.7120967     
   2381222303.0831885     
   2539574633.4378715     
   2512407970.8958158     
   2495617850.8928070     
   2489494175.3685327     
   2494291984.8938427     
   2617448639.8911872     
   2600688840.0980358     
   2594695106.6630564     
   2599640779.9930511     
   2615672198.4086480     
   2192202463.3917437     
   2139058314.7293944     
   2100459183.6818259     
   2077115202.3419893     
   2069655932.6624084     
   2279395410.9012451     
   2239544091.9779687     
   2213388316.8356452     
   2201357365.1346602     
   2203824562.3568540     
   2381222303.0831885     
   2351974049.8390999     
   2335567409.4767151     
   2332250796.9357762     
   2342245986.4439840     
   2494291984.8938427     
   2473200626.3639731     
   2464198485.3961101     
   2467426756.4258814     
   2483024489.2053061     
   2615672198.4086480     
   2600602085.7851963     
   2597028461.7208014     
   2605034895.0355153     
   2624719921.9619727     
   2069655932.6624084     
   2066774659.6696413     
   2083061398.9696634     
   2121145153.9149318     
   2184814933.5220103     
   2203824562.3568540     
   2190063954.1044645     
   2191240316.5352101     
   2209319347.6076560     
   2247207574.4447255     
   2342245986.4439840     
   2318372113.0000787     
   2305985496.0176144     
   2306487821.3083606     
   2321961814.1430645     
   2483024489.2053061     
   2450747566.7139606     
   2426992527.0932641     
   2412701650.7627530     
   2409251824.1782708     
   2624719921.9619727     
   2586426075.2840357     
   2553989116.1963911     
   2527989368.0217195     
   2509239848.6767235     
   2184814933.5220103     
   2155789415.0437946     
   2146370940.3832483     
   2167114733.5548301     
   2229126958.7417507     
   2247207574.4447255     
   2182635026.9073997     
   2134534165.0854955     
   2112606886.2510605     
   2127828518.5110199     
   2321961814.1430645     
   2225182861.0279346     
   2141787983.3378503     
   2080179115.5399773     
   2050573980.6977284     
   2409251824.1782708     
   2283729345.5219603     
   2168781554.1990337     
   2071184396.0297599     
   1999755106.4327230     
   2509239848.6767235     
   2358486973.8674159     
   2215987859.7533298     
   2086755965.5394678     
   1977715887.4164715     
   3441591632.9342189     
   3249865484.6073275     
   3088450189.4497519     
   2952269690.4069161     
   2838462759.7020235     
   3328499109.1598649     
   3135159978.0878386     
   2969342485.4268026     
   2828354423.2636571     
   2710808783.6289721     
   3247856611.8891845     
   3052873132.6465831     
   2885143023.7282281     
   2743572686.6765599     
   2627674609.4452839     
   3202916760.6206913     
   3005486080.5225887     
   2837273912.5051503     
   2698042338.0151982     
   2587710707.7266273     
   3197814440.7737408     
   2995529300.0248747     
   2826387609.8918147     
   2690389370.3745542     
   2587534581.4730935     
   2838462759.7020235     
   2805579324.7479577     
   2783756184.0224390     
   2773273688.0089035     
   2774459737.5580230     
   2710808783.6289721     
   2698109095.4946990     
   2694733473.5285826     
   2700818564.0583768     
   2716518871.4298496     
   2627674609.4452839     
   2631310708.7525816     
   2642208819.1226096     
   2660417225.4741244     
   2685989412.6242404     
   2587710707.7266273     
   2604187891.8454194     
   2625635205.3681169     
   2652061407.8804102     
   2683476175.8178921     
   2587534581.4730935     
   2614014782.5843201     
   2643043409.5284224     
   2674620462.3053937     
   2708745940.9152441     
   2774459737.5580230     
   2741583289.4115829     
   2717882408.9557490     
   2703558949.8998961     
   2698812874.5924959     
   2716518871.4298496     
   2692678440.6597204     
   2678083357.4989319     
   2672852301.2551317     
   2677100377.8505220     
   2685989412.6242404     
   2668997690.6368771     
   2661300385.5919938     
   2662951558.7055140     
   2674002751.2615414     
   2683476175.8178921     
   2670839374.4932265     
   2667559632.0082364     
   2673650580.1670203     
   2689125060.8623257     
   2708745940.9152441     
   2697797530.9835920     
   2696310698.6935034     
   2704285444.0449734     
   2721721767.0380120     
   2698812874.5924959     
   2664513888.8725543     
   2639405966.0642767     
   2623661828.1114602     
   2617448639.8911872     
   2677100377.8505220     
   2650764800.2061505     
   2633548612.9086094     
   2625548874.2868991     
   2626857663.4347539     
   2674002751.2615414     
   2653691954.7327042     
   2642431710.6867461     
   2640264610.1073709     
   2647230413.6980724     
   2689125060.8623257     
   2672779592.6489291     
   2665448901.9461856     
   2667143420.0356131     
   2677872772.1415420     
   2721721767.0380120     
   2707242405.0256205     
   2701797439.0081568     
   2705386868.9856048     
   2718010694.9579782     
   2617448639.8911872     
   2600688840.0980358     
   2594695106.6630564     
   2599640779.9930511     
   2615672198.4086480     
   2626857663.4347539     
   2618047224.6248879     
   2619652175.6679573     
   2631763623.4703836     
   2654456401.9260516     
   2647230413.6980724     
   2644372381.0292497     
   2651661267.2032928     
   2669134966.7886457     
   2696823901.1046958     
   2677872772.1415420     
   2678963497.8353043     
   2690044894.4481721     
   2711125887.9843488     
   2742213520.1886253     
   2718010694.9579782     
   2721086613.7816582     
   2734127033.1705832     
   2757131953.1247582     
   2790101373.6441822     
   2615672198.4086480     
   2600602085.7851963     
   2597028461.7208014     
   2605034895.0355153     
   2624719921.9619727     
   2654456401.9260516     
   2641025350.5292497     
   2638219251.4899969     
   2646079709.4869180     
   2664658444.9603395     
   2696823901.1046958     
   2684672214.8575783     
   2682464904.0891681     
   2690218290.2754841     
   2707953784.0012016     
   2742213520.1886253     
   2731138151.2515154     
   2729496348.2825136     
   2737291693.1527028     
   2754529153.9740567     
   2790101373.6441822     
   2780041286.8580599     
   2779055019.6822004     
   2787142572.1165919     
   2804303944.1612463     
   2624719921.9619727     
   2586426075.2840357     
   2553989116.1963911     
   2527989368.0217195     
   2509239848.6767235     
   2664658444.9603395     
   2619121834.0930319     
   2579271478.3840408     
   2545438111.1288786     
   2518087162.8314290     
   2707953784.0012016     
   2657300995.4199743     
   2612306987.5425653     
   2573119308.4082994     
   2539946041.1119475     
   2754529153.9740567     
   2700885034.8236079     
   2653015861.9444880     
   2610958332.2265096     
   2574764182.0239358     
   2804303944.1612463     
   2749785672.4197698     
   2701302826.6386237     
   2658855406.8178377     
   2622443412.9573860     
   2509239848.6767235     
   2358486973.8674159     
   2215987859.7533298     
   2086755965.5394678     
   1977715887.4164715     
   2518087162.8314290     
   2349710708.4965086     
   2184951294.5212207     
   2026930185.8633432     
   1880246598.9342330     
   2539946041.1119475     
   2359062244.7955208     
   2177957196.8568630     
   1998112736.6039014     
   1821824716.7958462     
   2574764182.0239358     
   2386645385.3004284     
   2195475238.7903700     
   2001634631.1414955     
   1805732294.7012160     
   2622443412.9573860     
   2432428057.8466153     
   2237648350.1034441     
   2038104289.7278330     
   1833795876.7198303     
   3197814440.7737408     
   2995529300.0248747     
   2826387609.8918147     
   2690389370.3745542     
   2587534581.4730935     
   3202916760.6190743     
   3005486080.5206299     
   2837273912.5027838     
   2698042338.0124083     
   2587710707.7234302     
   3247856611.8852849     
   3052873132.6419778     
   2885143023.7229333     
   2743572686.6706300     
   2627674609.4387779     
   3328499109.1532440     
   3135159978.0800614     
   2969342485.4181085     
   2828354423.2542424     
   2710808783.6190228     
   3441591632.9247279     
   3249865484.5960622     
   3088450189.4372969     
   2952269690.3937278     
   2838462759.6884694     
   2587534581.4730935     
   2614014782.5843201     
   2643043409.5284224     
   2674620462.3053937     
   2708745940.9152441     
   2587710707.7234302     
   2604187891.8424053     
   2625635205.3652692     
   2652061407.8777170     
   2683476175.8153429     
   2627674609.4387779     
   2631310708.7464333     
   2642208819.1167955     
   2660417225.4686189     
   2685989412.6190186     
   2710808783.6190228     
   2698109095.4852748     
   2694733473.5196490     
   2700818564.0498958     
   2716518871.4217939     
   2838462759.6884694     
   2805579324.7350917     
   2783756184.0102148     
   2773273687.9972715     
   2774459737.5469594     
   2708745940.9152441     
   2697797530.9835920     
   2696310698.6935034     
   2704285444.0449734     
   2721721767.0380120     
   2683476175.8153429     
   2670839374.4908843     
   2667559632.0060897     
   2673650580.1650615     
   2689125060.8605442     
   2685989412.6190186     
   2668997690.6320930     
   2661300385.5876322     
   2662951558.7015476     
   2674002751.2579637     
   2716518871.4217939     
   2692678440.6523542     
   2678083357.4922338     
   2672852301.2490864     
   2677100377.8450909     
   2774459737.5469594     
   2741583289.4014707     
   2717882408.9465709     
   2703558949.8916302     
   2698812874.5851126     
   2721721767.0380120     
   2707242405.0256205     
   2701797439.0081568     
   2705386868.9856048     
   2718010694.9579782     
   2689125060.8605442     
   2672779592.6474514     
   2665448901.9450006     
   2667143420.0347028     
   2677872772.1408916     
   2674002751.2579637     
   2653691954.7297311     
   2642431710.6843553     
   2640264610.1055326     
   2647230413.6967568     
   2677100377.8450909     
   2650764800.2016211     
   2633548612.9049420     
   2625548874.2840648     
   2626857663.4326944     
   2698812874.5851126     
   2664513888.8663712     
   2639405966.0592394     
   2623661828.1075206     
   2617448639.8882895     
   2718010694.9579782     
   2721086613.7816582     
   2734127033.1705832     
   2757131953.1247582     
   2790101373.6441822     
   2677872772.1408916     
   2678963497.8347292     
   2690044894.4476657     
   2711125887.9838901     
   2742213520.1881762     
   2647230413.6967568     
   2644372381.0281134     
   2651661267.2022834     
   2669134966.7877221     
   2696823901.1038265     
   2626857663.4326944     
   2618047224.6231179     
   2619652175.6664085     
   2631763623.4689894     
   2654456401.9247537     
   2617448639.8882895     
   2600688840.0955634     
   2594695106.6609206     
   2599640779.9911695     
   2615672198.4069147     
   2790101373.6441822     
   2780041286.8580599     
   2779055019.6822004     
   2787142572.1165919     
   2804303944.1612463     
   2742213520.1881762     
   2731138151.2511315     
   2729496348.2821784     
   2737291693.1524210     
   2754529153.9738188     
   2696823901.1038265     
   2684672214.8568048     
   2682464904.0884900     
   2690218290.2748890     
   2707953784.0006914     
   2654456401.9247537     
   2641025350.5280986     
   2638219251.4889803     
   2646079709.4860377     
   2664658444.9595642     
   2615672198.4069147     
   2600602085.7836494     
   2597028461.7194238     
   2605034895.0342784     
   2624719921.9608655     
   2804303944.1612463     
   2749785672.4197698     
   2701302826.6386237     
   2658855406.8178377     
   2622443412.9573860     
   2754529153.9738188     
   2700885034.8233814     
   2653015861.9442558     
   2610958332.2262731     
   2574764182.0236626     
   2707953784.0006914     
   2657300995.4195046     
   2612306987.5421109     
   2573119308.4078412     
   2539946041.1114697     
   2664658444.9595642     
   2619121834.0923376     
   2579271478.3834090     
   2545438111.1282640     
   2518087162.8308191     
   2624719921.9608655     
   2586426075.2830958     
   2553989116.1955771     
   2527989368.0209937     
   2509239848.6760659     
   2622443412.9573860     
   2432428057.8466153     
   2237648350.1034441     
   2038104289.7278330     
   1833795876.7198303     
   2574764182.0236626     
   2386645385.3002725     
   2195475238.7903452     
   2001634631.1416554     
   1805732294.7015631     
   2539946041.1114697     
   2359062244.7952442     
   2177957196.8568130     
   1998112736.6041033     
   1821824716.7963645     
   2518087162.8308191     
   2349710708.4961200     
   2184951294.5210834     
   2026930185.8635261     
   1880246598.9347298     
   2509239848.6760659     
   2358486973.8669562     
   2215987859.7531204     
   2086755965.5394857     
   1977715887.4167717     
   3441591632.9247279     
   3249865484.5960622     
   3088450189.4372969     
   2952269690.3937278     
   2838462759.6884694     
   3427951766.7568784     
   3255875237.5550933     
   3104489520.5753365     
   2974573332.5944948     
   2867511812.0279708     
   3578782550.7333150     
   3389207698.5519342     
   3217201557.0021663     
   3064169734.5045223     
   2932328104.8141475     
   3862677663.0229011     
   3623948949.5470834     
   3406442438.8746643     
   3206928853.6469107     
   3024542595.3843803     
   4248527714.6960168     
   3934852028.1115618     
   3652209952.1501484     
   3388638233.7153230     
   3136389230.2694669     
   2838462759.6884694     
   2805579324.7350917     
   2783756184.0102148     
   2773273687.9972715     
   2774459737.5469594     
   2867511812.0279708     
   2830347364.3402076     
   2801671150.4703903     
   2781858986.0296903     
   2771320151.6357436     
   2932328104.8141475     
   2889838247.9336243     
   2853662922.8668156     
   2824190650.6922188     
   2801830657.6747098     
   3024542595.3843803     
   2977080204.9669828     
   2934191509.0022120     
   2896189178.4286947     
   2863395648.0985069     
   3136389230.2694669     
   3085343754.8443437     
   3037597041.3454294     
   2993308312.1457062     
   2952639170.2368703     
   2774459737.5469594     
   2741583289.4014707     
   2717882408.9465709     
   2703558949.8916302     
   2698812874.5851126     
   2771320151.6357436     
   2730548014.6696420     
   2698018925.2004871     
   2674037032.4310918     
   2658909907.1328177     
   2801830657.6747098     
   2751308591.5161877     
   2708008176.8422198     
   2672319362.4048686     
   2644647042.7676840     
   2863395648.0985069     
   2802108860.7549682     
   2746934473.5293074     
   2698315095.3692813     
   2656723406.7068849     
   2952639170.2368703     
   2880365993.7925305     
   2813038261.0287714     
   2751109448.5135140     
   2695077276.3750224     
   2698812874.5851126     
   2664513888.8663712     
   2639405966.0592394     
   2623661828.1075206     
   2617448639.8882895     
   2658909907.1328177     
   2615253319.3054266     
   2580625457.0314198     
   2555306446.2459731     
   2539574633.4350953     
   2644647042.7676840     
   2589584002.4323730     
   2543280187.0306950     
   2506139075.8182297     
   2478574286.2580070     
   2656723406.7068849     
   2588602878.2041254     
   2528818991.1985717     
   2477898722.5556049     
   2436401378.5754099     
   2695077276.3750224     
   2612739508.1870556     
   2538140965.7064266     
   2471912144.2445803     
   2414747183.3419132     
   2617448639.8882895     
   2600688840.0955634     
   2594695106.6609206     
   2599640779.9911695     
   2615672198.4069147     
   2539574633.4350953     
   2512407970.8934121     
   2495617850.8907104     
   2489494175.3666730     
   2494291984.8921432     
   2478574286.2580070     
   2438940887.5379701     
   2409220968.2457829     
   2389848106.7102304     
   2381222303.0815101     
   2436401378.5754099     
   2382639854.9763088     
   2338161789.6058159     
   2303556247.4881811     
   2279395410.8995471     
   2414747183.3419132     
   2345756111.5786128     
   2285179600.0493655     
   2233746161.8869500     
   2192202463.3900089     
   2615672198.4069147     
   2600602085.7836494     
   2597028461.7194238     
   2605034895.0342784     
   2624719921.9608655     
   2494291984.8921432     
   2473200626.3624220     
   2464198485.3946843     
   2467426756.4245772     
   2483024489.2040629     
   2381222303.0815101     
   2351974049.8375635     
   2335567409.4752655     
   2332250796.9343963     
   2342245986.4426250     
   2279395410.8995471     
   2239544091.9763932     
   2213388316.8341689     
   2201357365.1332130     
   2203824562.3553996     
   2192202463.3900089     
   2139058314.7278132     
   2100459183.6803288     
   2077115202.3405125     
   2069655932.6608868     
   2624719921.9608655     
   2586426075.2830958     
   2553989116.1955771     
   2527989368.0209937     
   2509239848.6760659     
   2483024489.2040629     
   2450747566.7129068     
   2426992527.0923667     
   2412701650.7619915     
   2409251824.1776576     
   2342245986.4426250     
   2318372112.9989114     
   2305985496.0166273     
   2306487821.3075528     
   2321961814.1424332     
   2203824562.3553996     
   2190063954.1032066     
   2191240316.5341344     
   2209319347.6067886     
   2247207574.4440880     
   2069655932.6608868     
   2066774659.6682715     
   2083061398.9684846     
   2121145153.9139702     
   2184814933.5213075     
   2509239848.6760659     
   2358486973.8669562     
   2215987859.7531204     
   2086755965.5394857     
   1977715887.4167717     
   2409251824.1776576     
   2283729345.5215077     
   2168781554.1987991     
   2071184396.0297847     
   1999755106.4329970     
   2321961814.1424332     
   2225182861.0274916     
   2141787983.3376274     
   2080179115.5400226     
   2050573980.6980381     
   2247207574.4440880     
   2182635026.9069605     
   2134534165.0853040     
   2112606886.2511623     
   2127828518.5114331     
   2184814933.5213075     
   2155789415.0433383     
   2146370940.3831000     
   2167114733.5550256     
   2229126958.7423368     
   4248527714.6960168     
   3934852028.1115618     
   3652209952.1501484     
   3388638233.7153230     
   3136389230.2694669     
   4473566279.4091072     
   4159346199.5690279     
   3851819912.5856924     
   3547979996.7357082     
   3245555666.7713947     
   4564376951.0480156     
   4270736778.1114254     
   3974546345.6154370     
   3675431796.4864078     
   3373130102.1205664     
   4537076329.4925261     
   4276375608.5539289     
   4021418434.6821089     
   3767511842.6219821     
   3511926999.0819368     
   4427012975.9527960     
   4193090544.0669827     
   3997981851.6548042     
   3823043338.6794143     
   3656012719.4399843     
   3136389230.2694669     
   3085343754.8443437     
   3037597041.3454294     
   2993308312.1457062     
   2952639170.2368703     
   3245555666.7713947     
   3194456632.3295665     
   3144427879.2298555     
   3095459347.2904119     
   3047544069.1333065     
   3373130102.1205664     
   3324930565.0289063     
   3275954642.5202727     
   3225965256.0736885     
   3174749262.7275486     
   3511926999.0819368     
   3470411867.8618250     
   3426639714.9332747     
   3380135866.3154230     
   3330497437.0127177     
   3656012719.4399843     
   3625499535.0245376     
   3591582965.0287471     
   3553574851.3755598     
   3510937758.0183058     
   2952639170.2368703     
   2880365993.7925305     
   2813038261.0287714     
   2751109448.5135140     
   2695077276.3750224     
   3047544069.1333065     
   2961759751.0405889     
   2879828092.1242170     
   2802192706.9883513     
   2729363882.6914406     
   3174749262.7275486     
   3076167403.7355266     
   2980289701.3951807     
   2887500986.1338716     
   2798267115.7122693     
   3330497437.0127177     
   3220222003.1359982     
   3111535448.9717832     
   3004730746.2786775     
   2900186448.6376534     
   3510937758.0183058     
   3390289497.5746698     
   3270216504.0585818     
   3150906545.2950664     
   3032630197.4788399     
   2695077276.3750224     
   2612739508.1870556     
   2538140965.7064266     
   2471912144.2445803     
   2414747183.3419132     
   2729363882.6914406     
   2630228913.7378516     
   2537936221.9358473     
   2453184469.9543042     
   2376781280.9047885     
   2798267115.7122693     
   2682264591.8606439     
   2571996824.4456434     
   2468156693.2421565     
   2371585238.7104373     
   2900186448.6376534     
   2767853269.2286458     
   2640045027.1637826     
   2517374425.5250258     
   2400622168.3327508     
   3032630197.4788399     
   2884934789.7436457     
   2740570598.7011375     
   2600016651.7303872     
   2463915273.9331484     
   2414747183.3419132     
   2345756111.5786128     
   2285179600.0493655     
   2233746161.8869500     
   2192202463.3900089     
   2376781280.9047885     
   2290530817.5814166     
   2211535064.9569845     
   2140567614.4737375     
   2078464467.4723742     
   2371585238.7104373     
   2269227500.7028170     
   2172774040.5476346     
   2082945212.1249697     
   2000564276.5296922     
   2400622168.3327508     
   2284159464.7673879     
   2172222506.4279852     
   2065380675.6536458     
   1964321912.4330692     
   2463915273.9331484     
   2335986103.5625873     
   2211374283.3290420     
   2090444078.3861856     
   1973664427.8481097     
   2192202463.3900089     
   2139058314.7278132     
   2100459183.6803288     
   2077115202.3405125     
   2069655932.6608868     
   2078464467.4723742     
   2005466875.1518559     
   1944526541.3076866     
   1896675105.7255404     
   1862891214.6301255     
   2000564276.5296922     
   1906127900.5114615     
   1820213495.4329672     
   1743987165.4004958     
   1678699793.6463137     
   1964321912.4330692     
   1849896724.1356661     
   1739592528.0585515     
   1634309813.5065629     
   1535158550.2485826     
   1973664427.8481097     
   1844289728.7559745     
   1714673611.9566901     
   1585153138.0167754     
   1456240021.6986387     
   2069655932.6608868     
   2066774659.6682715     
   2083061398.9684846     
   2121145153.9139702     
   2184814933.5213075     
   1862891214.6301255     
   1852787268.2217770     
   1865620163.2343340     
   1903599120.1984780     
   1969740813.6374233     
   1678699793.6463137     
   1650415946.9396672     
   1649853678.1258948     
   1679387348.6622109     
   1741620121.5684555     
   1535158550.2485826     
   1474311660.3179655     
   1446194064.2646277     
   1454791784.3923421     
   1503409149.6703324     
   1456240021.6986387     
   1347027646.7976875     
   1272854707.4418693     
   1241900626.2632041     
   1261256310.6708748     
   2184814933.5213075     
   2155789415.0433383     
   2146370940.3831000     
   2167114733.5550256     
   2229126958.7423368     
   1969740813.6374233     
   1968296285.5111489     
   2003397615.6906509     
   2093739519.8057005     
   2258000862.8008857     
   1741620121.5684555     
   1786907607.5009470     
   1884331572.0340829     
   2060807440.7182736     
   2341564709.3136888     
   1503409149.6703324     
   1612335341.6858833     
   1788434671.6236546     
   2066447331.4038653     
   2476561376.5742674     
   1261256310.6708748     
   1445616221.5179813     
   1715145642.1799099     
   2110398017.9902089     
   2663784083.7813635     
   4427012975.9527960     
   4193090544.0669827     
   3997981851.6548042     
   3823043338.6794143     
   3656012719.4399843     
   4832245542.4288197     
   4531330146.9978971     
   4290171411.8205295     
   4093482864.5688529     
   3932468050.9600778     
   5963868664.3047247     
   5408201089.0508661     
   4965616362.5923128     
   4606894893.7423277     
   4314788869.5500822     
   7709120704.8750639     
   6782008087.0173578     
   6015327858.9548349     
   5364172549.2827911     
   4803497081.0734386     
   10064141720.103451     
   8661231881.1599770     
   7449575141.9293995     
   6371859699.8583050     
   5400161297.7079830     
   3656012719.4399843     
   3625499535.0245376     
   3591582965.0287471     
   3553574851.3755598     
   3510937758.0183058     
   3932468050.9600778     
   3883728026.4219570     
   3834516957.8635015     
   3784839243.3218575     
   3734769212.9149547     
   4314788869.5500822     
   4228361346.7825894     
   4146043130.7587228     
   4067175642.0663576     
   3991395981.1455250     
   4803497081.0734386     
   4660687866.0787506     
   4527087111.4558926     
   4400538944.1573229     
   4279566630.6221633     
   5400161297.7079830     
   5182117758.4112892     
   4978267002.5587559     
   4784548692.2392435     
   4597982963.9914980     
   3510937758.0183058     
   3390289497.5746698     
   3270216504.0585818     
   3150906545.2950664     
   3032630197.4788399     
   3734769212.9149547     
   3599357519.8586497     
   3464512172.7590795     
   3330326404.2078323     
   3196976850.0020146     
   3991395981.1455250     
   3840792021.7316542     
   3690817473.3769975     
   3541433094.6226239     
   3392681249.7610474     
   4279566630.6221633     
   4112926071.8494444     
   3947030949.1505675     
   3781683413.2699161     
   3616763543.8178115     
   4597982963.9914980     
   4414072316.6936560     
   4231062386.6723847     
   4048580651.8272910     
   3866327495.8271079     
   3032630197.4788399     
   2884934789.7436457     
   2740570598.7011375     
   2600016651.7303872     
   2463915273.9331484     
   3196976850.0020146     
   3034318877.3055553     
   2873713252.8020234     
   2715390372.1252050     
   2559685535.1534986     
   3392681249.7610474     
   3218312223.7871852     
   3045152339.0199432     
   2873249438.3327646     
   2702701068.8849077     
   3616763543.8178115     
   3433706602.7430830     
   3251434903.1898708     
   3069898846.4610100     
   2889063333.2494135     
   3866327495.8271079     
   3677268011.1474090     
   3488918465.6342325     
   3301207013.0067916     
   3114062646.3664603     
   2463915273.9331484     
   2335986103.5625873     
   2211374283.3290420     
   2090444078.3861856     
   1973664427.8481097     
   2559685535.1534986     
   2418792723.4968681     
   2280767647.1961641     
   2145920489.8436420     
   2014681970.7060542     
   2702701068.8849077     
   2548967997.1998281     
   2397446976.8571696     
   2248312455.3566442     
   2101862173.0641930     
   2889063333.2494135     
   2722344353.0149593     
   2557080901.9350224     
   2393255059.6214995     
   2230962191.8582602     
   3114062646.3664603     
   2933814896.7229352     
   2754250892.8357654     
   2575130413.1461926     
   2396308835.1308680     
   1973664427.8481097     
   1844289728.7559745     
   1714673611.9566901     
   1585153138.0167754     
   1456240021.6986387     
   2014681970.7060542     
   1878554774.2045257     
   1742571905.7436285     
   1606869680.0269845     
   1471638489.5795343     
   2101862173.0641930     
   1961551731.4448421     
   1822084761.9488046     
   1683503089.4509685     
   1545873424.1160655     
   2230962191.8582602     
   2087255262.5854568     
   1945103028.3941708     
   1804507527.1874104     
   1665536270.3263960     
   2396308835.1308680     
   2248313463.1010041     
   2102377653.2501321     
   1958487030.9894974     
   1816780074.4117463     
   1456240021.6986387     
   1347027646.7976875     
   1272854707.4418693     
   1241900626.2632041     
   1261256310.6708748     
   1471638489.5795343     
   1327332056.4972613     
   1197516330.5146873     
   1086682013.8549232     
   1000754096.4669362     
   1545873424.1160655     
   1396163491.3779998     
   1242930612.9219987     
   1083871295.7072358     
   916930706.41312134     
   1665536270.3263960     
   1550604170.7604759     
   1426636753.5501347     
   1293941025.8362007     
   1158626167.7231202     
   1816780074.4117463     
   1776990565.6215563     
   1733836941.9493229     
   1695862539.0334942     
   1681521140.0679080     
   1261256310.6708748     
   1445616221.5179813     
   1715145642.1799099     
   2110398017.9902089     
   2663784083.7813635     
   1000754096.4669362     
   1163866314.8984418     
   1425009696.9553816     
   1808711051.0785587     
   2334999832.0695171     
   916930706.41312134     
   962553493.54216433     
   1144626582.7436635     
   1476439123.9929264     
   1957593820.1389353     
   1158626167.7231202     
   1008242252.8509771     
   985038573.83697248     
   1161352285.9753730     
   1544036080.6099930     
   1681521140.0679080     
   1383953721.9158280     
   1129451275.2452295     
   1009798322.4262118     
   1152472827.0952718     
 </DataArray>
 <DataArray  type="Float64" Name="strain" NumberOfComponents="3" format="ascii">
  0.15571198965804156       -5.6166191714831726E-002   8.4340755761719066E-002
  0.13888416662829750       -4.3292070657180215E-002   5.7109077525909435E-002
  0.12205634359855361       -3.3911490885019990E-002   3.8447710519843525E-002
  0.10522852056880963       -2.8024452398350774E-002   2.8356654743521004E-002
   8.8400697539065654E-002  -2.5630955197172622E-002   2.6835910196942536E-002
  0.11633993651586771       -4.9092387786114133E-002   6.8060514066000111E-002
  0.10679124463446454       -3.8176397698522824E-002   4.8596778086746062E-002
   9.7242552753061318E-002  -3.0260879948058206E-002   3.5120993174428961E-002
   8.7693860871658147E-002  -2.5345834534719461E-002   2.7633159329050028E-002
   7.8145168990254921E-002  -2.3431261458507380E-002   2.6133276550608819E-002
   8.9274012522961216E-002  -4.2018583857396596E-002   4.9575606926038074E-002
   8.4422091627092605E-002  -3.3060724739865766E-002   3.8372882151704202E-002
   7.9570170731224146E-002  -2.6610269011096421E-002   3.0575748281501836E-002
   7.4718249835355688E-002  -2.2667216671088369E-002   2.6184205315430947E-002
   6.9866328939487188E-002  -2.1231567719841971E-002   2.5198253253491648E-002
   7.4514217679322120E-002  -3.4944779928679059E-002   2.8886034341833705E-002
   7.1776707606182016E-002  -2.7945051781208444E-002   2.6437389720784701E-002
   6.9039197533042135E-002  -2.2959658074134526E-002   2.4811975841061422E-002
   6.6301687459902142E-002  -1.9988598807457278E-002   2.4009792702663520E-002
   6.3564177386762177E-002  -1.9031873981176645E-002   2.4030840305591307E-002
   7.2060551984950316E-002  -2.7870975999961467E-002   5.9917963133859775E-003
   6.8855092571732779E-002  -2.2829378822551261E-002   1.2790300793987408E-002
   6.5649633158515242E-002  -1.9309047137172741E-002   1.7829675853108073E-002
   6.2444173745297676E-002  -1.7309980943826214E-002   2.1109921490747974E-002
   5.9238714332080139E-002  -1.6832180242511263E-002   2.2631037706907386E-002
   8.8400697539065654E-002  -2.5630955197172622E-002   2.6835910196942536E-002
   8.5354933225705587E-002  -2.4975301601487809E-002   2.1089211391375207E-002
   8.2309168912345521E-002  -2.4301793931297361E-002   1.6675567372331668E-002
   7.9263404598985454E-002  -2.3610432186602325E-002   1.3594978139811947E-002
   7.6217640285625388E-002  -2.2901216367401944E-002   1.1847443693815851E-002
   7.8145168990254921E-002  -2.3431261458507380E-002   2.6133276550608819E-002
   7.6231114323292132E-002  -2.2988574233025083E-002   2.2199198458043690E-002
   7.4317059656329315E-002  -2.2489186371876413E-002   1.9195484871749741E-002
   7.2403004989366526E-002  -2.1933097875061411E-002   1.7122135791726084E-002
   7.0488950322403710E-002  -2.1320308742580063E-002   1.5979151217973719E-002
   6.9866328939487188E-002  -2.1231567719841971E-002   2.5198253253491648E-002
   6.8681293638668692E-002  -2.1001846864562551E-002   2.3115642435090122E-002
   6.7496258337850251E-002  -2.0676578812455368E-002   2.1560705842706515E-002
   6.6311223037031783E-002  -2.0255763563520723E-002   2.0533443476341118E-002
   6.5126187736213315E-002  -1.9739401117758126E-002   2.0033855335993278E-002
   6.3564177386762177E-002  -1.9031873981176645E-002   2.4030840305591307E-002
   6.2705471171835267E-002  -1.9015119496099978E-002   2.3838543322514436E-002
   6.1846764956908336E-002  -1.8863971253034149E-002   2.3771230285202786E-002
   6.0988058741981432E-002  -1.8578429251979590E-002   2.3828901193656070E-002
   6.0129352527054494E-002  -1.8158493492936439E-002   2.4011556047874819E-002
   5.9238714332080139E-002  -1.6832180242511263E-002   2.2631037706907386E-002
   5.8303646922791857E-002  -1.7028392127637293E-002   2.4367901120316504E-002
   5.7368579513503618E-002  -1.7051363693613222E-002   2.5827058199237946E-002
   5.6433512104215357E-002  -1.6901094940438861E-002   2.7008508943671711E-002
   5.5498444694927096E-002  -1.6577585868114586E-002   2.7912253353617522E-002
   7.6217640285625388E-002  -2.2901216367401944E-002   1.1847443693815851E-002
   7.3228534957759994E-002  -2.2148536770006610E-002   9.9560432034813129E-003
   7.0239429629894656E-002  -2.1326783690726658E-002   8.3895626170585325E-003
   6.7250324302029318E-002  -2.0435957129562685E-002   7.1480019345485091E-003
   6.4261218974163925E-002  -1.9476057086513898E-002   6.2313611559497994E-003
   7.0488950322403710E-002  -2.1320308742580063E-002   1.5979151217973719E-002
   6.7797958844358297E-002  -2.0640676946394765E-002   1.4499901137391358E-002
   6.5106967366312857E-002  -1.9884060458468855E-002   1.3291958852537256E-002
   6.2415975888267486E-002  -1.9050459278802043E-002   1.2355324363411052E-002
   5.9724984410222115E-002  -1.8139873407394203E-002   1.1689997670012553E-002
   6.5126187736213315E-002  -1.9739401117758126E-002   2.0033855335993278E-002
   6.2679697999804010E-002  -1.9132817122783308E-002   1.8974666875019891E-002
   6.0233208263394650E-002  -1.8441337226210969E-002   1.8133174101590210E-002
   5.7786718526985345E-002  -1.7664961428041519E-002   1.7509377015704972E-002
   5.5340228790575957E-002  -1.6803689728274229E-002   1.7103275617363384E-002
   6.0129352527054494E-002  -1.8158493492936439E-002   2.4011556047874819E-002
   5.7873752424097299E-002  -1.7624957299171490E-002   2.3380340416366080E-002
   5.5618152321140028E-002  -1.6998613993953124E-002   2.2913208364217667E-002
   5.3362552218182813E-002  -1.6279463577280714E-002   2.2610159891429327E-002
   5.1106952115225562E-002  -1.5467506049154395E-002   2.2471194998001105E-002
   5.5498444694927096E-002  -1.6577585868114586E-002   2.7912253353617522E-002
   5.3380122117238027E-002  -1.6117097475560033E-002   2.7716921761430369E-002
   5.1261799539548986E-002  -1.5555890761695196E-002   2.7632061640419536E-002
   4.9143476961859958E-002  -1.4893965726520221E-002   2.7657672990584845E-002
   4.7025154384170875E-002  -1.4131322370034616E-002   2.7793755811926613E-002
   6.4261218974163925E-002  -1.9476057086513898E-002   6.2313611559497994E-003
   6.1163644463440248E-002  -1.8487803964496008E-002   5.0806422903496573E-003
   5.8066069952716570E-002  -1.7511918166425805E-002   4.0383066656168309E-003
   5.4968495441992948E-002  -1.6548399692301367E-002   3.1043542817516256E-003
   5.1870920931269215E-002  -1.5597248542124076E-002   2.2787851387546798E-003
   5.9724984410222115E-002  -1.8139873407394203E-002   1.1689997670012553E-002
   5.6745886266558132E-002  -1.7193820221352407E-002   1.0691642181690331E-002
   5.3766788122894149E-002  -1.6253817097783591E-002   9.8218561866193488E-003
   5.0787689979230083E-002  -1.5319864036687857E-002   9.0806396848007453E-003
   4.7808591835566128E-002  -1.4391961038065171E-002   8.4679926762331048E-003
   5.5340228790575957E-002  -1.6803689728274229E-002   1.7103275617363384E-002
   5.2499793266355732E-002  -1.5899836478208029E-002   1.6263600767792125E-002
   4.9659357742135507E-002  -1.4995716029141612E-002   1.5572681663857238E-002
   4.6818922217915296E-002  -1.4091328381074016E-002   1.5030518305557787E-002
   4.3978486693695001E-002  -1.3186673534006155E-002   1.4637110692894084E-002
   5.1106952115225562E-002  -1.5467506049154395E-002   2.2471194998001105E-002
   4.8425365462833082E-002  -1.4605852735063818E-002   2.1796518048655268E-002
   4.5743778810440686E-002  -1.3737614960499293E-002   2.1290783097329655E-002
   4.3062192158048261E-002  -1.2862792725460452E-002   2.0953990144023354E-002
   4.0380605505655816E-002  -1.1981386029947083E-002   2.0786139188737132E-002
   4.7025154384170875E-002  -1.4131322370034616E-002   2.7793755811926613E-002
   4.4522602855990301E-002  -1.3311868991919940E-002   2.7290394024279629E-002
   4.2020051327809727E-002  -1.2479513891857183E-002   2.6976160487036632E-002
   3.9517499799629152E-002  -1.1634257069846828E-002   2.6851055200197774E-002
   3.7014948271448578E-002  -1.0776098525888123E-002   2.6915078163762596E-002
   5.1870920931269215E-002  -1.5597248542124076E-002   2.2787851387546798E-003
   4.8890102677643932E-002  -1.4659928653294463E-002   1.3582601165791353E-003
   4.5909284424018759E-002  -1.3737903963214448E-002   7.2649584799300282E-004
   4.2928466170393559E-002  -1.2831174471881326E-002   3.8349233299744823E-004
   3.9947647916768303E-002  -1.1939740179297997E-002   3.2924957159141677E-004
   4.7808591835566128E-002  -1.4391961038065171E-002   8.4679926762331048E-003
   4.5089202694044928E-002  -1.3481074168515406E-002   7.7307212691932747E-003
   4.2369813552523811E-002  -1.2598169494637490E-002   7.2275473327723105E-003
   3.9650424411002597E-002  -1.1743247016431910E-002   6.9584708669685469E-003
   3.6931035269481438E-002  -1.0916306733898651E-002   6.9234918717835381E-003
   4.3978486693695001E-002  -1.3186673534006155E-002   1.4637110692894084E-002
   4.1465863381306284E-002  -1.2302219683735793E-002   1.4070405904066580E-002
   3.8953240068917525E-002  -1.1458435026060948E-002   1.3683135302885535E-002
   3.6440616756528786E-002  -1.0655319560981820E-002   1.3475298889351325E-002
   3.3927993444139964E-002  -9.8928732884980830E-003   1.3446896663463437E-002
   4.0380605505655816E-002  -1.1981386029947083E-002   2.0786139188737132E-002
   3.8020084739427841E-002  -1.1123365198956459E-002   2.0377314021198356E-002
   3.5659563973199901E-002  -1.0318700557484642E-002   2.0093259758334689E-002
   3.3299043206971947E-002  -9.5673921055316226E-003   1.9933976400145780E-002
   3.0938522440743979E-002  -8.8694398430980148E-003   1.9899463946632195E-002
   3.7014948271448578E-002  -1.0776098525888123E-002   2.6915078163762596E-002
   3.4751866768409745E-002  -9.9445107141767908E-003   2.6651445620588965E-002
   3.2488785265370967E-002  -9.1789660889079749E-003   2.6457920699119064E-002
   3.0225703762332218E-002  -8.4794646500818346E-003   2.6334503399351727E-002
   2.7962622259293357E-002  -7.8460063976980576E-003   2.6281193721288787E-002
   3.9947647916768303E-002  -1.1939740179297997E-002   3.2924957159141677E-004
   3.7497621408373427E-002  -1.1131184385535287E-002  -9.8603032933075596E-005
   3.5047594899978607E-002  -1.0473090390663686E-002  -4.0971497556441250E-004
   3.2597568391583787E-002  -9.9654581946846676E-003  -6.0408625630131718E-004
   3.0147541883188911E-002  -9.6082877975971481E-003  -6.8171687514495538E-004
   3.6931035269481438E-002  -1.0916306733898651E-002   6.9234918717835381E-003
   3.4576496532488843E-002  -1.0149763467252826E-002   6.3663203812142077E-003
   3.2221957795496109E-002  -9.4760320367121009E-003   5.8833837715553949E-003
   2.9867419058503444E-002  -8.8951124422757266E-003   5.4746820428069332E-003
   2.7512880321510669E-002  -8.4070046839435086E-003   5.1402151949692110E-003
   3.3927993444139964E-002  -9.8928732884980830E-003   1.3446896663463437E-002
   3.1626436697566207E-002  -9.1683425489706982E-003   1.2818056249637499E-002
   2.9324879950992450E-002  -8.4789736827602380E-003   1.2220944935738692E-002
   2.7023323204418720E-002  -7.8247666898663276E-003   1.1655562721767071E-002
   2.4721766457844963E-002  -7.2057215702890920E-003   1.1121909607722746E-002
   3.0938522440743979E-002  -8.8694398430980148E-003   1.9899463946632195E-002
   2.8647441903605880E-002  -8.1869216306890702E-003   1.9256604572336869E-002
   2.6356361366467677E-002  -7.4819153288080698E-003   1.8602968516985480E-002
   2.4065280829329568E-002  -6.7544209374573796E-003   1.7938555780578229E-002
   2.1774200292191369E-002  -6.0044384566350639E-003   1.7263366363114777E-002
   2.7962622259293357E-002  -7.8460063976980576E-003   2.6281193721288787E-002
   2.5639512150607557E-002  -7.2055007124065540E-003   2.5681965349311886E-002
   2.3316402041921758E-002  -6.4848569748564566E-003   2.5029454515295702E-002
   2.0993291933235930E-002  -5.6840751850482374E-003   2.4323661219240400E-002
   1.8670181824550158E-002  -4.8031553429809248E-003   2.3564585461145815E-002
   3.0147541883188911E-002  -9.6082877975971481E-003  -6.8171687514495538E-004
   2.9557370402403360E-002  -9.1262633978140828E-003  -3.9656859186187887E-004
   2.8967198921617865E-002  -8.2440691937469279E-003  -1.8041265225319236E-003
   2.8377027440832397E-002  -6.9617051853949202E-003  -4.9043906671545345E-003
   2.7786855960046819E-002  -5.2791713727602385E-003  -9.6973610257298226E-003
   2.7512880321510669E-002  -8.4070046839435086E-003   5.1402151949692110E-003
   2.5501133600029480E-002  -7.8627708130128982E-003   5.8426590823146274E-003
   2.3489386878548124E-002  -7.1134728807805692E-003   5.3946587022209447E-003
   2.1477640157066796E-002  -6.1591108872471600E-003   3.7962140546889400E-003
   1.9465893435585468E-002  -4.9996848324127541E-003   1.0473251397182803E-003
   2.4721766457844963E-002  -7.2057215702890920E-003   1.1121909607722746E-002
   2.1830706442182019E-002  -6.5992782282109919E-003   1.2046543356147132E-002
   1.8939646426519144E-002  -5.9828765678144047E-003   1.2362994783647802E-002
   1.6048586410856276E-002  -5.3565165890989488E-003   1.2071263890223144E-002
   1.3157526395193325E-002  -4.7201982920648256E-003   1.1171350675874936E-002
   2.1774200292191369E-002  -6.0044384566350639E-003   1.7263366363114777E-002
   1.8546088928861157E-002  -5.3357856434092243E-003   1.8215084229635969E-002
   1.5317977565530955E-002  -4.8522802548481431E-003   1.9100881721747336E-002
   1.2089866202200749E-002  -4.5539222909507411E-003   1.9920758839448095E-002
   8.8617548388705350E-003  -4.4407117517175632E-003   2.0674715582738867E-002
   1.8670181824550158E-002  -4.8031553429809248E-003   2.3564585461145815E-002
   1.5647281060066798E-002  -4.0722930586076789E-003   2.4348281702780805E-002
   1.2624380295583548E-002  -3.7216839418818537E-003   2.5608319516520262E-002
   9.6014795311002571E-003  -3.7513279928023599E-003   2.7344698902363657E-002
   6.5785787666169382E-003  -4.1612252113700787E-003   2.9557419860311018E-002
   2.7786855960046819E-002  -5.2791713727602385E-003  -9.6973610257298226E-003
   2.3356693136855955E-002  -4.2069516410434549E-003  -4.1837927159917854E-003
   1.8926530313665257E-002  -4.7555298754519137E-003   2.5994749970983388E-003
   1.4496367490474532E-002  -6.9249060759834224E-003   1.0652442113538774E-002
   1.0066204667283696E-002  -1.0715080242638564E-002   1.9975108633331295E-002
   1.9465893435585468E-002  -4.9996848324127541E-003   1.0473251397182803E-003
   1.6232071014893990E-002  -4.6917076262927848E-003   6.7357500702468487E-003
   1.2998248594202400E-002  -6.2916921789046842E-003   1.3547156402422988E-002
   9.7644261735110038E-003  -9.7996384902473976E-003   2.1481544136246922E-002
   6.5306037528192196E-003  -1.5215546560321869E-002   3.0538913271717316E-002
   1.3157526395193325E-002  -4.7201982920648256E-003   1.1171350675874936E-002
   1.0973326375297437E-002  -5.1764636115413376E-003   1.6747468434585133E-002
   8.7891263554014804E-003  -7.8278544823573992E-003   2.3299849593239719E-002
   6.6049263355056273E-003  -1.2674370904511914E-002   3.0828494151838026E-002
   4.4207263156096355E-003  -1.9716012878005618E-002   3.9333402110379723E-002
   8.8617548388705350E-003  -4.4407117517175632E-003   2.0674715582738867E-002
   7.5804592180664307E-003  -5.6612195967900569E-003   2.5851362377024067E-002
   6.2991635972625033E-003  -9.3640167858092538E-003   3.1857554569548793E-002
   5.0178679764582689E-003  -1.5549103318775938E-002   3.8693292160313815E-002
   3.7365723556544717E-003  -2.4216479195689589E-002   4.6358575149318626E-002
   6.5785787666169382E-003  -4.1612252113700787E-003   2.9557419860311018E-002
   6.0534695432010732E-003  -6.1459755820386652E-003   3.4047431897562430E-002
   5.5283603197852360E-003  -1.0900179089262219E-002   3.9220271331350531E-002
   5.0032510963694127E-003  -1.8423835733040406E-002   4.5075938161675155E-002
   4.4781418729534783E-003  -2.8716945513373116E-002   5.1614432388535025E-002
   7.2060551984950316E-002  -2.7870975999961467E-002   5.9917963133859775E-003
   6.8855092571732779E-002  -2.2829378822551261E-002   1.2790300793987408E-002
   6.5649633158515242E-002  -1.9309047137172741E-002   1.7829675853108073E-002
   6.2444173745297676E-002  -1.7309980943826214E-002   2.1109921490747974E-002
   5.9238714332080139E-002  -1.6832180242511263E-002   2.2631037706907386E-002
   7.4270304115739982E-002  -2.1927815345784585E-002   2.1928996770779918E-002
   6.9640566636406692E-002  -1.9310568841735654E-002   2.4940581426860481E-002
   6.5010829157073347E-002  -1.7457012207536676E-002   2.6862739372190358E-002
   6.0381091677740042E-002  -1.6367145443187840E-002   2.7695470606769135E-002
   5.5751354198406711E-002  -1.6040968548688972E-002   2.7438775130597198E-002
   7.3500762747585213E-002  -1.5984654691607730E-002   3.5063058743721509E-002
   6.8116449912865820E-002  -1.5791758860919963E-002   3.5045299197463409E-002
   6.2732137078146483E-002  -1.5604977277900500E-002   3.4607815651184093E-002
   5.7347824243427076E-002  -1.5424309942549411E-002   3.3750608104883589E-002
   5.1963511408707717E-002  -1.5249756854866653E-002   3.2473676558561926E-002
   6.9751927880485801E-002  -1.0041494037430876E-002   4.5393982232211083E-002
   6.4282742401110177E-002  -1.2272948880104259E-002   4.3104454105796046E-002
   5.8813556921734449E-002  -1.3752942348264324E-002   4.1064904690089124E-002
   5.3344371442358762E-002  -1.4481474441911009E-002   3.9275333985090956E-002
   4.7875185962983097E-002  -1.4458545161044292E-002   3.7735741990801250E-002
   6.3023799514441980E-002  -4.0983333832539937E-003   5.2921767236248640E-002
   5.8139444101139748E-002  -8.7541388992886937E-003   4.9118046151857997E-002
   5.3255088687837432E-002  -1.1900907418628232E-002   4.6234006488905577E-002
   4.8370733274535144E-002  -1.3538638941272656E-002   4.4269648247391491E-002
   4.3486377861232828E-002  -1.3667333467221987E-002   4.3224971427315684E-002
   5.9238714332080139E-002  -1.6832180242511263E-002   2.2631037706907386E-002
   5.8303646922791857E-002  -1.7028392127637293E-002   2.4367901120316504E-002
   5.7368579513503618E-002  -1.7051363693613222E-002   2.5827058199237946E-002
   5.6433512104215357E-002  -1.6901094940438861E-002   2.7008508943671711E-002
   5.5498444694927096E-002  -1.6577585868114586E-002   2.7912253353617522E-002
   5.5751354198406711E-002  -1.6040968548688972E-002   2.7438775130597198E-002
   5.4577189928090700E-002  -1.6035358244634354E-002   2.9061663865496648E-002
   5.3403025657774647E-002  -1.5907191251618102E-002   3.0484065212828343E-002
   5.2228861387458608E-002  -1.5656467569640065E-002   3.1705979172592394E-002
   5.1054697117142583E-002  -1.5283187198700421E-002   3.2727405744788524E-002
   5.1963511408707717E-002  -1.5249756854866653E-002   3.2473676558561926E-002
   5.0627469224283898E-002  -1.5042324361631387E-002   3.3931906984763310E-002
   4.9291427039860100E-002  -1.4763018809622976E-002   3.5266868970316771E-002
   4.7955384855436281E-002  -1.4411840198841156E-002   3.6478562515222621E-002
   4.6619342671012434E-002  -1.3988788529286117E-002   3.7566987619480630E-002
   4.7875185962983097E-002  -1.4458545161044292E-002   3.7735741990801250E-002
   4.6454484811371530E-002  -1.4049290478628434E-002   3.8978630478116089E-002
   4.5033783659759921E-002  -1.3618846367627908E-002   4.0175469471703175E-002
   4.3613082508148347E-002  -1.3167212828042275E-002   4.1326258971562231E-002
   4.2192381356536746E-002  -1.2694389859871938E-002   4.2430998977693958E-002
   4.3486377861232828E-002  -1.3667333467221987E-002   4.3224971427315684E-002
   4.2058236689353476E-002  -1.3056256595625537E-002   4.4201834345555524E-002
   4.0630095517474152E-002  -1.2474673925632715E-002   4.5209866716987485E-002
   3.9201954345594800E-002  -1.1922585457243309E-002   4.6249068541611690E-002
   3.7773813173715476E-002  -1.1399991190457648E-002   4.7319439819428266E-002
   5.5498444694927096E-002  -1.6577585868114586E-002   2.7912253353617522E-002
   5.3380122117238027E-002  -1.6117097475560033E-002   2.7716921761430369E-002
   5.1261799539548986E-002  -1.5555890761695196E-002   2.7632061640419536E-002
   4.9143476961859958E-002  -1.4893965726520221E-002   2.7657672990584845E-002
   4.7025154384170875E-002  -1.4131322370034616E-002   2.7793755811926613E-002
   5.1054697117142583E-002  -1.5283187198700421E-002   3.2727405744788524E-002
   4.9049594142657568E-002  -1.4807952794544027E-002   3.2634250265674708E-002
   4.7044491168172511E-002  -1.4251367012915905E-002   3.2657062521792637E-002
   4.5039388193687420E-002  -1.3613429853816403E-002   3.2795842513142513E-002
   4.3034285219202412E-002  -1.2894141317244923E-002   3.3050590239723843E-002
   4.6619342671012434E-002  -1.3988788529286117E-002   3.7566987619480630E-002
   4.4732955563787036E-002  -1.3498808113527952E-002   3.7556641309601194E-002
   4.2846568456561616E-002  -1.2946843264136768E-002   3.7667758999009440E-002
   4.0960181349336225E-002  -1.2332893981112415E-002   3.7900340687704939E-002
   3.9073794242110799E-002  -1.1656960264455202E-002   3.8254386375688024E-002
   4.2192381356536746E-002  -1.2694389859871938E-002   4.2430998977693958E-002
   4.0430206380626589E-002  -1.2189663432512050E-002   4.2484094893210499E-002
   3.8668031404716370E-002  -1.1642319515357442E-002   4.2664151072070194E-002
   3.6905856428806207E-002  -1.1052358108408678E-002   4.2971167514272886E-002
   3.5143681452896001E-002  -1.0419779211665550E-002   4.3405144219818614E-002
   3.7773813173715476E-002  -1.1399991190457648E-002   4.7319439819428266E-002
   3.6141346593176110E-002  -1.0880518751495871E-002   4.7416611016502075E-002
   3.4508880012636772E-002  -1.0337795766578395E-002   4.7646238740974789E-002
   3.2876413432097421E-002  -9.7718222357048162E-003   4.8008322992845992E-002
   3.1243946851558069E-002  -9.1825981588757877E-003   4.8502863772115656E-002
   4.7025154384170875E-002  -1.4131322370034616E-002   2.7793755811926613E-002
   4.4522602855990301E-002  -1.3311868991919940E-002   2.7290394024279629E-002
   4.2020051327809727E-002  -1.2479513891857183E-002   2.6976160487036632E-002
   3.9517499799629152E-002  -1.1634257069846828E-002   2.6851055200197774E-002
   3.7014948271448578E-002  -1.0776098525888123E-002   2.6915078163762596E-002
   4.3034285219202412E-002  -1.2894141317244923E-002   3.3050590239723843E-002
   4.0721877599391415E-002  -1.2129844073914126E-002   3.2589406176917302E-002
   3.8409469979580474E-002  -1.1356880794536270E-002   3.2319381680445791E-002
   3.6097062359769463E-002  -1.0575251479111186E-002   3.2240516750309908E-002
   3.3784654739958536E-002  -9.7849561276387442E-003   3.2352811386508806E-002
   3.9073794242110799E-002  -1.1656960264455202E-002   3.8254386375688024E-002
   3.6953561846600813E-002  -1.0947819155908201E-002   3.7831144351820681E-002
   3.4833329451090855E-002  -1.0234247697214920E-002   3.7601093210219906E-002
   3.2713097055580842E-002  -9.5162458883753780E-003   3.7564232950885679E-002
   3.0592864660070912E-002  -8.7938137293894214E-003   3.7720563573818561E-002
   3.5143681452896001E-002  -1.0419779211665550E-002   4.3405144219818614E-002
   3.3217655597618412E-002  -9.7657942379023310E-003   4.3015608548989587E-002
   3.1291629742340864E-002  -9.1116145998936492E-003   4.2821295076358692E-002
   2.9365603887063284E-002  -8.4572402976396538E-003   4.2822203801925807E-002
   2.7439578031785726E-002  -7.8026713311400708E-003   4.3018334725691200E-002
   3.1243946851558069E-002  -9.1825981588757877E-003   4.8502863772115656E-002
   2.9514158852444294E-002  -8.5837693198964060E-003   4.8142798768424366E-002
   2.7784370853330520E-002  -7.9889815025725452E-003   4.7979987278862435E-002
   2.6054582854216746E-002  -7.3982347069040943E-003   4.8014429303430251E-002
   2.4324794855102944E-002  -6.8115289328907203E-003   4.8246124842127314E-002
   3.7014948271448578E-002  -1.0776098525888123E-002   2.6915078163762596E-002
   3.4751866768409745E-002  -9.9445107141767908E-003   2.6651445620588965E-002
   3.2488785265370967E-002  -9.1789660889079749E-003   2.6457920699119064E-002
   3.0225703762332218E-002  -8.4794646500818346E-003   2.6334503399351727E-002
   2.7962622259293357E-002  -7.8460063976980576E-003   2.6281193721288787E-002
   3.3784654739958536E-002  -9.7849561276387442E-003   3.2352811386508806E-002
   3.1603037367946840E-002  -9.0127132315524494E-003   3.2083631737630680E-002
   2.9421419995935186E-002  -8.2852412822853605E-003   3.1907272729103375E-002
   2.7239802623923483E-002  -7.6025402798376718E-003   3.1823734360927003E-002
   2.5058185251911808E-002  -6.9646102242093555E-003   3.1833016633101563E-002
   3.0592864660070912E-002  -8.7938137293894214E-003   3.7720563573818561E-002
   2.8515424437733916E-002  -8.0809157489282746E-003   3.7467109058858916E-002
   2.6437984215396906E-002  -7.3915164756629820E-003   3.7329188202897823E-002
   2.4360543993059917E-002  -6.7256159095936234E-003   3.7306801005935052E-002
   2.2283103770722915E-002  -6.0832140507202648E-003   3.7399947467970762E-002
   2.7439578031785726E-002  -7.8026713311400708E-003   4.3018334725691200E-002
   2.5489027977770931E-002  -7.1491182663041275E-003   4.2801877584273590E-002
   2.3538477923756167E-002  -6.4977916690405965E-003   4.2723667120501921E-002
   2.1587927869741390E-002  -5.8486915393497398E-003   4.2783703334376463E-002
   1.9637377815726609E-002  -5.2018178772312573E-003   4.2981986225896912E-002
   2.4324794855102944E-002  -6.8115289328907203E-003   4.8246124842127314E-002
   2.2523847988057982E-002  -6.2173207836797584E-003   4.8087937313874840E-002
   2.0722901121013007E-002  -5.6040668624180445E-003   4.8090709481916127E-002
   1.8921954253968011E-002  -4.9717671691053150E-003   4.8254441346251009E-002
   1.7121007386923043E-002  -4.3204217037423609E-003   4.8579132906879541E-002
   2.7962622259293357E-002  -7.8460063976980576E-003   2.6281193721288787E-002
   2.5639512150607557E-002  -7.2055007124065540E-003   2.5681965349311886E-002
   2.3316402041921758E-002  -6.4848569748564566E-003   2.5029454515295702E-002
   2.0993291933235930E-002  -5.6840751850482374E-003   2.4323661219240400E-002
   1.8670181824550158E-002  -4.8031553429809248E-003   2.3564585461145815E-002
   2.5058185251911808E-002  -6.9646102242093555E-003   3.1833016633101563E-002
   2.2718190644236441E-002  -6.3351958633120486E-003   3.1453480555174773E-002
   2.0378196036561075E-002  -5.6780419450573605E-003   3.1093457941308522E-002
   1.8038201428885722E-002  -4.9931484694463388E-003   3.0752948791501783E-002
   1.5698206821210342E-002  -4.2805154364781162E-003   3.0431953105755971E-002
   2.2283103770722915E-002  -6.0832140507202648E-003   3.7399947467970762E-002
   1.9999020590157457E-002  -5.4648910142172102E-003   3.7187705189192760E-002
   1.7714937409591958E-002  -4.8712269152585974E-003   3.7067772300574175E-002
   1.5430854229026479E-002  -4.3022217538445512E-003   3.7040148802115244E-002
   1.3146771048460987E-002  -3.7578755299753630E-003   3.7104834693816008E-002
   1.9637377815726609E-002  -5.2018178772312573E-003   4.2981986225896912E-002
   1.7482001988370535E-002  -4.5945861651222053E-003   4.2884639251365771E-002
   1.5326626161014427E-002  -4.0644118854593347E-003   4.2952397593093869E-002
   1.3171250333658346E-002  -3.6112950382428191E-003   4.3185261251080680E-002
   1.1015874506302242E-002  -3.2352356234726376E-003   4.3583230225326834E-002
   1.7121007386923043E-002  -4.3204217037423609E-003   4.8579132906879541E-002
   1.5167134838875745E-002  -3.7242813160275889E-003   4.8544282741693756E-002
   1.3213262290828462E-002  -3.2575968556607937E-003   4.8747333818866423E-002
   1.1259389742781171E-002  -2.9203683226411564E-003   4.9188286138397763E-002
   9.3055171947338811E-003  -2.7125957169699122E-003   4.9867139700287555E-002
   1.8670181824550158E-002  -4.8031553429809248E-003   2.3564585461145815E-002
   1.5647281060066798E-002  -4.0722930586076789E-003   2.4348281702780805E-002
   1.2624380295583548E-002  -3.7216839418818537E-003   2.5608319516520262E-002
   9.6014795311002571E-003  -3.7513279928023599E-003   2.7344698902363657E-002
   6.5785787666169382E-003  -4.1612252113700787E-003   2.9557419860311018E-002
   1.5698206821210342E-002  -4.2805154364781162E-003   3.0431953105755971E-002
   1.3132651905757547E-002  -3.7719950187113382E-003   3.1209083877204724E-002
   1.0567096990304767E-002  -3.6994393887045673E-003   3.2424564774610698E-002
   8.0015420748519930E-003  -4.0628485464576439E-003   3.4078395797973365E-002
   5.4359871593991915E-003  -4.8622224919709911E-003   3.6170576947293420E-002
   1.3146771048460987E-002  -3.7578755299753630E-003   3.7104834693816008E-002
   1.1000570535891721E-002  -3.4716969788148866E-003   3.7819688374965493E-002
   8.8543700233224484E-003  -3.6771948355274059E-003   3.8934900735924996E-002
   6.7081695107531515E-003  -4.3743691001129313E-003   4.0450471776694398E-002
   4.5619689981839101E-003  -5.5632197725715704E-003   4.2366401497273776E-002
   1.1015874506302242E-002  -3.2352356234726376E-003   4.3583230225326834E-002
   9.2510369504693775E-003  -3.1713989389184905E-003   4.4180095196063578E-002
   7.4861993946365706E-003  -3.6549502823502375E-003   4.5139327400463475E-002
   5.7213618388037646E-003  -4.6858896537679950E-003   4.6460926838526428E-002
   3.9565242829709031E-003  -6.2642170531722052E-003   4.8144893510252043E-002
   9.3055171947338811E-003  -2.7125957169699122E-003   4.9867139700287555E-002
   7.8840511494905341E-003  -2.8711008990219833E-003   5.0290304340499081E-002
   6.4625851042471594E-003  -3.6327057291732079E-003   5.1037844768226148E-002
   5.0411190590038124E-003  -4.9974102074233431E-003   5.2109760983469339E-002
   3.6196530137604377E-003  -6.9652143337730621E-003   5.3506052986228347E-002
   6.5785787666169382E-003  -4.1612252113700787E-003   2.9557419860311018E-002
   6.0534695432010732E-003  -6.1459755820386652E-003   3.4047431897562430E-002
   5.5283603197852360E-003  -1.0900179089262219E-002   3.9220271331350531E-002
   5.0032510963694127E-003  -1.8423835733040406E-002   4.5075938161675155E-002
   4.4781418729534783E-003  -2.8716945513373116E-002   5.1614432388535025E-002
   5.4359871593991915E-003  -4.8622224919709911E-003   3.6170576947293420E-002
   5.4900826178838902E-003  -6.9979834841308319E-003   3.8322408494867344E-002
   5.5441780763686721E-003  -1.1370553781823500E-002   4.0949822009706260E-002
   5.5982735348533985E-003  -1.7979933385050356E-002   4.4052817491809393E-002
   5.6523689933382082E-003  -2.6826122293810872E-002   4.7631394941178185E-002
   4.5619689981839101E-003  -5.5632197725715704E-003   4.2366401497273776E-002
   4.9880237092977120E-003  -7.8499913862226101E-003   4.2712696386191740E-002
   5.4140784204114653E-003  -1.1840928474385559E-002   4.3327327813102778E-002
   5.8401331315253331E-003  -1.7536031037060917E-002   4.4210295778007211E-002
   6.2661878426390205E-003  -2.4935299074248185E-002   4.5361600280904857E-002
   3.9565242829709031E-003  -6.2642170531722052E-003   4.8144893510252043E-002
   4.5472928174423374E-003  -8.7019992883144714E-003   4.7218295571535368E-002
   5.1380613519137735E-003  -1.2311303166947674E-002   4.6352788741540155E-002
   5.7288298863851271E-003  -1.7092128689071506E-002   4.5548373020267020E-002
   6.3195984208566439E-003  -2.3044475854685609E-002   4.4805048407715459E-002
   3.6196530137604377E-003  -6.9652143337730621E-003   5.3506052986228347E-002
   4.1678899423179261E-003  -9.5540071904065549E-003   5.1839206050898534E-002
   4.7161268708753867E-003  -1.2781677859509344E-002   5.0026204795018403E-002
   5.2643637994328474E-003  -1.6648226341081707E-002   4.8067049218588898E-002
   5.8126007279902803E-003  -2.1153652635123255E-002   4.5961739321609407E-002
   6.3023799514441980E-002  -4.0983333832539937E-003   5.2921767236248640E-002
   5.8139444101139748E-002  -8.7541388992886937E-003   4.9118046151857997E-002
   5.3255088687837432E-002  -1.1900907418628232E-002   4.6234006488905577E-002
   4.8370733274535144E-002  -1.3538638941272656E-002   4.4269648247391491E-002
   4.3486377861232828E-002  -1.3667333467221987E-002   4.3224971427315684E-002
   5.4900987483048280E-002  -6.9189621841245219E-003   5.3576582789792104E-002
   5.0864684343465166E-002  -9.4870530526232622E-003   5.1084385578864078E-002
   4.6828381203882025E-002  -1.1177727211942962E-002   4.9368611493936121E-002
   4.2792078064298897E-002  -1.1990984662083627E-002   4.8429260535008387E-002
   3.8755774924715769E-002  -1.1926825403045127E-002   4.8266332702080694E-002
   4.6968101619899158E-002  -9.7395909849951334E-003   5.6634923134629422E-002
   4.3636592458597037E-002  -1.0219967205957983E-002   5.4822629509648085E-002
   4.0305083297294965E-002  -1.0454547005257761E-002   5.3643500715228651E-002
   3.6973574135992865E-002  -1.0443330382894602E-002   5.3097536751371043E-002
   3.3642064974690744E-002  -1.0186317338868295E-002   5.3184737618075587E-002
   3.9225141924994683E-002  -1.2560219785865689E-002   6.2096788270760615E-002
   3.6455168446535471E-002  -1.0952881359292628E-002   6.0332777944209721E-002
   3.3685194968076211E-002  -9.7313667985725535E-003   5.9058674152782764E-002
   3.0915221489616965E-002  -8.8956761037055476E-003   5.8274476896479577E-002
   2.8145248011157715E-002  -8.4458092746914487E-003   5.7980186175300166E-002
   3.1672108398334842E-002  -1.5380848586736273E-002   6.9962178198185676E-002
   2.9320412307280330E-002  -1.1685795512627328E-002   6.7614830882549493E-002
   2.6968716216225791E-002  -9.0081865918872767E-003   6.5614131806598891E-002
   2.4617020125171252E-002  -7.3480218245165589E-003   6.3960080970333996E-002
   2.2265324034116726E-002  -6.7053012105146026E-003   6.2652678373754545E-002
   4.3486377861232828E-002  -1.3667333467221987E-002   4.3224971427315684E-002
   4.2058236689353476E-002  -1.3056256595625537E-002   4.4201834345555524E-002
   4.0630095517474152E-002  -1.2474673925632715E-002   4.5209866716987485E-002
   3.9201954345594800E-002  -1.1922585457243309E-002   4.6249068541611690E-002
   3.7773813173715476E-002  -1.1399991190457648E-002   4.7319439819428266E-002
   3.8755774924715769E-002  -1.1926825403045127E-002   4.8266332702080694E-002
   3.7393603481337370E-002  -1.1427191189244110E-002   4.8876908381492459E-002
   3.6031432037958971E-002  -1.0934023775097182E-002   4.9588254064713871E-002
   3.4669260594580552E-002  -1.0447323160604153E-002   5.0400369751744931E-002
   3.3307089151202132E-002  -9.9670893457649012E-003   5.1313255442585415E-002
   3.3642064974690744E-002  -1.0186317338868295E-002   5.3184737618075587E-002
   3.2415463810430686E-002  -9.7981257828627377E-003   5.3452053460608814E-002
   3.1188862646170601E-002  -9.3933736245614893E-003   5.3889739857569181E-002
   2.9962261481910526E-002  -8.9720608639647214E-003   5.4497796808956486E-002
   2.8735660317650458E-002  -8.5341875010721546E-003   5.5276224314770916E-002
   2.8145248011157715E-002  -8.4458092746914487E-003   5.7980186175300166E-002
   2.7123817676633379E-002  -8.1690603764812825E-003   5.7927269582904548E-002
   2.6102387342109033E-002  -7.8527234740259598E-003   5.8114324095553407E-002
   2.5080957007584691E-002  -7.4967985673252613E-003   5.8541349713246781E-002
   2.4059526673060352E-002  -7.1012856563793525E-003   5.9208346435984549E-002
   2.2265324034116726E-002  -6.7053012105146026E-003   6.2652678373754545E-002
   2.1518665079945501E-002  -6.5399949701000493E-003   6.2302556748379756E-002
   2.0772006125774296E-002  -6.3120733234903192E-003   6.2262006778666723E-002
   2.0025347171603088E-002  -6.0215362706860370E-003   6.2531028464615529E-002
   1.9278688217431866E-002  -5.6683838116866059E-003   6.3109621806226257E-002
   3.7773813173715476E-002  -1.1399991190457648E-002   4.7319439819428266E-002
   3.6141346593176110E-002  -1.0880518751495871E-002   4.7416611016502075E-002
   3.4508880012636772E-002  -1.0337795766578395E-002   4.7646238740974789E-002
   3.2876413432097421E-002  -9.7718222357048162E-003   4.8008322992845992E-002
   3.1243946851558069E-002  -9.1825981588757877E-003   4.8502863772115656E-002
   3.3307089151202132E-002  -9.9670893457649012E-003   5.1313255442585415E-002
   3.1818463417904119E-002  -9.4838053701308822E-003   5.1335014982063387E-002
   3.0329837684606058E-002  -8.9879542732532319E-003   5.1511999688625215E-002
   2.8841211951308007E-002  -8.4795360551317596E-003   5.1844209562271079E-002
   2.7352586218009969E-002  -7.9585507157669544E-003   5.2331644603000826E-002
   2.8735660317650458E-002  -8.5341875010721546E-003   5.5276224314770916E-002
   2.7413644071279025E-002  -8.0870919887660042E-003   5.5211888771940790E-002
   2.6091627824907600E-002  -7.6381127799282911E-003   5.5325547035879830E-002
   2.4769611578536178E-002  -7.1872498745588695E-003   5.5617199106588189E-002
   2.3447595332164742E-002  -6.7345032726580101E-003   5.6086844984065881E-002
   2.4059526673060352E-002  -7.1012856563793525E-003   5.9208346435984549E-002
   2.2926888553300842E-002  -6.6903786074011262E-003   5.9047232386134157E-002
   2.1794250433541357E-002  -6.2882712866033502E-003   5.9086880782738375E-002
   2.0661612313781840E-002  -5.8949636939858406E-003   5.9327291625797141E-002
   1.9528974194022362E-002  -5.5104558295491768E-003   5.9768464915310474E-002
   1.9278688217431866E-002  -5.6683838116866059E-003   6.3109621806226257E-002
   1.8358196863969625E-002  -5.2936652260361095E-003   6.2841045824643671E-002
   1.7437705510507343E-002  -4.9384297932783261E-003   6.2796000929200929E-002
   1.6517214157045088E-002  -4.6026775134128464E-003   6.2974487119898143E-002
   1.5596722803582805E-002  -4.2864083864401770E-003   6.3376504396735311E-002
   3.1243946851558069E-002  -9.1825981588757877E-003   4.8502863772115656E-002
   2.9514158852444294E-002  -8.5837693198964060E-003   4.8142798768424366E-002
   2.7784370853330520E-002  -7.9889815025725452E-003   4.7979987278862435E-002
   2.6054582854216746E-002  -7.3982347069040943E-003   4.8014429303430251E-002
   2.4324794855102944E-002  -6.8115289328907203E-003   4.8246124842127314E-002
   2.7352586218009969E-002  -7.9585507157669544E-003   5.2331644603000826E-002
   2.5822995877749763E-002  -7.4338516512856279E-003   5.1956303145403115E-002
   2.4293405537489564E-002  -6.9142922578156463E-003   5.1784103491382960E-002
   2.2763815197229354E-002  -6.3998725353569957E-003   5.1815045640940430E-002
   2.1234224856969158E-002  -5.8905924839096069E-003   5.2049129594075483E-002
   2.3447595332164742E-002  -6.7345032726580101E-003   5.6086844984065881E-002
   2.2124090940206287E-002  -6.2839339826747664E-003   5.5695128423205759E-002
   2.0800586548247797E-002  -5.8396030130588028E-003   5.5512441955371417E-002
   1.9477082156289325E-002  -5.4015103638099526E-003   5.5538785580563049E-002
   1.8153577764330846E-002  -4.9696560349281604E-003   5.5774159298780324E-002
   1.9528974194022362E-002  -5.5104558295491768E-003   5.9768464915310474E-002
   1.8417444039813768E-002  -5.1340163140641687E-003   5.9359274601832296E-002
   1.7305913885605186E-002  -4.7649137683018761E-003   5.9165002670828082E-002
   1.6194383731396589E-002  -4.4031481922629928E-003   5.9185649122297818E-002
   1.5082853577188004E-002  -4.0487195859470471E-003   5.9421213956241378E-002
   1.5596722803582805E-002  -4.2864083864401770E-003   6.3376504396735311E-002
   1.4703055176572263E-002  -3.9840986454531269E-003   6.2948741681282949E-002
   1.3809387549561729E-002  -3.6902245235450742E-003   6.2741785637752817E-002
   1.2915719922551205E-002  -3.4047860207158699E-003   6.2755636266144846E-002
   1.2022052295540653E-002  -3.1277831369656006E-003   6.2990293566459021E-002
   2.4324794855102944E-002  -6.8115289328907203E-003   4.8246124842127314E-002
   2.2523847988057982E-002  -6.2173207836797584E-003   4.8087937313874840E-002
   2.0722901121013007E-002  -5.6040668624180445E-003   4.8090709481916127E-002
   1.8921954253968011E-002  -4.9717671691053150E-003   4.8254441346251009E-002
   1.7121007386923043E-002  -4.3204217037423609E-003   4.8579132906879541E-002
   2.1234224856969158E-002  -5.8905924839096069E-003   5.2049129594075483E-002
   1.9604756271906304E-002  -5.3763483183091876E-003   5.1928440392691178E-002
   1.7975287686843408E-002  -4.8470362533925976E-003   5.1989748058977242E-002
   1.6345819101780526E-002  -4.3026562891590285E-003   5.2233052592934259E-002
   1.4716350516717658E-002  -3.7432084256089349E-003   5.2658353994561424E-002
   1.8153577764330846E-002  -4.9696560349281604E-003   5.5774159298780324E-002
   1.6716624632627138E-002  -4.5353758529388388E-003   5.5686990551529494E-002
   1.5279671500923419E-002  -4.0900056443669286E-003   5.5802855843326116E-002
   1.3842718369219695E-002  -3.6335454092126310E-003   5.6121755174170826E-002
   1.2405765237515985E-002  -3.1659951474756753E-003   5.6643688544062765E-002
   1.5082853577188004E-002  -4.0487195859470471E-003   5.9421213956241378E-002
   1.3859453070220547E-002  -3.6944033875681570E-003   5.9363587790390027E-002
   1.2636052563253078E-002  -3.3329750353415927E-003   5.9530032834963338E-002
   1.1412652056285614E-002  -2.9644345292659559E-003   5.9920549089961375E-002
   1.0189251549318120E-002  -2.5887818693425546E-003   6.0535136555384075E-002
   1.2022052295540653E-002  -3.1277831369656006E-003   6.2990293566459021E-002
   1.1033241584686493E-002  -2.8534309221980303E-003   6.2958232109272760E-002
   1.0044430873832347E-002  -2.5759444263157294E-003   6.3171279033888306E-002
   9.0556201629781938E-003  -2.2953236493195375E-003   6.3629434340305630E-002
   8.0668094521240408E-003  -2.0115685912091008E-003   6.4332698028525148E-002
   1.7121007386923043E-002  -4.3204217037423609E-003   4.8579132906879541E-002
   1.5167134838875745E-002  -3.7242813160275889E-003   4.8544282741693756E-002
   1.3213262290828462E-002  -3.2575968556607937E-003   4.8747333818866423E-002
   1.1259389742781171E-002  -2.9203683226411564E-003   4.9188286138397763E-002
   9.3055171947338811E-003  -2.7125957169699122E-003   4.9867139700287555E-002
   1.4716350516717658E-002  -3.7432084256089349E-003   5.2658353994561424E-002
   1.3002642903852946E-002  -3.2387156079609625E-003   5.2592622153969204E-002
   1.1288935290988220E-002  -2.8592007814338682E-003   5.2769318941383286E-002
   9.5752276781235074E-003  -2.6046639460273746E-003   5.3188444356804268E-002
   7.8615200652588091E-003  -2.4751051017423142E-003   5.3849998400231747E-002
   1.2405765237515985E-002  -3.1659951474756753E-003   5.6643688544062765E-002
   1.0936749945481897E-002  -2.7531498998943638E-003   5.6551552964290680E-002
   9.4677346534478395E-003  -2.4608047072073591E-003   5.6706373398173665E-002
   7.9987193614137805E-003  -2.2889595694139189E-003   5.7108149845711026E-002
   6.5297040693796937E-003  -2.2376144865147718E-003   5.7756882306903096E-002
   1.0189251549318120E-002  -2.5887818693425546E-003   6.0535136555384075E-002
   8.9694559637627340E-003  -2.2675841918282508E-003   6.0421075172659419E-002
   7.7496603782073068E-003  -2.0624086329808083E-003   6.0558497189237635E-002
   6.5298647926518936E-003  -1.9732551928005777E-003   6.0947402605118120E-002
   5.3100692070964933E-003  -2.0001238712873681E-003   6.1587791420301845E-002
   8.0668094521240408E-003  -2.0115685912091008E-003   6.4332698028525148E-002
   7.1007609586953291E-003  -1.7820184837612496E-003   6.4201188779074658E-002
   6.1347124652666452E-003  -1.6640125587540078E-003   6.4325690314574857E-002
   5.1686639718379543E-003  -1.6575508161866467E-003   6.4706202635026022E-002
   4.2026154784092495E-003  -1.7626332560597424E-003   6.5342725740427876E-002
   9.3055171947338811E-003  -2.7125957169699122E-003   4.9867139700287555E-002
   7.8840511494905341E-003  -2.8711008990219833E-003   5.0290304340499081E-002
   6.4625851042471594E-003  -3.6327057291732079E-003   5.1037844768226148E-002
   5.0411190590038124E-003  -4.9974102074233431E-003   5.2109760983469339E-002
   3.6196530137604377E-003  -6.9652143337730621E-003   5.3506052986228347E-002
   7.8615200652588091E-003  -2.4751051017423142E-003   5.3849998400231747E-002
   6.7385928253615723E-003  -2.6637096608707611E-003   5.3802282959965919E-002
   5.6156655854643495E-003  -3.3636630357056496E-003   5.4027269342876993E-002
   4.4927383455671266E-003  -4.5749652262474447E-003   5.4524957548964248E-002
   3.3698111056699176E-003  -6.2976162324958063E-003   5.5295347578227627E-002
   6.5297040693796937E-003  -2.2376144865147718E-003   5.7756882306903096E-002
   5.6536416704889986E-003  -2.4563184227197055E-003   5.7330037618553265E-002
   4.7775792715983242E-003  -3.0946203422382995E-003   5.7124220789040350E-002
   3.9015168727076499E-003  -4.1525202450715427E-003   5.7139431818363860E-002
   3.0254544738169548E-003  -5.6300181312187725E-003   5.7375670706524606E-002
   5.3100692070964933E-003  -2.0001238712873681E-003   6.1587791420301845E-002
   4.6291976848727608E-003  -2.2489271845685666E-003   6.0873568316260250E-002
   3.9483261626490438E-003  -2.8255776487710674E-003   6.0328699106715830E-002
   3.2674546404253130E-003  -3.7300752638958646E-003   5.9953183791668696E-002
   2.5865831182015943E-003  -4.9624200299415167E-003   5.9747022371118452E-002
   4.2026154784092495E-003  -1.7626332560597424E-003   6.5342725740427876E-002
   3.6652608685128901E-003  -2.0415359464174831E-003   6.4432875053087035E-002
   3.1279062586165307E-003  -2.5565349553035577E-003   6.3640704295903849E-002
   2.5905516487201782E-003  -3.3076302827198950E-003   6.2966213468878096E-002
   2.0531970388238119E-003  -4.2948219286645939E-003   6.2409402572009998E-002
   3.6196530137604377E-003  -6.9652143337730621E-003   5.3506052986228347E-002
   4.1678899423179261E-003  -9.5540071904065549E-003   5.1839206050898534E-002
   4.7161268708753867E-003  -1.2781677859509344E-002   5.0026204795018403E-002
   5.2643637994328474E-003  -1.6648226341081707E-002   4.8067049218588898E-002
   5.8126007279902803E-003  -2.1153652635123255E-002   4.5961739321609407E-002
   3.3698111056699176E-003  -6.2976162324958063E-003   5.5295347578227627E-002
   3.7896150580076920E-003  -8.5648772931628536E-003   5.2943332710665370E-002
   4.2094190103454665E-003  -1.1410009646959984E-002   5.0480606211213419E-002
   4.6292229626832132E-003  -1.4833013293887906E-002   4.7907168079871276E-002
   5.0490269150210709E-003  -1.8833888233946050E-002   4.5223018316639996E-002
   3.0254544738169548E-003  -5.6300181312187725E-003   5.7375670706524606E-002
   3.3522681385949882E-003  -7.5757473959188193E-003   5.4399494426068645E-002
   3.6790818033730424E-003  -1.0038341434410514E-002   5.1348049202382950E-002
   4.0058954681510411E-003  -1.3017800246693995E-002   4.8221335035467522E-002
   4.3327091329291578E-003  -1.6514123832768846E-002   4.5019351925322137E-002
   2.5865831182015943E-003  -4.9624200299415167E-003   5.9747022371118452E-002
   2.8558491840798492E-003  -6.5866174986750625E-003   5.6207691197108056E-002
   3.1251152499581162E-003  -8.6666732218608766E-003   5.2628533768527788E-002
   3.3943813158363347E-003  -1.1202587199499917E-002   4.9009550085377440E-002
   3.6636473817146381E-003  -1.4194359431591641E-002   4.5350740147657415E-002
   2.0531970388238119E-003  -4.2948219286645939E-003   6.2409402572009998E-002
   2.3003581944622264E-003  -5.5974876014310837E-003   5.8367923023783796E-002
   2.5475193501006410E-003  -7.2950050093113228E-003   5.4322059909647391E-002
   2.7946805057390486E-003  -9.3873741523063589E-003   5.0271813229601475E-002
   3.0418416613774424E-003  -1.1874595030414437E-002   4.6217182983645522E-002
   3.1672108398334842E-002  -1.5380848586736273E-002   6.9962178198185676E-002
   2.9320412307280330E-002  -1.1685795512627328E-002   6.7614830882549493E-002
   2.6968716216225791E-002  -9.0081865918872767E-003   6.5614131806598891E-002
   2.4617020125171252E-002  -7.3480218245165589E-003   6.3960080970333996E-002
   2.2265324034116726E-002  -6.7053012105146026E-003   6.2652678373754545E-002
   2.4099048791528965E-002  -1.1535636440061614E-002   7.4049188802332411E-002
   2.2154319885930085E-002  -8.7643466344727583E-003   7.0641918469730447E-002
   2.0209590980331205E-002  -6.7561399439126923E-003   6.7701934268354191E-002
   1.8264862074732324E-002  -5.5110163683815203E-003   6.5229236198203547E-002
   1.6320133169133451E-002  -5.0289759078792629E-003   6.3223824259278694E-002
   1.6296010856186267E-002  -7.6904242933870381E-003   7.7085255618789053E-002
   1.4878887027583124E-002  -5.8428977563181606E-003   7.2872423307561413E-002
   1.3461763198979980E-002  -4.5040932959379207E-003   6.9247515019099731E-002
   1.2044639370376826E-002  -3.6740109122464556E-003   6.6210530753403662E-002
   1.0627515541773682E-002  -3.3526506052437011E-003   6.3761470510473484E-002
   8.2629945923067410E-003  -3.8452121467124206E-003   7.9070378647555353E-002
   7.4941137322394186E-003  -2.9214488781635767E-003   7.4306345396042417E-002
   6.7252328721720857E-003  -2.2520466479632982E-003   7.0250874058835372E-002
   5.9563520121047563E-003  -1.8370054561114594E-003   6.6903964635934246E-002
   5.1874711520374277E-003  -1.6763253026082503E-003   6.4265617127338734E-002
  -1.0957901253050295E-013  -3.7803093988486580E-014   8.0004557888631644E-002
  -1.0102335634698534E-013  -9.0205620750793969E-015   7.4943684735173488E-002
  -9.2453822375659911E-014   1.1532441668293814E-014   7.0712011387561363E-002
  -8.3892962021714368E-014   2.3574892038524808E-014   6.7309537845795117E-002
  -7.5332101667768825E-014   2.7255975254547593E-014   6.4736264109874764E-002
   2.2265324034116726E-002  -6.7053012105146026E-003   6.2652678373754545E-002
   2.1518665079945501E-002  -6.5399949701000493E-003   6.2302556748379756E-002
   2.0772006125774296E-002  -6.3120733234903192E-003   6.2262006778666723E-002
   2.0025347171603088E-002  -6.0215362706860370E-003   6.2531028464615529E-002
   1.9278688217431866E-002  -5.6683838116866059E-003   6.3109621806226257E-002
   1.6320133169133451E-002  -5.0289759078792629E-003   6.3223824259278694E-002
   1.5852319141344710E-002  -4.9049962275683340E-003   6.3150337622668459E-002
   1.5384505113555953E-002  -4.7340549926114112E-003   6.3324969183161217E-002
   1.4916691085767214E-002  -4.5161522030088379E-003   6.3747718940757106E-002
   1.4448877057978461E-002  -4.2512878587602221E-003   6.4418586895456181E-002
   1.0627515541773682E-002  -3.3526506052437011E-003   6.3761470510473484E-002
   1.0377092981808646E-002  -3.2699974850367575E-003   6.3948965011078801E-002
   1.0126670421843611E-002  -3.1560366617328361E-003   6.4323124250228375E-002
   9.8762478618785732E-003  -3.0107681353319163E-003   6.4883948227922331E-002
   9.6258253019135334E-003  -2.8341919058338660E-003   6.5631436944160598E-002
   5.1874711520374277E-003  -1.6763253026082503E-003   6.4265617127338734E-002
   5.0929866013373409E-003  -1.6349987425052781E-003   6.4698438913610781E-002
   4.9985020506372567E-003  -1.5780183308539836E-003   6.5256471979868391E-002
   4.9040174999371794E-003  -1.5053840676548004E-003   6.5939716326111550E-002
   4.8095329492370848E-003  -1.4170959529075516E-003   6.6748171952340257E-002
  -7.5332101667768825E-014   2.7255975254547593E-014   6.4736264109874764E-002
  -6.9215466691474603E-014   2.6478819137309983E-014   6.5398759330264455E-002
  -6.3097096991704404E-014   2.4633073358870661E-014   6.6125012372081043E-002
  -5.6980462015410183E-014   2.2173235469935548E-014   6.6915023235324347E-002
  -5.0862092315639984E-014   1.8873791418627661E-014   6.7768791919994631E-002
   1.9278688217431866E-002  -5.6683838116866059E-003   6.3109621806226257E-002
   1.8358196863969625E-002  -5.2936652260361095E-003   6.2841045824643671E-002
   1.7437705510507343E-002  -4.9384297932783261E-003   6.2796000929200929E-002
   1.6517214157045088E-002  -4.6026775134128464E-003   6.2974487119898143E-002
   1.5596722803582805E-002  -4.2864083864401770E-003   6.3376504396735311E-002
   1.4448877057978461E-002  -4.2512878587602221E-003   6.4418586895456181E-002
   1.3753564728712801E-002  -3.9702489195233837E-003   6.4141370496537814E-002
   1.3058252399447145E-002  -3.7038223449560315E-003   6.4090981059872779E-002
   1.2362940070181490E-002  -3.4520081350579157E-003   6.4267418585460867E-002
   1.1667627740915829E-002  -3.2148062898292307E-003   6.4670683073302482E-002
   9.6258253019135334E-003  -2.8341919058338660E-003   6.5631436944160598E-002
   9.1589878729579181E-003  -2.6468326130105052E-003   6.5350450916129676E-002
   8.6921504440023029E-003  -2.4692148966336119E-003   6.5299587726465352E-002
   8.2253130150466980E-003  -2.3013387567028705E-003   6.5478847375167931E-002
   7.7584755860910688E-003  -2.1432041932184231E-003   6.5888229862237066E-002
   4.8095329492370848E-003  -1.4170959529075516E-003   6.6748171952340257E-002
   4.5744662967049602E-003  -1.3234163064977308E-003   6.6468287083419675E-002
   4.3393996441728287E-003  -1.2346074483111438E-003   6.6421820928979317E-002
   4.1043329916406971E-003  -1.1506693783478825E-003   6.6608773489019155E-002
   3.8692663391085716E-003  -1.0716020966076018E-003   6.7029144763539189E-002
  -5.0862092315639984E-014   1.8873791418627661E-014   6.7768791919994631E-002
  -4.6070786074992043E-014   1.5154544286133387E-014   6.7494878998407670E-002
  -4.1279479834344102E-014   1.1074474670635936E-014   6.7457680667414366E-002
  -3.6491643040648114E-014   7.3205330686221259E-015   6.7657196927014579E-002
  -3.1696867353048219E-014   3.3306690738754696E-015   6.8093427777208615E-002
   1.5596722803582805E-002  -4.2864083864401770E-003   6.3376504396735311E-002
   1.4703055176572263E-002  -3.9840986454531269E-003   6.2948741681282949E-002
   1.3809387549561729E-002  -3.6902245235450742E-003   6.2741785637752817E-002
   1.2915719922551205E-002  -3.4047860207158699E-003   6.2755636266144846E-002
   1.2022052295540653E-002  -3.1277831369656006E-003   6.2990293566459021E-002
   1.1667627740915829E-002  -3.2148062898292307E-003   6.4670683073302482E-002
   1.0995419344535164E-002  -2.9880739840898451E-003   6.4256134657706410E-002
   1.0323210948154492E-002  -2.7676683926592532E-003   6.4063698031447847E-002
   9.6510025517738164E-003  -2.5535895155374029E-003   6.4093373194526848E-002
   8.9787941553931550E-003  -2.3458373527243115E-003   6.4345160146943692E-002
   7.7584755860910688E-003  -2.1432041932184231E-003   6.5888229862237066E-002
   7.3090315377557676E-003  -1.9920493227265634E-003   6.5489004651267238E-002
   6.8595874894204715E-003  -1.8451122617732033E-003   6.5313196347050489E-002
   6.4101434410851780E-003  -1.7023930103588231E-003   6.5360804949586737E-002
   5.9606993927498741E-003  -1.5638915684828003E-003   6.5631830458876245E-002
   3.8692663391085716E-003  -1.0716020966076018E-003   6.7029144763539189E-002
   3.6438917562341315E-003  -9.9602466136328172E-004   6.6647351661965573E-002
   3.4185171733596979E-003  -9.2255613088726776E-004   6.6490280584560676E-002
   3.1931425904852548E-003  -8.5119650518013321E-004   6.6557931531324527E-002
   2.9677680076108312E-003  -7.8194578424145567E-004   6.6850304502256874E-002
  -3.1696867353048219E-014   3.3306690738754696E-015   6.8093427777208615E-002
  -2.9774793741665917E-014   0.0000000000000000        6.7731175689801526E-002
  -2.7852720130283615E-014  -1.4155343563970746E-015   6.7594950743978699E-002
  -2.5930646518901312E-014  -1.7416623698807143E-015   6.7684752939739773E-002
  -2.4008572907519010E-014   1.1102230246251565E-016   6.8000582277085053E-002
   1.2022052295540653E-002  -3.1277831369656006E-003   6.2990293566459021E-002
   1.1033241584686493E-002  -2.8534309221980303E-003   6.2958232109272760E-002
   1.0044430873832347E-002  -2.5759444263157294E-003   6.3171279033888306E-002
   9.0556201629781938E-003  -2.2953236493195375E-003   6.3629434340305630E-002
   8.0668094521240408E-003  -2.0115685912091008E-003   6.4332698028525148E-002
   8.9787941553931550E-003  -2.3458373527243115E-003   6.4345160146943692E-002
   8.2356154003189325E-003  -2.1400731916479399E-003   6.4341528137214610E-002
   7.4924366452446822E-003  -1.9319583197359158E-003   6.4584051657243485E-002
   6.7492578901704597E-003  -1.7214927369885724E-003   6.5072730707030429E-002
   6.0060791350962234E-003  -1.5086764434053546E-003   6.5807565286575331E-002
   5.9606993927498741E-003  -1.5638915684828003E-003   6.5631830458876245E-002
   5.4641997414117058E-003  -1.4267154610980159E-003   6.5655844326325541E-002
   4.9677000900735652E-003  -1.2879722131560883E-003   6.5927060871489210E-002
   4.4712004387354055E-003  -1.1476618246573263E-003   6.6445480094366932E-002
   3.9747007873972562E-003  -1.0057842956018859E-003   6.7211101994958694E-002
   2.9677680076108312E-003  -7.8194578424145567E-004   6.6850304502256874E-002
   2.7189946079648891E-003  -7.1335773054784224E-004   6.6901180676606081E-002
   2.4702212083189488E-003  -6.4398610657632332E-004   6.7200306676625549E-002
   2.2214478086730106E-003  -5.7383091232649820E-004   6.7747682502315193E-002
   1.9726744090270663E-003  -5.0289214779822289E-004   6.8543308153675320E-002
  -2.4008572907519010E-014   1.1102230246251565E-016   6.8000582277085053E-002
  -2.1579960041151480E-014   1.9428902930940239E-015   6.8077537188055537E-002
  -1.9144408280880043E-014   3.5804692544161298E-015   6.8403789072652321E-002
  -1.6705387073656652E-014   4.7808978997920804E-015   6.8979337930875573E-002
  -1.4280243654241076E-014   5.3290705182007514E-015   6.9804183762725236E-002
   8.0668094521240408E-003  -2.0115685912091008E-003   6.4332698028525148E-002
   7.1007609586953291E-003  -1.7820184837612496E-003   6.4201188779074658E-002
   6.1347124652666452E-003  -1.6640125587540078E-003   6.4325690314574857E-002
   5.1686639718379543E-003  -1.6575508161866467E-003   6.4706202635026022E-002
   4.2026154784092495E-003  -1.7626332560597424E-003   6.5342725740427876E-002
   6.0060791350962234E-003  -1.5086764434053546E-003   6.5807565286575331E-002
   5.2924167612199702E-003  -1.3365138628199658E-003   6.5604182181420279E-002
   4.5787543873436962E-003  -1.2480094190643332E-003   6.5649560530419371E-002
   3.8650920134674326E-003  -1.2431631121383180E-003   6.5943700333572497E-002
   3.1514296395911690E-003  -1.3219749420427807E-003   6.6486601590879990E-002
   3.9747007873972562E-003  -1.0057842956018859E-003   6.7211101994958694E-002
   3.5061752022768067E-003  -8.9100924187796027E-004   6.6963731079709349E-002
   3.0376496171563641E-003  -8.3200627937389526E-004   6.6957872287817313E-002
   2.5691240320359163E-003  -8.2877540808999270E-004   6.7193525619283101E-002
   2.1005984469154720E-003  -8.8131662802598543E-004   6.7670691074106060E-002
   1.9726744090270663E-003  -5.0289214779822289E-004   6.8543308153675320E-002
   1.7420362818658403E-003  -4.4550462093603804E-004   6.8279835473941397E-002
   1.5113981547046143E-003  -4.1600313968389452E-004   6.8250625586768462E-002
   1.2807600275433853E-003  -4.1438770404144364E-004   6.8455678492156238E-002
   1.0501219003821623E-003  -4.4065831400921796E-004   6.8894994190105016E-002
  -1.4280243654241076E-014   5.3290705182007514E-015   6.9804183762725236E-002
  -1.2899403767363538E-014   5.4400928206632670E-015   6.9552495364116895E-002
  -1.1525502774389906E-014   6.3282712403633923E-015   6.9527820427272957E-002
  -1.0148132334464322E-014   6.7446048745978260E-015   6.9730158952193144E-002
  -8.7707618945387367E-015   7.7715611723760958E-015   7.0159510938877734E-002
   4.2026154784092495E-003  -1.7626332560597424E-003   6.5342725740427876E-002
   3.6652608685128901E-003  -2.0415359464174831E-003   6.4432875053087035E-002
   3.1279062586165307E-003  -2.5565349553035577E-003   6.3640704295903849E-002
   2.5905516487201782E-003  -3.3076302827198950E-003   6.2966213468878096E-002
   2.0531970388238119E-003  -4.2948219286645939E-003   6.2409402572009998E-002
   3.1514296395911690E-003  -1.3219749420427807E-003   6.6486601590879990E-002
   2.7359196404316000E-003  -1.5311519598108503E-003   6.5374685951547828E-002
   2.3204096412720518E-003  -1.9174012164755450E-003   6.4388779603531426E-002
   1.9048996421124932E-003  -2.4807227120376973E-003   6.3528882546831547E-002
   1.4893896429529208E-003  -3.2211164464965858E-003   6.2794994781447344E-002
   2.1005984469154720E-003  -8.8131662802598543E-004   6.7670691074106060E-002
   1.8152624196511799E-003  -1.0207679732045227E-003   6.6415734562414314E-002
   1.5299263923868878E-003  -1.2782674776475600E-003   6.5295116703197348E-002
   1.2445903651225800E-003  -1.6538151413557287E-003   6.4308837496454802E-002
   9.5925433785830350E-004  -2.1474109643285222E-003   6.3456896942186786E-002
   1.0501219003821623E-003  -4.4065831400921796E-004   6.8894994190105016E-002
   9.0328920617159698E-004  -5.1038398659782047E-004   6.7556020885686338E-002
   7.5645651196103170E-004  -6.3913373881933910E-004   6.6359715594900809E-002
   6.0962381775046598E-004  -8.2690757067364548E-004   6.5306078317748040E-002
   4.6279112353990112E-004  -1.0737054821604863E-003   6.4395109054228405E-002
  -8.7707618945387367E-015   7.7715611723760958E-015   7.0159510938877734E-002
  -7.1470607210244452E-015   8.4376949871511897E-015   6.8795544921364304E-002
  -5.5094817597023393E-015   8.4932061383824475E-015   6.7582576278641948E-002
  -3.8788416922841407E-015   8.3405504724964885E-015   6.6520605010711387E-002
  -2.2482016248659420E-015   7.5495165674510645E-015   6.5609631117572009E-002
   2.0531970388238119E-003  -4.2948219286645939E-003   6.2409402572009998E-002
   2.3003581944622264E-003  -5.5974876014310837E-003   5.8367923023783796E-002
   2.5475193501006410E-003  -7.2950050093113228E-003   5.4322059909647391E-002
   2.7946805057390486E-003  -9.3873741523063589E-003   5.0271813229601475E-002
   3.0418416613774424E-003  -1.1874595030414437E-002   4.6217182983645522E-002
   1.4893896429529208E-003  -3.2211164464965858E-003   6.2794994781447344E-002
   1.7178155519315119E-003  -4.1981157010714254E-003   5.8427340375022785E-002
   1.9462414609100684E-003  -5.4712537569814312E-003   5.4026599041188561E-002
   2.1746673698886318E-003  -7.0405306142263813E-003   4.9592770779943951E-002
   2.4030932788672299E-003  -8.9059462728064975E-003   4.5125855591290343E-002
   9.5925433785830350E-004  -2.1474109643285222E-003   6.3456896942186786E-002
   1.1402416386770697E-003  -2.7987438007117671E-003   5.8861780611342784E-002
   1.3212289394958360E-003  -3.6475025046509985E-003   5.4204873991589256E-002
   1.5022162403146213E-003  -4.6936870761467402E-003   4.9486177082925527E-002
   1.6832035411333685E-003  -5.9372975151983365E-003   4.4705689885352728E-002
   4.6279112353990112E-004  -1.0737054821604863E-003   6.4395109054228405E-002
   5.6763645469892418E-004  -1.3993719003522198E-003   5.9671243732744128E-002
   6.7248178585794030E-004  -1.8237512523210583E-003   5.4856884760850294E-002
   7.7732711701694211E-004  -2.3468435380669308E-003   4.9952032138546106E-002
   8.8217244817597948E-004  -2.9686487575902865E-003   4.4956685865832874E-002
  -2.2482016248659420E-015   7.5495165674510645E-015   6.5609631117572009E-002
  -2.9490299091605721E-015   7.3274719625260332E-015   6.0855729739226150E-002
  -3.6463887465032485E-015   9.3258734068513149E-015   5.5982631348970968E-002
  -4.3524212012258090E-015   1.2712053631958042E-014   5.0990335946805465E-002
  -5.0376369742366478E-015   1.7763568394002505E-014   4.5878843532730862E-002
  -1.0957901253050295E-013  -3.7803093988486580E-014   8.0004557888631644E-002
  -1.0102335634698534E-013  -9.0205620750793969E-015   7.4943684735173488E-002
  -9.2453822375659911E-014   1.1532441668293814E-014   7.0712011387561363E-002
  -8.3892962021714368E-014   2.3574892038524808E-014   6.7309537845795117E-002
  -7.5332101667768825E-014   2.7255975254547593E-014   6.4736264109874764E-002
  -8.2629945925222006E-003   3.8452121467167921E-003   7.9070378647467132E-002
  -7.4941137324375240E-003   2.9214488781974801E-003   7.4306345395948686E-002
  -6.7252328723528456E-003   2.2520466480169532E-003   7.0250874058736285E-002
  -5.9563520122681646E-003   1.8370054561748922E-003   6.6903964635830329E-002
  -5.1874711521834906E-003   1.6763253026714775E-003   6.4265617127230612E-002
  -1.6296010856390614E-002   7.6904242934713873E-003   7.7085255618580970E-002
  -1.4878887027769445E-002   5.8428977564040363E-003   7.2872423307348944E-002
  -1.3461763199148276E-002   4.5040932960223531E-003   6.9247515018883626E-002
  -1.2044639370527112E-002   3.6740109123262390E-003   6.6210530753184990E-002
  -1.0627515541905943E-002   3.3526506053157823E-003   6.3761470510252952E-002
  -2.4099048791714810E-002   1.1535636440225969E-002   7.4049188801973406E-002
  -2.2154319886096788E-002   8.7643466346105509E-003   7.0641918469374829E-002
  -2.0209590980478753E-002   6.7561399440278190E-003   6.7701934268003486E-002
  -1.8264862074860739E-002   5.5110163684775710E-003   6.5229236197858947E-002
  -1.6320133169242711E-002   5.0289759079600455E-003   6.3223824258941658E-002
  -3.1672108398494776E-002   1.5380848586980578E-002   6.9962178197644165E-002
  -2.9320412307419524E-002   1.1685795512817065E-002   6.7614830882026244E-002
  -2.6968716216344269E-002   9.0081865920332294E-003   6.5614131806095599E-002
  -2.4617020125269021E-002   7.3480218246289725E-003   6.3960080969852479E-002
  -2.2265324034193772E-002   6.7053012106043086E-003   6.2652678373296689E-002
  -7.5332101667768825E-014   2.7255975254547593E-014   6.4736264109874764E-002
  -6.9215466691474603E-014   2.6478819137309983E-014   6.5398759330264455E-002
  -6.3097096991704404E-014   2.4633073358870661E-014   6.6125012372081043E-002
  -5.6980462015410183E-014   2.2173235469935548E-014   6.6915023235324347E-002
  -5.0862092315639984E-014   1.8873791418627661E-014   6.7768791919994631E-002
  -5.1874711521834906E-003   1.6763253026714775E-003   6.4265617127230612E-002
  -5.0929866014713648E-003   1.6349987425628848E-003   6.4698438913510223E-002
  -4.9985020507592407E-003   1.5780183309048873E-003   6.5256471979774966E-002
  -4.9040175000471193E-003   1.5053840676977383E-003   6.5939716326024911E-002
  -4.8095329493349909E-003   1.4170959529412608E-003   6.6748171952260071E-002
  -1.0627515541905943E-002   3.3526506053157823E-003   6.3761470510252952E-002
  -1.0377092981929448E-002   3.2699974850993463E-003   6.3948965010873882E-002
  -1.0126670421952963E-002   3.1560366617850930E-003   6.4323124250038416E-002
  -9.8762478619764775E-003   3.0107681353733051E-003   6.4883948227746485E-002
  -9.6258253019999851E-003   2.8341919058637588E-003   6.5631436943998034E-002
  -1.6320133169242711E-002   5.0289759079600455E-003   6.3223824258941658E-002
  -1.5852319141443492E-002   4.9049962276357245E-003   6.3150337622355557E-002
  -1.5384505113644260E-002   4.7340549926653784E-003   6.3324969182871421E-002
  -1.4916691085845039E-002   4.5161522030488154E-003   6.3747718940489181E-002
  -1.4448877058045817E-002   4.2512878587861458E-003   6.4418586895208935E-002
  -2.2265324034193772E-002   6.7053012106043086E-003   6.2652678373296689E-002
  -2.1518665080013443E-002   6.5399949701722415E-003   6.2302556747955179E-002
  -2.0772006125833138E-002   6.3120733235455806E-003   6.2262006778274037E-002
  -2.0025347171652816E-002   6.0215362707243050E-003   6.2531028464253013E-002
  -1.9278688217472500E-002   5.6683838117086993E-003   6.3109621805892413E-002
  -5.0862092315639984E-014   1.8873791418627661E-014   6.7768791919994631E-002
  -4.6070786074992043E-014   1.5154544286133387E-014   6.7494878998407670E-002
  -4.1279479834344102E-014   1.1074474670635936E-014   6.7457680667414366E-002
  -3.6491643040648114E-014   7.3205330686221259E-015   6.7657196927014579E-002
  -3.1696867353048219E-014   3.3306690738754696E-015   6.8093427777208615E-002
  -4.8095329493349909E-003   1.4170959529412608E-003   6.6748171952260071E-002
  -4.5744662967935126E-003   1.3234163065219684E-003   6.6468287083347150E-002
  -4.3393996442520275E-003   1.2346074483267910E-003   6.6421820928913994E-002
  -4.1043329917105388E-003   1.1506693783553054E-003   6.6608773488960660E-002
  -3.8692663391690571E-003   1.0716020966077267E-003   6.7029144763487092E-002
  -9.6258253019999851E-003   2.8341919058637588E-003   6.5631436943998034E-002
  -9.1589878730357066E-003   2.6468326130291986E-003   6.5350450915983183E-002
  -8.6921504440714229E-003   2.4692148966424105E-003   6.5299587726334166E-002
  -8.2253130151071462E-003   2.3013387567034603E-003   6.5478847375050941E-002
  -7.7584755861428677E-003   2.1432041932121226E-003   6.5888229862133663E-002
  -1.4448877058045817E-002   4.2512878587861458E-003   6.4418586895208935E-002
  -1.3753564728772634E-002   3.9702489195362761E-003   6.4141370496315936E-002
  -1.3058252399499450E-002   3.7038223449581339E-003   6.4090981059674923E-002
  -1.2362940070226272E-002   3.4520081350515857E-003   6.4267418585285882E-002
  -1.1667627740953083E-002   3.2148062898164631E-003   6.4670683073148605E-002
  -1.9278688217472500E-002   5.6683838117086993E-003   6.3109621805892413E-002
  -1.8358196864004327E-002   5.2936652260432981E-003   6.2841045824345187E-002
  -1.7437705510536132E-002   4.9384297932737464E-003   6.2796000928936030E-002
  -1.6517214157067944E-002   4.6026775133996556E-003   6.2974487119664940E-002
  -1.5596722803599763E-002   4.2864083864209701E-003   6.3376504396531808E-002
  -3.1696867353048219E-014   3.3306690738754696E-015   6.8093427777208615E-002
  -2.9774793741665917E-014   0.0000000000000000        6.7731175689801526E-002
  -2.7852720130283615E-014  -1.4155343563970746E-015   6.7594950743978699E-002
  -2.5930646518901312E-014  -1.7416623698807143E-015   6.7684752939739773E-002
  -2.4008572907519010E-014   1.1102230246251565E-016   6.8000582277085053E-002
  -3.8692663391690571E-003   1.0716020966077267E-003   6.7029144763487092E-002
  -3.6438917562910105E-003   9.9602466135800816E-004   6.6647351661922039E-002
  -3.4185171734129570E-003   9.2255613087943722E-004   6.6490280584525330E-002
  -3.1931425905349052E-003   8.5119650517248568E-004   6.6557931531296827E-002
  -2.9677680076568499E-003   7.8194578423718131E-004   6.6850304502236335E-002
  -7.7584755861428677E-003   2.1432041932121226E-003   6.5888229862133663E-002
  -7.3090315378046373E-003   1.9920493227154612E-003   6.5489004651180877E-002
  -6.8595874894664104E-003   1.8451122617603871E-003   6.5313196346980337E-002
  -6.4101434411281896E-003   1.7023930103464875E-003   6.5360804949531864E-002
  -5.9606993927899671E-003   1.5638915684741961E-003   6.5631830458835666E-002
  -1.1667627740953083E-002   3.2148062898164631E-003   6.4670683073148605E-002
  -1.0995419344570656E-002   2.9880739840730808E-003   6.4256134657577887E-002
  -1.0323210948188222E-002   2.7676683926411774E-003   6.4063698031343264E-002
  -9.6510025518057874E-003   2.5535895155204911E-003   6.4093373194445080E-002
  -8.9787941554233600E-003   2.3458373527114607E-003   6.4345160146882907E-002
  -1.5596722803599763E-002   4.2864083864209701E-003   6.3376504396531808E-002
  -1.4703055176589066E-002   3.9840986454309779E-003   6.2948741681113085E-002
  -1.3809387549578382E-002   3.6902245235221481E-003   6.2741785637614594E-002
  -1.2915719922567685E-002   3.4047860206945120E-003   6.2755636266036433E-002
  -1.2022052295557001E-002   3.1277831369483922E-003   6.2990293566378419E-002
  -2.4008572907519010E-014   1.1102230246251565E-016   6.8000582277085053E-002
  -2.1579960041151480E-014   1.9428902930940239E-015   6.8077537188055537E-002
  -1.9144408280880043E-014   3.5804692544161298E-015   6.8403789072652321E-002
  -1.6705387073656652E-014   4.7808978997920804E-015   6.8979337930875573E-002
  -1.4280243654241076E-014   5.3290705182007514E-015   6.9804183762725236E-002
  -2.9677680076568499E-003   7.8194578423718131E-004   6.6850304502236335E-002
  -2.7189946080063421E-003   7.1335773054775897E-004   6.6901180676588123E-002
  -2.4702212083558325E-003   6.4398610658003563E-004   6.7200306676609950E-002
  -2.2214478087053159E-003   5.7383091233246392E-004   6.7747682502301385E-002
  -1.9726744090548011E-003   5.0289214780618874E-004   6.8543308153662275E-002
  -5.9606993927899671E-003   1.5638915684741961E-003   6.5631830458835666E-002
  -5.4641997414480942E-003   1.4267154610938249E-003   6.5655844326290652E-002
  -4.9677000901062300E-003   1.2879722131559218E-003   6.5927060871458595E-002
  -4.4712004387643606E-003   1.1476618246602545E-003   6.6445480094339510E-002
  -3.9747007874224929E-003   1.0057842956071594E-003   6.7211101994933575E-002
  -8.9787941554233600E-003   2.3458373527114607E-003   6.4345160146882907E-002
  -8.2356154003468511E-003   2.1400731916399879E-003   6.4341528137162401E-002
  -7.4924366452703475E-003   1.9319583197320925E-003   6.4584051657198063E-002
  -6.7492578901938438E-003   1.7214927369882688E-003   6.5072730706990017E-002
  -6.0060791351173332E-003   1.5086764434081301E-003   6.5807565286538389E-002
  -1.2022052295557001E-002   3.1277831369483922E-003   6.2990293566378419E-002
  -1.1033241584702598E-002   2.8534309221856513E-003   6.2958232109203760E-002
  -1.0044430873848174E-002   2.5759444263082076E-003   6.3171279033828576E-002
  -9.0556201629937577E-003   2.2953236493159918E-003   6.3629434340253033E-002
  -8.0668094521393480E-003   2.0115685912089898E-003   6.4332698028476965E-002
  -1.4280243654241076E-014   5.3290705182007514E-015   6.9804183762725236E-002
  -1.2899403767363538E-014   5.4400928206632670E-015   6.9552495364116895E-002
  -1.1525502774389906E-014   6.3282712403633923E-015   6.9527820427272957E-002
  -1.0148132334464322E-014   6.7446048745978260E-015   6.9730158952193144E-002
  -8.7707618945387367E-015   7.7715611723760958E-015   7.0159510938877734E-002
  -1.9726744090548011E-003   5.0289214780618874E-004   6.8543308153662275E-002
  -1.7420362818908845E-003   4.4550462094528065E-004   6.8279835473930350E-002
  -1.5113981547269732E-003   4.1600313969450409E-004   6.8250625586758928E-002
  -1.2807600275630618E-003   4.1438770405339415E-004   6.8455678492148286E-002
  -1.0501219003991313E-003   4.4065831402240185E-004   6.8894994190098369E-002
  -3.9747007874224929E-003   1.0057842956071594E-003   6.7211101994933575E-002
  -3.5061752022995558E-003   8.9100924188484365E-004   6.6963731079687283E-002
  -3.0376496171766335E-003   8.3200627938256888E-004   6.6957872287798204E-002
  -2.5691240320537033E-003   8.2877540809993266E-004   6.7193525619266545E-002
  -2.1005984469307740E-003   8.8131662803714317E-004   6.7670691074092015E-002
  -6.0060791351173332E-003   1.5086764434081301E-003   6.5807565286538389E-002
  -5.2924167612389168E-003   1.3365138628246009E-003   6.5604182181387888E-002
  -4.5787543873605022E-003   1.2480094190708002E-003   6.5649560530391129E-002
  -3.8650920134820866E-003   1.2431631121465822E-003   6.5943700333548322E-002
  -3.1514296396036715E-003   1.3219749420518845E-003   6.6486601590858979E-002
  -8.0668094521393480E-003   2.0115685912089898E-003   6.4332698028476965E-002
  -7.1007609587089640E-003   1.7820184837641362E-003   6.4201188779032137E-002
  -6.1347124652785835E-003   1.6640125587587817E-003   6.4325690314537443E-002
  -5.1686639718482100E-003   1.6575508161930583E-003   6.4706202634992854E-002
  -4.2026154784178191E-003   1.7626332560665148E-003   6.5342725740398566E-002
  -8.7707618945387367E-015   7.7715611723760958E-015   7.0159510938877734E-002
  -7.1470607210244452E-015   8.4376949871511897E-015   6.8795544921364304E-002
  -5.5094817597023393E-015   8.4932061383824475E-015   6.7582576278641948E-002
  -3.8788416922841407E-015   8.3405504724964885E-015   6.6520605010711387E-002
  -2.2482016248659420E-015   7.5495165674510645E-015   6.5609631117572009E-002
  -1.0501219003991313E-003   4.4065831402240185E-004   6.8894994190098369E-002
  -9.0328920618547304E-004   5.1038398661251705E-004   6.7556020885680079E-002
  -7.5645651197179739E-004   6.3913373883489610E-004   6.6359715594894453E-002
  -6.0962381775812435E-004   8.2690757068941412E-004   6.5306078317741573E-002
  -4.6279112354446345E-004   1.0737054821762237E-003   6.4395109054220967E-002
  -2.1005984469307740E-003   8.8131662803714317E-004   6.7670691074092015E-002
  -1.8152624196638278E-003   1.0207679732168184E-003   6.6415734562401491E-002
  -1.5299263923968937E-003   1.2782674776610492E-003   6.5295116703184969E-002
  -1.2445903651299457E-003   1.6538151413702587E-003   6.4308837496442284E-002
  -9.5925433786299939E-004   2.1474109643446759E-003   6.3456896942173546E-002
  -3.1514296396036715E-003   1.3219749420518845E-003   6.6486601590858979E-002
  -2.7359196404422356E-003   1.5311519598208423E-003   6.5374685951529052E-002
  -2.3204096412807844E-003   1.9174012164875492E-003   6.4388779603514246E-002
  -1.9048996421193406E-003   2.4807227120517729E-003   6.3528882546814602E-002
  -1.4893896429578972E-003   3.2211164465129061E-003   6.2794994781430080E-002
  -4.2026154784178191E-003   1.7626332560665148E-003   6.5342725740398566E-002
  -3.6652608685206547E-003   2.0415359464250882E-003   6.4432875053062055E-002
  -3.1279062586234835E-003   2.5565349553135774E-003   6.3640704295881922E-002
  -2.5905516487263192E-003   3.3076302827323364E-003   6.2966213468858029E-002
  -2.0531970388291479E-003   4.2948219286816913E-003   6.2409402571990680E-002
  -2.2482016248659420E-015   7.5495165674510645E-015   6.5609631117572009E-002
  -2.9490299091605721E-015   7.3274719625260332E-015   6.0855729739226150E-002
  -3.6463887465032485E-015   9.3258734068513149E-015   5.5982631348970968E-002
  -4.3524212012258090E-015   1.2712053631958042E-014   5.0990335946805465E-002
  -5.0376369742366478E-015   1.7763568394002505E-014   4.5878843532730862E-002
  -4.6279112354446345E-004   1.0737054821762237E-003   6.4395109054220967E-002
  -5.6763645470481530E-004   1.3993719003690952E-003   5.9671243732739299E-002
  -6.7248178586520185E-004   1.8237512523406330E-003   5.4856884760848157E-002
  -7.7732711702557886E-004   2.3468435380920999E-003   4.9952032138547403E-002
  -8.8217244818594026E-004   2.9686487576225939E-003   4.4956685865836787E-002
  -9.5925433786299939E-004   2.1474109643446759E-003   6.3456896942173546E-002
  -1.1402416386830302E-003   2.7987438007298637E-003   5.8861780611333847E-002
  -1.3212289395030533E-003   3.6475025046720511E-003   5.4204873991584718E-002
  -1.5022162403230733E-003   4.6936870761710436E-003   4.9486177082925367E-002
  -1.6832035411431072E-003   5.9372975152272023E-003   4.4705689885357280E-002
  -1.4893896429578972E-003   3.2211164465129061E-003   6.2794994781430080E-002
  -1.7178155519375279E-003   4.1981157010909098E-003   5.8427340375009781E-002
  -1.9462414609171723E-003   5.4712537570029696E-003   5.4026599041180068E-002
  -2.1746673698968271E-003   7.0405306142500984E-003   4.9592770779940940E-002
  -2.4030932788764474E-003   8.9059462728318106E-003   4.5125855591291980E-002
  -2.0531970388291479E-003   4.2948219286816913E-003   6.2409402571990680E-002
  -2.3003581944683674E-003   5.5974876014524000E-003   5.8367923023767476E-002
  -2.5475193501075973E-003   7.2950050093349150E-003   5.4322059909634846E-002
  -2.7946805057468670E-003   9.3873741523294654E-003   5.0271813229592149E-002
  -3.0418416613860466E-003   1.1874595030436641E-002   4.6217182983640637E-002
  -3.1672108398494776E-002   1.5380848586980578E-002   6.9962178197644165E-002
  -2.9320412307419524E-002   1.1685795512817065E-002   6.7614830882026244E-002
  -2.6968716216344269E-002   9.0081865920332294E-003   6.5614131806095599E-002
  -2.4617020125269021E-002   7.3480218246289725E-003   6.3960080969852479E-002
  -2.2265324034193772E-002   6.7053012106043086E-003   6.2652678373296689E-002
  -3.9225141925128854E-002   1.2560219786166005E-002   6.2096788270226078E-002
  -3.6455168446646799E-002   1.0952881359523242E-002   6.0332777943697707E-002
  -3.3685194968164814E-002   9.7313667987462132E-003   5.9058674152295487E-002
  -3.0915221489682787E-002   8.8956761038348035E-003   5.8274476896019278E-002
  -2.8145248011200802E-002   8.4458092747890789E-003   5.7980186174869247E-002
  -4.6968101620015197E-002   9.7395909853513762E-003   5.6634923134085829E-002
  -4.3636592458687729E-002   1.0219967206229419E-002   5.4822629509133150E-002
  -4.0305083297360281E-002   1.0454547005459197E-002   5.3643500714745163E-002
  -3.6973574136032833E-002   1.0443330383040607E-002   5.3097536750922047E-002
  -3.3642064974705364E-002   1.0186317338973794E-002   5.3184737617663638E-002
  -5.4900987483153862E-002   6.9189621845367755E-003   5.3576582789223073E-002
  -5.0864684343542292E-002   9.4870530529356095E-003   5.1084385578332184E-002
  -4.6828381203930750E-002   1.1177727212172181E-002   4.9368611493444660E-002
  -4.2792078064319158E-002   1.1990984662246396E-002   4.8429260534560689E-002
  -3.8755774924707595E-002   1.1926825403158481E-002   4.8266332701680105E-002
  -6.3023799514544870E-002   4.0983333837221747E-003   5.2921767235638184E-002
  -5.8139444101210525E-002   8.7541388996417724E-003   4.9118046151295058E-002
  -5.3255088687876109E-002   1.1900907418885179E-002   4.6234006488394014E-002
  -4.8370733274541729E-002   1.3538638941452203E-002   4.4269648246935175E-002
  -4.3486377861207376E-002   1.3667333467343279E-002   4.3224971426918446E-002
  -2.2265324034193772E-002   6.7053012106043086E-003   6.2652678373296689E-002
  -2.1518665080013443E-002   6.5399949701722415E-003   6.2302556747955179E-002
  -2.0772006125833138E-002   6.3120733235455806E-003   6.2262006778274037E-002
  -2.0025347171652816E-002   6.0215362707243050E-003   6.2531028464253013E-002
  -1.9278688217472500E-002   5.6683838117086993E-003   6.3109621805892413E-002
  -2.8145248011200802E-002   8.4458092747890789E-003   5.7980186174869247E-002
  -2.7123817676668723E-002   8.1690603765547931E-003   5.7927269582502910E-002
  -2.6102387342136629E-002   7.8527234740773874E-003   5.8114324095179845E-002
  -2.5080957007604546E-002   7.4967985673575332E-003   5.8541349712900127E-002
  -2.4059526673072484E-002   7.1012856563945626E-003   5.9208346435663473E-002
  -3.3642064974705364E-002   1.0186317338973794E-002   5.3184737617663638E-002
  -3.2415463810438576E-002   9.7981257829372198E-003   5.3452053460224296E-002
  -3.1188862646171794E-002   9.3933736246094718E-003   5.3889739857211086E-002
  -2.9962261481905009E-002   8.9720608639904838E-003   5.4497796808624176E-002
  -2.8735660317638224E-002   8.5341875010803980E-003   5.5276224314463274E-002
  -3.8755774924707595E-002   1.1926825403158481E-002   4.8266332701680105E-002
  -3.7393603481323132E-002   1.1427191189319792E-002   4.8876908381119258E-002
  -3.6031432037938640E-002   1.0934023775141390E-002   4.9588254064367523E-002
  -3.4669260594554156E-002   1.0447323160623573E-002   5.0400369751425034E-002
  -3.3307089151169686E-002   9.9670893457662751E-003   5.1313255442291594E-002
  -4.3486377861207376E-002   1.3667333467343279E-002   4.3224971426918446E-002
  -4.2058236689322237E-002   1.3056256595702254E-002   4.4201834345187818E-002
  -4.0630095517437154E-002   1.2474673925673405E-002   4.5209866716649338E-002
  -3.9201954345552056E-002   1.1922585457256645E-002   4.6249068541302951E-002
  -3.7773813173666945E-002   1.1399991190452152E-002   4.7319439819148712E-002
  -1.9278688217472500E-002   5.6683838117086993E-003   6.3109621805892413E-002
  -1.8358196864004327E-002   5.2936652260432981E-003   6.2841045824345187E-002
  -1.7437705510536132E-002   4.9384297932737464E-003   6.2796000928936030E-002
  -1.6517214157067944E-002   4.6026775133996556E-003   6.2974487119664940E-002
  -1.5596722803599763E-002   4.2864083864209701E-003   6.3376504396531808E-002
  -2.4059526673072484E-002   7.1012856563945626E-003   5.9208346435663473E-002
  -2.2926888553308843E-002   6.6903786074017924E-003   5.9047232385847359E-002
  -2.1794250433545166E-002   6.2882712865926504E-003   5.9086880782484225E-002
  -2.0661612313781500E-002   5.8949636939668731E-003   5.9327291625574000E-002
  -1.9528974194017872E-002   5.5104558295246409E-003   5.9768464915116615E-002
  -2.8735660317638224E-002   8.5341875010803980E-003   5.5276224314463274E-002
  -2.7413644071264266E-002   8.0870919887603143E-003   5.5211888771666245E-002
  -2.6091627824890308E-002   7.6381127799116655E-003   5.5325547035636927E-002
  -2.4769611578516336E-002   7.1872498745342572E-003   5.5617199106375331E-002
  -2.3447595332142367E-002   6.7345032726282839E-003   5.6086844983881487E-002
  -3.3307089151169686E-002   9.9670893457662751E-003   5.1313255442291594E-002
  -3.1818463417870625E-002   9.4838053701189057E-003   5.1335014981801499E-002
  -3.0329837684571509E-002   8.9879542732306805E-003   5.1511999688394094E-002
  -2.8841211951272417E-002   8.4795360551017801E-003   5.1844209562069053E-002
  -2.7352586217973335E-002   7.9585507157319407E-003   5.2331644602826743E-002
  -3.7773813173666945E-002   1.1399991190452152E-002   4.7319439819148712E-002
  -3.6141346593127899E-002   1.0880518751477358E-002   4.7416611016253385E-002
  -3.4508880012588831E-002   1.0337795766549543E-002   4.7646238740755548E-002
  -3.2876413432049778E-002   9.7718222356689595E-003   4.8008322992655242E-002
  -3.1243946851510718E-002   9.1825981588355976E-003   4.8502863771952009E-002
  -1.5596722803599763E-002   4.2864083864209701E-003   6.3376504396531808E-002
  -1.4703055176589066E-002   3.9840986454309779E-003   6.2948741681113085E-002
  -1.3809387549578382E-002   3.6902245235221481E-003   6.2741785637614594E-002
  -1.2915719922567685E-002   3.4047860206945120E-003   6.2755636266036433E-002
  -1.2022052295557001E-002   3.1277831369483922E-003   6.2990293566378419E-002
  -1.9528974194017872E-002   5.5104558295246409E-003   5.9768464915116615E-002
  -1.8417444039810792E-002   5.1340163140367878E-003   5.9359274601670869E-002
  -1.7305913885603708E-002   4.7649137682742038E-003   5.9165002670697631E-002
  -1.6194383731396617E-002   4.4031481922366805E-003   5.9185649122196940E-002
  -1.5082853577189574E-002   4.0487195859249536E-003   5.9421213956168673E-002
  -2.3447595332142367E-002   6.7345032726282839E-003   5.6086844983881487E-002
  -2.2124090940186695E-002   6.2839339826426255E-003   5.5695128423052798E-002
  -2.0800586548231005E-002   5.8396030130261969E-003   5.5512441955248744E-002
  -1.9477082156275312E-002   5.4015103637791249E-003   5.5538785580469555E-002
  -1.8153577764319619E-002   4.9696560349013486E-003   5.5774159298714876E-002
  -2.7352586217973335E-002   7.9585507157319407E-003   5.2331644602826743E-002
  -2.5822995877716817E-002   7.4338516512484493E-003   5.1956303145258967E-002
  -2.4293405537460289E-002   6.9142922577783879E-003   5.1784103491268225E-002
  -2.2763815197203750E-002   6.3998725353215423E-003   5.1815045640854485E-002
  -2.1234224856947238E-002   5.8905924838779378E-003   5.2049129594017488E-002
  -3.1243946851510718E-002   9.1825981588355976E-003   4.8502863771952009E-002
  -2.9514158852401121E-002   8.5837693198542730E-003   4.8142798768289363E-002
  -2.7784370853291537E-002   7.9889815025304678E-003   4.7979987278755798E-002
  -2.6054582854181940E-002   7.3982347068637655E-003   4.8014429303351397E-002
  -2.4324794855072357E-002   6.8115289328541939E-003   4.8246124842076132E-002
  -1.2022052295557001E-002   3.1277831369483922E-003   6.2990293566378419E-002
  -1.1033241584702598E-002   2.8534309221856513E-003   6.2958232109203760E-002
  -1.0044430873848174E-002   2.5759444263082076E-003   6.3171279033828576E-002
  -9.0556201629937577E-003   2.2953236493159918E-003   6.3629434340253033E-002
  -8.0668094521393480E-003   2.0115685912089898E-003   6.4332698028476965E-002
  -1.5082853577189574E-002   4.0487195859249536E-003   5.9421213956168673E-002
  -1.3859453070223883E-002   3.6944033875515037E-003   5.9363587790326355E-002
  -1.2636052563258209E-002   3.3329750353289361E-003   5.9530032834907126E-002
  -1.1412652056292523E-002   2.9644345292579068E-003   5.9920549089910860E-002
  -1.0189251549326844E-002   2.5887818693381970E-003   6.0535136555337432E-002
  -1.8153577764319619E-002   4.9696560349013486E-003   5.5774159298714876E-002
  -1.6716624632619276E-002   4.5353758529170507E-003   5.5686990551471180E-002
  -1.5279671500918923E-002   4.0900056443498867E-003   5.5802855843273852E-002
  -1.3842718369218564E-002   3.6335454092000438E-003   5.6121755174122961E-002
  -1.2405765237518223E-002   3.1659951474676262E-003   5.6643688544018272E-002
  -2.1234224856947238E-002   5.8905924838779378E-003   5.2049129594017488E-002
  -1.9604756271888797E-002   5.3763483182824728E-003   5.1928440392638248E-002
  -1.7975287686830311E-002   4.8470362533706152E-003   5.1989748058928802E-002
  -1.6345819101771852E-002   4.3026562891421809E-003   5.2233052592889115E-002
  -1.4716350516713387E-002   3.7432084255970555E-003   5.2658353994519257E-002
  -2.4324794855072357E-002   6.8115289328541939E-003   4.8246124842076132E-002
  -2.2523847988032364E-002   6.2173207836483391E-003   4.8087937313827434E-002
  -2.0722901120992385E-002   5.6040668623915102E-003   4.8090709481871996E-002
  -1.8921954253952426E-002   4.9717671690840820E-003   4.8254441346209737E-002
  -1.7121007386912412E-002   4.3204217037263737E-003   4.8579132906840683E-002
  -8.0668094521393480E-003   2.0115685912089898E-003   6.4332698028476965E-002
  -7.1007609587089640E-003   1.7820184837641362E-003   6.4201188779032137E-002
  -6.1347124652785835E-003   1.6640125587587817E-003   6.4325690314537443E-002
  -5.1686639718482100E-003   1.6575508161930583E-003   6.4706202634992854E-002
  -4.2026154784178191E-003   1.7626332560665148E-003   6.5342725740398566E-002
  -1.0189251549326844E-002   2.5887818693381970E-003   6.0535136555337432E-002
  -8.9694559637703807E-003   2.2675841918270434E-003   6.0421075172617356E-002
  -7.7496603782139309E-003   2.0624086329828206E-003   6.0558497189199423E-002
  -6.5298647926574620E-003   1.9732551928045086E-003   6.0947402605083606E-002
  -5.3100692071009932E-003   2.0001238712924474E-003   6.1587791420269378E-002
  -1.2405765237518223E-002   3.1659951474676262E-003   5.6643688544018272E-002
  -1.0936749945483895E-002   2.7531498998904502E-003   5.6551552964250157E-002
  -9.4677346534496123E-003   2.4608047072064293E-003   5.6706373398135737E-002
  -7.9987193614153036E-003   2.2889595694156294E-003   5.7108149845675187E-002
  -6.5297040693810017E-003   2.2376144865181580E-003   5.7756882306868068E-002
  -1.4716350516713387E-002   3.7432084255970555E-003   5.2658353994519257E-002
  -1.3002642903849495E-002   3.2387156079534962E-003   5.2592622153929729E-002
  -1.1288935290985574E-002   2.8592007814301421E-003   5.2769318941346025E-002
  -9.5752276781216894E-003   2.6046639460270814E-003   5.3188444356767492E-002
  -7.8615200652577613E-003   2.4751051017440906E-003   5.3849998400194672E-002
  -1.7121007386912412E-002   4.3204217037263737E-003   4.8579132906840683E-002
  -1.5167134838867141E-002   3.7242813160167088E-003   4.8544282741657119E-002
  -1.3213262290821884E-002   3.2575968556539936E-003   4.8747333818830507E-002
  -1.1259389742776606E-002   2.9203683226382907E-003   4.9188286138361209E-002
  -9.3055171947313553E-003   2.7125957169698012E-003   4.9867139700249030E-002
  -4.2026154784178191E-003   1.7626332560665148E-003   6.5342725740398566E-002
  -3.6652608685206547E-003   2.0415359464250882E-003   6.4432875053062055E-002
  -3.1279062586234835E-003   2.5565349553135774E-003   6.3640704295881922E-002
  -2.5905516487263192E-003   3.3076302827323364E-003   6.2966213468858029E-002
  -2.0531970388291479E-003   4.2948219286816913E-003   6.2409402571990680E-002
  -5.3100692071009932E-003   2.0001238712924474E-003   6.1587791420269378E-002
  -4.6291976848775035E-003   2.2489271845747560E-003   6.0873568316232529E-002
  -3.9483261626539843E-003   2.8255776487795814E-003   6.0328699106691808E-002
  -3.2674546404304486E-003   3.7300752639069026E-003   5.9953183791647574E-002
  -2.5865831182069442E-003   4.9624200299571708E-003   5.9747022371099856E-002
  -6.5297040693810017E-003   2.2376144865181580E-003   5.7756882306868068E-002
  -5.6536416704911392E-003   2.4563184227245904E-003   5.7330037618522900E-002
  -4.7775792716012490E-003   3.0946203422458213E-003   5.7124220789014121E-002
  -3.9015168727113657E-003   4.1525202450816943E-003   5.7139431818341462E-002
  -3.0254544738214945E-003   5.6300181312322617E-003   5.7375670706505427E-002
  -7.8615200652577613E-003   2.4751051017440906E-003   5.3849998400194672E-002
  -6.7385928253615220E-003   2.6637096608746191E-003   5.3802282959933549E-002
  -5.6156655854653070E-003   3.3636630357121652E-003   5.4027269342848697E-002
  -4.4927383455690530E-003   4.5749652262565953E-003   5.4524957548940392E-002
  -3.3698111056728532E-003   6.2976162325076579E-003   5.5295347578208275E-002
  -9.3055171947313553E-003   2.7125957169698012E-003   4.9867139700249030E-002
  -7.8840511494887439E-003   2.8711008990242037E-003   5.0290304340464220E-002
  -6.4625851042461324E-003   3.6327057291779541E-003   5.1037844768195673E-002
  -5.0411190590035349E-003   4.9974102074309690E-003   5.2109760983443443E-002
  -3.6196530137609095E-003   6.9652143337828321E-003   5.3506052986207697E-002
  -2.0531970388291479E-003   4.2948219286816913E-003   6.2409402571990680E-002
  -2.3003581944683674E-003   5.5974876014524000E-003   5.8367923023767476E-002
  -2.5475193501075973E-003   7.2950050093349150E-003   5.4322059909634846E-002
  -2.7946805057468670E-003   9.3873741523294654E-003   5.0271813229592149E-002
  -3.0418416613860466E-003   1.1874595030436641E-002   4.6217182983640637E-002
  -2.5865831182069442E-003   4.9624200299571708E-003   5.9747022371099856E-002
  -2.8558491840858166E-003   6.5866174986938808E-003   5.6207691197091403E-002
  -3.1251152499646856E-003   8.6666732218822484E-003   5.2628533768513674E-002
  -3.3943813158435754E-003   1.1202587199522815E-002   4.9009550085366255E-002
  -3.6636473817224582E-003   1.4194359431614734E-002   4.5350740147648727E-002
  -3.0254544738214945E-003   5.6300181312322617E-003   5.7375670706505427E-002
  -3.3522681386002218E-003   7.5757473959356947E-003   5.4399494426051825E-002
  -3.6790818033789066E-003   1.0038341434430345E-002   5.1348049202368282E-002
  -4.0058954681575949E-003   1.3017800246715883E-002   4.8221335035455413E-002
  -4.3327091329363465E-003   1.6514123832792604E-002   4.5019351925311479E-002
  -3.3698111056728532E-003   6.2976162325076579E-003   5.5295347578208275E-002
  -3.7896150580114976E-003   8.5648772931774531E-003   5.2943332710648633E-002
  -4.2094190103501988E-003   1.1410009646978060E-002   5.0480606211199111E-002
  -4.6292229626888936E-003   1.4833013293909092E-002   4.7907168079859376E-002
  -5.0490269150275449E-003   1.8833888233970697E-002   4.5223018316629365E-002
  -3.6196530137609095E-003   6.9652143337828321E-003   5.3506052986207697E-002
  -4.1678899423197857E-003   9.5540071904194335E-003   5.1839206050881437E-002
  -4.7161268708786203E-003   1.2781677859525997E-002   5.0026204795004969E-002
  -5.2643637994375311E-003   1.6648226341102135E-002   4.8067049218578684E-002
  -5.8126007279963310E-003   2.1153652635148568E-002   4.5961739321601414E-002
  -6.3023799514544870E-002   4.0983333837221747E-003   5.2921767235638184E-002
  -5.8139444101210525E-002   8.7541388996417724E-003   4.9118046151295058E-002
  -5.3255088687876109E-002   1.1900907418885179E-002   4.6234006488394014E-002
  -4.8370733274541729E-002   1.3538638941452203E-002   4.4269648246935175E-002
  -4.3486377861207376E-002   1.3667333467343279E-002   4.3224971426918446E-002
  -6.9751927880585637E-002   1.0041494037889009E-002   4.5393982231549335E-002
  -6.4282742401175791E-002   1.2272948880448276E-002   4.3104454105207246E-002
  -5.8813556921765951E-002   1.3752942348513209E-002   4.1064904689573717E-002
  -5.3344371442356139E-002   1.4481474442083905E-002   3.9275333984648997E-002
  -4.7875185962946286E-002   1.4458545161160297E-002   3.7735741990433030E-002
  -7.3500762747673309E-002   1.5984654692055761E-002   3.5063058743009315E-002
  -6.8116449912921512E-002   1.5791758861254807E-002   3.5045299196850066E-002
  -6.2732137078169700E-002   1.5604977278141370E-002   3.4607815650666014E-002
  -5.7347824243417854E-002   1.5424309942715523E-002   3.3750608104457319E-002
  -5.1963511408666015E-002   1.5249756854977314E-002   3.2473676558223932E-002
  -7.4270304115808081E-002   2.1927815346222526E-002   2.1928996770017879E-002
  -6.9640566636447715E-002   1.9310568842061268E-002   2.4940581426223539E-002
  -6.5010829157087280E-002   1.7457012207769507E-002   2.6862739371670837E-002
  -6.0381091677726852E-002   1.6367145443347154E-002   2.7695470606360028E-002
  -5.5751354198366479E-002   1.6040968548794277E-002   2.7438775130291259E-002
  -7.2060551984989896E-002   2.7870976000389347E-002   5.9917963125754592E-003
  -6.8855092571754373E-002   2.2829378822867841E-002   1.2790300793327658E-002
  -6.5649633158518822E-002   1.9309047137397561E-002   1.7829675852588212E-002
  -6.2444173745283230E-002   1.7309980943978814E-002   2.1109921490357203E-002
  -5.9238714332047693E-002   1.6832180242611350E-002   2.2631037706634771E-002
  -4.3486377861207376E-002   1.3667333467343279E-002   4.3224971426918446E-002
  -4.2058236689322237E-002   1.3056256595702254E-002   4.4201834345187818E-002
  -4.0630095517437154E-002   1.2474673925673405E-002   4.5209866716649338E-002
  -3.9201954345552056E-002   1.1922585457256645E-002   4.6249068541302951E-002
  -3.7773813173666945E-002   1.1399991190452152E-002   4.7319439819148712E-002
  -4.7875185962946286E-002   1.4458545161160297E-002   3.7735741990433030E-002
  -4.6454484811329196E-002   1.4049290478701265E-002   3.8978630477779441E-002
  -4.5033783659712029E-002   1.3618846367665638E-002   4.0175469471397690E-002
  -4.3613082508094918E-002   1.3167212828053568E-002   4.1326258971287860E-002
  -4.2192381356477779E-002   1.2694389859864819E-002   4.2430998977450035E-002
  -5.1963511408666015E-002   1.5249756854977314E-002   3.2473676558223932E-002
  -5.0627469224237068E-002   1.5042324361700193E-002   3.3931906984458540E-002
  -4.9291427039808072E-002   1.4763018809657878E-002   3.5266868970044891E-002
  -4.7955384855379118E-002   1.4411840198850326E-002   3.6478562514983034E-002
  -4.6619342670950137E-002   1.3988788529277457E-002   3.7566987619272921E-002
  -5.5751354198366479E-002   1.6040968548794277E-002   2.7438775130291259E-002
  -5.4577189928045854E-002   1.6035358244699108E-002   2.9061663865225421E-002
  -5.3403025657725194E-002   1.5907191251650143E-002   3.0484065212591102E-002
  -5.2228861387404582E-002   1.5656467569647083E-002   3.1705979172388384E-002
  -5.1054697117083915E-002   1.5283187198690110E-002   3.2727405744617119E-002
  -5.9238714332047693E-002   1.6832180242611350E-002   2.2631037706634771E-002
  -5.8303646922755581E-002   1.7028392127698133E-002   2.4367901120079721E-002
  -5.7368579513463469E-002   1.7051363693642380E-002   2.5827058199036163E-002
  -5.6433512104171329E-002   1.6901094940443957E-002   2.7008508943503790E-002
  -5.5498444694879218E-002   1.6577585868102762E-002   2.7912253353483019E-002
  -3.7773813173666945E-002   1.1399991190452152E-002   4.7319439819148712E-002
  -3.6141346593127899E-002   1.0880518751477358E-002   4.7416611016253385E-002
  -3.4508880012588831E-002   1.0337795766549543E-002   4.7646238740755548E-002
  -3.2876413432049778E-002   9.7718222356689595E-003   4.8008322992655242E-002
  -3.1243946851510718E-002   9.1825981588355976E-003   4.8502863771952009E-002
  -4.2192381356477779E-002   1.2694389859864819E-002   4.2430998977450035E-002
  -4.0430206380568795E-002   1.2189663432492087E-002   4.2484094892993790E-002
  -3.8668031404659818E-002   1.1642319515328098E-002   4.2664151071879999E-002
  -3.6905856428750855E-002   1.1052358108372788E-002   4.2971167514108725E-002
  -3.5143681452841802E-002   1.0419779211625790E-002   4.3405144219679892E-002
  -4.6619342670950137E-002   1.3988788529277457E-002   3.7566987619272921E-002
  -4.4732955563726112E-002   1.3498808113507080E-002   3.7556641309417105E-002
  -4.2846568456502081E-002   1.2946843264106646E-002   3.7667758998848770E-002
  -4.0960181349278035E-002   1.2332893981076449E-002   3.7900340687568049E-002
  -3.9073794242054025E-002   1.1656960264416094E-002   3.8254386375574934E-002
  -5.1054697117083915E-002   1.5283187198690110E-002   3.2727405744617119E-002
  -4.9049594142599753E-002   1.4807952794521829E-002   3.2634250265523197E-002
  -4.7044491168115578E-002   1.4251367012885197E-002   3.2657062521661943E-002
  -4.5039388193631444E-002   1.3613429853779970E-002   3.2795842513033385E-002
  -4.3034285219147206E-002   1.2894141317206398E-002   3.3050590239637523E-002
  -5.5498444694879218E-002   1.6577585868102762E-002   2.7912253353483019E-002
  -5.3380122117189788E-002   1.6117097475536774E-002   2.7716921761312352E-002
  -5.1261799539500358E-002   1.5555890761663749E-002   2.7632061640319477E-002
  -4.9143476961810942E-002   1.4893965726483799E-002   2.7657672990504395E-002
  -4.7025154384121498E-002   1.4131322369996591E-002   2.7793755811867271E-002
  -3.1243946851510718E-002   9.1825981588355976E-003   4.8502863771952009E-002
  -2.9514158852401121E-002   8.5837693198542730E-003   4.8142798768289363E-002
  -2.7784370853291537E-002   7.9889815025304678E-003   4.7979987278755798E-002
  -2.6054582854181940E-002   7.3982347068637655E-003   4.8014429303351397E-002
  -2.4324794855072357E-002   6.8115289328541939E-003   4.8246124842076132E-002
  -3.5143681452841802E-002   1.0419779211625790E-002   4.3405144219679892E-002
  -3.3217655597568618E-002   9.7657942378613360E-003   4.3015608548877204E-002
  -3.1291629742295407E-002   9.1116145998530740E-003   4.2821295076272747E-002
  -2.9365603887022168E-002   8.4572402976010805E-003   4.2822203801866299E-002
  -2.7439578031748998E-002   7.8026713311051821E-003   4.3018334725657970E-002
  -3.9073794242054025E-002   1.1656960264416094E-002   3.8254386375574934E-002
  -3.6953561846548216E-002   1.0947819155868288E-002   3.7831144351731488E-002
  -3.4833329451042457E-002   1.0234247697175847E-002   3.7601093210154896E-002
  -3.2713097055536641E-002   9.5162458883384510E-003   3.7564232950845253E-002
  -3.0592864660030895E-002   8.7938137293560037E-003   3.7720563573802879E-002
  -4.3034285219147206E-002   1.2894141317206398E-002   3.3050590239637523E-002
  -4.0721877599339970E-002   1.2129844073875351E-002   3.2589406176851826E-002
  -3.8409469979532776E-002   1.1356880794498647E-002   3.2319381680402215E-002
  -3.6097062359725540E-002   1.0575251479075683E-002   3.2240516750288307E-002
  -3.3784654739918353E-002   9.7849561276069641E-003   3.2352811386510541E-002
  -4.7025154384121498E-002   1.4131322369996591E-002   2.7793755811867271E-002
  -4.4522602855943894E-002   1.3311868991882414E-002   2.7290394024238496E-002
  -4.2020051327766303E-002   1.2479513891821226E-002   2.6976160487014622E-002
  -3.9517499799588678E-002   1.1634257069813136E-002   2.6851055200195484E-002
  -3.7014948271411108E-002   1.0776098525857702E-002   2.6915078163781248E-002
  -2.4324794855072357E-002   6.8115289328541939E-003   4.8246124842076132E-002
  -2.2523847988032364E-002   6.2173207836483391E-003   4.8087937313827434E-002
  -2.0722901120992385E-002   5.6040668623915102E-003   4.8090709481871996E-002
  -1.8921954253952426E-002   4.9717671690840820E-003   4.8254441346209737E-002
  -1.7121007386912412E-002   4.3204217037263737E-003   4.8579132906840683E-002
  -2.7439578031748998E-002   7.8026713311051821E-003   4.3018334725657970E-002
  -2.5489027977739366E-002   7.1491182662735686E-003   4.2801877584241199E-002
  -2.3538477923729741E-002   6.4977916690148324E-003   4.2723667120470599E-002
  -2.1587927869720157E-002   5.8486915393286994E-003   4.2783703334345918E-002
  -1.9637377815710483E-002   5.2018178772151868E-003   4.2981986225867408E-002
  -3.0592864660030895E-002   8.7938137293560037E-003   3.7720563573802879E-002
  -2.8515424437698986E-002   8.0809157488991867E-003   3.7467109058841416E-002
  -2.6437984215366996E-002   7.3915164756381546E-003   3.7329188202878685E-002
  -2.4360543993035035E-002   6.7256159095732057E-003   3.7306801005914728E-002
  -2.2283103770703104E-002   6.0832140507041665E-003   3.7399947467949640E-002
  -3.3784654739918353E-002   9.7849561276069641E-003   3.2352811386510541E-002
  -3.1603037367911216E-002   9.0127132315246661E-003   3.2083631737627544E-002
  -2.9421419995904096E-002   8.2852412822615878E-003   3.1907272729096353E-002
  -2.7239802623897028E-002   7.6025402798178786E-003   3.1823734360916497E-002
  -2.5058185251889895E-002   6.9646102241931185E-003   3.1833016633088136E-002
  -3.7014948271411108E-002   1.0776098525857702E-002   2.6915078163781248E-002
  -3.4751866768376105E-002   9.9445107141501454E-003   2.6651445620600289E-002
  -3.2488785265341130E-002   9.1789660888847990E-003   2.6457920699123394E-002
  -3.0225703762306155E-002   8.4794646500619963E-003   2.6334503399351117E-002
  -2.7962622259271180E-002   7.8460063976819594E-003   2.6281193721282792E-002
  -1.7121007386912412E-002   4.3204217037263737E-003   4.8579132906840683E-002
  -1.5167134838867141E-002   3.7242813160167088E-003   4.8544282741657119E-002
  -1.3213262290821884E-002   3.2575968556539936E-003   4.8747333818830507E-002
  -1.1259389742776606E-002   2.9203683226382907E-003   4.9188286138361209E-002
  -9.3055171947313553E-003   2.7125957169698012E-003   4.9867139700249030E-002
  -1.9637377815710483E-002   5.2018178772151868E-003   4.2981986225867408E-002
  -1.7482001988357532E-002   4.5945861651110476E-003   4.2884639251335954E-002
  -1.5326626161004504E-002   4.0644118854525346E-003   4.2952397593062963E-002
  -1.3171250333651473E-002   3.6112950382397174E-003   4.3185261251048337E-002
  -1.1015874506298470E-002   3.2352356234724988E-003   4.3583230225291869E-002
  -2.2283103770703104E-002   6.0832140507041665E-003   3.7399947467949640E-002
  -1.9999020590141268E-002   5.4648910142053031E-003   3.7187705189169695E-002
  -1.7714937409579429E-002   4.8712269152508397E-003   3.7067772300548876E-002
  -1.5430854229017599E-002   4.3022217538408077E-003   3.7040148802087509E-002
  -1.3146771048455817E-002   3.7578755299751965E-003   3.7104834693785338E-002
  -2.5058185251889895E-002   6.9646102241931185E-003   3.1833016633088136E-002
  -2.2718190644218338E-002   6.3351958632996003E-003   3.1453480555158009E-002
  -2.0378196036546687E-002   5.6780419450493738E-003   3.1093457941288250E-002
  -1.8038201428875099E-002   4.9931484694420662E-003   3.0752948791478947E-002
  -1.5698206821203476E-002   4.2805154364778386E-003   3.0431953105729742E-002
  -2.7962622259271180E-002   7.8460063976819594E-003   2.6281193721282792E-002
  -2.5639512150588739E-002   7.2055007123940085E-003   2.5681965349301117E-002
  -2.3316402041906284E-002   6.4848569748474361E-003   2.5029454515281047E-002
  -2.0993291933223836E-002   5.6840751850430402E-003   2.4323661219222137E-002
  -1.8670181824541388E-002   4.8031553429804807E-003   2.3564585461124721E-002
  -9.3055171947313553E-003   2.7125957169698012E-003   4.9867139700249030E-002
  -7.8840511494887439E-003   2.8711008990242037E-003   5.0290304340464220E-002
  -6.4625851042461324E-003   3.6327057291779541E-003   5.1037844768195673E-002
  -5.0411190590035349E-003   4.9974102074309690E-003   5.2109760983443443E-002
  -3.6196530137609095E-003   6.9652143337828321E-003   5.3506052986207697E-002
  -1.1015874506298470E-002   3.2352356234724988E-003   4.3583230225291869E-002
  -9.2510369504660434E-003   3.1713989389210440E-003   4.4180095196032554E-002
  -7.4861993946336927E-003   3.6549502823552682E-003   4.5139327400436247E-002
  -5.7213618388012831E-003   4.6858896537751923E-003   4.6460926838503169E-002
  -3.9565242829689151E-003   6.2642170531811425E-003   4.8144893510233766E-002
  -1.3146771048455817E-002   3.7578755299751965E-003   3.7104834693785338E-002
  -1.1000570535886874E-002   3.4716969788179397E-003   3.7819688374937960E-002
  -8.8543700233178757E-003   3.6771948355328044E-003   3.8934900735900640E-002
  -6.7081695107489084E-003   4.3743691001198598E-003   4.0450471776673269E-002
  -4.5619689981799341E-003   5.5632197725794530E-003   4.2366401497256234E-002
  -1.5698206821203476E-002   4.2805154364778386E-003   3.0431953105729742E-002
  -1.3132651905751091E-002   3.7719950187149187E-003   3.1209083877180847E-002
  -1.0567096990298737E-002   3.6994393887105625E-003   3.2424564774589062E-002
  -8.0015420748463136E-003   4.0628485464646383E-003   3.4078395797954082E-002
  -5.4359871593939405E-003   4.8622224919777635E-003   3.6170576947275684E-002
  -1.8670181824541388E-002   4.8031553429804807E-003   2.3564585461124721E-002
  -1.5647281060058804E-002   4.0722930586115647E-003   2.4348281702761154E-002
  -1.2624380295576193E-002   3.7216839418874048E-003   2.5608319516501388E-002
  -9.6014795310936513E-003   3.7513279928086882E-003   2.7344698902345060E-002
  -6.5785787666109985E-003   4.1612252113760739E-003   2.9557419860292367E-002
  -3.6196530137609095E-003   6.9652143337828321E-003   5.3506052986207697E-002
  -4.1678899423197857E-003   9.5540071904194335E-003   5.1839206050881437E-002
  -4.7161268708786203E-003   1.2781677859525997E-002   5.0026204795004969E-002
  -5.2643637994375311E-003   1.6648226341102135E-002   4.8067049218578684E-002
  -5.8126007279963310E-003   2.1153652635148568E-002   4.5961739321601414E-002
  -3.9565242829689151E-003   6.2642170531811425E-003   4.8144893510233766E-002
  -4.5472928174420668E-003   8.7019992883253239E-003   4.7218295571520741E-002
  -5.1380613519152740E-003   1.2311303166960996E-002   4.6352788741529649E-002
  -5.7288298863884257E-003   1.7092128689088201E-002   4.5548373020260130E-002
  -6.3195984208615774E-003   2.3044475854707036E-002   4.4805048407712045E-002
  -4.5619689981799341E-003   5.5632197725794530E-003   4.2366401497256234E-002
  -4.9880237092956928E-003   7.8499913862313253E-003   4.2712696386178584E-002
  -5.4140784204113994E-003   1.1840928474396439E-002   4.3327327813094479E-002
  -5.8401331315271112E-003   1.7536031037074379E-002   4.4210295778003630E-002
  -6.2661878426428647E-003   2.4935299074265282E-002   4.5361600280906189E-002
  -5.4359871593939405E-003   4.8622224919777635E-003   3.6170576947275684E-002
  -5.4900826178804346E-003   6.9979834841372712E-003   3.8322408494854840E-002
  -5.5441780763668775E-003   1.1370553781831660E-002   4.0949822009699377E-002
  -5.5982735348532788E-003   1.7979933385060390E-002   4.4052817491808720E-002
  -5.6523689933397590E-003   2.6826122293823640E-002   4.7631394941183236E-002
  -6.5785787666109985E-003   4.1612252113760739E-003   2.9557419860292367E-002
  -6.0534695431964658E-003   6.1459755820433282E-003   3.4047431897549885E-002
  -5.5283603197818776E-003   1.0900179089267215E-002   3.9220271331343981E-002
  -5.0032510963674143E-003   1.8423835733046540E-002   4.5075938161675377E-002
  -4.4781418729527012E-003   2.8716945513381997E-002   5.1614432388543463E-002
  -7.2060551984989896E-002   2.7870976000389347E-002   5.9917963125754592E-003
  -6.8855092571754373E-002   2.2829378822867841E-002   1.2790300793327658E-002
  -6.5649633158518822E-002   1.9309047137397561E-002   1.7829675852588212E-002
  -6.2444173745283230E-002   1.7309980943978814E-002   2.1109921490357203E-002
  -5.9238714332047693E-002   1.6832180242611350E-002   2.2631037706634771E-002
  -7.4514217679339523E-002   3.4944779929094061E-002   2.8886034341058353E-002
  -7.1776707606192328E-002   2.7945051781498781E-002   2.6437389720162935E-002
  -6.9039197533045049E-002   2.2959658074327510E-002   2.4811975840582534E-002
  -6.6301687459897757E-002   1.9988598807580395E-002   2.4009792702317040E-002
  -6.3564177386750492E-002   1.9031873981257247E-002   2.4030840305366480E-002
  -8.9274012522977633E-002   4.2018583857798830E-002   4.9575606925281152E-002
  -8.4422091627112283E-002   3.3060724740129721E-002   3.8372882151110912E-002
  -7.9570170731246698E-002   2.6610269011257570E-002   3.0575748281062048E-002
  -7.4718249835381237E-002   2.2667216671181864E-002   2.6184205315134851E-002
  -6.9866328939515776E-002   2.1231567719903144E-002   2.5198253253329028E-002
 -0.11633993651590431        4.9092387786503489E-002   6.8060514065243993E-002
 -0.10679124463451418        3.8176397698760772E-002   4.8596778086171404E-002
  -9.7242552753123906E-002   3.0260879948187436E-002   3.5120993174027074E-002
  -8.7693860871733711E-002   2.5345834534783611E-002   2.7633159328810421E-002
  -7.8145168990343516E-002   2.3431261458549041E-002   2.6133276550522062E-002
 -0.15571198965811961        5.6166191715208313E-002   8.4340755760946573E-002
 -0.13888416662839820        4.3292070657391712E-002   5.7109077525344609E-002
 -0.12205634359867668        3.3911490885117523E-002   3.8447710519477152E-002
 -0.10522852056895521        2.8024452398385150E-002   2.8356654743344117E-002
  -8.8400697539233741E-002   2.5630955197195049E-002   2.6835910196945867E-002
  -5.9238714332047693E-002   1.6832180242611350E-002   2.2631037706634771E-002
  -5.8303646922755581E-002   1.7028392127698133E-002   2.4367901120079721E-002
  -5.7368579513463469E-002   1.7051363693642380E-002   2.5827058199036163E-002
  -5.6433512104171329E-002   1.6901094940443957E-002   2.7008508943503790E-002
  -5.5498444694879218E-002   1.6577585868102762E-002   2.7912253353483019E-002
  -6.3564177386750492E-002   1.9031873981257247E-002   2.4030840305366480E-002
  -6.2705471171818628E-002   1.9015119496153782E-002   2.3838543322313527E-002
  -6.1846764956886749E-002   1.8863971253065402E-002   2.3771230285028838E-002
  -6.0988058741954829E-002   1.8578429251991928E-002   2.3828901193512247E-002
  -6.0129352527023006E-002   1.8158493492933747E-002   2.4011556047763838E-002
  -6.9866328939515776E-002   2.1231567719903144E-002   2.5198253253329028E-002
  -6.8681293638687385E-002   2.1001846864609153E-002   2.3115642434935961E-002
  -6.7496258337858966E-002   2.0676578812488314E-002   2.1560705842567862E-002
  -6.6311223037030520E-002   2.0255763563540061E-002   2.0533443476224801E-002
  -6.5126187736202157E-002   1.9739401117764843E-002   2.0033855335906528E-002
  -7.8145168990343516E-002   2.3431261458549041E-002   2.6133276550522062E-002
  -7.6231114323361840E-002   2.2988574233064774E-002   2.2199198457946871E-002
  -7.4317059656380177E-002   2.2489186371911003E-002   1.9195484871653425E-002
  -7.2403004989398501E-002   2.1933097875088001E-002   1.7122135791641312E-002
  -7.0488950322416866E-002   2.1320308742595828E-002   1.5979151217911082E-002
  -8.8400697539233741E-002   2.5630955197195049E-002   2.6835910196945867E-002
  -8.5354933225842033E-002   2.4975301601520117E-002   2.1089211391346174E-002
  -8.2309168912450326E-002   2.4301793931334054E-002   1.6675567372285011E-002
  -7.9263404599058618E-002   2.3610432186636256E-002   1.3594978139762091E-002
  -7.6217640285666910E-002   2.2901216367426924E-002   1.1847443693777437E-002
  -5.5498444694879218E-002   1.6577585868102762E-002   2.7912253353483019E-002
  -5.3380122117189788E-002   1.6117097475536774E-002   2.7716921761312352E-002
  -5.1261799539500358E-002   1.5555890761663749E-002   2.7632061640319477E-002
  -4.9143476961810942E-002   1.4893965726483799E-002   2.7657672990504395E-002
  -4.7025154384121498E-002   1.4131322369996591E-002   2.7793755811867271E-002
  -6.0129352527023006E-002   1.8158493492933747E-002   2.4011556047763838E-002
  -5.7873752424064021E-002   1.7624957299157779E-002   2.3380340416270490E-002
  -5.5618152321105147E-002   1.6998613993931017E-002   2.2913208364138335E-002
  -5.3362552218146238E-002   1.6279463577253662E-002   2.2610159891367408E-002
  -5.1106952115187287E-002   1.5467506049125279E-002   2.2471194997957522E-002
  -6.5126187736202157E-002   1.9739401117764843E-002   2.0033855335906528E-002
  -6.2679697999790396E-002   1.9132817122778908E-002   1.8974666874946630E-002
  -6.0233208263378676E-002   1.8441337226198395E-002   1.8133174101531660E-002
  -5.7786718526966950E-002   1.7664961428023471E-002   1.7509377015660840E-002
  -5.5340228790555203E-002   1.6803689728254079E-002   1.7103275617334823E-002
  -7.0488950322416866E-002   2.1320308742595828E-002   1.5979151217911082E-002
  -6.7797958844368872E-002   2.0640676946400059E-002   1.4499901137341203E-002
  -6.5106967366320975E-002   1.9884060458465885E-002   1.3291958852499251E-002
  -6.2415975888273044E-002   1.9050459278793584E-002   1.2355324363385212E-002
  -5.9724984410225106E-002   1.8139873407382656E-002   1.1689997669999112E-002
  -7.6217640285666910E-002   2.2901216367426924E-002   1.1847443693777437E-002
  -7.3228534957799463E-002   2.2148536770020877E-002   9.9560432034534463E-003
  -7.0239429629932015E-002   2.1326783690733153E-002   8.3895626170412685E-003
  -6.7250324302064568E-002   2.0435957129563309E-002   7.1480019345400436E-003
  -6.4261218974197121E-002   1.9476057086511567E-002   6.2313611559501325E-003
  -4.7025154384121498E-002   1.4131322369996591E-002   2.7793755811867271E-002
  -4.4522602855943894E-002   1.3311868991882414E-002   2.7290394024238496E-002
  -4.2020051327766303E-002   1.2479513891821226E-002   2.6976160487014622E-002
  -3.9517499799588678E-002   1.1634257069813136E-002   2.6851055200195484E-002
  -3.7014948271411108E-002   1.0776098525857702E-002   2.6915078163781248E-002
  -5.1106952115187287E-002   1.5467506049125279E-002   2.2471194997957522E-002
  -4.8425365462796285E-002   1.4605852735034924E-002   2.1796518048624952E-002
  -4.5743778810405269E-002   1.3737614960470990E-002   2.1290783097314497E-002
  -4.3062192158014247E-002   1.2862792725433697E-002   2.0953990144026158E-002
  -4.0380605505623252E-002   1.1981386029922603E-002   2.0786139188759545E-002
  -5.5340228790555203E-002   1.6803689728254079E-002   1.7103275617334823E-002
  -5.2499793266333583E-002   1.5899836478187546E-002   1.6263600767772182E-002
  -4.9659357742111970E-002   1.4995716029120865E-002   1.5572681663848467E-002
  -4.6818922217890371E-002   1.4091328381054313E-002   1.5030518305563990E-002
  -4.3978486693668731E-002   1.3186673533987670E-002   1.4637110692918842E-002
  -5.9724984410225106E-002   1.8139873407382656E-002   1.1689997669999112E-002
  -5.6745886266555752E-002   1.7193820221339834E-002   1.0691642181679416E-002
  -5.3766788122886378E-002   1.6253817097770795E-002   9.8218561866162887E-003
  -5.0787689979217024E-002   1.5319864036674513E-002   9.0806396848096514E-003
  -4.7808591835547656E-002   1.4391961038052931E-002   8.4679926762594032E-003
  -6.4261218974197121E-002   1.9476057086511567E-002   6.2313611559501325E-003
  -6.1163644463462785E-002   1.8487803964492455E-002   5.0806422903477144E-003
  -5.8066069952728505E-002   1.7511918166420504E-002   4.0383066656186628E-003
  -5.4968495441994225E-002   1.6548399692295657E-002   3.1043542817631997E-003
  -5.1870920931259890E-002   1.5597248542117637E-002   2.2787851387811031E-003
  -3.7014948271411108E-002   1.0776098525857702E-002   2.6915078163781248E-002
  -3.4751866768376105E-002   9.9445107141501454E-003   2.6651445620600289E-002
  -3.2488785265341130E-002   9.1789660888847990E-003   2.6457920699123394E-002
  -3.0225703762306155E-002   8.4794646500619963E-003   2.6334503399351117E-002
  -2.7962622259271180E-002   7.8460063976819594E-003   2.6281193721282792E-002
  -4.0380605505623252E-002   1.1981386029922603E-002   2.0786139188759545E-002
  -3.8020084739397830E-002   1.1123365198934421E-002   2.0377314021212012E-002
  -3.5659563973172437E-002   1.0318700557465532E-002   2.0093259758341142E-002
  -3.3299043206947036E-002   9.5673921055155764E-003   1.9933976400146963E-002
  -3.0938522440721677E-002   8.8694398430846366E-003   1.9899463946629170E-002
  -4.3978486693668731E-002   1.3186673533987670E-002   1.4637110692918842E-002
  -4.1465863381280582E-002   1.2302219683719195E-002   1.4070405904081790E-002
  -3.8953240068892440E-002   1.1458435026046154E-002   1.3683135302893223E-002
  -3.6440616756504313E-002   1.0655319560968712E-002   1.3475298889353796E-002
  -3.3927993444116171E-002   9.8928732884872028E-003   1.3446896663463520E-002
  -4.7808591835547656E-002   1.4391961038052931E-002   8.4679926762594032E-003
  -4.5089202694024430E-002   1.3481074168503776E-002   7.7307212692091093E-003
  -4.2369813552501190E-002   1.2598169494626499E-002   7.2275473327798635E-003
  -3.9650424410977929E-002   1.1743247016421737E-002   6.9584708669718394E-003
  -3.6931035269454716E-002   1.0916306733889825E-002   6.9234918717851826E-003
  -5.1870920931259890E-002   1.5597248542117637E-002   2.2787851387811031E-003
  -4.8890102677629277E-002   1.4659928653288024E-002   1.3582601165943453E-003
  -4.5909284423998609E-002   1.3737903963207843E-002   7.2649584800066336E-004
  -4.2928466170367996E-002   1.2831174471875234E-002   3.8349233300050134E-004
  -3.9947647916737328E-002   1.1939740179292446E-002   3.2924957159441437E-004
  -2.7962622259271180E-002   7.8460063976819594E-003   2.6281193721282792E-002
  -2.5639512150588739E-002   7.2055007123940085E-003   2.5681965349301117E-002
  -2.3316402041906284E-002   6.4848569748474361E-003   2.5029454515281047E-002
  -2.0993291933223836E-002   5.6840751850430402E-003   2.4323661219222137E-002
  -1.8670181824541388E-002   4.8031553429804807E-003   2.3564585461124721E-002
  -3.0938522440721677E-002   8.8694398430846366E-003   1.9899463946629170E-002
  -2.8647441903586257E-002   8.1869216306781345E-003   1.9256604572330582E-002
  -2.6356361366451031E-002   7.4819153288004092E-003   1.8602968516976404E-002
  -2.4065280829315819E-002   6.7544209374522171E-003   1.7938555780566662E-002
  -2.1774200292180440E-002   6.0044384566331210E-003   1.7263366363101162E-002
  -3.3927993444116171E-002   9.8928732884872028E-003   1.3446896663463520E-002
  -3.1626436697545002E-002   9.1683425489619830E-003   1.2818056249635140E-002
  -2.9324879950973864E-002   8.4789736827528411E-003   1.2220944935734501E-002
  -2.7023323204402677E-002   7.8247666898611755E-003   1.1655562721760729E-002
  -2.4721766457831557E-002   7.2057215702853727E-003   1.1121909607714725E-002
  -3.6931035269454716E-002   1.0916306733889825E-002   6.9234918717851826E-003
  -3.4576496532464703E-002   1.0149763467245637E-002   6.3663203812146449E-003
  -3.2221957795474723E-002   9.4760320367055437E-003   5.8833837715544963E-003
  -2.9867419058484706E-002   8.8951124422697991E-003   5.4746820428049816E-003
  -2.7512880321494720E-002   8.4070046839375967E-003   5.1402151949657346E-003
  -3.9947647916737328E-002   1.1939740179292446E-002   3.2924957159441437E-004
  -3.7497621408345450E-002   1.1131184385530180E-002  -9.8603032930855150E-005
  -3.5047594899953682E-002   1.0473090390658468E-002  -4.0971497556263614E-004
  -3.2597568391561832E-002   9.9654581946789222E-003  -6.0408625630103963E-004
  -3.0147541883170037E-002   9.6082877975902647E-003  -6.8171687514606560E-004
  -1.8670181824541388E-002   4.8031553429804807E-003   2.3564585461124721E-002
  -1.5647281060058804E-002   4.0722930586115647E-003   2.4348281702761154E-002
  -1.2624380295576193E-002   3.7216839418874048E-003   2.5608319516501388E-002
  -9.6014795310936513E-003   3.7513279928086882E-003   2.7344698902345060E-002
  -6.5785787666109985E-003   4.1612252113760739E-003   2.9557419860292367E-002
  -2.1774200292180440E-002   6.0044384566331210E-003   1.7263366363101162E-002
  -1.8546088928851498E-002   5.3357856434098627E-003   1.8215084229622369E-002
  -1.5317977565522514E-002   4.8522802548505439E-003   1.9100881721733243E-002
  -1.2089866202193537E-002   4.5539222909545887E-003   1.9920758839433034E-002
  -8.8617548388645884E-003   4.4407117517214489E-003   2.0674715582722047E-002
  -2.4721766457831557E-002   7.2057215702853727E-003   1.1121909607714725E-002
  -2.1830706442170680E-002   6.5992782282086604E-003   1.2046543356139222E-002
  -1.8939646426509776E-002   5.9828765678139190E-003   1.2362994783638490E-002
  -1.6048586410848945E-002   5.3565165891004927E-003   1.2071263890212090E-002
  -1.3157526395188052E-002   4.7201982920674901E-003   1.1171350675860725E-002
  -2.7512880321494720E-002   8.4070046839375967E-003   5.1402151949657346E-003
  -2.5501133600016466E-002   7.8627708130079854E-003   5.8426590823111441E-003
  -2.3489386878538139E-002   7.1134728807768430E-003   5.3946587022171248E-003
  -2.1477640157059739E-002   6.1591108872452848E-003   3.7962140546828876E-003
  -1.9465893435581558E-002   4.9996848324128651E-003   1.0473251397092598E-003
  -3.0147541883170037E-002   9.6082877975902647E-003  -6.8171687514606560E-004
  -2.9557370402388705E-002   9.1262633978059782E-003  -3.9656859186182336E-004
  -2.8967198921607429E-002   8.2440691937402111E-003  -1.8041265225309522E-003
  -2.8377027440826180E-002   6.9617051853914647E-003  -4.9043906671551799E-003
  -2.7786855960044821E-002   5.2791713727589062E-003  -9.6973610257330423E-003
  -6.5785787666109985E-003   4.1612252113760739E-003   2.9557419860292367E-002
  -6.0534695431964658E-003   6.1459755820433282E-003   3.4047431897549885E-002
  -5.5283603197818776E-003   1.0900179089267215E-002   3.9220271331343981E-002
  -5.0032510963674143E-003   1.8423835733046540E-002   4.5075938161675377E-002
  -4.4781418729527012E-003   2.8716945513381997E-002   5.1614432388543463E-002
  -8.8617548388645884E-003   4.4407117517214489E-003   2.0674715582722047E-002
  -7.5804592180615804E-003   5.6612195967946088E-003   2.5851362377012910E-002
  -6.2991635972587112E-003   9.3640167858150825E-003   3.1857554569543700E-002
  -5.0178679764556200E-003   1.5549103318783779E-002   3.8693292160313753E-002
  -3.7365723556528341E-003   2.4216479195699803E-002   4.6358575149324732E-002
  -1.3157526395188052E-002   4.7201982920674901E-003   1.1171350675860725E-002
  -1.0973326375293829E-002   5.1764636115450569E-003   1.6747468434576890E-002
  -8.7891263553996207E-003   7.8278544823632834E-003   2.3299849593235694E-002
  -6.6049263355053324E-003   1.2674370904520907E-002   3.0828494151836736E-002
  -4.4207263156111898E-003   1.9716012878017830E-002   3.9333402110381721E-002
  -1.9465893435581558E-002   4.9996848324128651E-003   1.0473251397092598E-003
  -1.6232071014893146E-002   4.6917076262966984E-003   6.7357500702427617E-003
  -1.2998248594204733E-002   6.2916921789107627E-003   1.3547156402421281E-002
  -9.7644261735164335E-003   9.7996384902577574E-003   2.1481544136245451E-002
  -6.5306037528279071E-003   1.5215546560335524E-002   3.0538913271715151E-002
  -2.7786855960044821E-002   5.2791713727589062E-003  -9.6973610257330423E-003
  -2.3356693136859508E-002   4.2069516410476737E-003  -4.1837927159911192E-003
  -1.8926530313674139E-002   4.7555298754600184E-003   2.5994749970994768E-003
  -1.4496367490488909E-002   6.9249060759955516E-003   1.0652442113538170E-002
  -1.0066204667303458E-002   1.0715080242653663E-002   1.9975108633326411E-002
 </DataArray>
 </PointData>
 </Piece>
 </UnstructuredGrid>
 </VTKFile>
