 <VTKFile type="UnstructuredGrid"  version="0.1"   >
 <UnstructuredGrid>
 <Piece  NumberOfPoints="          1600 "  NumberOfCells="         1024 ">
 <Points>
 <DataArray  type="Float64" NumberOfComponents="3"  format="ascii" >
   0.0000000000000000        0.0000000000000000        0.0000000000000000     
   3.1250000000000000E-002   0.0000000000000000        0.0000000000000000     
   6.2500000000000000E-002   0.0000000000000000        0.0000000000000000     
   9.3750000000000000E-002   0.0000000000000000        0.0000000000000000     
  0.12500000000000000        0.0000000000000000        0.0000000000000000     
   0.0000000000000000        3.1250000000000000E-002   0.0000000000000000     
   3.1250000000000000E-002   3.1250000000000000E-002   0.0000000000000000     
   6.2500000000000000E-002   3.1250000000000000E-002   0.0000000000000000     
   9.3750000000000000E-002   3.1250000000000000E-002   0.0000000000000000     
  0.12500000000000000        3.1250000000000000E-002   0.0000000000000000     
   0.0000000000000000        6.2500000000000000E-002   0.0000000000000000     
   3.1250000000000000E-002   6.2500000000000000E-002   0.0000000000000000     
   6.2500000000000000E-002   6.2500000000000000E-002   0.0000000000000000     
   9.3750000000000000E-002   6.2500000000000000E-002   0.0000000000000000     
  0.12500000000000000        6.2500000000000000E-002   0.0000000000000000     
   0.0000000000000000        9.3750000000000000E-002   0.0000000000000000     
   3.1250000000000000E-002   9.3750000000000000E-002   0.0000000000000000     
   6.2500000000000000E-002   9.3750000000000000E-002   0.0000000000000000     
   9.3750000000000000E-002   9.3750000000000000E-002   0.0000000000000000     
  0.12500000000000000        9.3750000000000000E-002   0.0000000000000000     
   0.0000000000000000       0.12500000000000000        0.0000000000000000     
   3.1250000000000000E-002  0.12500000000000000        0.0000000000000000     
   6.2500000000000000E-002  0.12500000000000000        0.0000000000000000     
   9.3750000000000000E-002  0.12500000000000000        0.0000000000000000     
  0.12500000000000000       0.12500000000000000        0.0000000000000000     
  0.12500000000000000        0.0000000000000000        0.0000000000000000     
  0.15625000000000000        0.0000000000000000        0.0000000000000000     
  0.18750000000000000        0.0000000000000000        0.0000000000000000     
  0.21875000000000000        0.0000000000000000        0.0000000000000000     
  0.25000000000000000        0.0000000000000000        0.0000000000000000     
  0.12500000000000000        3.1250000000000000E-002   0.0000000000000000     
  0.15625000000000000        3.1250000000000000E-002   0.0000000000000000     
  0.18750000000000000        3.1250000000000000E-002   0.0000000000000000     
  0.21875000000000000        3.1250000000000000E-002   0.0000000000000000     
  0.25000000000000000        3.1250000000000000E-002   0.0000000000000000     
  0.12500000000000000        6.2500000000000000E-002   0.0000000000000000     
  0.15625000000000000        6.2500000000000000E-002   0.0000000000000000     
  0.18750000000000000        6.2500000000000000E-002   0.0000000000000000     
  0.21875000000000000        6.2500000000000000E-002   0.0000000000000000     
  0.25000000000000000        6.2500000000000000E-002   0.0000000000000000     
  0.12500000000000000        9.3750000000000000E-002   0.0000000000000000     
  0.15625000000000000        9.3750000000000000E-002   0.0000000000000000     
  0.18750000000000000        9.3750000000000000E-002   0.0000000000000000     
  0.21875000000000000        9.3750000000000000E-002   0.0000000000000000     
  0.25000000000000000        9.3750000000000000E-002   0.0000000000000000     
  0.12500000000000000       0.12500000000000000        0.0000000000000000     
  0.15625000000000000       0.12500000000000000        0.0000000000000000     
  0.18750000000000000       0.12500000000000000        0.0000000000000000     
  0.21875000000000000       0.12500000000000000        0.0000000000000000     
  0.25000000000000000       0.12500000000000000        0.0000000000000000     
  0.25000000000000000        0.0000000000000000        0.0000000000000000     
  0.28125000000000000        0.0000000000000000        0.0000000000000000     
  0.31250000000000000        0.0000000000000000        0.0000000000000000     
  0.34375000000000000        0.0000000000000000        0.0000000000000000     
  0.37500000000000000        0.0000000000000000        0.0000000000000000     
  0.25000000000000000        3.1250000000000000E-002   0.0000000000000000     
  0.28125000000000000        3.1250000000000000E-002   0.0000000000000000     
  0.31250000000000000        3.1250000000000000E-002   0.0000000000000000     
  0.34375000000000000        3.1250000000000000E-002   0.0000000000000000     
  0.37500000000000000        3.1250000000000000E-002   0.0000000000000000     
  0.25000000000000000        6.2500000000000000E-002   0.0000000000000000     
  0.28125000000000000        6.2500000000000000E-002   0.0000000000000000     
  0.31250000000000000        6.2500000000000000E-002   0.0000000000000000     
  0.34375000000000000        6.2500000000000000E-002   0.0000000000000000     
  0.37500000000000000        6.2500000000000000E-002   0.0000000000000000     
  0.25000000000000000        9.3750000000000000E-002   0.0000000000000000     
  0.28125000000000000        9.3750000000000000E-002   0.0000000000000000     
  0.31250000000000000        9.3750000000000000E-002   0.0000000000000000     
  0.34375000000000000        9.3750000000000000E-002   0.0000000000000000     
  0.37500000000000000        9.3750000000000000E-002   0.0000000000000000     
  0.25000000000000000       0.12500000000000000        0.0000000000000000     
  0.28125000000000000       0.12500000000000000        0.0000000000000000     
  0.31250000000000000       0.12500000000000000        0.0000000000000000     
  0.34375000000000000       0.12500000000000000        0.0000000000000000     
  0.37500000000000000       0.12500000000000000        0.0000000000000000     
  0.37500000000000000        0.0000000000000000        0.0000000000000000     
  0.40625000000000000        0.0000000000000000        0.0000000000000000     
  0.43750000000000000        0.0000000000000000        0.0000000000000000     
  0.46875000000000000        0.0000000000000000        0.0000000000000000     
  0.50000000000000000        0.0000000000000000        0.0000000000000000     
  0.37500000000000000        3.1250000000000000E-002   0.0000000000000000     
  0.40625000000000000        3.1250000000000000E-002   0.0000000000000000     
  0.43750000000000000        3.1250000000000000E-002   0.0000000000000000     
  0.46875000000000000        3.1250000000000000E-002   0.0000000000000000     
  0.50000000000000000        3.1250000000000000E-002   0.0000000000000000     
  0.37500000000000000        6.2500000000000000E-002   0.0000000000000000     
  0.40625000000000000        6.2500000000000000E-002   0.0000000000000000     
  0.43750000000000000        6.2500000000000000E-002   0.0000000000000000     
  0.46875000000000000        6.2500000000000000E-002   0.0000000000000000     
  0.50000000000000000        6.2500000000000000E-002   0.0000000000000000     
  0.37500000000000000        9.3750000000000000E-002   0.0000000000000000     
  0.40625000000000000        9.3750000000000000E-002   0.0000000000000000     
  0.43750000000000000        9.3750000000000000E-002   0.0000000000000000     
  0.46875000000000000        9.3750000000000000E-002   0.0000000000000000     
  0.50000000000000000        9.3750000000000000E-002   0.0000000000000000     
  0.37500000000000000       0.12500000000000000        0.0000000000000000     
  0.40625000000000000       0.12500000000000000        0.0000000000000000     
  0.43750000000000000       0.12500000000000000        0.0000000000000000     
  0.46875000000000000       0.12500000000000000        0.0000000000000000     
  0.50000000000000000       0.12500000000000000        0.0000000000000000     
  0.50000000000000000        0.0000000000000000        0.0000000000000000     
  0.53125000000000000        0.0000000000000000        0.0000000000000000     
  0.56250000000000000        0.0000000000000000        0.0000000000000000     
  0.59375000000000000        0.0000000000000000        0.0000000000000000     
  0.62500000000000000        0.0000000000000000        0.0000000000000000     
  0.50000000000000000        3.1250000000000000E-002   0.0000000000000000     
  0.53125000000000000        3.1250000000000000E-002   0.0000000000000000     
  0.56250000000000000        3.1250000000000000E-002   0.0000000000000000     
  0.59375000000000000        3.1250000000000000E-002   0.0000000000000000     
  0.62500000000000000        3.1250000000000000E-002   0.0000000000000000     
  0.50000000000000000        6.2500000000000000E-002   0.0000000000000000     
  0.53125000000000000        6.2500000000000000E-002   0.0000000000000000     
  0.56250000000000000        6.2500000000000000E-002   0.0000000000000000     
  0.59375000000000000        6.2500000000000000E-002   0.0000000000000000     
  0.62500000000000000        6.2500000000000000E-002   0.0000000000000000     
  0.50000000000000000        9.3750000000000000E-002   0.0000000000000000     
  0.53125000000000000        9.3750000000000000E-002   0.0000000000000000     
  0.56250000000000000        9.3750000000000000E-002   0.0000000000000000     
  0.59375000000000000        9.3750000000000000E-002   0.0000000000000000     
  0.62500000000000000        9.3750000000000000E-002   0.0000000000000000     
  0.50000000000000000       0.12500000000000000        0.0000000000000000     
  0.53125000000000000       0.12500000000000000        0.0000000000000000     
  0.56250000000000000       0.12500000000000000        0.0000000000000000     
  0.59375000000000000       0.12500000000000000        0.0000000000000000     
  0.62500000000000000       0.12500000000000000        0.0000000000000000     
  0.62500000000000000        0.0000000000000000        0.0000000000000000     
  0.65625000000000000        0.0000000000000000        0.0000000000000000     
  0.68750000000000000        0.0000000000000000        0.0000000000000000     
  0.71875000000000000        0.0000000000000000        0.0000000000000000     
  0.75000000000000000        0.0000000000000000        0.0000000000000000     
  0.62500000000000000        3.1250000000000000E-002   0.0000000000000000     
  0.65625000000000000        3.1250000000000000E-002   0.0000000000000000     
  0.68750000000000000        3.1250000000000000E-002   0.0000000000000000     
  0.71875000000000000        3.1250000000000000E-002   0.0000000000000000     
  0.75000000000000000        3.1250000000000000E-002   0.0000000000000000     
  0.62500000000000000        6.2500000000000000E-002   0.0000000000000000     
  0.65625000000000000        6.2500000000000000E-002   0.0000000000000000     
  0.68750000000000000        6.2500000000000000E-002   0.0000000000000000     
  0.71875000000000000        6.2500000000000000E-002   0.0000000000000000     
  0.75000000000000000        6.2500000000000000E-002   0.0000000000000000     
  0.62500000000000000        9.3750000000000000E-002   0.0000000000000000     
  0.65625000000000000        9.3750000000000000E-002   0.0000000000000000     
  0.68750000000000000        9.3750000000000000E-002   0.0000000000000000     
  0.71875000000000000        9.3750000000000000E-002   0.0000000000000000     
  0.75000000000000000        9.3750000000000000E-002   0.0000000000000000     
  0.62500000000000000       0.12500000000000000        0.0000000000000000     
  0.65625000000000000       0.12500000000000000        0.0000000000000000     
  0.68750000000000000       0.12500000000000000        0.0000000000000000     
  0.71875000000000000       0.12500000000000000        0.0000000000000000     
  0.75000000000000000       0.12500000000000000        0.0000000000000000     
  0.75000000000000000        0.0000000000000000        0.0000000000000000     
  0.78125000000000000        0.0000000000000000        0.0000000000000000     
  0.81250000000000000        0.0000000000000000        0.0000000000000000     
  0.84375000000000000        0.0000000000000000        0.0000000000000000     
  0.87500000000000000        0.0000000000000000        0.0000000000000000     
  0.75000000000000000        3.1250000000000000E-002   0.0000000000000000     
  0.78125000000000000        3.1250000000000000E-002   0.0000000000000000     
  0.81250000000000000        3.1250000000000000E-002   0.0000000000000000     
  0.84375000000000000        3.1250000000000000E-002   0.0000000000000000     
  0.87500000000000000        3.1250000000000000E-002   0.0000000000000000     
  0.75000000000000000        6.2500000000000000E-002   0.0000000000000000     
  0.78125000000000000        6.2500000000000000E-002   0.0000000000000000     
  0.81250000000000000        6.2500000000000000E-002   0.0000000000000000     
  0.84375000000000000        6.2500000000000000E-002   0.0000000000000000     
  0.87500000000000000        6.2500000000000000E-002   0.0000000000000000     
  0.75000000000000000        9.3750000000000000E-002   0.0000000000000000     
  0.78125000000000000        9.3750000000000000E-002   0.0000000000000000     
  0.81250000000000000        9.3750000000000000E-002   0.0000000000000000     
  0.84375000000000000        9.3750000000000000E-002   0.0000000000000000     
  0.87500000000000000        9.3750000000000000E-002   0.0000000000000000     
  0.75000000000000000       0.12500000000000000        0.0000000000000000     
  0.78125000000000000       0.12500000000000000        0.0000000000000000     
  0.81250000000000000       0.12500000000000000        0.0000000000000000     
  0.84375000000000000       0.12500000000000000        0.0000000000000000     
  0.87500000000000000       0.12500000000000000        0.0000000000000000     
  0.87500000000000000        0.0000000000000000        0.0000000000000000     
  0.90625000000000000        0.0000000000000000        0.0000000000000000     
  0.93750000000000000        0.0000000000000000        0.0000000000000000     
  0.96875000000000000        0.0000000000000000        0.0000000000000000     
   1.0000000000000000        0.0000000000000000        0.0000000000000000     
  0.87500000000000000        3.1250000000000000E-002   0.0000000000000000     
  0.90625000000000000        3.1250000000000000E-002   0.0000000000000000     
  0.93750000000000000        3.1250000000000000E-002   0.0000000000000000     
  0.96875000000000000        3.1250000000000000E-002   0.0000000000000000     
   1.0000000000000000        3.1250000000000000E-002   0.0000000000000000     
  0.87500000000000000        6.2500000000000000E-002   0.0000000000000000     
  0.90625000000000000        6.2500000000000000E-002   0.0000000000000000     
  0.93750000000000000        6.2500000000000000E-002   0.0000000000000000     
  0.96875000000000000        6.2500000000000000E-002   0.0000000000000000     
   1.0000000000000000        6.2500000000000000E-002   0.0000000000000000     
  0.87500000000000000        9.3750000000000000E-002   0.0000000000000000     
  0.90625000000000000        9.3750000000000000E-002   0.0000000000000000     
  0.93750000000000000        9.3750000000000000E-002   0.0000000000000000     
  0.96875000000000000        9.3750000000000000E-002   0.0000000000000000     
   1.0000000000000000        9.3750000000000000E-002   0.0000000000000000     
  0.87500000000000000       0.12500000000000000        0.0000000000000000     
  0.90625000000000000       0.12500000000000000        0.0000000000000000     
  0.93750000000000000       0.12500000000000000        0.0000000000000000     
  0.96875000000000000       0.12500000000000000        0.0000000000000000     
   1.0000000000000000       0.12500000000000000        0.0000000000000000     
   0.0000000000000000       0.12500000000000000        0.0000000000000000     
   3.1250000000000000E-002  0.12500000000000000        0.0000000000000000     
   6.2500000000000000E-002  0.12500000000000000        0.0000000000000000     
   9.3750000000000000E-002  0.12500000000000000        0.0000000000000000     
  0.12500000000000000       0.12500000000000000        0.0000000000000000     
   0.0000000000000000       0.15625000000000000        0.0000000000000000     
   3.1250000000000000E-002  0.15625000000000000        0.0000000000000000     
   6.2500000000000000E-002  0.15625000000000000        0.0000000000000000     
   9.3750000000000000E-002  0.15625000000000000        0.0000000000000000     
  0.12500000000000000       0.15625000000000000        0.0000000000000000     
   0.0000000000000000       0.18750000000000000        0.0000000000000000     
   3.1250000000000000E-002  0.18750000000000000        0.0000000000000000     
   6.2500000000000000E-002  0.18750000000000000        0.0000000000000000     
   9.3750000000000000E-002  0.18750000000000000        0.0000000000000000     
  0.12500000000000000       0.18750000000000000        0.0000000000000000     
   0.0000000000000000       0.21875000000000000        0.0000000000000000     
   3.1250000000000000E-002  0.21875000000000000        0.0000000000000000     
   6.2500000000000000E-002  0.21875000000000000        0.0000000000000000     
   9.3750000000000000E-002  0.21875000000000000        0.0000000000000000     
  0.12500000000000000       0.21875000000000000        0.0000000000000000     
   0.0000000000000000       0.25000000000000000        0.0000000000000000     
   3.1250000000000000E-002  0.25000000000000000        0.0000000000000000     
   6.2500000000000000E-002  0.25000000000000000        0.0000000000000000     
   9.3750000000000000E-002  0.25000000000000000        0.0000000000000000     
  0.12500000000000000       0.25000000000000000        0.0000000000000000     
  0.12500000000000000       0.12500000000000000        0.0000000000000000     
  0.15625000000000000       0.12500000000000000        0.0000000000000000     
  0.18750000000000000       0.12500000000000000        0.0000000000000000     
  0.21875000000000000       0.12500000000000000        0.0000000000000000     
  0.25000000000000000       0.12500000000000000        0.0000000000000000     
  0.12500000000000000       0.15625000000000000        0.0000000000000000     
  0.15625000000000000       0.15625000000000000        0.0000000000000000     
  0.18750000000000000       0.15625000000000000        0.0000000000000000     
  0.21875000000000000       0.15625000000000000        0.0000000000000000     
  0.25000000000000000       0.15625000000000000        0.0000000000000000     
  0.12500000000000000       0.18750000000000000        0.0000000000000000     
  0.15625000000000000       0.18750000000000000        0.0000000000000000     
  0.18750000000000000       0.18750000000000000        0.0000000000000000     
  0.21875000000000000       0.18750000000000000        0.0000000000000000     
  0.25000000000000000       0.18750000000000000        0.0000000000000000     
  0.12500000000000000       0.21875000000000000        0.0000000000000000     
  0.15625000000000000       0.21875000000000000        0.0000000000000000     
  0.18750000000000000       0.21875000000000000        0.0000000000000000     
  0.21875000000000000       0.21875000000000000        0.0000000000000000     
  0.25000000000000000       0.21875000000000000        0.0000000000000000     
  0.12500000000000000       0.25000000000000000        0.0000000000000000     
  0.15625000000000000       0.25000000000000000        0.0000000000000000     
  0.18750000000000000       0.25000000000000000        0.0000000000000000     
  0.21875000000000000       0.25000000000000000        0.0000000000000000     
  0.25000000000000000       0.25000000000000000        0.0000000000000000     
  0.25000000000000000       0.12500000000000000        0.0000000000000000     
  0.28125000000000000       0.12500000000000000        0.0000000000000000     
  0.31250000000000000       0.12500000000000000        0.0000000000000000     
  0.34375000000000000       0.12500000000000000        0.0000000000000000     
  0.37500000000000000       0.12500000000000000        0.0000000000000000     
  0.25000000000000000       0.15625000000000000        0.0000000000000000     
  0.28125000000000000       0.15625000000000000        0.0000000000000000     
  0.31250000000000000       0.15625000000000000        0.0000000000000000     
  0.34375000000000000       0.15625000000000000        0.0000000000000000     
  0.37500000000000000       0.15625000000000000        0.0000000000000000     
  0.25000000000000000       0.18750000000000000        0.0000000000000000     
  0.28125000000000000       0.18750000000000000        0.0000000000000000     
  0.31250000000000000       0.18750000000000000        0.0000000000000000     
  0.34375000000000000       0.18750000000000000        0.0000000000000000     
  0.37500000000000000       0.18750000000000000        0.0000000000000000     
  0.25000000000000000       0.21875000000000000        0.0000000000000000     
  0.28125000000000000       0.21875000000000000        0.0000000000000000     
  0.31250000000000000       0.21875000000000000        0.0000000000000000     
  0.34375000000000000       0.21875000000000000        0.0000000000000000     
  0.37500000000000000       0.21875000000000000        0.0000000000000000     
  0.25000000000000000       0.25000000000000000        0.0000000000000000     
  0.28125000000000000       0.25000000000000000        0.0000000000000000     
  0.31250000000000000       0.25000000000000000        0.0000000000000000     
  0.34375000000000000       0.25000000000000000        0.0000000000000000     
  0.37500000000000000       0.25000000000000000        0.0000000000000000     
  0.37500000000000000       0.12500000000000000        0.0000000000000000     
  0.40625000000000000       0.12500000000000000        0.0000000000000000     
  0.43750000000000000       0.12500000000000000        0.0000000000000000     
  0.46875000000000000       0.12500000000000000        0.0000000000000000     
  0.50000000000000000       0.12500000000000000        0.0000000000000000     
  0.37500000000000000       0.15625000000000000        0.0000000000000000     
  0.40625000000000000       0.15625000000000000        0.0000000000000000     
  0.43750000000000000       0.15625000000000000        0.0000000000000000     
  0.46875000000000000       0.15625000000000000        0.0000000000000000     
  0.50000000000000000       0.15625000000000000        0.0000000000000000     
  0.37500000000000000       0.18750000000000000        0.0000000000000000     
  0.40625000000000000       0.18750000000000000        0.0000000000000000     
  0.43750000000000000       0.18750000000000000        0.0000000000000000     
  0.46875000000000000       0.18750000000000000        0.0000000000000000     
  0.50000000000000000       0.18750000000000000        0.0000000000000000     
  0.37500000000000000       0.21875000000000000        0.0000000000000000     
  0.40625000000000000       0.21875000000000000        0.0000000000000000     
  0.43750000000000000       0.21875000000000000        0.0000000000000000     
  0.46875000000000000       0.21875000000000000        0.0000000000000000     
  0.50000000000000000       0.21875000000000000        0.0000000000000000     
  0.37500000000000000       0.25000000000000000        0.0000000000000000     
  0.40625000000000000       0.25000000000000000        0.0000000000000000     
  0.43750000000000000       0.25000000000000000        0.0000000000000000     
  0.46875000000000000       0.25000000000000000        0.0000000000000000     
  0.50000000000000000       0.25000000000000000        0.0000000000000000     
  0.50000000000000000       0.12500000000000000        0.0000000000000000     
  0.53125000000000000       0.12500000000000000        0.0000000000000000     
  0.56250000000000000       0.12500000000000000        0.0000000000000000     
  0.59375000000000000       0.12500000000000000        0.0000000000000000     
  0.62500000000000000       0.12500000000000000        0.0000000000000000     
  0.50000000000000000       0.15625000000000000        0.0000000000000000     
  0.53125000000000000       0.15625000000000000        0.0000000000000000     
  0.56250000000000000       0.15625000000000000        0.0000000000000000     
  0.59375000000000000       0.15625000000000000        0.0000000000000000     
  0.62500000000000000       0.15625000000000000        0.0000000000000000     
  0.50000000000000000       0.18750000000000000        0.0000000000000000     
  0.53125000000000000       0.18750000000000000        0.0000000000000000     
  0.56250000000000000       0.18750000000000000        0.0000000000000000     
  0.59375000000000000       0.18750000000000000        0.0000000000000000     
  0.62500000000000000       0.18750000000000000        0.0000000000000000     
  0.50000000000000000       0.21875000000000000        0.0000000000000000     
  0.53125000000000000       0.21875000000000000        0.0000000000000000     
  0.56250000000000000       0.21875000000000000        0.0000000000000000     
  0.59375000000000000       0.21875000000000000        0.0000000000000000     
  0.62500000000000000       0.21875000000000000        0.0000000000000000     
  0.50000000000000000       0.25000000000000000        0.0000000000000000     
  0.53125000000000000       0.25000000000000000        0.0000000000000000     
  0.56250000000000000       0.25000000000000000        0.0000000000000000     
  0.59375000000000000       0.25000000000000000        0.0000000000000000     
  0.62500000000000000       0.25000000000000000        0.0000000000000000     
  0.62500000000000000       0.12500000000000000        0.0000000000000000     
  0.65625000000000000       0.12500000000000000        0.0000000000000000     
  0.68750000000000000       0.12500000000000000        0.0000000000000000     
  0.71875000000000000       0.12500000000000000        0.0000000000000000     
  0.75000000000000000       0.12500000000000000        0.0000000000000000     
  0.62500000000000000       0.15625000000000000        0.0000000000000000     
  0.65625000000000000       0.15625000000000000        0.0000000000000000     
  0.68750000000000000       0.15625000000000000        0.0000000000000000     
  0.71875000000000000       0.15625000000000000        0.0000000000000000     
  0.75000000000000000       0.15625000000000000        0.0000000000000000     
  0.62500000000000000       0.18750000000000000        0.0000000000000000     
  0.65625000000000000       0.18750000000000000        0.0000000000000000     
  0.68750000000000000       0.18750000000000000        0.0000000000000000     
  0.71875000000000000       0.18750000000000000        0.0000000000000000     
  0.75000000000000000       0.18750000000000000        0.0000000000000000     
  0.62500000000000000       0.21875000000000000        0.0000000000000000     
  0.65625000000000000       0.21875000000000000        0.0000000000000000     
  0.68750000000000000       0.21875000000000000        0.0000000000000000     
  0.71875000000000000       0.21875000000000000        0.0000000000000000     
  0.75000000000000000       0.21875000000000000        0.0000000000000000     
  0.62500000000000000       0.25000000000000000        0.0000000000000000     
  0.65625000000000000       0.25000000000000000        0.0000000000000000     
  0.68750000000000000       0.25000000000000000        0.0000000000000000     
  0.71875000000000000       0.25000000000000000        0.0000000000000000     
  0.75000000000000000       0.25000000000000000        0.0000000000000000     
  0.75000000000000000       0.12500000000000000        0.0000000000000000     
  0.78125000000000000       0.12500000000000000        0.0000000000000000     
  0.81250000000000000       0.12500000000000000        0.0000000000000000     
  0.84375000000000000       0.12500000000000000        0.0000000000000000     
  0.87500000000000000       0.12500000000000000        0.0000000000000000     
  0.75000000000000000       0.15625000000000000        0.0000000000000000     
  0.78125000000000000       0.15625000000000000        0.0000000000000000     
  0.81250000000000000       0.15625000000000000        0.0000000000000000     
  0.84375000000000000       0.15625000000000000        0.0000000000000000     
  0.87500000000000000       0.15625000000000000        0.0000000000000000     
  0.75000000000000000       0.18750000000000000        0.0000000000000000     
  0.78125000000000000       0.18750000000000000        0.0000000000000000     
  0.81250000000000000       0.18750000000000000        0.0000000000000000     
  0.84375000000000000       0.18750000000000000        0.0000000000000000     
  0.87500000000000000       0.18750000000000000        0.0000000000000000     
  0.75000000000000000       0.21875000000000000        0.0000000000000000     
  0.78125000000000000       0.21875000000000000        0.0000000000000000     
  0.81250000000000000       0.21875000000000000        0.0000000000000000     
  0.84375000000000000       0.21875000000000000        0.0000000000000000     
  0.87500000000000000       0.21875000000000000        0.0000000000000000     
  0.75000000000000000       0.25000000000000000        0.0000000000000000     
  0.78125000000000000       0.25000000000000000        0.0000000000000000     
  0.81250000000000000       0.25000000000000000        0.0000000000000000     
  0.84375000000000000       0.25000000000000000        0.0000000000000000     
  0.87500000000000000       0.25000000000000000        0.0000000000000000     
  0.87500000000000000       0.12500000000000000        0.0000000000000000     
  0.90625000000000000       0.12500000000000000        0.0000000000000000     
  0.93750000000000000       0.12500000000000000        0.0000000000000000     
  0.96875000000000000       0.12500000000000000        0.0000000000000000     
   1.0000000000000000       0.12500000000000000        0.0000000000000000     
  0.87500000000000000       0.15625000000000000        0.0000000000000000     
  0.90625000000000000       0.15625000000000000        0.0000000000000000     
  0.93750000000000000       0.15625000000000000        0.0000000000000000     
  0.96875000000000000       0.15625000000000000        0.0000000000000000     
   1.0000000000000000       0.15625000000000000        0.0000000000000000     
  0.87500000000000000       0.18750000000000000        0.0000000000000000     
  0.90625000000000000       0.18750000000000000        0.0000000000000000     
  0.93750000000000000       0.18750000000000000        0.0000000000000000     
  0.96875000000000000       0.18750000000000000        0.0000000000000000     
   1.0000000000000000       0.18750000000000000        0.0000000000000000     
  0.87500000000000000       0.21875000000000000        0.0000000000000000     
  0.90625000000000000       0.21875000000000000        0.0000000000000000     
  0.93750000000000000       0.21875000000000000        0.0000000000000000     
  0.96875000000000000       0.21875000000000000        0.0000000000000000     
   1.0000000000000000       0.21875000000000000        0.0000000000000000     
  0.87500000000000000       0.25000000000000000        0.0000000000000000     
  0.90625000000000000       0.25000000000000000        0.0000000000000000     
  0.93750000000000000       0.25000000000000000        0.0000000000000000     
  0.96875000000000000       0.25000000000000000        0.0000000000000000     
   1.0000000000000000       0.25000000000000000        0.0000000000000000     
   0.0000000000000000       0.25000000000000000        0.0000000000000000     
   3.1250000000000000E-002  0.25000000000000000        0.0000000000000000     
   6.2500000000000000E-002  0.25000000000000000        0.0000000000000000     
   9.3750000000000000E-002  0.25000000000000000        0.0000000000000000     
  0.12500000000000000       0.25000000000000000        0.0000000000000000     
   0.0000000000000000       0.28125000000000000        0.0000000000000000     
   3.1250000000000000E-002  0.28125000000000000        0.0000000000000000     
   6.2500000000000000E-002  0.28125000000000000        0.0000000000000000     
   9.3750000000000000E-002  0.28125000000000000        0.0000000000000000     
  0.12500000000000000       0.28125000000000000        0.0000000000000000     
   0.0000000000000000       0.31250000000000000        0.0000000000000000     
   3.1250000000000000E-002  0.31250000000000000        0.0000000000000000     
   6.2500000000000000E-002  0.31250000000000000        0.0000000000000000     
   9.3750000000000000E-002  0.31250000000000000        0.0000000000000000     
  0.12500000000000000       0.31250000000000000        0.0000000000000000     
   0.0000000000000000       0.34375000000000000        0.0000000000000000     
   3.1250000000000000E-002  0.34375000000000000        0.0000000000000000     
   6.2500000000000000E-002  0.34375000000000000        0.0000000000000000     
   9.3750000000000000E-002  0.34375000000000000        0.0000000000000000     
  0.12500000000000000       0.34375000000000000        0.0000000000000000     
   0.0000000000000000       0.37500000000000000        0.0000000000000000     
   3.1250000000000000E-002  0.37500000000000000        0.0000000000000000     
   6.2500000000000000E-002  0.37500000000000000        0.0000000000000000     
   9.3750000000000000E-002  0.37500000000000000        0.0000000000000000     
  0.12500000000000000       0.37500000000000000        0.0000000000000000     
  0.12500000000000000       0.25000000000000000        0.0000000000000000     
  0.15625000000000000       0.25000000000000000        0.0000000000000000     
  0.18750000000000000       0.25000000000000000        0.0000000000000000     
  0.21875000000000000       0.25000000000000000        0.0000000000000000     
  0.25000000000000000       0.25000000000000000        0.0000000000000000     
  0.12500000000000000       0.28125000000000000        0.0000000000000000     
  0.15625000000000000       0.28125000000000000        0.0000000000000000     
  0.18750000000000000       0.28125000000000000        0.0000000000000000     
  0.21875000000000000       0.28125000000000000        0.0000000000000000     
  0.25000000000000000       0.28125000000000000        0.0000000000000000     
  0.12500000000000000       0.31250000000000000        0.0000000000000000     
  0.15625000000000000       0.31250000000000000        0.0000000000000000     
  0.18750000000000000       0.31250000000000000        0.0000000000000000     
  0.21875000000000000       0.31250000000000000        0.0000000000000000     
  0.25000000000000000       0.31250000000000000        0.0000000000000000     
  0.12500000000000000       0.34375000000000000        0.0000000000000000     
  0.15625000000000000       0.34375000000000000        0.0000000000000000     
  0.18750000000000000       0.34375000000000000        0.0000000000000000     
  0.21875000000000000       0.34375000000000000        0.0000000000000000     
  0.25000000000000000       0.34375000000000000        0.0000000000000000     
  0.12500000000000000       0.37500000000000000        0.0000000000000000     
  0.15625000000000000       0.37500000000000000        0.0000000000000000     
  0.18750000000000000       0.37500000000000000        0.0000000000000000     
  0.21875000000000000       0.37500000000000000        0.0000000000000000     
  0.25000000000000000       0.37500000000000000        0.0000000000000000     
  0.25000000000000000       0.25000000000000000        0.0000000000000000     
  0.28125000000000000       0.25000000000000000        0.0000000000000000     
  0.31250000000000000       0.25000000000000000        0.0000000000000000     
  0.34375000000000000       0.25000000000000000        0.0000000000000000     
  0.37500000000000000       0.25000000000000000        0.0000000000000000     
  0.25000000000000000       0.28125000000000000        0.0000000000000000     
  0.28125000000000000       0.28125000000000000        0.0000000000000000     
  0.31250000000000000       0.28125000000000000        0.0000000000000000     
  0.34375000000000000       0.28125000000000000        0.0000000000000000     
  0.37500000000000000       0.28125000000000000        0.0000000000000000     
  0.25000000000000000       0.31250000000000000        0.0000000000000000     
  0.28125000000000000       0.31250000000000000        0.0000000000000000     
  0.31250000000000000       0.31250000000000000        0.0000000000000000     
  0.34375000000000000       0.31250000000000000        0.0000000000000000     
  0.37500000000000000       0.31250000000000000        0.0000000000000000     
  0.25000000000000000       0.34375000000000000        0.0000000000000000     
  0.28125000000000000       0.34375000000000000        0.0000000000000000     
  0.31250000000000000       0.34375000000000000        0.0000000000000000     
  0.34375000000000000       0.34375000000000000        0.0000000000000000     
  0.37500000000000000       0.34375000000000000        0.0000000000000000     
  0.25000000000000000       0.37500000000000000        0.0000000000000000     
  0.28125000000000000       0.37500000000000000        0.0000000000000000     
  0.31250000000000000       0.37500000000000000        0.0000000000000000     
  0.34375000000000000       0.37500000000000000        0.0000000000000000     
  0.37500000000000000       0.37500000000000000        0.0000000000000000     
  0.37500000000000000       0.25000000000000000        0.0000000000000000     
  0.40625000000000000       0.25000000000000000        0.0000000000000000     
  0.43750000000000000       0.25000000000000000        0.0000000000000000     
  0.46875000000000000       0.25000000000000000        0.0000000000000000     
  0.50000000000000000       0.25000000000000000        0.0000000000000000     
  0.37500000000000000       0.28125000000000000        0.0000000000000000     
  0.40625000000000000       0.28125000000000000        0.0000000000000000     
  0.43750000000000000       0.28125000000000000        0.0000000000000000     
  0.46875000000000000       0.28125000000000000        0.0000000000000000     
  0.50000000000000000       0.28125000000000000        0.0000000000000000     
  0.37500000000000000       0.31250000000000000        0.0000000000000000     
  0.40625000000000000       0.31250000000000000        0.0000000000000000     
  0.43750000000000000       0.31250000000000000        0.0000000000000000     
  0.46875000000000000       0.31250000000000000        0.0000000000000000     
  0.50000000000000000       0.31250000000000000        0.0000000000000000     
  0.37500000000000000       0.34375000000000000        0.0000000000000000     
  0.40625000000000000       0.34375000000000000        0.0000000000000000     
  0.43750000000000000       0.34375000000000000        0.0000000000000000     
  0.46875000000000000       0.34375000000000000        0.0000000000000000     
  0.50000000000000000       0.34375000000000000        0.0000000000000000     
  0.37500000000000000       0.37500000000000000        0.0000000000000000     
  0.40625000000000000       0.37500000000000000        0.0000000000000000     
  0.43750000000000000       0.37500000000000000        0.0000000000000000     
  0.46875000000000000       0.37500000000000000        0.0000000000000000     
  0.50000000000000000       0.37500000000000000        0.0000000000000000     
  0.50000000000000000       0.25000000000000000        0.0000000000000000     
  0.53125000000000000       0.25000000000000000        0.0000000000000000     
  0.56250000000000000       0.25000000000000000        0.0000000000000000     
  0.59375000000000000       0.25000000000000000        0.0000000000000000     
  0.62500000000000000       0.25000000000000000        0.0000000000000000     
  0.50000000000000000       0.28125000000000000        0.0000000000000000     
  0.53125000000000000       0.28125000000000000        0.0000000000000000     
  0.56250000000000000       0.28125000000000000        0.0000000000000000     
  0.59375000000000000       0.28125000000000000        0.0000000000000000     
  0.62500000000000000       0.28125000000000000        0.0000000000000000     
  0.50000000000000000       0.31250000000000000        0.0000000000000000     
  0.53125000000000000       0.31250000000000000        0.0000000000000000     
  0.56250000000000000       0.31250000000000000        0.0000000000000000     
  0.59375000000000000       0.31250000000000000        0.0000000000000000     
  0.62500000000000000       0.31250000000000000        0.0000000000000000     
  0.50000000000000000       0.34375000000000000        0.0000000000000000     
  0.53125000000000000       0.34375000000000000        0.0000000000000000     
  0.56250000000000000       0.34375000000000000        0.0000000000000000     
  0.59375000000000000       0.34375000000000000        0.0000000000000000     
  0.62500000000000000       0.34375000000000000        0.0000000000000000     
  0.50000000000000000       0.37500000000000000        0.0000000000000000     
  0.53125000000000000       0.37500000000000000        0.0000000000000000     
  0.56250000000000000       0.37500000000000000        0.0000000000000000     
  0.59375000000000000       0.37500000000000000        0.0000000000000000     
  0.62500000000000000       0.37500000000000000        0.0000000000000000     
  0.62500000000000000       0.25000000000000000        0.0000000000000000     
  0.65625000000000000       0.25000000000000000        0.0000000000000000     
  0.68750000000000000       0.25000000000000000        0.0000000000000000     
  0.71875000000000000       0.25000000000000000        0.0000000000000000     
  0.75000000000000000       0.25000000000000000        0.0000000000000000     
  0.62500000000000000       0.28125000000000000        0.0000000000000000     
  0.65625000000000000       0.28125000000000000        0.0000000000000000     
  0.68750000000000000       0.28125000000000000        0.0000000000000000     
  0.71875000000000000       0.28125000000000000        0.0000000000000000     
  0.75000000000000000       0.28125000000000000        0.0000000000000000     
  0.62500000000000000       0.31250000000000000        0.0000000000000000     
  0.65625000000000000       0.31250000000000000        0.0000000000000000     
  0.68750000000000000       0.31250000000000000        0.0000000000000000     
  0.71875000000000000       0.31250000000000000        0.0000000000000000     
  0.75000000000000000       0.31250000000000000        0.0000000000000000     
  0.62500000000000000       0.34375000000000000        0.0000000000000000     
  0.65625000000000000       0.34375000000000000        0.0000000000000000     
  0.68750000000000000       0.34375000000000000        0.0000000000000000     
  0.71875000000000000       0.34375000000000000        0.0000000000000000     
  0.75000000000000000       0.34375000000000000        0.0000000000000000     
  0.62500000000000000       0.37500000000000000        0.0000000000000000     
  0.65625000000000000       0.37500000000000000        0.0000000000000000     
  0.68750000000000000       0.37500000000000000        0.0000000000000000     
  0.71875000000000000       0.37500000000000000        0.0000000000000000     
  0.75000000000000000       0.37500000000000000        0.0000000000000000     
  0.75000000000000000       0.25000000000000000        0.0000000000000000     
  0.78125000000000000       0.25000000000000000        0.0000000000000000     
  0.81250000000000000       0.25000000000000000        0.0000000000000000     
  0.84375000000000000       0.25000000000000000        0.0000000000000000     
  0.87500000000000000       0.25000000000000000        0.0000000000000000     
  0.75000000000000000       0.28125000000000000        0.0000000000000000     
  0.78125000000000000       0.28125000000000000        0.0000000000000000     
  0.81250000000000000       0.28125000000000000        0.0000000000000000     
  0.84375000000000000       0.28125000000000000        0.0000000000000000     
  0.87500000000000000       0.28125000000000000        0.0000000000000000     
  0.75000000000000000       0.31250000000000000        0.0000000000000000     
  0.78125000000000000       0.31250000000000000        0.0000000000000000     
  0.81250000000000000       0.31250000000000000        0.0000000000000000     
  0.84375000000000000       0.31250000000000000        0.0000000000000000     
  0.87500000000000000       0.31250000000000000        0.0000000000000000     
  0.75000000000000000       0.34375000000000000        0.0000000000000000     
  0.78125000000000000       0.34375000000000000        0.0000000000000000     
  0.81250000000000000       0.34375000000000000        0.0000000000000000     
  0.84375000000000000       0.34375000000000000        0.0000000000000000     
  0.87500000000000000       0.34375000000000000        0.0000000000000000     
  0.75000000000000000       0.37500000000000000        0.0000000000000000     
  0.78125000000000000       0.37500000000000000        0.0000000000000000     
  0.81250000000000000       0.37500000000000000        0.0000000000000000     
  0.84375000000000000       0.37500000000000000        0.0000000000000000     
  0.87500000000000000       0.37500000000000000        0.0000000000000000     
  0.87500000000000000       0.25000000000000000        0.0000000000000000     
  0.90625000000000000       0.25000000000000000        0.0000000000000000     
  0.93750000000000000       0.25000000000000000        0.0000000000000000     
  0.96875000000000000       0.25000000000000000        0.0000000000000000     
   1.0000000000000000       0.25000000000000000        0.0000000000000000     
  0.87500000000000000       0.28125000000000000        0.0000000000000000     
  0.90625000000000000       0.28125000000000000        0.0000000000000000     
  0.93750000000000000       0.28125000000000000        0.0000000000000000     
  0.96875000000000000       0.28125000000000000        0.0000000000000000     
   1.0000000000000000       0.28125000000000000        0.0000000000000000     
  0.87500000000000000       0.31250000000000000        0.0000000000000000     
  0.90625000000000000       0.31250000000000000        0.0000000000000000     
  0.93750000000000000       0.31250000000000000        0.0000000000000000     
  0.96875000000000000       0.31250000000000000        0.0000000000000000     
   1.0000000000000000       0.31250000000000000        0.0000000000000000     
  0.87500000000000000       0.34375000000000000        0.0000000000000000     
  0.90625000000000000       0.34375000000000000        0.0000000000000000     
  0.93750000000000000       0.34375000000000000        0.0000000000000000     
  0.96875000000000000       0.34375000000000000        0.0000000000000000     
   1.0000000000000000       0.34375000000000000        0.0000000000000000     
  0.87500000000000000       0.37500000000000000        0.0000000000000000     
  0.90625000000000000       0.37500000000000000        0.0000000000000000     
  0.93750000000000000       0.37500000000000000        0.0000000000000000     
  0.96875000000000000       0.37500000000000000        0.0000000000000000     
   1.0000000000000000       0.37500000000000000        0.0000000000000000     
   0.0000000000000000       0.37500000000000000        0.0000000000000000     
   3.1250000000000000E-002  0.37500000000000000        0.0000000000000000     
   6.2500000000000000E-002  0.37500000000000000        0.0000000000000000     
   9.3750000000000000E-002  0.37500000000000000        0.0000000000000000     
  0.12500000000000000       0.37500000000000000        0.0000000000000000     
   0.0000000000000000       0.40625000000000000        0.0000000000000000     
   3.1250000000000000E-002  0.40625000000000000        0.0000000000000000     
   6.2500000000000000E-002  0.40625000000000000        0.0000000000000000     
   9.3750000000000000E-002  0.40625000000000000        0.0000000000000000     
  0.12500000000000000       0.40625000000000000        0.0000000000000000     
   0.0000000000000000       0.43750000000000000        0.0000000000000000     
   3.1250000000000000E-002  0.43750000000000000        0.0000000000000000     
   6.2500000000000000E-002  0.43750000000000000        0.0000000000000000     
   9.3750000000000000E-002  0.43750000000000000        0.0000000000000000     
  0.12500000000000000       0.43750000000000000        0.0000000000000000     
   0.0000000000000000       0.46875000000000000        0.0000000000000000     
   3.1250000000000000E-002  0.46875000000000000        0.0000000000000000     
   6.2500000000000000E-002  0.46875000000000000        0.0000000000000000     
   9.3750000000000000E-002  0.46875000000000000        0.0000000000000000     
  0.12500000000000000       0.46875000000000000        0.0000000000000000     
   0.0000000000000000       0.50000000000000000        0.0000000000000000     
   3.1250000000000000E-002  0.50000000000000000        0.0000000000000000     
   6.2500000000000000E-002  0.50000000000000000        0.0000000000000000     
   9.3750000000000000E-002  0.50000000000000000        0.0000000000000000     
  0.12500000000000000       0.50000000000000000        0.0000000000000000     
  0.12500000000000000       0.37500000000000000        0.0000000000000000     
  0.15625000000000000       0.37500000000000000        0.0000000000000000     
  0.18750000000000000       0.37500000000000000        0.0000000000000000     
  0.21875000000000000       0.37500000000000000        0.0000000000000000     
  0.25000000000000000       0.37500000000000000        0.0000000000000000     
  0.12500000000000000       0.40625000000000000        0.0000000000000000     
  0.15625000000000000       0.40625000000000000        0.0000000000000000     
  0.18750000000000000       0.40625000000000000        0.0000000000000000     
  0.21875000000000000       0.40625000000000000        0.0000000000000000     
  0.25000000000000000       0.40625000000000000        0.0000000000000000     
  0.12500000000000000       0.43750000000000000        0.0000000000000000     
  0.15625000000000000       0.43750000000000000        0.0000000000000000     
  0.18750000000000000       0.43750000000000000        0.0000000000000000     
  0.21875000000000000       0.43750000000000000        0.0000000000000000     
  0.25000000000000000       0.43750000000000000        0.0000000000000000     
  0.12500000000000000       0.46875000000000000        0.0000000000000000     
  0.15625000000000000       0.46875000000000000        0.0000000000000000     
  0.18750000000000000       0.46875000000000000        0.0000000000000000     
  0.21875000000000000       0.46875000000000000        0.0000000000000000     
  0.25000000000000000       0.46875000000000000        0.0000000000000000     
  0.12500000000000000       0.50000000000000000        0.0000000000000000     
  0.15625000000000000       0.50000000000000000        0.0000000000000000     
  0.18750000000000000       0.50000000000000000        0.0000000000000000     
  0.21875000000000000       0.50000000000000000        0.0000000000000000     
  0.25000000000000000       0.50000000000000000        0.0000000000000000     
  0.25000000000000000       0.37500000000000000        0.0000000000000000     
  0.28125000000000000       0.37500000000000000        0.0000000000000000     
  0.31250000000000000       0.37500000000000000        0.0000000000000000     
  0.34375000000000000       0.37500000000000000        0.0000000000000000     
  0.37500000000000000       0.37500000000000000        0.0000000000000000     
  0.25000000000000000       0.40625000000000000        0.0000000000000000     
  0.28125000000000000       0.40625000000000000        0.0000000000000000     
  0.31250000000000000       0.40625000000000000        0.0000000000000000     
  0.34375000000000000       0.40625000000000000        0.0000000000000000     
  0.37500000000000000       0.40625000000000000        0.0000000000000000     
  0.25000000000000000       0.43750000000000000        0.0000000000000000     
  0.28125000000000000       0.43750000000000000        0.0000000000000000     
  0.31250000000000000       0.43750000000000000        0.0000000000000000     
  0.34375000000000000       0.43750000000000000        0.0000000000000000     
  0.37500000000000000       0.43750000000000000        0.0000000000000000     
  0.25000000000000000       0.46875000000000000        0.0000000000000000     
  0.28125000000000000       0.46875000000000000        0.0000000000000000     
  0.31250000000000000       0.46875000000000000        0.0000000000000000     
  0.34375000000000000       0.46875000000000000        0.0000000000000000     
  0.37500000000000000       0.46875000000000000        0.0000000000000000     
  0.25000000000000000       0.50000000000000000        0.0000000000000000     
  0.28125000000000000       0.50000000000000000        0.0000000000000000     
  0.31250000000000000       0.50000000000000000        0.0000000000000000     
  0.34375000000000000       0.50000000000000000        0.0000000000000000     
  0.37500000000000000       0.50000000000000000        0.0000000000000000     
  0.37500000000000000       0.37500000000000000        0.0000000000000000     
  0.40625000000000000       0.37500000000000000        0.0000000000000000     
  0.43750000000000000       0.37500000000000000        0.0000000000000000     
  0.46875000000000000       0.37500000000000000        0.0000000000000000     
  0.50000000000000000       0.37500000000000000        0.0000000000000000     
  0.37500000000000000       0.40625000000000000        0.0000000000000000     
  0.40625000000000000       0.40625000000000000        0.0000000000000000     
  0.43750000000000000       0.40625000000000000        0.0000000000000000     
  0.46875000000000000       0.40625000000000000        0.0000000000000000     
  0.50000000000000000       0.40625000000000000        0.0000000000000000     
  0.37500000000000000       0.43750000000000000        0.0000000000000000     
  0.40625000000000000       0.43750000000000000        0.0000000000000000     
  0.43750000000000000       0.43750000000000000        0.0000000000000000     
  0.46875000000000000       0.43750000000000000        0.0000000000000000     
  0.50000000000000000       0.43750000000000000        0.0000000000000000     
  0.37500000000000000       0.46875000000000000        0.0000000000000000     
  0.40625000000000000       0.46875000000000000        0.0000000000000000     
  0.43750000000000000       0.46875000000000000        0.0000000000000000     
  0.46875000000000000       0.46875000000000000        0.0000000000000000     
  0.50000000000000000       0.46875000000000000        0.0000000000000000     
  0.37500000000000000       0.50000000000000000        0.0000000000000000     
  0.40625000000000000       0.50000000000000000        0.0000000000000000     
  0.43750000000000000       0.50000000000000000        0.0000000000000000     
  0.46875000000000000       0.50000000000000000        0.0000000000000000     
  0.50000000000000000       0.50000000000000000        0.0000000000000000     
  0.50000000000000000       0.37500000000000000        0.0000000000000000     
  0.53125000000000000       0.37500000000000000        0.0000000000000000     
  0.56250000000000000       0.37500000000000000        0.0000000000000000     
  0.59375000000000000       0.37500000000000000        0.0000000000000000     
  0.62500000000000000       0.37500000000000000        0.0000000000000000     
  0.50000000000000000       0.40625000000000000        0.0000000000000000     
  0.53125000000000000       0.40625000000000000        0.0000000000000000     
  0.56250000000000000       0.40625000000000000        0.0000000000000000     
  0.59375000000000000       0.40625000000000000        0.0000000000000000     
  0.62500000000000000       0.40625000000000000        0.0000000000000000     
  0.50000000000000000       0.43750000000000000        0.0000000000000000     
  0.53125000000000000       0.43750000000000000        0.0000000000000000     
  0.56250000000000000       0.43750000000000000        0.0000000000000000     
  0.59375000000000000       0.43750000000000000        0.0000000000000000     
  0.62500000000000000       0.43750000000000000        0.0000000000000000     
  0.50000000000000000       0.46875000000000000        0.0000000000000000     
  0.53125000000000000       0.46875000000000000        0.0000000000000000     
  0.56250000000000000       0.46875000000000000        0.0000000000000000     
  0.59375000000000000       0.46875000000000000        0.0000000000000000     
  0.62500000000000000       0.46875000000000000        0.0000000000000000     
  0.50000000000000000       0.50000000000000000        0.0000000000000000     
  0.53125000000000000       0.50000000000000000        0.0000000000000000     
  0.56250000000000000       0.50000000000000000        0.0000000000000000     
  0.59375000000000000       0.50000000000000000        0.0000000000000000     
  0.62500000000000000       0.50000000000000000        0.0000000000000000     
  0.62500000000000000       0.37500000000000000        0.0000000000000000     
  0.65625000000000000       0.37500000000000000        0.0000000000000000     
  0.68750000000000000       0.37500000000000000        0.0000000000000000     
  0.71875000000000000       0.37500000000000000        0.0000000000000000     
  0.75000000000000000       0.37500000000000000        0.0000000000000000     
  0.62500000000000000       0.40625000000000000        0.0000000000000000     
  0.65625000000000000       0.40625000000000000        0.0000000000000000     
  0.68750000000000000       0.40625000000000000        0.0000000000000000     
  0.71875000000000000       0.40625000000000000        0.0000000000000000     
  0.75000000000000000       0.40625000000000000        0.0000000000000000     
  0.62500000000000000       0.43750000000000000        0.0000000000000000     
  0.65625000000000000       0.43750000000000000        0.0000000000000000     
  0.68750000000000000       0.43750000000000000        0.0000000000000000     
  0.71875000000000000       0.43750000000000000        0.0000000000000000     
  0.75000000000000000       0.43750000000000000        0.0000000000000000     
  0.62500000000000000       0.46875000000000000        0.0000000000000000     
  0.65625000000000000       0.46875000000000000        0.0000000000000000     
  0.68750000000000000       0.46875000000000000        0.0000000000000000     
  0.71875000000000000       0.46875000000000000        0.0000000000000000     
  0.75000000000000000       0.46875000000000000        0.0000000000000000     
  0.62500000000000000       0.50000000000000000        0.0000000000000000     
  0.65625000000000000       0.50000000000000000        0.0000000000000000     
  0.68750000000000000       0.50000000000000000        0.0000000000000000     
  0.71875000000000000       0.50000000000000000        0.0000000000000000     
  0.75000000000000000       0.50000000000000000        0.0000000000000000     
  0.75000000000000000       0.37500000000000000        0.0000000000000000     
  0.78125000000000000       0.37500000000000000        0.0000000000000000     
  0.81250000000000000       0.37500000000000000        0.0000000000000000     
  0.84375000000000000       0.37500000000000000        0.0000000000000000     
  0.87500000000000000       0.37500000000000000        0.0000000000000000     
  0.75000000000000000       0.40625000000000000        0.0000000000000000     
  0.78125000000000000       0.40625000000000000        0.0000000000000000     
  0.81250000000000000       0.40625000000000000        0.0000000000000000     
  0.84375000000000000       0.40625000000000000        0.0000000000000000     
  0.87500000000000000       0.40625000000000000        0.0000000000000000     
  0.75000000000000000       0.43750000000000000        0.0000000000000000     
  0.78125000000000000       0.43750000000000000        0.0000000000000000     
  0.81250000000000000       0.43750000000000000        0.0000000000000000     
  0.84375000000000000       0.43750000000000000        0.0000000000000000     
  0.87500000000000000       0.43750000000000000        0.0000000000000000     
  0.75000000000000000       0.46875000000000000        0.0000000000000000     
  0.78125000000000000       0.46875000000000000        0.0000000000000000     
  0.81250000000000000       0.46875000000000000        0.0000000000000000     
  0.84375000000000000       0.46875000000000000        0.0000000000000000     
  0.87500000000000000       0.46875000000000000        0.0000000000000000     
  0.75000000000000000       0.50000000000000000        0.0000000000000000     
  0.78125000000000000       0.50000000000000000        0.0000000000000000     
  0.81250000000000000       0.50000000000000000        0.0000000000000000     
  0.84375000000000000       0.50000000000000000        0.0000000000000000     
  0.87500000000000000       0.50000000000000000        0.0000000000000000     
  0.87500000000000000       0.37500000000000000        0.0000000000000000     
  0.90625000000000000       0.37500000000000000        0.0000000000000000     
  0.93750000000000000       0.37500000000000000        0.0000000000000000     
  0.96875000000000000       0.37500000000000000        0.0000000000000000     
   1.0000000000000000       0.37500000000000000        0.0000000000000000     
  0.87500000000000000       0.40625000000000000        0.0000000000000000     
  0.90625000000000000       0.40625000000000000        0.0000000000000000     
  0.93750000000000000       0.40625000000000000        0.0000000000000000     
  0.96875000000000000       0.40625000000000000        0.0000000000000000     
   1.0000000000000000       0.40625000000000000        0.0000000000000000     
  0.87500000000000000       0.43750000000000000        0.0000000000000000     
  0.90625000000000000       0.43750000000000000        0.0000000000000000     
  0.93750000000000000       0.43750000000000000        0.0000000000000000     
  0.96875000000000000       0.43750000000000000        0.0000000000000000     
   1.0000000000000000       0.43750000000000000        0.0000000000000000     
  0.87500000000000000       0.46875000000000000        0.0000000000000000     
  0.90625000000000000       0.46875000000000000        0.0000000000000000     
  0.93750000000000000       0.46875000000000000        0.0000000000000000     
  0.96875000000000000       0.46875000000000000        0.0000000000000000     
   1.0000000000000000       0.46875000000000000        0.0000000000000000     
  0.87500000000000000       0.50000000000000000        0.0000000000000000     
  0.90625000000000000       0.50000000000000000        0.0000000000000000     
  0.93750000000000000       0.50000000000000000        0.0000000000000000     
  0.96875000000000000       0.50000000000000000        0.0000000000000000     
   1.0000000000000000       0.50000000000000000        0.0000000000000000     
   0.0000000000000000       0.50000000000000000        0.0000000000000000     
   3.1250000000000000E-002  0.50000000000000000        0.0000000000000000     
   6.2500000000000000E-002  0.50000000000000000        0.0000000000000000     
   9.3750000000000000E-002  0.50000000000000000        0.0000000000000000     
  0.12500000000000000       0.50000000000000000        0.0000000000000000     
   0.0000000000000000       0.53125000000000000        0.0000000000000000     
   3.1250000000000000E-002  0.53125000000000000        0.0000000000000000     
   6.2500000000000000E-002  0.53125000000000000        0.0000000000000000     
   9.3750000000000000E-002  0.53125000000000000        0.0000000000000000     
  0.12500000000000000       0.53125000000000000        0.0000000000000000     
   0.0000000000000000       0.56250000000000000        0.0000000000000000     
   3.1250000000000000E-002  0.56250000000000000        0.0000000000000000     
   6.2500000000000000E-002  0.56250000000000000        0.0000000000000000     
   9.3750000000000000E-002  0.56250000000000000        0.0000000000000000     
  0.12500000000000000       0.56250000000000000        0.0000000000000000     
   0.0000000000000000       0.59375000000000000        0.0000000000000000     
   3.1250000000000000E-002  0.59375000000000000        0.0000000000000000     
   6.2500000000000000E-002  0.59375000000000000        0.0000000000000000     
   9.3750000000000000E-002  0.59375000000000000        0.0000000000000000     
  0.12500000000000000       0.59375000000000000        0.0000000000000000     
   0.0000000000000000       0.62500000000000000        0.0000000000000000     
   3.1250000000000000E-002  0.62500000000000000        0.0000000000000000     
   6.2500000000000000E-002  0.62500000000000000        0.0000000000000000     
   9.3750000000000000E-002  0.62500000000000000        0.0000000000000000     
  0.12500000000000000       0.62500000000000000        0.0000000000000000     
  0.12500000000000000       0.50000000000000000        0.0000000000000000     
  0.15625000000000000       0.50000000000000000        0.0000000000000000     
  0.18750000000000000       0.50000000000000000        0.0000000000000000     
  0.21875000000000000       0.50000000000000000        0.0000000000000000     
  0.25000000000000000       0.50000000000000000        0.0000000000000000     
  0.12500000000000000       0.53125000000000000        0.0000000000000000     
  0.15625000000000000       0.53125000000000000        0.0000000000000000     
  0.18750000000000000       0.53125000000000000        0.0000000000000000     
  0.21875000000000000       0.53125000000000000        0.0000000000000000     
  0.25000000000000000       0.53125000000000000        0.0000000000000000     
  0.12500000000000000       0.56250000000000000        0.0000000000000000     
  0.15625000000000000       0.56250000000000000        0.0000000000000000     
  0.18750000000000000       0.56250000000000000        0.0000000000000000     
  0.21875000000000000       0.56250000000000000        0.0000000000000000     
  0.25000000000000000       0.56250000000000000        0.0000000000000000     
  0.12500000000000000       0.59375000000000000        0.0000000000000000     
  0.15625000000000000       0.59375000000000000        0.0000000000000000     
  0.18750000000000000       0.59375000000000000        0.0000000000000000     
  0.21875000000000000       0.59375000000000000        0.0000000000000000     
  0.25000000000000000       0.59375000000000000        0.0000000000000000     
  0.12500000000000000       0.62500000000000000        0.0000000000000000     
  0.15625000000000000       0.62500000000000000        0.0000000000000000     
  0.18750000000000000       0.62500000000000000        0.0000000000000000     
  0.21875000000000000       0.62500000000000000        0.0000000000000000     
  0.25000000000000000       0.62500000000000000        0.0000000000000000     
  0.25000000000000000       0.50000000000000000        0.0000000000000000     
  0.28125000000000000       0.50000000000000000        0.0000000000000000     
  0.31250000000000000       0.50000000000000000        0.0000000000000000     
  0.34375000000000000       0.50000000000000000        0.0000000000000000     
  0.37500000000000000       0.50000000000000000        0.0000000000000000     
  0.25000000000000000       0.53125000000000000        0.0000000000000000     
  0.28125000000000000       0.53125000000000000        0.0000000000000000     
  0.31250000000000000       0.53125000000000000        0.0000000000000000     
  0.34375000000000000       0.53125000000000000        0.0000000000000000     
  0.37500000000000000       0.53125000000000000        0.0000000000000000     
  0.25000000000000000       0.56250000000000000        0.0000000000000000     
  0.28125000000000000       0.56250000000000000        0.0000000000000000     
  0.31250000000000000       0.56250000000000000        0.0000000000000000     
  0.34375000000000000       0.56250000000000000        0.0000000000000000     
  0.37500000000000000       0.56250000000000000        0.0000000000000000     
  0.25000000000000000       0.59375000000000000        0.0000000000000000     
  0.28125000000000000       0.59375000000000000        0.0000000000000000     
  0.31250000000000000       0.59375000000000000        0.0000000000000000     
  0.34375000000000000       0.59375000000000000        0.0000000000000000     
  0.37500000000000000       0.59375000000000000        0.0000000000000000     
  0.25000000000000000       0.62500000000000000        0.0000000000000000     
  0.28125000000000000       0.62500000000000000        0.0000000000000000     
  0.31250000000000000       0.62500000000000000        0.0000000000000000     
  0.34375000000000000       0.62500000000000000        0.0000000000000000     
  0.37500000000000000       0.62500000000000000        0.0000000000000000     
  0.37500000000000000       0.50000000000000000        0.0000000000000000     
  0.40625000000000000       0.50000000000000000        0.0000000000000000     
  0.43750000000000000       0.50000000000000000        0.0000000000000000     
  0.46875000000000000       0.50000000000000000        0.0000000000000000     
  0.50000000000000000       0.50000000000000000        0.0000000000000000     
  0.37500000000000000       0.53125000000000000        0.0000000000000000     
  0.40625000000000000       0.53125000000000000        0.0000000000000000     
  0.43750000000000000       0.53125000000000000        0.0000000000000000     
  0.46875000000000000       0.53125000000000000        0.0000000000000000     
  0.50000000000000000       0.53125000000000000        0.0000000000000000     
  0.37500000000000000       0.56250000000000000        0.0000000000000000     
  0.40625000000000000       0.56250000000000000        0.0000000000000000     
  0.43750000000000000       0.56250000000000000        0.0000000000000000     
  0.46875000000000000       0.56250000000000000        0.0000000000000000     
  0.50000000000000000       0.56250000000000000        0.0000000000000000     
  0.37500000000000000       0.59375000000000000        0.0000000000000000     
  0.40625000000000000       0.59375000000000000        0.0000000000000000     
  0.43750000000000000       0.59375000000000000        0.0000000000000000     
  0.46875000000000000       0.59375000000000000        0.0000000000000000     
  0.50000000000000000       0.59375000000000000        0.0000000000000000     
  0.37500000000000000       0.62500000000000000        0.0000000000000000     
  0.40625000000000000       0.62500000000000000        0.0000000000000000     
  0.43750000000000000       0.62500000000000000        0.0000000000000000     
  0.46875000000000000       0.62500000000000000        0.0000000000000000     
  0.50000000000000000       0.62500000000000000        0.0000000000000000     
  0.50000000000000000       0.50000000000000000        0.0000000000000000     
  0.53125000000000000       0.50000000000000000        0.0000000000000000     
  0.56250000000000000       0.50000000000000000        0.0000000000000000     
  0.59375000000000000       0.50000000000000000        0.0000000000000000     
  0.62500000000000000       0.50000000000000000        0.0000000000000000     
  0.50000000000000000       0.53125000000000000        0.0000000000000000     
  0.53125000000000000       0.53125000000000000        0.0000000000000000     
  0.56250000000000000       0.53125000000000000        0.0000000000000000     
  0.59375000000000000       0.53125000000000000        0.0000000000000000     
  0.62500000000000000       0.53125000000000000        0.0000000000000000     
  0.50000000000000000       0.56250000000000000        0.0000000000000000     
  0.53125000000000000       0.56250000000000000        0.0000000000000000     
  0.56250000000000000       0.56250000000000000        0.0000000000000000     
  0.59375000000000000       0.56250000000000000        0.0000000000000000     
  0.62500000000000000       0.56250000000000000        0.0000000000000000     
  0.50000000000000000       0.59375000000000000        0.0000000000000000     
  0.53125000000000000       0.59375000000000000        0.0000000000000000     
  0.56250000000000000       0.59375000000000000        0.0000000000000000     
  0.59375000000000000       0.59375000000000000        0.0000000000000000     
  0.62500000000000000       0.59375000000000000        0.0000000000000000     
  0.50000000000000000       0.62500000000000000        0.0000000000000000     
  0.53125000000000000       0.62500000000000000        0.0000000000000000     
  0.56250000000000000       0.62500000000000000        0.0000000000000000     
  0.59375000000000000       0.62500000000000000        0.0000000000000000     
  0.62500000000000000       0.62500000000000000        0.0000000000000000     
  0.62500000000000000       0.50000000000000000        0.0000000000000000     
  0.65625000000000000       0.50000000000000000        0.0000000000000000     
  0.68750000000000000       0.50000000000000000        0.0000000000000000     
  0.71875000000000000       0.50000000000000000        0.0000000000000000     
  0.75000000000000000       0.50000000000000000        0.0000000000000000     
  0.62500000000000000       0.53125000000000000        0.0000000000000000     
  0.65625000000000000       0.53125000000000000        0.0000000000000000     
  0.68750000000000000       0.53125000000000000        0.0000000000000000     
  0.71875000000000000       0.53125000000000000        0.0000000000000000     
  0.75000000000000000       0.53125000000000000        0.0000000000000000     
  0.62500000000000000       0.56250000000000000        0.0000000000000000     
  0.65625000000000000       0.56250000000000000        0.0000000000000000     
  0.68750000000000000       0.56250000000000000        0.0000000000000000     
  0.71875000000000000       0.56250000000000000        0.0000000000000000     
  0.75000000000000000       0.56250000000000000        0.0000000000000000     
  0.62500000000000000       0.59375000000000000        0.0000000000000000     
  0.65625000000000000       0.59375000000000000        0.0000000000000000     
  0.68750000000000000       0.59375000000000000        0.0000000000000000     
  0.71875000000000000       0.59375000000000000        0.0000000000000000     
  0.75000000000000000       0.59375000000000000        0.0000000000000000     
  0.62500000000000000       0.62500000000000000        0.0000000000000000     
  0.65625000000000000       0.62500000000000000        0.0000000000000000     
  0.68750000000000000       0.62500000000000000        0.0000000000000000     
  0.71875000000000000       0.62500000000000000        0.0000000000000000     
  0.75000000000000000       0.62500000000000000        0.0000000000000000     
  0.75000000000000000       0.50000000000000000        0.0000000000000000     
  0.78125000000000000       0.50000000000000000        0.0000000000000000     
  0.81250000000000000       0.50000000000000000        0.0000000000000000     
  0.84375000000000000       0.50000000000000000        0.0000000000000000     
  0.87500000000000000       0.50000000000000000        0.0000000000000000     
  0.75000000000000000       0.53125000000000000        0.0000000000000000     
  0.78125000000000000       0.53125000000000000        0.0000000000000000     
  0.81250000000000000       0.53125000000000000        0.0000000000000000     
  0.84375000000000000       0.53125000000000000        0.0000000000000000     
  0.87500000000000000       0.53125000000000000        0.0000000000000000     
  0.75000000000000000       0.56250000000000000        0.0000000000000000     
  0.78125000000000000       0.56250000000000000        0.0000000000000000     
  0.81250000000000000       0.56250000000000000        0.0000000000000000     
  0.84375000000000000       0.56250000000000000        0.0000000000000000     
  0.87500000000000000       0.56250000000000000        0.0000000000000000     
  0.75000000000000000       0.59375000000000000        0.0000000000000000     
  0.78125000000000000       0.59375000000000000        0.0000000000000000     
  0.81250000000000000       0.59375000000000000        0.0000000000000000     
  0.84375000000000000       0.59375000000000000        0.0000000000000000     
  0.87500000000000000       0.59375000000000000        0.0000000000000000     
  0.75000000000000000       0.62500000000000000        0.0000000000000000     
  0.78125000000000000       0.62500000000000000        0.0000000000000000     
  0.81250000000000000       0.62500000000000000        0.0000000000000000     
  0.84375000000000000       0.62500000000000000        0.0000000000000000     
  0.87500000000000000       0.62500000000000000        0.0000000000000000     
  0.87500000000000000       0.50000000000000000        0.0000000000000000     
  0.90625000000000000       0.50000000000000000        0.0000000000000000     
  0.93750000000000000       0.50000000000000000        0.0000000000000000     
  0.96875000000000000       0.50000000000000000        0.0000000000000000     
   1.0000000000000000       0.50000000000000000        0.0000000000000000     
  0.87500000000000000       0.53125000000000000        0.0000000000000000     
  0.90625000000000000       0.53125000000000000        0.0000000000000000     
  0.93750000000000000       0.53125000000000000        0.0000000000000000     
  0.96875000000000000       0.53125000000000000        0.0000000000000000     
   1.0000000000000000       0.53125000000000000        0.0000000000000000     
  0.87500000000000000       0.56250000000000000        0.0000000000000000     
  0.90625000000000000       0.56250000000000000        0.0000000000000000     
  0.93750000000000000       0.56250000000000000        0.0000000000000000     
  0.96875000000000000       0.56250000000000000        0.0000000000000000     
   1.0000000000000000       0.56250000000000000        0.0000000000000000     
  0.87500000000000000       0.59375000000000000        0.0000000000000000     
  0.90625000000000000       0.59375000000000000        0.0000000000000000     
  0.93750000000000000       0.59375000000000000        0.0000000000000000     
  0.96875000000000000       0.59375000000000000        0.0000000000000000     
   1.0000000000000000       0.59375000000000000        0.0000000000000000     
  0.87500000000000000       0.62500000000000000        0.0000000000000000     
  0.90625000000000000       0.62500000000000000        0.0000000000000000     
  0.93750000000000000       0.62500000000000000        0.0000000000000000     
  0.96875000000000000       0.62500000000000000        0.0000000000000000     
   1.0000000000000000       0.62500000000000000        0.0000000000000000     
   0.0000000000000000       0.62500000000000000        0.0000000000000000     
   3.1250000000000000E-002  0.62500000000000000        0.0000000000000000     
   6.2500000000000000E-002  0.62500000000000000        0.0000000000000000     
   9.3750000000000000E-002  0.62500000000000000        0.0000000000000000     
  0.12500000000000000       0.62500000000000000        0.0000000000000000     
   0.0000000000000000       0.65625000000000000        0.0000000000000000     
   3.1250000000000000E-002  0.65625000000000000        0.0000000000000000     
   6.2500000000000000E-002  0.65625000000000000        0.0000000000000000     
   9.3750000000000000E-002  0.65625000000000000        0.0000000000000000     
  0.12500000000000000       0.65625000000000000        0.0000000000000000     
   0.0000000000000000       0.68750000000000000        0.0000000000000000     
   3.1250000000000000E-002  0.68750000000000000        0.0000000000000000     
   6.2500000000000000E-002  0.68750000000000000        0.0000000000000000     
   9.3750000000000000E-002  0.68750000000000000        0.0000000000000000     
  0.12500000000000000       0.68750000000000000        0.0000000000000000     
   0.0000000000000000       0.71875000000000000        0.0000000000000000     
   3.1250000000000000E-002  0.71875000000000000        0.0000000000000000     
   6.2500000000000000E-002  0.71875000000000000        0.0000000000000000     
   9.3750000000000000E-002  0.71875000000000000        0.0000000000000000     
  0.12500000000000000       0.71875000000000000        0.0000000000000000     
   0.0000000000000000       0.75000000000000000        0.0000000000000000     
   3.1250000000000000E-002  0.75000000000000000        0.0000000000000000     
   6.2500000000000000E-002  0.75000000000000000        0.0000000000000000     
   9.3750000000000000E-002  0.75000000000000000        0.0000000000000000     
  0.12500000000000000       0.75000000000000000        0.0000000000000000     
  0.12500000000000000       0.62500000000000000        0.0000000000000000     
  0.15625000000000000       0.62500000000000000        0.0000000000000000     
  0.18750000000000000       0.62500000000000000        0.0000000000000000     
  0.21875000000000000       0.62500000000000000        0.0000000000000000     
  0.25000000000000000       0.62500000000000000        0.0000000000000000     
  0.12500000000000000       0.65625000000000000        0.0000000000000000     
  0.15625000000000000       0.65625000000000000        0.0000000000000000     
  0.18750000000000000       0.65625000000000000        0.0000000000000000     
  0.21875000000000000       0.65625000000000000        0.0000000000000000     
  0.25000000000000000       0.65625000000000000        0.0000000000000000     
  0.12500000000000000       0.68750000000000000        0.0000000000000000     
  0.15625000000000000       0.68750000000000000        0.0000000000000000     
  0.18750000000000000       0.68750000000000000        0.0000000000000000     
  0.21875000000000000       0.68750000000000000        0.0000000000000000     
  0.25000000000000000       0.68750000000000000        0.0000000000000000     
  0.12500000000000000       0.71875000000000000        0.0000000000000000     
  0.15625000000000000       0.71875000000000000        0.0000000000000000     
  0.18750000000000000       0.71875000000000000        0.0000000000000000     
  0.21875000000000000       0.71875000000000000        0.0000000000000000     
  0.25000000000000000       0.71875000000000000        0.0000000000000000     
  0.12500000000000000       0.75000000000000000        0.0000000000000000     
  0.15625000000000000       0.75000000000000000        0.0000000000000000     
  0.18750000000000000       0.75000000000000000        0.0000000000000000     
  0.21875000000000000       0.75000000000000000        0.0000000000000000     
  0.25000000000000000       0.75000000000000000        0.0000000000000000     
  0.25000000000000000       0.62500000000000000        0.0000000000000000     
  0.28125000000000000       0.62500000000000000        0.0000000000000000     
  0.31250000000000000       0.62500000000000000        0.0000000000000000     
  0.34375000000000000       0.62500000000000000        0.0000000000000000     
  0.37500000000000000       0.62500000000000000        0.0000000000000000     
  0.25000000000000000       0.65625000000000000        0.0000000000000000     
  0.28125000000000000       0.65625000000000000        0.0000000000000000     
  0.31250000000000000       0.65625000000000000        0.0000000000000000     
  0.34375000000000000       0.65625000000000000        0.0000000000000000     
  0.37500000000000000       0.65625000000000000        0.0000000000000000     
  0.25000000000000000       0.68750000000000000        0.0000000000000000     
  0.28125000000000000       0.68750000000000000        0.0000000000000000     
  0.31250000000000000       0.68750000000000000        0.0000000000000000     
  0.34375000000000000       0.68750000000000000        0.0000000000000000     
  0.37500000000000000       0.68750000000000000        0.0000000000000000     
  0.25000000000000000       0.71875000000000000        0.0000000000000000     
  0.28125000000000000       0.71875000000000000        0.0000000000000000     
  0.31250000000000000       0.71875000000000000        0.0000000000000000     
  0.34375000000000000       0.71875000000000000        0.0000000000000000     
  0.37500000000000000       0.71875000000000000        0.0000000000000000     
  0.25000000000000000       0.75000000000000000        0.0000000000000000     
  0.28125000000000000       0.75000000000000000        0.0000000000000000     
  0.31250000000000000       0.75000000000000000        0.0000000000000000     
  0.34375000000000000       0.75000000000000000        0.0000000000000000     
  0.37500000000000000       0.75000000000000000        0.0000000000000000     
  0.37500000000000000       0.62500000000000000        0.0000000000000000     
  0.40625000000000000       0.62500000000000000        0.0000000000000000     
  0.43750000000000000       0.62500000000000000        0.0000000000000000     
  0.46875000000000000       0.62500000000000000        0.0000000000000000     
  0.50000000000000000       0.62500000000000000        0.0000000000000000     
  0.37500000000000000       0.65625000000000000        0.0000000000000000     
  0.40625000000000000       0.65625000000000000        0.0000000000000000     
  0.43750000000000000       0.65625000000000000        0.0000000000000000     
  0.46875000000000000       0.65625000000000000        0.0000000000000000     
  0.50000000000000000       0.65625000000000000        0.0000000000000000     
  0.37500000000000000       0.68750000000000000        0.0000000000000000     
  0.40625000000000000       0.68750000000000000        0.0000000000000000     
  0.43750000000000000       0.68750000000000000        0.0000000000000000     
  0.46875000000000000       0.68750000000000000        0.0000000000000000     
  0.50000000000000000       0.68750000000000000        0.0000000000000000     
  0.37500000000000000       0.71875000000000000        0.0000000000000000     
  0.40625000000000000       0.71875000000000000        0.0000000000000000     
  0.43750000000000000       0.71875000000000000        0.0000000000000000     
  0.46875000000000000       0.71875000000000000        0.0000000000000000     
  0.50000000000000000       0.71875000000000000        0.0000000000000000     
  0.37500000000000000       0.75000000000000000        0.0000000000000000     
  0.40625000000000000       0.75000000000000000        0.0000000000000000     
  0.43750000000000000       0.75000000000000000        0.0000000000000000     
  0.46875000000000000       0.75000000000000000        0.0000000000000000     
  0.50000000000000000       0.75000000000000000        0.0000000000000000     
  0.50000000000000000       0.62500000000000000        0.0000000000000000     
  0.53125000000000000       0.62500000000000000        0.0000000000000000     
  0.56250000000000000       0.62500000000000000        0.0000000000000000     
  0.59375000000000000       0.62500000000000000        0.0000000000000000     
  0.62500000000000000       0.62500000000000000        0.0000000000000000     
  0.50000000000000000       0.65625000000000000        0.0000000000000000     
  0.53125000000000000       0.65625000000000000        0.0000000000000000     
  0.56250000000000000       0.65625000000000000        0.0000000000000000     
  0.59375000000000000       0.65625000000000000        0.0000000000000000     
  0.62500000000000000       0.65625000000000000        0.0000000000000000     
  0.50000000000000000       0.68750000000000000        0.0000000000000000     
  0.53125000000000000       0.68750000000000000        0.0000000000000000     
  0.56250000000000000       0.68750000000000000        0.0000000000000000     
  0.59375000000000000       0.68750000000000000        0.0000000000000000     
  0.62500000000000000       0.68750000000000000        0.0000000000000000     
  0.50000000000000000       0.71875000000000000        0.0000000000000000     
  0.53125000000000000       0.71875000000000000        0.0000000000000000     
  0.56250000000000000       0.71875000000000000        0.0000000000000000     
  0.59375000000000000       0.71875000000000000        0.0000000000000000     
  0.62500000000000000       0.71875000000000000        0.0000000000000000     
  0.50000000000000000       0.75000000000000000        0.0000000000000000     
  0.53125000000000000       0.75000000000000000        0.0000000000000000     
  0.56250000000000000       0.75000000000000000        0.0000000000000000     
  0.59375000000000000       0.75000000000000000        0.0000000000000000     
  0.62500000000000000       0.75000000000000000        0.0000000000000000     
  0.62500000000000000       0.62500000000000000        0.0000000000000000     
  0.65625000000000000       0.62500000000000000        0.0000000000000000     
  0.68750000000000000       0.62500000000000000        0.0000000000000000     
  0.71875000000000000       0.62500000000000000        0.0000000000000000     
  0.75000000000000000       0.62500000000000000        0.0000000000000000     
  0.62500000000000000       0.65625000000000000        0.0000000000000000     
  0.65625000000000000       0.65625000000000000        0.0000000000000000     
  0.68750000000000000       0.65625000000000000        0.0000000000000000     
  0.71875000000000000       0.65625000000000000        0.0000000000000000     
  0.75000000000000000       0.65625000000000000        0.0000000000000000     
  0.62500000000000000       0.68750000000000000        0.0000000000000000     
  0.65625000000000000       0.68750000000000000        0.0000000000000000     
  0.68750000000000000       0.68750000000000000        0.0000000000000000     
  0.71875000000000000       0.68750000000000000        0.0000000000000000     
  0.75000000000000000       0.68750000000000000        0.0000000000000000     
  0.62500000000000000       0.71875000000000000        0.0000000000000000     
  0.65625000000000000       0.71875000000000000        0.0000000000000000     
  0.68750000000000000       0.71875000000000000        0.0000000000000000     
  0.71875000000000000       0.71875000000000000        0.0000000000000000     
  0.75000000000000000       0.71875000000000000        0.0000000000000000     
  0.62500000000000000       0.75000000000000000        0.0000000000000000     
  0.65625000000000000       0.75000000000000000        0.0000000000000000     
  0.68750000000000000       0.75000000000000000        0.0000000000000000     
  0.71875000000000000       0.75000000000000000        0.0000000000000000     
  0.75000000000000000       0.75000000000000000        0.0000000000000000     
  0.75000000000000000       0.62500000000000000        0.0000000000000000     
  0.78125000000000000       0.62500000000000000        0.0000000000000000     
  0.81250000000000000       0.62500000000000000        0.0000000000000000     
  0.84375000000000000       0.62500000000000000        0.0000000000000000     
  0.87500000000000000       0.62500000000000000        0.0000000000000000     
  0.75000000000000000       0.65625000000000000        0.0000000000000000     
  0.78125000000000000       0.65625000000000000        0.0000000000000000     
  0.81250000000000000       0.65625000000000000        0.0000000000000000     
  0.84375000000000000       0.65625000000000000        0.0000000000000000     
  0.87500000000000000       0.65625000000000000        0.0000000000000000     
  0.75000000000000000       0.68750000000000000        0.0000000000000000     
  0.78125000000000000       0.68750000000000000        0.0000000000000000     
  0.81250000000000000       0.68750000000000000        0.0000000000000000     
  0.84375000000000000       0.68750000000000000        0.0000000000000000     
  0.87500000000000000       0.68750000000000000        0.0000000000000000     
  0.75000000000000000       0.71875000000000000        0.0000000000000000     
  0.78125000000000000       0.71875000000000000        0.0000000000000000     
  0.81250000000000000       0.71875000000000000        0.0000000000000000     
  0.84375000000000000       0.71875000000000000        0.0000000000000000     
  0.87500000000000000       0.71875000000000000        0.0000000000000000     
  0.75000000000000000       0.75000000000000000        0.0000000000000000     
  0.78125000000000000       0.75000000000000000        0.0000000000000000     
  0.81250000000000000       0.75000000000000000        0.0000000000000000     
  0.84375000000000000       0.75000000000000000        0.0000000000000000     
  0.87500000000000000       0.75000000000000000        0.0000000000000000     
  0.87500000000000000       0.62500000000000000        0.0000000000000000     
  0.90625000000000000       0.62500000000000000        0.0000000000000000     
  0.93750000000000000       0.62500000000000000        0.0000000000000000     
  0.96875000000000000       0.62500000000000000        0.0000000000000000     
   1.0000000000000000       0.62500000000000000        0.0000000000000000     
  0.87500000000000000       0.65625000000000000        0.0000000000000000     
  0.90625000000000000       0.65625000000000000        0.0000000000000000     
  0.93750000000000000       0.65625000000000000        0.0000000000000000     
  0.96875000000000000       0.65625000000000000        0.0000000000000000     
   1.0000000000000000       0.65625000000000000        0.0000000000000000     
  0.87500000000000000       0.68750000000000000        0.0000000000000000     
  0.90625000000000000       0.68750000000000000        0.0000000000000000     
  0.93750000000000000       0.68750000000000000        0.0000000000000000     
  0.96875000000000000       0.68750000000000000        0.0000000000000000     
   1.0000000000000000       0.68750000000000000        0.0000000000000000     
  0.87500000000000000       0.71875000000000000        0.0000000000000000     
  0.90625000000000000       0.71875000000000000        0.0000000000000000     
  0.93750000000000000       0.71875000000000000        0.0000000000000000     
  0.96875000000000000       0.71875000000000000        0.0000000000000000     
   1.0000000000000000       0.71875000000000000        0.0000000000000000     
  0.87500000000000000       0.75000000000000000        0.0000000000000000     
  0.90625000000000000       0.75000000000000000        0.0000000000000000     
  0.93750000000000000       0.75000000000000000        0.0000000000000000     
  0.96875000000000000       0.75000000000000000        0.0000000000000000     
   1.0000000000000000       0.75000000000000000        0.0000000000000000     
   0.0000000000000000       0.75000000000000000        0.0000000000000000     
   3.1250000000000000E-002  0.75000000000000000        0.0000000000000000     
   6.2500000000000000E-002  0.75000000000000000        0.0000000000000000     
   9.3750000000000000E-002  0.75000000000000000        0.0000000000000000     
  0.12500000000000000       0.75000000000000000        0.0000000000000000     
   0.0000000000000000       0.78125000000000000        0.0000000000000000     
   3.1250000000000000E-002  0.78125000000000000        0.0000000000000000     
   6.2500000000000000E-002  0.78125000000000000        0.0000000000000000     
   9.3750000000000000E-002  0.78125000000000000        0.0000000000000000     
  0.12500000000000000       0.78125000000000000        0.0000000000000000     
   0.0000000000000000       0.81250000000000000        0.0000000000000000     
   3.1250000000000000E-002  0.81250000000000000        0.0000000000000000     
   6.2500000000000000E-002  0.81250000000000000        0.0000000000000000     
   9.3750000000000000E-002  0.81250000000000000        0.0000000000000000     
  0.12500000000000000       0.81250000000000000        0.0000000000000000     
   0.0000000000000000       0.84375000000000000        0.0000000000000000     
   3.1250000000000000E-002  0.84375000000000000        0.0000000000000000     
   6.2500000000000000E-002  0.84375000000000000        0.0000000000000000     
   9.3750000000000000E-002  0.84375000000000000        0.0000000000000000     
  0.12500000000000000       0.84375000000000000        0.0000000000000000     
   0.0000000000000000       0.87500000000000000        0.0000000000000000     
   3.1250000000000000E-002  0.87500000000000000        0.0000000000000000     
   6.2500000000000000E-002  0.87500000000000000        0.0000000000000000     
   9.3750000000000000E-002  0.87500000000000000        0.0000000000000000     
  0.12500000000000000       0.87500000000000000        0.0000000000000000     
  0.12500000000000000       0.75000000000000000        0.0000000000000000     
  0.15625000000000000       0.75000000000000000        0.0000000000000000     
  0.18750000000000000       0.75000000000000000        0.0000000000000000     
  0.21875000000000000       0.75000000000000000        0.0000000000000000     
  0.25000000000000000       0.75000000000000000        0.0000000000000000     
  0.12500000000000000       0.78125000000000000        0.0000000000000000     
  0.15625000000000000       0.78125000000000000        0.0000000000000000     
  0.18750000000000000       0.78125000000000000        0.0000000000000000     
  0.21875000000000000       0.78125000000000000        0.0000000000000000     
  0.25000000000000000       0.78125000000000000        0.0000000000000000     
  0.12500000000000000       0.81250000000000000        0.0000000000000000     
  0.15625000000000000       0.81250000000000000        0.0000000000000000     
  0.18750000000000000       0.81250000000000000        0.0000000000000000     
  0.21875000000000000       0.81250000000000000        0.0000000000000000     
  0.25000000000000000       0.81250000000000000        0.0000000000000000     
  0.12500000000000000       0.84375000000000000        0.0000000000000000     
  0.15625000000000000       0.84375000000000000        0.0000000000000000     
  0.18750000000000000       0.84375000000000000        0.0000000000000000     
  0.21875000000000000       0.84375000000000000        0.0000000000000000     
  0.25000000000000000       0.84375000000000000        0.0000000000000000     
  0.12500000000000000       0.87500000000000000        0.0000000000000000     
  0.15625000000000000       0.87500000000000000        0.0000000000000000     
  0.18750000000000000       0.87500000000000000        0.0000000000000000     
  0.21875000000000000       0.87500000000000000        0.0000000000000000     
  0.25000000000000000       0.87500000000000000        0.0000000000000000     
  0.25000000000000000       0.75000000000000000        0.0000000000000000     
  0.28125000000000000       0.75000000000000000        0.0000000000000000     
  0.31250000000000000       0.75000000000000000        0.0000000000000000     
  0.34375000000000000       0.75000000000000000        0.0000000000000000     
  0.37500000000000000       0.75000000000000000        0.0000000000000000     
  0.25000000000000000       0.78125000000000000        0.0000000000000000     
  0.28125000000000000       0.78125000000000000        0.0000000000000000     
  0.31250000000000000       0.78125000000000000        0.0000000000000000     
  0.34375000000000000       0.78125000000000000        0.0000000000000000     
  0.37500000000000000       0.78125000000000000        0.0000000000000000     
  0.25000000000000000       0.81250000000000000        0.0000000000000000     
  0.28125000000000000       0.81250000000000000        0.0000000000000000     
  0.31250000000000000       0.81250000000000000        0.0000000000000000     
  0.34375000000000000       0.81250000000000000        0.0000000000000000     
  0.37500000000000000       0.81250000000000000        0.0000000000000000     
  0.25000000000000000       0.84375000000000000        0.0000000000000000     
  0.28125000000000000       0.84375000000000000        0.0000000000000000     
  0.31250000000000000       0.84375000000000000        0.0000000000000000     
  0.34375000000000000       0.84375000000000000        0.0000000000000000     
  0.37500000000000000       0.84375000000000000        0.0000000000000000     
  0.25000000000000000       0.87500000000000000        0.0000000000000000     
  0.28125000000000000       0.87500000000000000        0.0000000000000000     
  0.31250000000000000       0.87500000000000000        0.0000000000000000     
  0.34375000000000000       0.87500000000000000        0.0000000000000000     
  0.37500000000000000       0.87500000000000000        0.0000000000000000     
  0.37500000000000000       0.75000000000000000        0.0000000000000000     
  0.40625000000000000       0.75000000000000000        0.0000000000000000     
  0.43750000000000000       0.75000000000000000        0.0000000000000000     
  0.46875000000000000       0.75000000000000000        0.0000000000000000     
  0.50000000000000000       0.75000000000000000        0.0000000000000000     
  0.37500000000000000       0.78125000000000000        0.0000000000000000     
  0.40625000000000000       0.78125000000000000        0.0000000000000000     
  0.43750000000000000       0.78125000000000000        0.0000000000000000     
  0.46875000000000000       0.78125000000000000        0.0000000000000000     
  0.50000000000000000       0.78125000000000000        0.0000000000000000     
  0.37500000000000000       0.81250000000000000        0.0000000000000000     
  0.40625000000000000       0.81250000000000000        0.0000000000000000     
  0.43750000000000000       0.81250000000000000        0.0000000000000000     
  0.46875000000000000       0.81250000000000000        0.0000000000000000     
  0.50000000000000000       0.81250000000000000        0.0000000000000000     
  0.37500000000000000       0.84375000000000000        0.0000000000000000     
  0.40625000000000000       0.84375000000000000        0.0000000000000000     
  0.43750000000000000       0.84375000000000000        0.0000000000000000     
  0.46875000000000000       0.84375000000000000        0.0000000000000000     
  0.50000000000000000       0.84375000000000000        0.0000000000000000     
  0.37500000000000000       0.87500000000000000        0.0000000000000000     
  0.40625000000000000       0.87500000000000000        0.0000000000000000     
  0.43750000000000000       0.87500000000000000        0.0000000000000000     
  0.46875000000000000       0.87500000000000000        0.0000000000000000     
  0.50000000000000000       0.87500000000000000        0.0000000000000000     
  0.50000000000000000       0.75000000000000000        0.0000000000000000     
  0.53125000000000000       0.75000000000000000        0.0000000000000000     
  0.56250000000000000       0.75000000000000000        0.0000000000000000     
  0.59375000000000000       0.75000000000000000        0.0000000000000000     
  0.62500000000000000       0.75000000000000000        0.0000000000000000     
  0.50000000000000000       0.78125000000000000        0.0000000000000000     
  0.53125000000000000       0.78125000000000000        0.0000000000000000     
  0.56250000000000000       0.78125000000000000        0.0000000000000000     
  0.59375000000000000       0.78125000000000000        0.0000000000000000     
  0.62500000000000000       0.78125000000000000        0.0000000000000000     
  0.50000000000000000       0.81250000000000000        0.0000000000000000     
  0.53125000000000000       0.81250000000000000        0.0000000000000000     
  0.56250000000000000       0.81250000000000000        0.0000000000000000     
  0.59375000000000000       0.81250000000000000        0.0000000000000000     
  0.62500000000000000       0.81250000000000000        0.0000000000000000     
  0.50000000000000000       0.84375000000000000        0.0000000000000000     
  0.53125000000000000       0.84375000000000000        0.0000000000000000     
  0.56250000000000000       0.84375000000000000        0.0000000000000000     
  0.59375000000000000       0.84375000000000000        0.0000000000000000     
  0.62500000000000000       0.84375000000000000        0.0000000000000000     
  0.50000000000000000       0.87500000000000000        0.0000000000000000     
  0.53125000000000000       0.87500000000000000        0.0000000000000000     
  0.56250000000000000       0.87500000000000000        0.0000000000000000     
  0.59375000000000000       0.87500000000000000        0.0000000000000000     
  0.62500000000000000       0.87500000000000000        0.0000000000000000     
  0.62500000000000000       0.75000000000000000        0.0000000000000000     
  0.65625000000000000       0.75000000000000000        0.0000000000000000     
  0.68750000000000000       0.75000000000000000        0.0000000000000000     
  0.71875000000000000       0.75000000000000000        0.0000000000000000     
  0.75000000000000000       0.75000000000000000        0.0000000000000000     
  0.62500000000000000       0.78125000000000000        0.0000000000000000     
  0.65625000000000000       0.78125000000000000        0.0000000000000000     
  0.68750000000000000       0.78125000000000000        0.0000000000000000     
  0.71875000000000000       0.78125000000000000        0.0000000000000000     
  0.75000000000000000       0.78125000000000000        0.0000000000000000     
  0.62500000000000000       0.81250000000000000        0.0000000000000000     
  0.65625000000000000       0.81250000000000000        0.0000000000000000     
  0.68750000000000000       0.81250000000000000        0.0000000000000000     
  0.71875000000000000       0.81250000000000000        0.0000000000000000     
  0.75000000000000000       0.81250000000000000        0.0000000000000000     
  0.62500000000000000       0.84375000000000000        0.0000000000000000     
  0.65625000000000000       0.84375000000000000        0.0000000000000000     
  0.68750000000000000       0.84375000000000000        0.0000000000000000     
  0.71875000000000000       0.84375000000000000        0.0000000000000000     
  0.75000000000000000       0.84375000000000000        0.0000000000000000     
  0.62500000000000000       0.87500000000000000        0.0000000000000000     
  0.65625000000000000       0.87500000000000000        0.0000000000000000     
  0.68750000000000000       0.87500000000000000        0.0000000000000000     
  0.71875000000000000       0.87500000000000000        0.0000000000000000     
  0.75000000000000000       0.87500000000000000        0.0000000000000000     
  0.75000000000000000       0.75000000000000000        0.0000000000000000     
  0.78125000000000000       0.75000000000000000        0.0000000000000000     
  0.81250000000000000       0.75000000000000000        0.0000000000000000     
  0.84375000000000000       0.75000000000000000        0.0000000000000000     
  0.87500000000000000       0.75000000000000000        0.0000000000000000     
  0.75000000000000000       0.78125000000000000        0.0000000000000000     
  0.78125000000000000       0.78125000000000000        0.0000000000000000     
  0.81250000000000000       0.78125000000000000        0.0000000000000000     
  0.84375000000000000       0.78125000000000000        0.0000000000000000     
  0.87500000000000000       0.78125000000000000        0.0000000000000000     
  0.75000000000000000       0.81250000000000000        0.0000000000000000     
  0.78125000000000000       0.81250000000000000        0.0000000000000000     
  0.81250000000000000       0.81250000000000000        0.0000000000000000     
  0.84375000000000000       0.81250000000000000        0.0000000000000000     
  0.87500000000000000       0.81250000000000000        0.0000000000000000     
  0.75000000000000000       0.84375000000000000        0.0000000000000000     
  0.78125000000000000       0.84375000000000000        0.0000000000000000     
  0.81250000000000000       0.84375000000000000        0.0000000000000000     
  0.84375000000000000       0.84375000000000000        0.0000000000000000     
  0.87500000000000000       0.84375000000000000        0.0000000000000000     
  0.75000000000000000       0.87500000000000000        0.0000000000000000     
  0.78125000000000000       0.87500000000000000        0.0000000000000000     
  0.81250000000000000       0.87500000000000000        0.0000000000000000     
  0.84375000000000000       0.87500000000000000        0.0000000000000000     
  0.87500000000000000       0.87500000000000000        0.0000000000000000     
  0.87500000000000000       0.75000000000000000        0.0000000000000000     
  0.90625000000000000       0.75000000000000000        0.0000000000000000     
  0.93750000000000000       0.75000000000000000        0.0000000000000000     
  0.96875000000000000       0.75000000000000000        0.0000000000000000     
   1.0000000000000000       0.75000000000000000        0.0000000000000000     
  0.87500000000000000       0.78125000000000000        0.0000000000000000     
  0.90625000000000000       0.78125000000000000        0.0000000000000000     
  0.93750000000000000       0.78125000000000000        0.0000000000000000     
  0.96875000000000000       0.78125000000000000        0.0000000000000000     
   1.0000000000000000       0.78125000000000000        0.0000000000000000     
  0.87500000000000000       0.81250000000000000        0.0000000000000000     
  0.90625000000000000       0.81250000000000000        0.0000000000000000     
  0.93750000000000000       0.81250000000000000        0.0000000000000000     
  0.96875000000000000       0.81250000000000000        0.0000000000000000     
   1.0000000000000000       0.81250000000000000        0.0000000000000000     
  0.87500000000000000       0.84375000000000000        0.0000000000000000     
  0.90625000000000000       0.84375000000000000        0.0000000000000000     
  0.93750000000000000       0.84375000000000000        0.0000000000000000     
  0.96875000000000000       0.84375000000000000        0.0000000000000000     
   1.0000000000000000       0.84375000000000000        0.0000000000000000     
  0.87500000000000000       0.87500000000000000        0.0000000000000000     
  0.90625000000000000       0.87500000000000000        0.0000000000000000     
  0.93750000000000000       0.87500000000000000        0.0000000000000000     
  0.96875000000000000       0.87500000000000000        0.0000000000000000     
   1.0000000000000000       0.87500000000000000        0.0000000000000000     
   0.0000000000000000       0.87500000000000000        0.0000000000000000     
   3.1250000000000000E-002  0.87500000000000000        0.0000000000000000     
   6.2500000000000000E-002  0.87500000000000000        0.0000000000000000     
   9.3750000000000000E-002  0.87500000000000000        0.0000000000000000     
  0.12500000000000000       0.87500000000000000        0.0000000000000000     
   0.0000000000000000       0.90625000000000000        0.0000000000000000     
   3.1250000000000000E-002  0.90625000000000000        0.0000000000000000     
   6.2500000000000000E-002  0.90625000000000000        0.0000000000000000     
   9.3750000000000000E-002  0.90625000000000000        0.0000000000000000     
  0.12500000000000000       0.90625000000000000        0.0000000000000000     
   0.0000000000000000       0.93750000000000000        0.0000000000000000     
   3.1250000000000000E-002  0.93750000000000000        0.0000000000000000     
   6.2500000000000000E-002  0.93750000000000000        0.0000000000000000     
   9.3750000000000000E-002  0.93750000000000000        0.0000000000000000     
  0.12500000000000000       0.93750000000000000        0.0000000000000000     
   0.0000000000000000       0.96875000000000000        0.0000000000000000     
   3.1250000000000000E-002  0.96875000000000000        0.0000000000000000     
   6.2500000000000000E-002  0.96875000000000000        0.0000000000000000     
   9.3750000000000000E-002  0.96875000000000000        0.0000000000000000     
  0.12500000000000000       0.96875000000000000        0.0000000000000000     
   0.0000000000000000        1.0000000000000000        0.0000000000000000     
   3.1250000000000000E-002   1.0000000000000000        0.0000000000000000     
   6.2500000000000000E-002   1.0000000000000000        0.0000000000000000     
   9.3750000000000000E-002   1.0000000000000000        0.0000000000000000     
  0.12500000000000000        1.0000000000000000        0.0000000000000000     
  0.12500000000000000       0.87500000000000000        0.0000000000000000     
  0.15625000000000000       0.87500000000000000        0.0000000000000000     
  0.18750000000000000       0.87500000000000000        0.0000000000000000     
  0.21875000000000000       0.87500000000000000        0.0000000000000000     
  0.25000000000000000       0.87500000000000000        0.0000000000000000     
  0.12500000000000000       0.90625000000000000        0.0000000000000000     
  0.15625000000000000       0.90625000000000000        0.0000000000000000     
  0.18750000000000000       0.90625000000000000        0.0000000000000000     
  0.21875000000000000       0.90625000000000000        0.0000000000000000     
  0.25000000000000000       0.90625000000000000        0.0000000000000000     
  0.12500000000000000       0.93750000000000000        0.0000000000000000     
  0.15625000000000000       0.93750000000000000        0.0000000000000000     
  0.18750000000000000       0.93750000000000000        0.0000000000000000     
  0.21875000000000000       0.93750000000000000        0.0000000000000000     
  0.25000000000000000       0.93750000000000000        0.0000000000000000     
  0.12500000000000000       0.96875000000000000        0.0000000000000000     
  0.15625000000000000       0.96875000000000000        0.0000000000000000     
  0.18750000000000000       0.96875000000000000        0.0000000000000000     
  0.21875000000000000       0.96875000000000000        0.0000000000000000     
  0.25000000000000000       0.96875000000000000        0.0000000000000000     
  0.12500000000000000        1.0000000000000000        0.0000000000000000     
  0.15625000000000000        1.0000000000000000        0.0000000000000000     
  0.18750000000000000        1.0000000000000000        0.0000000000000000     
  0.21875000000000000        1.0000000000000000        0.0000000000000000     
  0.25000000000000000        1.0000000000000000        0.0000000000000000     
  0.25000000000000000       0.87500000000000000        0.0000000000000000     
  0.28125000000000000       0.87500000000000000        0.0000000000000000     
  0.31250000000000000       0.87500000000000000        0.0000000000000000     
  0.34375000000000000       0.87500000000000000        0.0000000000000000     
  0.37500000000000000       0.87500000000000000        0.0000000000000000     
  0.25000000000000000       0.90625000000000000        0.0000000000000000     
  0.28125000000000000       0.90625000000000000        0.0000000000000000     
  0.31250000000000000       0.90625000000000000        0.0000000000000000     
  0.34375000000000000       0.90625000000000000        0.0000000000000000     
  0.37500000000000000       0.90625000000000000        0.0000000000000000     
  0.25000000000000000       0.93750000000000000        0.0000000000000000     
  0.28125000000000000       0.93750000000000000        0.0000000000000000     
  0.31250000000000000       0.93750000000000000        0.0000000000000000     
  0.34375000000000000       0.93750000000000000        0.0000000000000000     
  0.37500000000000000       0.93750000000000000        0.0000000000000000     
  0.25000000000000000       0.96875000000000000        0.0000000000000000     
  0.28125000000000000       0.96875000000000000        0.0000000000000000     
  0.31250000000000000       0.96875000000000000        0.0000000000000000     
  0.34375000000000000       0.96875000000000000        0.0000000000000000     
  0.37500000000000000       0.96875000000000000        0.0000000000000000     
  0.25000000000000000        1.0000000000000000        0.0000000000000000     
  0.28125000000000000        1.0000000000000000        0.0000000000000000     
  0.31250000000000000        1.0000000000000000        0.0000000000000000     
  0.34375000000000000        1.0000000000000000        0.0000000000000000     
  0.37500000000000000        1.0000000000000000        0.0000000000000000     
  0.37500000000000000       0.87500000000000000        0.0000000000000000     
  0.40625000000000000       0.87500000000000000        0.0000000000000000     
  0.43750000000000000       0.87500000000000000        0.0000000000000000     
  0.46875000000000000       0.87500000000000000        0.0000000000000000     
  0.50000000000000000       0.87500000000000000        0.0000000000000000     
  0.37500000000000000       0.90625000000000000        0.0000000000000000     
  0.40625000000000000       0.90625000000000000        0.0000000000000000     
  0.43750000000000000       0.90625000000000000        0.0000000000000000     
  0.46875000000000000       0.90625000000000000        0.0000000000000000     
  0.50000000000000000       0.90625000000000000        0.0000000000000000     
  0.37500000000000000       0.93750000000000000        0.0000000000000000     
  0.40625000000000000       0.93750000000000000        0.0000000000000000     
  0.43750000000000000       0.93750000000000000        0.0000000000000000     
  0.46875000000000000       0.93750000000000000        0.0000000000000000     
  0.50000000000000000       0.93750000000000000        0.0000000000000000     
  0.37500000000000000       0.96875000000000000        0.0000000000000000     
  0.40625000000000000       0.96875000000000000        0.0000000000000000     
  0.43750000000000000       0.96875000000000000        0.0000000000000000     
  0.46875000000000000       0.96875000000000000        0.0000000000000000     
  0.50000000000000000       0.96875000000000000        0.0000000000000000     
  0.37500000000000000        1.0000000000000000        0.0000000000000000     
  0.40625000000000000        1.0000000000000000        0.0000000000000000     
  0.43750000000000000        1.0000000000000000        0.0000000000000000     
  0.46875000000000000        1.0000000000000000        0.0000000000000000     
  0.50000000000000000        1.0000000000000000        0.0000000000000000     
  0.50000000000000000       0.87500000000000000        0.0000000000000000     
  0.53125000000000000       0.87500000000000000        0.0000000000000000     
  0.56250000000000000       0.87500000000000000        0.0000000000000000     
  0.59375000000000000       0.87500000000000000        0.0000000000000000     
  0.62500000000000000       0.87500000000000000        0.0000000000000000     
  0.50000000000000000       0.90625000000000000        0.0000000000000000     
  0.53125000000000000       0.90625000000000000        0.0000000000000000     
  0.56250000000000000       0.90625000000000000        0.0000000000000000     
  0.59375000000000000       0.90625000000000000        0.0000000000000000     
  0.62500000000000000       0.90625000000000000        0.0000000000000000     
  0.50000000000000000       0.93750000000000000        0.0000000000000000     
  0.53125000000000000       0.93750000000000000        0.0000000000000000     
  0.56250000000000000       0.93750000000000000        0.0000000000000000     
  0.59375000000000000       0.93750000000000000        0.0000000000000000     
  0.62500000000000000       0.93750000000000000        0.0000000000000000     
  0.50000000000000000       0.96875000000000000        0.0000000000000000     
  0.53125000000000000       0.96875000000000000        0.0000000000000000     
  0.56250000000000000       0.96875000000000000        0.0000000000000000     
  0.59375000000000000       0.96875000000000000        0.0000000000000000     
  0.62500000000000000       0.96875000000000000        0.0000000000000000     
  0.50000000000000000        1.0000000000000000        0.0000000000000000     
  0.53125000000000000        1.0000000000000000        0.0000000000000000     
  0.56250000000000000        1.0000000000000000        0.0000000000000000     
  0.59375000000000000        1.0000000000000000        0.0000000000000000     
  0.62500000000000000        1.0000000000000000        0.0000000000000000     
  0.62500000000000000       0.87500000000000000        0.0000000000000000     
  0.65625000000000000       0.87500000000000000        0.0000000000000000     
  0.68750000000000000       0.87500000000000000        0.0000000000000000     
  0.71875000000000000       0.87500000000000000        0.0000000000000000     
  0.75000000000000000       0.87500000000000000        0.0000000000000000     
  0.62500000000000000       0.90625000000000000        0.0000000000000000     
  0.65625000000000000       0.90625000000000000        0.0000000000000000     
  0.68750000000000000       0.90625000000000000        0.0000000000000000     
  0.71875000000000000       0.90625000000000000        0.0000000000000000     
  0.75000000000000000       0.90625000000000000        0.0000000000000000     
  0.62500000000000000       0.93750000000000000        0.0000000000000000     
  0.65625000000000000       0.93750000000000000        0.0000000000000000     
  0.68750000000000000       0.93750000000000000        0.0000000000000000     
  0.71875000000000000       0.93750000000000000        0.0000000000000000     
  0.75000000000000000       0.93750000000000000        0.0000000000000000     
  0.62500000000000000       0.96875000000000000        0.0000000000000000     
  0.65625000000000000       0.96875000000000000        0.0000000000000000     
  0.68750000000000000       0.96875000000000000        0.0000000000000000     
  0.71875000000000000       0.96875000000000000        0.0000000000000000     
  0.75000000000000000       0.96875000000000000        0.0000000000000000     
  0.62500000000000000        1.0000000000000000        0.0000000000000000     
  0.65625000000000000        1.0000000000000000        0.0000000000000000     
  0.68750000000000000        1.0000000000000000        0.0000000000000000     
  0.71875000000000000        1.0000000000000000        0.0000000000000000     
  0.75000000000000000        1.0000000000000000        0.0000000000000000     
  0.75000000000000000       0.87500000000000000        0.0000000000000000     
  0.78125000000000000       0.87500000000000000        0.0000000000000000     
  0.81250000000000000       0.87500000000000000        0.0000000000000000     
  0.84375000000000000       0.87500000000000000        0.0000000000000000     
  0.87500000000000000       0.87500000000000000        0.0000000000000000     
  0.75000000000000000       0.90625000000000000        0.0000000000000000     
  0.78125000000000000       0.90625000000000000        0.0000000000000000     
  0.81250000000000000       0.90625000000000000        0.0000000000000000     
  0.84375000000000000       0.90625000000000000        0.0000000000000000     
  0.87500000000000000       0.90625000000000000        0.0000000000000000     
  0.75000000000000000       0.93750000000000000        0.0000000000000000     
  0.78125000000000000       0.93750000000000000        0.0000000000000000     
  0.81250000000000000       0.93750000000000000        0.0000000000000000     
  0.84375000000000000       0.93750000000000000        0.0000000000000000     
  0.87500000000000000       0.93750000000000000        0.0000000000000000     
  0.75000000000000000       0.96875000000000000        0.0000000000000000     
  0.78125000000000000       0.96875000000000000        0.0000000000000000     
  0.81250000000000000       0.96875000000000000        0.0000000000000000     
  0.84375000000000000       0.96875000000000000        0.0000000000000000     
  0.87500000000000000       0.96875000000000000        0.0000000000000000     
  0.75000000000000000        1.0000000000000000        0.0000000000000000     
  0.78125000000000000        1.0000000000000000        0.0000000000000000     
  0.81250000000000000        1.0000000000000000        0.0000000000000000     
  0.84375000000000000        1.0000000000000000        0.0000000000000000     
  0.87500000000000000        1.0000000000000000        0.0000000000000000     
  0.87500000000000000       0.87500000000000000        0.0000000000000000     
  0.90625000000000000       0.87500000000000000        0.0000000000000000     
  0.93750000000000000       0.87500000000000000        0.0000000000000000     
  0.96875000000000000       0.87500000000000000        0.0000000000000000     
   1.0000000000000000       0.87500000000000000        0.0000000000000000     
  0.87500000000000000       0.90625000000000000        0.0000000000000000     
  0.90625000000000000       0.90625000000000000        0.0000000000000000     
  0.93750000000000000       0.90625000000000000        0.0000000000000000     
  0.96875000000000000       0.90625000000000000        0.0000000000000000     
   1.0000000000000000       0.90625000000000000        0.0000000000000000     
  0.87500000000000000       0.93750000000000000        0.0000000000000000     
  0.90625000000000000       0.93750000000000000        0.0000000000000000     
  0.93750000000000000       0.93750000000000000        0.0000000000000000     
  0.96875000000000000       0.93750000000000000        0.0000000000000000     
   1.0000000000000000       0.93750000000000000        0.0000000000000000     
  0.87500000000000000       0.96875000000000000        0.0000000000000000     
  0.90625000000000000       0.96875000000000000        0.0000000000000000     
  0.93750000000000000       0.96875000000000000        0.0000000000000000     
  0.96875000000000000       0.96875000000000000        0.0000000000000000     
   1.0000000000000000       0.96875000000000000        0.0000000000000000     
  0.87500000000000000        1.0000000000000000        0.0000000000000000     
  0.90625000000000000        1.0000000000000000        0.0000000000000000     
  0.93750000000000000        1.0000000000000000        0.0000000000000000     
  0.96875000000000000        1.0000000000000000        0.0000000000000000     
   1.0000000000000000        1.0000000000000000        0.0000000000000000     
 </DataArray>
 </Points>
 <Cells>
 <DataArray  type="Int32"  Name="connectivity"  format="ascii">
           0           1           6           5
           1           2           7           6
           2           3           8           7
           3           4           9           8
           5           6          11          10
           6           7          12          11
           7           8          13          12
           8           9          14          13
          10          11          16          15
          11          12          17          16
          12          13          18          17
          13          14          19          18
          15          16          21          20
          16          17          22          21
          17          18          23          22
          18          19          24          23
          25          26          31          30
          26          27          32          31
          27          28          33          32
          28          29          34          33
          30          31          36          35
          31          32          37          36
          32          33          38          37
          33          34          39          38
          35          36          41          40
          36          37          42          41
          37          38          43          42
          38          39          44          43
          40          41          46          45
          41          42          47          46
          42          43          48          47
          43          44          49          48
          50          51          56          55
          51          52          57          56
          52          53          58          57
          53          54          59          58
          55          56          61          60
          56          57          62          61
          57          58          63          62
          58          59          64          63
          60          61          66          65
          61          62          67          66
          62          63          68          67
          63          64          69          68
          65          66          71          70
          66          67          72          71
          67          68          73          72
          68          69          74          73
          75          76          81          80
          76          77          82          81
          77          78          83          82
          78          79          84          83
          80          81          86          85
          81          82          87          86
          82          83          88          87
          83          84          89          88
          85          86          91          90
          86          87          92          91
          87          88          93          92
          88          89          94          93
          90          91          96          95
          91          92          97          96
          92          93          98          97
          93          94          99          98
         100         101         106         105
         101         102         107         106
         102         103         108         107
         103         104         109         108
         105         106         111         110
         106         107         112         111
         107         108         113         112
         108         109         114         113
         110         111         116         115
         111         112         117         116
         112         113         118         117
         113         114         119         118
         115         116         121         120
         116         117         122         121
         117         118         123         122
         118         119         124         123
         125         126         131         130
         126         127         132         131
         127         128         133         132
         128         129         134         133
         130         131         136         135
         131         132         137         136
         132         133         138         137
         133         134         139         138
         135         136         141         140
         136         137         142         141
         137         138         143         142
         138         139         144         143
         140         141         146         145
         141         142         147         146
         142         143         148         147
         143         144         149         148
         150         151         156         155
         151         152         157         156
         152         153         158         157
         153         154         159         158
         155         156         161         160
         156         157         162         161
         157         158         163         162
         158         159         164         163
         160         161         166         165
         161         162         167         166
         162         163         168         167
         163         164         169         168
         165         166         171         170
         166         167         172         171
         167         168         173         172
         168         169         174         173
         175         176         181         180
         176         177         182         181
         177         178         183         182
         178         179         184         183
         180         181         186         185
         181         182         187         186
         182         183         188         187
         183         184         189         188
         185         186         191         190
         186         187         192         191
         187         188         193         192
         188         189         194         193
         190         191         196         195
         191         192         197         196
         192         193         198         197
         193         194         199         198
         200         201         206         205
         201         202         207         206
         202         203         208         207
         203         204         209         208
         205         206         211         210
         206         207         212         211
         207         208         213         212
         208         209         214         213
         210         211         216         215
         211         212         217         216
         212         213         218         217
         213         214         219         218
         215         216         221         220
         216         217         222         221
         217         218         223         222
         218         219         224         223
         225         226         231         230
         226         227         232         231
         227         228         233         232
         228         229         234         233
         230         231         236         235
         231         232         237         236
         232         233         238         237
         233         234         239         238
         235         236         241         240
         236         237         242         241
         237         238         243         242
         238         239         244         243
         240         241         246         245
         241         242         247         246
         242         243         248         247
         243         244         249         248
         250         251         256         255
         251         252         257         256
         252         253         258         257
         253         254         259         258
         255         256         261         260
         256         257         262         261
         257         258         263         262
         258         259         264         263
         260         261         266         265
         261         262         267         266
         262         263         268         267
         263         264         269         268
         265         266         271         270
         266         267         272         271
         267         268         273         272
         268         269         274         273
         275         276         281         280
         276         277         282         281
         277         278         283         282
         278         279         284         283
         280         281         286         285
         281         282         287         286
         282         283         288         287
         283         284         289         288
         285         286         291         290
         286         287         292         291
         287         288         293         292
         288         289         294         293
         290         291         296         295
         291         292         297         296
         292         293         298         297
         293         294         299         298
         300         301         306         305
         301         302         307         306
         302         303         308         307
         303         304         309         308
         305         306         311         310
         306         307         312         311
         307         308         313         312
         308         309         314         313
         310         311         316         315
         311         312         317         316
         312         313         318         317
         313         314         319         318
         315         316         321         320
         316         317         322         321
         317         318         323         322
         318         319         324         323
         325         326         331         330
         326         327         332         331
         327         328         333         332
         328         329         334         333
         330         331         336         335
         331         332         337         336
         332         333         338         337
         333         334         339         338
         335         336         341         340
         336         337         342         341
         337         338         343         342
         338         339         344         343
         340         341         346         345
         341         342         347         346
         342         343         348         347
         343         344         349         348
         350         351         356         355
         351         352         357         356
         352         353         358         357
         353         354         359         358
         355         356         361         360
         356         357         362         361
         357         358         363         362
         358         359         364         363
         360         361         366         365
         361         362         367         366
         362         363         368         367
         363         364         369         368
         365         366         371         370
         366         367         372         371
         367         368         373         372
         368         369         374         373
         375         376         381         380
         376         377         382         381
         377         378         383         382
         378         379         384         383
         380         381         386         385
         381         382         387         386
         382         383         388         387
         383         384         389         388
         385         386         391         390
         386         387         392         391
         387         388         393         392
         388         389         394         393
         390         391         396         395
         391         392         397         396
         392         393         398         397
         393         394         399         398
         400         401         406         405
         401         402         407         406
         402         403         408         407
         403         404         409         408
         405         406         411         410
         406         407         412         411
         407         408         413         412
         408         409         414         413
         410         411         416         415
         411         412         417         416
         412         413         418         417
         413         414         419         418
         415         416         421         420
         416         417         422         421
         417         418         423         422
         418         419         424         423
         425         426         431         430
         426         427         432         431
         427         428         433         432
         428         429         434         433
         430         431         436         435
         431         432         437         436
         432         433         438         437
         433         434         439         438
         435         436         441         440
         436         437         442         441
         437         438         443         442
         438         439         444         443
         440         441         446         445
         441         442         447         446
         442         443         448         447
         443         444         449         448
         450         451         456         455
         451         452         457         456
         452         453         458         457
         453         454         459         458
         455         456         461         460
         456         457         462         461
         457         458         463         462
         458         459         464         463
         460         461         466         465
         461         462         467         466
         462         463         468         467
         463         464         469         468
         465         466         471         470
         466         467         472         471
         467         468         473         472
         468         469         474         473
         475         476         481         480
         476         477         482         481
         477         478         483         482
         478         479         484         483
         480         481         486         485
         481         482         487         486
         482         483         488         487
         483         484         489         488
         485         486         491         490
         486         487         492         491
         487         488         493         492
         488         489         494         493
         490         491         496         495
         491         492         497         496
         492         493         498         497
         493         494         499         498
         500         501         506         505
         501         502         507         506
         502         503         508         507
         503         504         509         508
         505         506         511         510
         506         507         512         511
         507         508         513         512
         508         509         514         513
         510         511         516         515
         511         512         517         516
         512         513         518         517
         513         514         519         518
         515         516         521         520
         516         517         522         521
         517         518         523         522
         518         519         524         523
         525         526         531         530
         526         527         532         531
         527         528         533         532
         528         529         534         533
         530         531         536         535
         531         532         537         536
         532         533         538         537
         533         534         539         538
         535         536         541         540
         536         537         542         541
         537         538         543         542
         538         539         544         543
         540         541         546         545
         541         542         547         546
         542         543         548         547
         543         544         549         548
         550         551         556         555
         551         552         557         556
         552         553         558         557
         553         554         559         558
         555         556         561         560
         556         557         562         561
         557         558         563         562
         558         559         564         563
         560         561         566         565
         561         562         567         566
         562         563         568         567
         563         564         569         568
         565         566         571         570
         566         567         572         571
         567         568         573         572
         568         569         574         573
         575         576         581         580
         576         577         582         581
         577         578         583         582
         578         579         584         583
         580         581         586         585
         581         582         587         586
         582         583         588         587
         583         584         589         588
         585         586         591         590
         586         587         592         591
         587         588         593         592
         588         589         594         593
         590         591         596         595
         591         592         597         596
         592         593         598         597
         593         594         599         598
         600         601         606         605
         601         602         607         606
         602         603         608         607
         603         604         609         608
         605         606         611         610
         606         607         612         611
         607         608         613         612
         608         609         614         613
         610         611         616         615
         611         612         617         616
         612         613         618         617
         613         614         619         618
         615         616         621         620
         616         617         622         621
         617         618         623         622
         618         619         624         623
         625         626         631         630
         626         627         632         631
         627         628         633         632
         628         629         634         633
         630         631         636         635
         631         632         637         636
         632         633         638         637
         633         634         639         638
         635         636         641         640
         636         637         642         641
         637         638         643         642
         638         639         644         643
         640         641         646         645
         641         642         647         646
         642         643         648         647
         643         644         649         648
         650         651         656         655
         651         652         657         656
         652         653         658         657
         653         654         659         658
         655         656         661         660
         656         657         662         661
         657         658         663         662
         658         659         664         663
         660         661         666         665
         661         662         667         666
         662         663         668         667
         663         664         669         668
         665         666         671         670
         666         667         672         671
         667         668         673         672
         668         669         674         673
         675         676         681         680
         676         677         682         681
         677         678         683         682
         678         679         684         683
         680         681         686         685
         681         682         687         686
         682         683         688         687
         683         684         689         688
         685         686         691         690
         686         687         692         691
         687         688         693         692
         688         689         694         693
         690         691         696         695
         691         692         697         696
         692         693         698         697
         693         694         699         698
         700         701         706         705
         701         702         707         706
         702         703         708         707
         703         704         709         708
         705         706         711         710
         706         707         712         711
         707         708         713         712
         708         709         714         713
         710         711         716         715
         711         712         717         716
         712         713         718         717
         713         714         719         718
         715         716         721         720
         716         717         722         721
         717         718         723         722
         718         719         724         723
         725         726         731         730
         726         727         732         731
         727         728         733         732
         728         729         734         733
         730         731         736         735
         731         732         737         736
         732         733         738         737
         733         734         739         738
         735         736         741         740
         736         737         742         741
         737         738         743         742
         738         739         744         743
         740         741         746         745
         741         742         747         746
         742         743         748         747
         743         744         749         748
         750         751         756         755
         751         752         757         756
         752         753         758         757
         753         754         759         758
         755         756         761         760
         756         757         762         761
         757         758         763         762
         758         759         764         763
         760         761         766         765
         761         762         767         766
         762         763         768         767
         763         764         769         768
         765         766         771         770
         766         767         772         771
         767         768         773         772
         768         769         774         773
         775         776         781         780
         776         777         782         781
         777         778         783         782
         778         779         784         783
         780         781         786         785
         781         782         787         786
         782         783         788         787
         783         784         789         788
         785         786         791         790
         786         787         792         791
         787         788         793         792
         788         789         794         793
         790         791         796         795
         791         792         797         796
         792         793         798         797
         793         794         799         798
         800         801         806         805
         801         802         807         806
         802         803         808         807
         803         804         809         808
         805         806         811         810
         806         807         812         811
         807         808         813         812
         808         809         814         813
         810         811         816         815
         811         812         817         816
         812         813         818         817
         813         814         819         818
         815         816         821         820
         816         817         822         821
         817         818         823         822
         818         819         824         823
         825         826         831         830
         826         827         832         831
         827         828         833         832
         828         829         834         833
         830         831         836         835
         831         832         837         836
         832         833         838         837
         833         834         839         838
         835         836         841         840
         836         837         842         841
         837         838         843         842
         838         839         844         843
         840         841         846         845
         841         842         847         846
         842         843         848         847
         843         844         849         848
         850         851         856         855
         851         852         857         856
         852         853         858         857
         853         854         859         858
         855         856         861         860
         856         857         862         861
         857         858         863         862
         858         859         864         863
         860         861         866         865
         861         862         867         866
         862         863         868         867
         863         864         869         868
         865         866         871         870
         866         867         872         871
         867         868         873         872
         868         869         874         873
         875         876         881         880
         876         877         882         881
         877         878         883         882
         878         879         884         883
         880         881         886         885
         881         882         887         886
         882         883         888         887
         883         884         889         888
         885         886         891         890
         886         887         892         891
         887         888         893         892
         888         889         894         893
         890         891         896         895
         891         892         897         896
         892         893         898         897
         893         894         899         898
         900         901         906         905
         901         902         907         906
         902         903         908         907
         903         904         909         908
         905         906         911         910
         906         907         912         911
         907         908         913         912
         908         909         914         913
         910         911         916         915
         911         912         917         916
         912         913         918         917
         913         914         919         918
         915         916         921         920
         916         917         922         921
         917         918         923         922
         918         919         924         923
         925         926         931         930
         926         927         932         931
         927         928         933         932
         928         929         934         933
         930         931         936         935
         931         932         937         936
         932         933         938         937
         933         934         939         938
         935         936         941         940
         936         937         942         941
         937         938         943         942
         938         939         944         943
         940         941         946         945
         941         942         947         946
         942         943         948         947
         943         944         949         948
         950         951         956         955
         951         952         957         956
         952         953         958         957
         953         954         959         958
         955         956         961         960
         956         957         962         961
         957         958         963         962
         958         959         964         963
         960         961         966         965
         961         962         967         966
         962         963         968         967
         963         964         969         968
         965         966         971         970
         966         967         972         971
         967         968         973         972
         968         969         974         973
         975         976         981         980
         976         977         982         981
         977         978         983         982
         978         979         984         983
         980         981         986         985
         981         982         987         986
         982         983         988         987
         983         984         989         988
         985         986         991         990
         986         987         992         991
         987         988         993         992
         988         989         994         993
         990         991         996         995
         991         992         997         996
         992         993         998         997
         993         994         999         998
        1000        1001        1006        1005
        1001        1002        1007        1006
        1002        1003        1008        1007
        1003        1004        1009        1008
        1005        1006        1011        1010
        1006        1007        1012        1011
        1007        1008        1013        1012
        1008        1009        1014        1013
        1010        1011        1016        1015
        1011        1012        1017        1016
        1012        1013        1018        1017
        1013        1014        1019        1018
        1015        1016        1021        1020
        1016        1017        1022        1021
        1017        1018        1023        1022
        1018        1019        1024        1023
        1025        1026        1031        1030
        1026        1027        1032        1031
        1027        1028        1033        1032
        1028        1029        1034        1033
        1030        1031        1036        1035
        1031        1032        1037        1036
        1032        1033        1038        1037
        1033        1034        1039        1038
        1035        1036        1041        1040
        1036        1037        1042        1041
        1037        1038        1043        1042
        1038        1039        1044        1043
        1040        1041        1046        1045
        1041        1042        1047        1046
        1042        1043        1048        1047
        1043        1044        1049        1048
        1050        1051        1056        1055
        1051        1052        1057        1056
        1052        1053        1058        1057
        1053        1054        1059        1058
        1055        1056        1061        1060
        1056        1057        1062        1061
        1057        1058        1063        1062
        1058        1059        1064        1063
        1060        1061        1066        1065
        1061        1062        1067        1066
        1062        1063        1068        1067
        1063        1064        1069        1068
        1065        1066        1071        1070
        1066        1067        1072        1071
        1067        1068        1073        1072
        1068        1069        1074        1073
        1075        1076        1081        1080
        1076        1077        1082        1081
        1077        1078        1083        1082
        1078        1079        1084        1083
        1080        1081        1086        1085
        1081        1082        1087        1086
        1082        1083        1088        1087
        1083        1084        1089        1088
        1085        1086        1091        1090
        1086        1087        1092        1091
        1087        1088        1093        1092
        1088        1089        1094        1093
        1090        1091        1096        1095
        1091        1092        1097        1096
        1092        1093        1098        1097
        1093        1094        1099        1098
        1100        1101        1106        1105
        1101        1102        1107        1106
        1102        1103        1108        1107
        1103        1104        1109        1108
        1105        1106        1111        1110
        1106        1107        1112        1111
        1107        1108        1113        1112
        1108        1109        1114        1113
        1110        1111        1116        1115
        1111        1112        1117        1116
        1112        1113        1118        1117
        1113        1114        1119        1118
        1115        1116        1121        1120
        1116        1117        1122        1121
        1117        1118        1123        1122
        1118        1119        1124        1123
        1125        1126        1131        1130
        1126        1127        1132        1131
        1127        1128        1133        1132
        1128        1129        1134        1133
        1130        1131        1136        1135
        1131        1132        1137        1136
        1132        1133        1138        1137
        1133        1134        1139        1138
        1135        1136        1141        1140
        1136        1137        1142        1141
        1137        1138        1143        1142
        1138        1139        1144        1143
        1140        1141        1146        1145
        1141        1142        1147        1146
        1142        1143        1148        1147
        1143        1144        1149        1148
        1150        1151        1156        1155
        1151        1152        1157        1156
        1152        1153        1158        1157
        1153        1154        1159        1158
        1155        1156        1161        1160
        1156        1157        1162        1161
        1157        1158        1163        1162
        1158        1159        1164        1163
        1160        1161        1166        1165
        1161        1162        1167        1166
        1162        1163        1168        1167
        1163        1164        1169        1168
        1165        1166        1171        1170
        1166        1167        1172        1171
        1167        1168        1173        1172
        1168        1169        1174        1173
        1175        1176        1181        1180
        1176        1177        1182        1181
        1177        1178        1183        1182
        1178        1179        1184        1183
        1180        1181        1186        1185
        1181        1182        1187        1186
        1182        1183        1188        1187
        1183        1184        1189        1188
        1185        1186        1191        1190
        1186        1187        1192        1191
        1187        1188        1193        1192
        1188        1189        1194        1193
        1190        1191        1196        1195
        1191        1192        1197        1196
        1192        1193        1198        1197
        1193        1194        1199        1198
        1200        1201        1206        1205
        1201        1202        1207        1206
        1202        1203        1208        1207
        1203        1204        1209        1208
        1205        1206        1211        1210
        1206        1207        1212        1211
        1207        1208        1213        1212
        1208        1209        1214        1213
        1210        1211        1216        1215
        1211        1212        1217        1216
        1212        1213        1218        1217
        1213        1214        1219        1218
        1215        1216        1221        1220
        1216        1217        1222        1221
        1217        1218        1223        1222
        1218        1219        1224        1223
        1225        1226        1231        1230
        1226        1227        1232        1231
        1227        1228        1233        1232
        1228        1229        1234        1233
        1230        1231        1236        1235
        1231        1232        1237        1236
        1232        1233        1238        1237
        1233        1234        1239        1238
        1235        1236        1241        1240
        1236        1237        1242        1241
        1237        1238        1243        1242
        1238        1239        1244        1243
        1240        1241        1246        1245
        1241        1242        1247        1246
        1242        1243        1248        1247
        1243        1244        1249        1248
        1250        1251        1256        1255
        1251        1252        1257        1256
        1252        1253        1258        1257
        1253        1254        1259        1258
        1255        1256        1261        1260
        1256        1257        1262        1261
        1257        1258        1263        1262
        1258        1259        1264        1263
        1260        1261        1266        1265
        1261        1262        1267        1266
        1262        1263        1268        1267
        1263        1264        1269        1268
        1265        1266        1271        1270
        1266        1267        1272        1271
        1267        1268        1273        1272
        1268        1269        1274        1273
        1275        1276        1281        1280
        1276        1277        1282        1281
        1277        1278        1283        1282
        1278        1279        1284        1283
        1280        1281        1286        1285
        1281        1282        1287        1286
        1282        1283        1288        1287
        1283        1284        1289        1288
        1285        1286        1291        1290
        1286        1287        1292        1291
        1287        1288        1293        1292
        1288        1289        1294        1293
        1290        1291        1296        1295
        1291        1292        1297        1296
        1292        1293        1298        1297
        1293        1294        1299        1298
        1300        1301        1306        1305
        1301        1302        1307        1306
        1302        1303        1308        1307
        1303        1304        1309        1308
        1305        1306        1311        1310
        1306        1307        1312        1311
        1307        1308        1313        1312
        1308        1309        1314        1313
        1310        1311        1316        1315
        1311        1312        1317        1316
        1312        1313        1318        1317
        1313        1314        1319        1318
        1315        1316        1321        1320
        1316        1317        1322        1321
        1317        1318        1323        1322
        1318        1319        1324        1323
        1325        1326        1331        1330
        1326        1327        1332        1331
        1327        1328        1333        1332
        1328        1329        1334        1333
        1330        1331        1336        1335
        1331        1332        1337        1336
        1332        1333        1338        1337
        1333        1334        1339        1338
        1335        1336        1341        1340
        1336        1337        1342        1341
        1337        1338        1343        1342
        1338        1339        1344        1343
        1340        1341        1346        1345
        1341        1342        1347        1346
        1342        1343        1348        1347
        1343        1344        1349        1348
        1350        1351        1356        1355
        1351        1352        1357        1356
        1352        1353        1358        1357
        1353        1354        1359        1358
        1355        1356        1361        1360
        1356        1357        1362        1361
        1357        1358        1363        1362
        1358        1359        1364        1363
        1360        1361        1366        1365
        1361        1362        1367        1366
        1362        1363        1368        1367
        1363        1364        1369        1368
        1365        1366        1371        1370
        1366        1367        1372        1371
        1367        1368        1373        1372
        1368        1369        1374        1373
        1375        1376        1381        1380
        1376        1377        1382        1381
        1377        1378        1383        1382
        1378        1379        1384        1383
        1380        1381        1386        1385
        1381        1382        1387        1386
        1382        1383        1388        1387
        1383        1384        1389        1388
        1385        1386        1391        1390
        1386        1387        1392        1391
        1387        1388        1393        1392
        1388        1389        1394        1393
        1390        1391        1396        1395
        1391        1392        1397        1396
        1392        1393        1398        1397
        1393        1394        1399        1398
        1400        1401        1406        1405
        1401        1402        1407        1406
        1402        1403        1408        1407
        1403        1404        1409        1408
        1405        1406        1411        1410
        1406        1407        1412        1411
        1407        1408        1413        1412
        1408        1409        1414        1413
        1410        1411        1416        1415
        1411        1412        1417        1416
        1412        1413        1418        1417
        1413        1414        1419        1418
        1415        1416        1421        1420
        1416        1417        1422        1421
        1417        1418        1423        1422
        1418        1419        1424        1423
        1425        1426        1431        1430
        1426        1427        1432        1431
        1427        1428        1433        1432
        1428        1429        1434        1433
        1430        1431        1436        1435
        1431        1432        1437        1436
        1432        1433        1438        1437
        1433        1434        1439        1438
        1435        1436        1441        1440
        1436        1437        1442        1441
        1437        1438        1443        1442
        1438        1439        1444        1443
        1440        1441        1446        1445
        1441        1442        1447        1446
        1442        1443        1448        1447
        1443        1444        1449        1448
        1450        1451        1456        1455
        1451        1452        1457        1456
        1452        1453        1458        1457
        1453        1454        1459        1458
        1455        1456        1461        1460
        1456        1457        1462        1461
        1457        1458        1463        1462
        1458        1459        1464        1463
        1460        1461        1466        1465
        1461        1462        1467        1466
        1462        1463        1468        1467
        1463        1464        1469        1468
        1465        1466        1471        1470
        1466        1467        1472        1471
        1467        1468        1473        1472
        1468        1469        1474        1473
        1475        1476        1481        1480
        1476        1477        1482        1481
        1477        1478        1483        1482
        1478        1479        1484        1483
        1480        1481        1486        1485
        1481        1482        1487        1486
        1482        1483        1488        1487
        1483        1484        1489        1488
        1485        1486        1491        1490
        1486        1487        1492        1491
        1487        1488        1493        1492
        1488        1489        1494        1493
        1490        1491        1496        1495
        1491        1492        1497        1496
        1492        1493        1498        1497
        1493        1494        1499        1498
        1500        1501        1506        1505
        1501        1502        1507        1506
        1502        1503        1508        1507
        1503        1504        1509        1508
        1505        1506        1511        1510
        1506        1507        1512        1511
        1507        1508        1513        1512
        1508        1509        1514        1513
        1510        1511        1516        1515
        1511        1512        1517        1516
        1512        1513        1518        1517
        1513        1514        1519        1518
        1515        1516        1521        1520
        1516        1517        1522        1521
        1517        1518        1523        1522
        1518        1519        1524        1523
        1525        1526        1531        1530
        1526        1527        1532        1531
        1527        1528        1533        1532
        1528        1529        1534        1533
        1530        1531        1536        1535
        1531        1532        1537        1536
        1532        1533        1538        1537
        1533        1534        1539        1538
        1535        1536        1541        1540
        1536        1537        1542        1541
        1537        1538        1543        1542
        1538        1539        1544        1543
        1540        1541        1546        1545
        1541        1542        1547        1546
        1542        1543        1548        1547
        1543        1544        1549        1548
        1550        1551        1556        1555
        1551        1552        1557        1556
        1552        1553        1558        1557
        1553        1554        1559        1558
        1555        1556        1561        1560
        1556        1557        1562        1561
        1557        1558        1563        1562
        1558        1559        1564        1563
        1560        1561        1566        1565
        1561        1562        1567        1566
        1562        1563        1568        1567
        1563        1564        1569        1568
        1565        1566        1571        1570
        1566        1567        1572        1571
        1567        1568        1573        1572
        1568        1569        1574        1573
        1575        1576        1581        1580
        1576        1577        1582        1581
        1577        1578        1583        1582
        1578        1579        1584        1583
        1580        1581        1586        1585
        1581        1582        1587        1586
        1582        1583        1588        1587
        1583        1584        1589        1588
        1585        1586        1591        1590
        1586        1587        1592        1591
        1587        1588        1593        1592
        1588        1589        1594        1593
        1590        1591        1596        1595
        1591        1592        1597        1596
        1592        1593        1598        1597
        1593        1594        1599        1598
 </DataArray>
 <DataArray  type="Int32"  Name="offsets"  format="ascii"> 
           4
           8
          12
          16
          20
          24
          28
          32
          36
          40
          44
          48
          52
          56
          60
          64
          68
          72
          76
          80
          84
          88
          92
          96
         100
         104
         108
         112
         116
         120
         124
         128
         132
         136
         140
         144
         148
         152
         156
         160
         164
         168
         172
         176
         180
         184
         188
         192
         196
         200
         204
         208
         212
         216
         220
         224
         228
         232
         236
         240
         244
         248
         252
         256
         260
         264
         268
         272
         276
         280
         284
         288
         292
         296
         300
         304
         308
         312
         316
         320
         324
         328
         332
         336
         340
         344
         348
         352
         356
         360
         364
         368
         372
         376
         380
         384
         388
         392
         396
         400
         404
         408
         412
         416
         420
         424
         428
         432
         436
         440
         444
         448
         452
         456
         460
         464
         468
         472
         476
         480
         484
         488
         492
         496
         500
         504
         508
         512
         516
         520
         524
         528
         532
         536
         540
         544
         548
         552
         556
         560
         564
         568
         572
         576
         580
         584
         588
         592
         596
         600
         604
         608
         612
         616
         620
         624
         628
         632
         636
         640
         644
         648
         652
         656
         660
         664
         668
         672
         676
         680
         684
         688
         692
         696
         700
         704
         708
         712
         716
         720
         724
         728
         732
         736
         740
         744
         748
         752
         756
         760
         764
         768
         772
         776
         780
         784
         788
         792
         796
         800
         804
         808
         812
         816
         820
         824
         828
         832
         836
         840
         844
         848
         852
         856
         860
         864
         868
         872
         876
         880
         884
         888
         892
         896
         900
         904
         908
         912
         916
         920
         924
         928
         932
         936
         940
         944
         948
         952
         956
         960
         964
         968
         972
         976
         980
         984
         988
         992
         996
        1000
        1004
        1008
        1012
        1016
        1020
        1024
        1028
        1032
        1036
        1040
        1044
        1048
        1052
        1056
        1060
        1064
        1068
        1072
        1076
        1080
        1084
        1088
        1092
        1096
        1100
        1104
        1108
        1112
        1116
        1120
        1124
        1128
        1132
        1136
        1140
        1144
        1148
        1152
        1156
        1160
        1164
        1168
        1172
        1176
        1180
        1184
        1188
        1192
        1196
        1200
        1204
        1208
        1212
        1216
        1220
        1224
        1228
        1232
        1236
        1240
        1244
        1248
        1252
        1256
        1260
        1264
        1268
        1272
        1276
        1280
        1284
        1288
        1292
        1296
        1300
        1304
        1308
        1312
        1316
        1320
        1324
        1328
        1332
        1336
        1340
        1344
        1348
        1352
        1356
        1360
        1364
        1368
        1372
        1376
        1380
        1384
        1388
        1392
        1396
        1400
        1404
        1408
        1412
        1416
        1420
        1424
        1428
        1432
        1436
        1440
        1444
        1448
        1452
        1456
        1460
        1464
        1468
        1472
        1476
        1480
        1484
        1488
        1492
        1496
        1500
        1504
        1508
        1512
        1516
        1520
        1524
        1528
        1532
        1536
        1540
        1544
        1548
        1552
        1556
        1560
        1564
        1568
        1572
        1576
        1580
        1584
        1588
        1592
        1596
        1600
        1604
        1608
        1612
        1616
        1620
        1624
        1628
        1632
        1636
        1640
        1644
        1648
        1652
        1656
        1660
        1664
        1668
        1672
        1676
        1680
        1684
        1688
        1692
        1696
        1700
        1704
        1708
        1712
        1716
        1720
        1724
        1728
        1732
        1736
        1740
        1744
        1748
        1752
        1756
        1760
        1764
        1768
        1772
        1776
        1780
        1784
        1788
        1792
        1796
        1800
        1804
        1808
        1812
        1816
        1820
        1824
        1828
        1832
        1836
        1840
        1844
        1848
        1852
        1856
        1860
        1864
        1868
        1872
        1876
        1880
        1884
        1888
        1892
        1896
        1900
        1904
        1908
        1912
        1916
        1920
        1924
        1928
        1932
        1936
        1940
        1944
        1948
        1952
        1956
        1960
        1964
        1968
        1972
        1976
        1980
        1984
        1988
        1992
        1996
        2000
        2004
        2008
        2012
        2016
        2020
        2024
        2028
        2032
        2036
        2040
        2044
        2048
        2052
        2056
        2060
        2064
        2068
        2072
        2076
        2080
        2084
        2088
        2092
        2096
        2100
        2104
        2108
        2112
        2116
        2120
        2124
        2128
        2132
        2136
        2140
        2144
        2148
        2152
        2156
        2160
        2164
        2168
        2172
        2176
        2180
        2184
        2188
        2192
        2196
        2200
        2204
        2208
        2212
        2216
        2220
        2224
        2228
        2232
        2236
        2240
        2244
        2248
        2252
        2256
        2260
        2264
        2268
        2272
        2276
        2280
        2284
        2288
        2292
        2296
        2300
        2304
        2308
        2312
        2316
        2320
        2324
        2328
        2332
        2336
        2340
        2344
        2348
        2352
        2356
        2360
        2364
        2368
        2372
        2376
        2380
        2384
        2388
        2392
        2396
        2400
        2404
        2408
        2412
        2416
        2420
        2424
        2428
        2432
        2436
        2440
        2444
        2448
        2452
        2456
        2460
        2464
        2468
        2472
        2476
        2480
        2484
        2488
        2492
        2496
        2500
        2504
        2508
        2512
        2516
        2520
        2524
        2528
        2532
        2536
        2540
        2544
        2548
        2552
        2556
        2560
        2564
        2568
        2572
        2576
        2580
        2584
        2588
        2592
        2596
        2600
        2604
        2608
        2612
        2616
        2620
        2624
        2628
        2632
        2636
        2640
        2644
        2648
        2652
        2656
        2660
        2664
        2668
        2672
        2676
        2680
        2684
        2688
        2692
        2696
        2700
        2704
        2708
        2712
        2716
        2720
        2724
        2728
        2732
        2736
        2740
        2744
        2748
        2752
        2756
        2760
        2764
        2768
        2772
        2776
        2780
        2784
        2788
        2792
        2796
        2800
        2804
        2808
        2812
        2816
        2820
        2824
        2828
        2832
        2836
        2840
        2844
        2848
        2852
        2856
        2860
        2864
        2868
        2872
        2876
        2880
        2884
        2888
        2892
        2896
        2900
        2904
        2908
        2912
        2916
        2920
        2924
        2928
        2932
        2936
        2940
        2944
        2948
        2952
        2956
        2960
        2964
        2968
        2972
        2976
        2980
        2984
        2988
        2992
        2996
        3000
        3004
        3008
        3012
        3016
        3020
        3024
        3028
        3032
        3036
        3040
        3044
        3048
        3052
        3056
        3060
        3064
        3068
        3072
        3076
        3080
        3084
        3088
        3092
        3096
        3100
        3104
        3108
        3112
        3116
        3120
        3124
        3128
        3132
        3136
        3140
        3144
        3148
        3152
        3156
        3160
        3164
        3168
        3172
        3176
        3180
        3184
        3188
        3192
        3196
        3200
        3204
        3208
        3212
        3216
        3220
        3224
        3228
        3232
        3236
        3240
        3244
        3248
        3252
        3256
        3260
        3264
        3268
        3272
        3276
        3280
        3284
        3288
        3292
        3296
        3300
        3304
        3308
        3312
        3316
        3320
        3324
        3328
        3332
        3336
        3340
        3344
        3348
        3352
        3356
        3360
        3364
        3368
        3372
        3376
        3380
        3384
        3388
        3392
        3396
        3400
        3404
        3408
        3412
        3416
        3420
        3424
        3428
        3432
        3436
        3440
        3444
        3448
        3452
        3456
        3460
        3464
        3468
        3472
        3476
        3480
        3484
        3488
        3492
        3496
        3500
        3504
        3508
        3512
        3516
        3520
        3524
        3528
        3532
        3536
        3540
        3544
        3548
        3552
        3556
        3560
        3564
        3568
        3572
        3576
        3580
        3584
        3588
        3592
        3596
        3600
        3604
        3608
        3612
        3616
        3620
        3624
        3628
        3632
        3636
        3640
        3644
        3648
        3652
        3656
        3660
        3664
        3668
        3672
        3676
        3680
        3684
        3688
        3692
        3696
        3700
        3704
        3708
        3712
        3716
        3720
        3724
        3728
        3732
        3736
        3740
        3744
        3748
        3752
        3756
        3760
        3764
        3768
        3772
        3776
        3780
        3784
        3788
        3792
        3796
        3800
        3804
        3808
        3812
        3816
        3820
        3824
        3828
        3832
        3836
        3840
        3844
        3848
        3852
        3856
        3860
        3864
        3868
        3872
        3876
        3880
        3884
        3888
        3892
        3896
        3900
        3904
        3908
        3912
        3916
        3920
        3924
        3928
        3932
        3936
        3940
        3944
        3948
        3952
        3956
        3960
        3964
        3968
        3972
        3976
        3980
        3984
        3988
        3992
        3996
        4000
        4004
        4008
        4012
        4016
        4020
        4024
        4028
        4032
        4036
        4040
        4044
        4048
        4052
        4056
        4060
        4064
        4068
        4072
        4076
        4080
        4084
        4088
        4092
        4096
 </DataArray>
 <DataArray  type="UInt8"  Name="types"  format="ascii">
 9
 9
 9
 9
 9
 9
 9
 9
 9
 9
 9
 9
 9
 9
 9
 9
 9
 9
 9
 9
 9
 9
 9
 9
 9
 9
 9
 9
 9
 9
 9
 9
 9
 9
 9
 9
 9
 9
 9
 9
 9
 9
 9
 9
 9
 9
 9
 9
 9
 9
 9
 9
 9
 9
 9
 9
 9
 9
 9
 9
 9
 9
 9
 9
 9
 9
 9
 9
 9
 9
 9
 9
 9
 9
 9
 9
 9
 9
 9
 9
 9
 9
 9
 9
 9
 9
 9
 9
 9
 9
 9
 9
 9
 9
 9
 9
 9
 9
 9
 9
 9
 9
 9
 9
 9
 9
 9
 9
 9
 9
 9
 9
 9
 9
 9
 9
 9
 9
 9
 9
 9
 9
 9
 9
 9
 9
 9
 9
 9
 9
 9
 9
 9
 9
 9
 9
 9
 9
 9
 9
 9
 9
 9
 9
 9
 9
 9
 9
 9
 9
 9
 9
 9
 9
 9
 9
 9
 9
 9
 9
 9
 9
 9
 9
 9
 9
 9
 9
 9
 9
 9
 9
 9
 9
 9
 9
 9
 9
 9
 9
 9
 9
 9
 9
 9
 9
 9
 9
 9
 9
 9
 9
 9
 9
 9
 9
 9
 9
 9
 9
 9
 9
 9
 9
 9
 9
 9
 9
 9
 9
 9
 9
 9
 9
 9
 9
 9
 9
 9
 9
 9
 9
 9
 9
 9
 9
 9
 9
 9
 9
 9
 9
 9
 9
 9
 9
 9
 9
 9
 9
 9
 9
 9
 9
 9
 9
 9
 9
 9
 9
 9
 9
 9
 9
 9
 9
 9
 9
 9
 9
 9
 9
 9
 9
 9
 9
 9
 9
 9
 9
 9
 9
 9
 9
 9
 9
 9
 9
 9
 9
 9
 9
 9
 9
 9
 9
 9
 9
 9
 9
 9
 9
 9
 9
 9
 9
 9
 9
 9
 9
 9
 9
 9
 9
 9
 9
 9
 9
 9
 9
 9
 9
 9
 9
 9
 9
 9
 9
 9
 9
 9
 9
 9
 9
 9
 9
 9
 9
 9
 9
 9
 9
 9
 9
 9
 9
 9
 9
 9
 9
 9
 9
 9
 9
 9
 9
 9
 9
 9
 9
 9
 9
 9
 9
 9
 9
 9
 9
 9
 9
 9
 9
 9
 9
 9
 9
 9
 9
 9
 9
 9
 9
 9
 9
 9
 9
 9
 9
 9
 9
 9
 9
 9
 9
 9
 9
 9
 9
 9
 9
 9
 9
 9
 9
 9
 9
 9
 9
 9
 9
 9
 9
 9
 9
 9
 9
 9
 9
 9
 9
 9
 9
 9
 9
 9
 9
 9
 9
 9
 9
 9
 9
 9
 9
 9
 9
 9
 9
 9
 9
 9
 9
 9
 9
 9
 9
 9
 9
 9
 9
 9
 9
 9
 9
 9
 9
 9
 9
 9
 9
 9
 9
 9
 9
 9
 9
 9
 9
 9
 9
 9
 9
 9
 9
 9
 9
 9
 9
 9
 9
 9
 9
 9
 9
 9
 9
 9
 9
 9
 9
 9
 9
 9
 9
 9
 9
 9
 9
 9
 9
 9
 9
 9
 9
 9
 9
 9
 9
 9
 9
 9
 9
 9
 9
 9
 9
 9
 9
 9
 9
 9
 9
 9
 9
 9
 9
 9
 9
 9
 9
 9
 9
 9
 9
 9
 9
 9
 9
 9
 9
 9
 9
 9
 9
 9
 9
 9
 9
 9
 9
 9
 9
 9
 9
 9
 9
 9
 9
 9
 9
 9
 9
 9
 9
 9
 9
 9
 9
 9
 9
 9
 9
 9
 9
 9
 9
 9
 9
 9
 9
 9
 9
 9
 9
 9
 9
 9
 9
 9
 9
 9
 9
 9
 9
 9
 9
 9
 9
 9
 9
 9
 9
 9
 9
 9
 9
 9
 9
 9
 9
 9
 9
 9
 9
 9
 9
 9
 9
 9
 9
 9
 9
 9
 9
 9
 9
 9
 9
 9
 9
 9
 9
 9
 9
 9
 9
 9
 9
 9
 9
 9
 9
 9
 9
 9
 9
 9
 9
 9
 9
 9
 9
 9
 9
 9
 9
 9
 9
 9
 9
 9
 9
 9
 9
 9
 9
 9
 9
 9
 9
 9
 9
 9
 9
 9
 9
 9
 9
 9
 9
 9
 9
 9
 9
 9
 9
 9
 9
 9
 9
 9
 9
 9
 9
 9
 9
 9
 9
 9
 9
 9
 9
 9
 9
 9
 9
 9
 9
 9
 9
 9
 9
 9
 9
 9
 9
 9
 9
 9
 9
 9
 9
 9
 9
 9
 9
 9
 9
 9
 9
 9
 9
 9
 9
 9
 9
 9
 9
 9
 9
 9
 9
 9
 9
 9
 9
 9
 9
 9
 9
 9
 9
 9
 9
 9
 9
 9
 9
 9
 9
 9
 9
 9
 9
 9
 9
 9
 9
 9
 9
 9
 9
 9
 9
 9
 9
 9
 9
 9
 9
 9
 9
 9
 9
 9
 9
 9
 9
 9
 9
 9
 9
 9
 9
 9
 9
 9
 9
 9
 9
 9
 9
 9
 9
 9
 9
 9
 9
 9
 9
 9
 9
 9
 9
 9
 9
 9
 9
 9
 9
 9
 9
 9
 9
 9
 9
 9
 9
 9
 9
 9
 9
 9
 9
 9
 9
 9
 9
 9
 9
 9
 9
 9
 9
 9
 9
 9
 9
 9
 9
 9
 9
 9
 9
 9
 9
 9
 9
 9
 9
 9
 9
 9
 9
 9
 9
 9
 9
 9
 9
 9
 9
 9
 9
 9
 9
 9
 9
 9
 9
 9
 9
 9
 9
 9
 9
 9
 9
 9
 9
 9
 9
 9
 9
 9
 9
 9
 9
 9
 9
 9
 9
 9
 9
 9
 9
 9
 9
 9
 9
 9
 9
 9
 9
 9
 9
 9
 9
 9
 9
 9
 9
 9
 9
 9
 9
 9
 9
 9
 9
 9
 9
 9
 9
 9
 9
 9
 9
 9
 9
 9
 9
 9
 9
 9
 9
 9
 9
 9
 9
 9
 9
 9
 9
 9
 9
 9
 9
 9
 9
 9
 9
 9
 9
 9
 9
 9
 9
 9
 9
 9
 9
 9
 9
 9
 9
 9
 9
 9
 9
 9
 9
 9
 9
 9
 9
 9
 9
 9
 9
 9
 9
 9
 9
 9
 9
 9
 9
 9
 9
 9
 9
 9
 9
 9
 9
 9
 9
 9
 9
 9
 9
 9
 9
 9
 9
 9
 9
 9
 9
 9
 9
 9
 9
 9
 9
 9
 9
 9
 9
 9
 9
 9
 9
 </DataArray>
 </Cells> 
 <PointData>
 <DataArray  type="Float64" Name="disp" NumberOfComponents="3" format="ascii">
   0.0000000000000000        0.0000000000000000        0.0000000000000000     
   6.0959336703514319E-003   3.7904458549739991E-003   0.0000000000000000     
   1.1665988696829841E-002   7.3238701830342506E-003   0.0000000000000000     
   1.6710165079435228E-002   1.0600272984180753E-002   0.0000000000000000     
   2.1228462818167589E-002   1.3619654258413511E-002   0.0000000000000000     
   0.0000000000000000        0.0000000000000000        0.0000000000000000     
   4.8911462585819344E-003   3.0221552787306248E-003   0.0000000000000000     
   9.5736449896606408E-003   6.0605543215274289E-003   0.0000000000000000     
   1.4047496193236121E-002   9.1151971283904114E-003   0.0000000000000000     
   1.8312699869308377E-002   1.2186083699319575E-002   0.0000000000000000     
   0.0000000000000000        0.0000000000000000        0.0000000000000000     
   3.9535762634008622E-003   2.4251229029995129E-003   0.0000000000000000     
   7.9106467224595960E-003   5.0629088064246880E-003   0.0000000000000000     
   1.1871211377176201E-002   7.9133577102755252E-003   0.0000000000000000     
   1.5835270227550678E-002   1.0976469614552025E-002   0.0000000000000000     
   0.0000000000000000        0.0000000000000000        0.0000000000000000     
   3.2832236848082150E-003   1.9993487277806632E-003   0.0000000000000000     
   6.6769938952267035E-003   4.3309336377260286E-003   0.0000000000000000     
   1.0181310631255467E-002   6.9947547298360967E-003   0.0000000000000000     
   1.3796173892894503E-002   9.9908120041108644E-003   0.0000000000000000     
   0.0000000000000000        0.0000000000000000        0.0000000000000000     
   2.8800885228039922E-003   1.7448327530740762E-003   0.0000000000000000     
   5.8726865079619644E-003   3.8646288154314500E-003   0.0000000000000000     
   8.9777939554739148E-003   6.3593881870721222E-003   0.0000000000000000     
   1.2195410865339847E-002   9.2291108679960904E-003   0.0000000000000000     
   2.1228462818167589E-002   1.3619654258413511E-002   0.0000000000000000     
   2.5433662486789507E-002   1.6612630702145227E-002   0.0000000000000000     
   2.9538544659063568E-002   1.9809819011788622E-002   0.0000000000000000     
   3.3543109334989760E-002   2.3211219187343680E-002   0.0000000000000000     
   3.7447356514568084E-002   2.6816831228810414E-002   0.0000000000000000     
   1.8312699869308377E-002   1.2186083699319575E-002   0.0000000000000000     
   2.2407418361451620E-002   1.5341574095292781E-002   0.0000000000000000     
   2.6369814013240078E-002   1.8650028377287894E-002   0.0000000000000000     
   3.0199886824673748E-002   2.2111446545304909E-002   0.0000000000000000     
   3.3897636795752625E-002   2.5725828599343838E-002   0.0000000000000000     
   1.5835270227550678E-002   1.0976469614552025E-002   0.0000000000000000     
   1.9731025499162950E-002   1.4211068498784060E-002   0.0000000000000000     
   2.3486679417592939E-002   1.7575978342501491E-002   0.0000000000000000     
   2.7102231982840636E-002   2.1071199145704322E-002   0.0000000000000000     
   3.0577683194906054E-002   2.4696730908392556E-002   0.0000000000000000     
   1.3796173892894503E-002   9.9908120041108644E-003   0.0000000000000000     
   1.7404483899923502E-002   1.3221113912619062E-002   0.0000000000000000     
   2.0889140872122142E-002   1.6587668907429409E-002   0.0000000000000000     
   2.4250144809490431E-002   2.0090476988541914E-002   0.0000000000000000     
   2.7487495712028371E-002   2.3729538155956575E-002   0.0000000000000000     
   1.2195410865339847E-002   9.2291108679960904E-003   0.0000000000000000     
   1.5427793563733267E-002   1.2371710336797790E-002   0.0000000000000000     
   1.8577198376827697E-002   1.5685100072071658E-002   0.0000000000000000     
   2.1643625304623125E-002   1.9169280073817685E-002   0.0000000000000000     
   2.4627074347119558E-002   2.2824250342035883E-002   0.0000000000000000     
   3.7447356514568084E-002   2.6816831228810414E-002   0.0000000000000000     
   4.1255850365472094E-002   3.0621974503584566E-002   0.0000000000000000     
   4.4973155055375316E-002   3.4621968379061868E-002   0.0000000000000000     
   4.8599270584277758E-002   3.8816812855242334E-002   0.0000000000000000     
   5.2134196952179412E-002   4.3206507932125965E-002   0.0000000000000000     
   3.3897636795752625E-002   2.5725828599343838E-002   0.0000000000000000     
   3.7486339483990175E-002   2.9521996424721655E-002   0.0000000000000000     
   4.0989270446899852E-002   3.3528771906755364E-002   0.0000000000000000     
   4.4406429684481628E-002   3.7746155045444957E-002   0.0000000000000000     
   4.7737817196735532E-002   4.2174145840790433E-002   0.0000000000000000     
   3.0577683194906054E-002   2.4696730908392556E-002   0.0000000000000000     
   3.3942497128944954E-002   2.8497139088240135E-002   0.0000000000000000     
   3.7226137860113070E-002   3.2516989142921011E-002   0.0000000000000000     
   4.0428605388410435E-002   3.6756281072435185E-002   0.0000000000000000     
   4.3549899713837013E-002   4.1215014876782648E-002   0.0000000000000000     
   2.7487495712028371E-002   2.3729538155956575E-002   0.0000000000000000     
   3.0624323300336403E-002   2.7547402494139995E-002   0.0000000000000000     
   3.3683757295015000E-002   3.1586620087558810E-002   0.0000000000000000     
   3.6665797696064151E-002   3.5847190936213004E-002   0.0000000000000000     
   3.9570444503483848E-002   4.0329115040102594E-002   0.0000000000000000     
   2.4627074347119558E-002   2.2824250342035883E-002   0.0000000000000000     
   2.7531817998164544E-002   2.6672786642421238E-002   0.0000000000000000     
   3.0362128751605624E-002   3.0737664740668753E-002   0.0000000000000000     
   3.3118006607442789E-002   3.5018884636778436E-002   0.0000000000000000     
   3.5799451565676058E-002   3.9516446330750271E-002   0.0000000000000000     
   5.2134196952179412E-002   4.3206507932125965E-002   0.0000000000000000     
   5.5574635522245688E-002   4.7795657246045793E-002   0.0000000000000000     
   5.8917287657641981E-002   5.2588864433334874E-002   0.0000000000000000     
   6.2162153358368277E-002   5.7586129493993214E-002   0.0000000000000000     
   6.5309232624424590E-002   6.2787452428020807E-002   0.0000000000000000     
   4.7737817196735532E-002   4.2174145840790433E-002   0.0000000000000000     
   5.0978891959245286E-002   4.6806268841605173E-002   0.0000000000000000     
   5.4125112947594596E-002   5.1636048596702538E-002   0.0000000000000000     
   5.7176480161783463E-002   5.6663485106082531E-002   0.0000000000000000     
   6.0132993601811888E-002   6.1888578369745137E-002   0.0000000000000000     
   4.3549899713837013E-002   4.1215014876782648E-002   0.0000000000000000     
   4.6585518175099351E-002   4.5880670930429926E-002   0.0000000000000000     
   4.9530958110903911E-002   5.0740729607843545E-002   0.0000000000000000     
   5.2386219521250728E-002   5.5795190909023476E-002   0.0000000000000000     
   5.5151302406139781E-002   6.1044054833969741E-002   0.0000000000000000     
   3.9570444503483848E-002   4.0329115040102594E-002   0.0000000000000000     
   4.2394514169807877E-002   4.5018863512520053E-002   0.0000000000000000     
   4.5134823147569961E-002   4.9902907466757872E-002   0.0000000000000000     
   4.7791371436770085E-002   5.4981246902816062E-002   0.0000000000000000     
   5.0364159037408297E-002   6.0253881820694612E-002   0.0000000000000000     
   3.5799451565676058E-002   3.9516446330750271E-002   0.0000000000000000     
   3.8405879943370871E-002   4.4220846587875541E-002   0.0000000000000000     
   4.0936708057592704E-002   4.9122582173445548E-002   0.0000000000000000     
   4.3391935908341554E-002   5.4221653087460277E-002   0.0000000000000000     
   4.5771563495617409E-002   5.9518059329919742E-002   0.0000000000000000     
   6.5309232624424590E-002   6.2787452428020807E-002   0.0000000000000000     
   6.8362993623754503E-002   6.8179026847826618E-002   0.0000000000000000     
   7.1327904524301558E-002   7.3747046365819593E-002   0.0000000000000000     
   7.4203965326065796E-002   7.9491510981999719E-002   0.0000000000000000     
   7.6991176029047176E-002   8.5412420696367036E-002   0.0000000000000000     
   6.0132993601811888E-002   6.1888578369745137E-002   0.0000000000000000     
   6.3000271734659594E-002   6.7302218074605000E-002   0.0000000000000000     
   6.5783933027306313E-002   7.2895293907576736E-002   0.0000000000000000     
   6.8483977479752031E-002   7.8667805868660290E-002   0.0000000000000000     
   7.1100405091996749E-002   8.4619753957855731E-002   0.0000000000000000     
   5.5151302406139781E-002   6.1044054833969741E-002   0.0000000000000000     
   5.7831977131897833E-002   6.6480720371182744E-002   0.0000000000000000     
   6.0434014064851577E-002   7.2098586509162912E-002   0.0000000000000000     
   6.2957413205001075E-002   7.7897653247910217E-002   0.0000000000000000     
   6.5402174552346259E-002   8.3877920587424687E-002   0.0000000000000000     
   5.0364159037408297E-002   6.0253881820694612E-002   0.0000000000000000     
   5.2858109815469186E-002   6.5714533737559852E-002   0.0000000000000000     
   5.5278147636937378E-002   7.1356924170578165E-002   0.0000000000000000     
   5.7624272501812880E-002   7.7181053119749488E-002   0.0000000000000000     
   5.9896484410095693E-002   8.3186920585073890E-002   0.0000000000000000     
   4.5771563495617409E-002   5.9518059329919742E-002   0.0000000000000000     
   4.8078669785373673E-002   6.5003658173736323E-002   0.0000000000000000     
   5.0316333743563695E-002   7.0670306891822465E-002   0.0000000000000000     
   5.2484555370187487E-002   7.6518005484178128E-002   0.0000000000000000     
   5.4583334665245044E-002   8.2546753950803353E-002   0.0000000000000000     
   7.6991176029047176E-002   8.5412420696367036E-002   0.0000000000000000     
   7.9681083320343654E-002   9.1502564271947390E-002   0.0000000000000000     
   8.2265233887053146E-002   9.7754730471766665E-002   0.0000000000000000     
   8.4743627729175638E-002  0.10416891929582488        0.0000000000000000     
   8.7116264846711131E-002  0.11074513074412198        0.0000000000000000     
   7.1100405091996749E-002   8.4619753957855731E-002   0.0000000000000000     
   7.3624398699775939E-002   9.0741153446219025E-002   0.0000000000000000     
   7.6047141138825033E-002   9.7022019604806178E-002   0.0000000000000000     
   7.8368632409144073E-002  0.10346235243361715        0.0000000000000000     
   8.0588872510733017E-002  0.11006215193265198        0.0000000000000000     
   6.5402174552346259E-002   8.3877920587424687E-002   0.0000000000000000     
   6.7759662834666973E-002   9.0027703411333052E-002   0.0000000000000000     
   7.0021242779742976E-002   9.6335316603262111E-002   0.0000000000000000     
   7.2186914387574311E-002  0.10280076016321185        0.0000000000000000     
   7.4256677658160936E-002  0.10942403409118223        0.0000000000000000     
   5.9896484410095693E-002   8.3186920585073890E-002   0.0000000000000000     
   6.2086875725016734E-002   8.9362214167289497E-002   0.0000000000000000     
   6.4187538809806946E-002   9.5694621467134519E-002   0.0000000000000000     
   6.6198473664466295E-002  0.10218414248460891        0.0000000000000000     
   6.8119680288994844E-002  0.10883077721971275        0.0000000000000000     
   5.4583334665245044E-002   8.2546753950803353E-002   0.0000000000000000     
   5.6606037370825230E-002   8.8744685714088320E-002   0.0000000000000000     
   5.8546029229016909E-002   9.5099934196423375E-002   0.0000000000000000     
   6.0403310239820096E-002  0.10161249939780841        0.0000000000000000     
   6.2177880403234770E-002  0.10828238131824351        0.0000000000000000     
   8.7116264846711131E-002  0.11074513074412198        0.0000000000000000     
   8.9394537228257853E-002  0.11746572015058263        0.0000000000000000     
   9.1589836862414037E-002  0.12431304284913140        0.0000000000000000     
   9.3702163749179695E-002  0.13128709883976830        0.0000000000000000     
   9.5731517888554787E-002  0.13838788812249331        0.0000000000000000     
   8.0588872510733017E-002  0.11006215193265198        0.0000000000000000     
   8.2722238776466908E-002  0.11680704071189442        0.0000000000000000     
   8.4783108539220706E-002  0.12368264138132821        0.0000000000000000     
   8.6771481798994438E-002  0.13068895394095334        0.0000000000000000     
   8.8687358555788104E-002  0.13782597839076985        0.0000000000000000     
   7.4256677658160936E-002  0.10942403409118223        0.0000000000000000     
   7.6246188683194660E-002  0.11619284878776899        0.0000000000000000     
   7.8171103554367294E-002  0.12309491465356780        0.0000000000000000     
   8.0031422271678851E-002  0.13013023168857860        0.0000000000000000     
   8.1827144835129303E-002  0.13729879989280147        0.0000000000000000     
   6.8119680288994844E-002  0.10883077721971275        0.0000000000000000     
   6.9966386948441164E-002  0.11562314437820635        0.0000000000000000     
   7.1753821907853857E-002  0.12254986266585011        0.0000000000000000     
   7.3481985167232935E-002  0.12961093208264407        0.0000000000000000     
   7.5150876726578400E-002  0.13680635262858815        0.0000000000000000     
   6.2177880403234770E-002  0.10828238131824351        0.0000000000000000     
   6.3882833572206393E-002  0.11509792748320648        0.0000000000000000     
   6.5531263599680353E-002  0.12204748541817520        0.0000000000000000     
   6.7123170485656691E-002  0.12913105512314968        0.0000000000000000     
   6.8658554230135393E-002  0.13634863659812993        0.0000000000000000     
   9.5731517888554787E-002  0.13838788812249331        0.0000000000000000     
   9.7666917592153554E-002  0.14561496817334019        0.0000000000000000     
   9.9497381171590155E-002  0.15296789646834266        0.0000000000000000     
  0.10122290862686462       0.16044667300750071        0.0000000000000000     
  0.10284349995797697       0.16805129779081435        0.0000000000000000     
   8.8687358555788104E-002  0.13782597839076985        0.0000000000000000     
   9.0508745073211758E-002  0.14508505744609002        0.0000000000000000     
   9.2213647614875452E-002  0.15245753382222618        0.0000000000000000     
   9.3802066180779214E-002  0.15994340751917835        0.0000000000000000     
   9.5274000770923017E-002  0.16754267853694654        0.0000000000000000     
   8.1827144835129303E-002  0.13729879989280147        0.0000000000000000     
   8.3530625821501975E-002  0.14458715696515437        0.0000000000000000     
   8.5114219807580146E-002  0.15198184060455522        0.0000000000000000     
   8.6577926793363819E-002  0.15948285081100411        0.0000000000000000     
   8.7921746778853019E-002  0.16709018758450100        0.0000000000000000     
   7.5150876726578400E-002  0.13680635262858815        0.0000000000000000     
   7.6732559837024178E-002  0.14412126673053313        0.0000000000000000     
   7.8199097749704197E-002  0.15154081681532974        0.0000000000000000     
   7.9550490464618429E-002  0.15906500288297798        0.0000000000000000     
   8.0786737981766929E-002  0.16669382493347779        0.0000000000000000     
   6.8658554230135393E-002  0.13634863659812993        0.0000000000000000     
   7.0114547119778381E-002  0.14368738674222648        0.0000000000000000     
   7.1468281441247616E-002  0.15113446245454978        0.0000000000000000     
   7.2719757194543058E-002  0.15868986373509988        0.0000000000000000     
   7.3868974379664748E-002  0.16635359058387683        0.0000000000000000     
   0.0000000000000000        0.0000000000000000        0.0000000000000000     
   2.8800885228039922E-003   1.7448327530740762E-003   0.0000000000000000     
   5.8726865079619644E-003   3.8646288154314500E-003   0.0000000000000000     
   8.9777939554739148E-003   6.3593881870721222E-003   0.0000000000000000     
   1.2195410865339847E-002   9.2291108679960904E-003   0.0000000000000000     
   0.0000000000000000        0.0000000000000000        0.0000000000000000     
   2.6103332559477901E-003   1.5889160009914323E-003   0.0000000000000000     
   5.2897514160399443E-003   3.5566821683195187E-003   0.0000000000000000     
   8.0382544802764643E-003   5.9032985019842610E-003   0.0000000000000000     
   1.0855842448657345E-002   8.6287650019856565E-003   0.0000000000000000     
   0.0000000000000000        0.0000000000000000        0.0000000000000000     
   2.3401203627992032E-003   1.4589394936444114E-003   0.0000000000000000     
   4.7202154748352118E-003   3.2997815251688016E-003   0.0000000000000000     
   7.1402853361080256E-003   5.5225260945731694E-003   0.0000000000000000     
   9.6003299466176448E-003   8.1271732018575165E-003   0.0000000000000000     
   0.0000000000000000        0.0000000000000000        0.0000000000000000     
   2.0694498433582315E-003   1.3549032310330145E-003   0.0000000000000000     
   4.1640786843477641E-003   3.0939268859792976E-003   0.0000000000000000     
   6.2838865229686023E-003   5.2170709648388502E-003   0.0000000000000000     
   8.4288733592207399E-003   7.7243354676116713E-003   0.0000000000000000     
   0.0000000000000000        0.0000000000000000        0.0000000000000000     
   1.7983216976248746E-003   1.2768072131572410E-003   0.0000000000000000     
   3.6213410445776048E-003   2.9391182507510077E-003   0.0000000000000000     
   5.4690580408581907E-003   4.9869331127812997E-003   0.0000000000000000     
   7.3414726864666317E-003   7.4202517992481183E-003   0.0000000000000000     
   1.2195410865339847E-002   9.2291108679960904E-003   0.0000000000000000     
   1.5427793563733267E-002   1.2371710336797790E-002   0.0000000000000000     
   1.8577198376827697E-002   1.5685100072071658E-002   0.0000000000000000     
   2.1643625304623125E-002   1.9169280073817685E-002   0.0000000000000000     
   2.4627074347119558E-002   2.2824250342035883E-002   0.0000000000000000     
   1.0855842448657345E-002   8.6287650019856565E-003   0.0000000000000000     
   1.3689163901146949E-002   1.1650796551718445E-002   0.0000000000000000     
   1.6484867417709638E-002   1.4887108034577361E-002   0.0000000000000000     
   1.9242952998345404E-002   1.8337699450562413E-002   0.0000000000000000     
   2.1963420643054250E-002   2.2002570799673590E-002   0.0000000000000000     
   9.6003299466176448E-003   8.1271732018575165E-003   0.0000000000000000     
   1.2076804322719249E-002   1.1046311337779223E-002   0.0000000000000000     
   1.4546163480768018E-002   1.4212528993095672E-002   0.0000000000000000     
   1.7008407420763951E-002   1.7625826167806863E-002   0.0000000000000000     
   1.9463536142707044E-002   2.1286202861912795E-002   0.0000000000000000     
   8.4288733592207399E-003   7.7243354676116713E-003   0.0000000000000000     
   1.0590714828450159E-002   1.0558254694980125E-002   0.0000000000000000     
   1.2761086566002833E-002   1.3661362947626581E-002   0.0000000000000000     
   1.4939988571878764E-002   1.7033660225551042E-002   0.0000000000000000     
   1.7127420846077955E-002   2.0675146528753505E-002   0.0000000000000000     
   7.3414726864666317E-003   7.4202517992481183E-003   0.0000000000000000     
   9.2308954183396800E-003   1.0186626623321154E-002   0.0000000000000000     
   1.1129636673414085E-002   1.3233609898170098E-002   0.0000000000000000     
   1.3037696451689848E-002   1.6561201623794947E-002   0.0000000000000000     
   1.4955074753166970E-002   2.0169401800195708E-002   0.0000000000000000     
   2.4627074347119558E-002   2.2824250342035883E-002   0.0000000000000000     
   2.7531817998164544E-002   2.6672786642421238E-002   0.0000000000000000     
   3.0362128751605624E-002   3.0737664740668753E-002   0.0000000000000000     
   3.3118006607442789E-002   3.5018884636778436E-002   0.0000000000000000     
   3.5799451565676058E-002   3.9516446330750271E-002   0.0000000000000000     
   2.1963420643054250E-002   2.2002570799673590E-002   0.0000000000000000     
   2.4629859181564597E-002   2.5879803838842773E-002   0.0000000000000000     
   2.7225857443604867E-002   2.9967480325001829E-002   0.0000000000000000     
   2.9751415429175060E-002   3.4265600258150765E-002   0.0000000000000000     
   3.2206533138275165E-002   3.8774163638289574E-002   0.0000000000000000     
   1.9463536142707044E-002   2.1286202861912795E-002   0.0000000000000000     
   2.1883324809671791E-002   2.5174966389163500E-002   0.0000000000000000     
   2.4239548584732654E-002   2.9273424063309014E-002   0.0000000000000000     
   2.6532207467889653E-002   3.3581575884349318E-002   0.0000000000000000     
   2.8761301459142765E-002   3.8099421852284432E-002   0.0000000000000000     
   1.7127420846077955E-002   2.0675146528753505E-002   0.0000000000000000     
   1.9292214882486121E-002   2.4558274293383434E-002   0.0000000000000000     
   2.1403202174988988E-002   2.8655495955590291E-002   0.0000000000000000     
   2.3460382723586564E-002   3.2966811515374103E-002   0.0000000000000000     
   2.5463756528278838E-002   3.7492220972734823E-002   0.0000000000000000     
   1.4955074753166970E-002   2.0169401800195708E-002   0.0000000000000000     
   1.6856529400007595E-002   2.4029727551502560E-002   0.0000000000000000     
   1.8716818214373872E-002   2.8113696001845680E-002   0.0000000000000000     
   2.0535941196265804E-002   3.2421307151225091E-002   0.0000000000000000     
   2.2313898345683387E-002   3.6952560999640761E-002   0.0000000000000000     
   3.5799451565676058E-002   3.9516446330750271E-002   0.0000000000000000     
   3.8405879943370871E-002   4.4220846587875541E-002   0.0000000000000000     
   4.0936708057592704E-002   4.9122582173445548E-002   0.0000000000000000     
   4.3391935908341554E-002   5.4221653087460277E-002   0.0000000000000000     
   4.5771563495617409E-002   5.9518059329919742E-002   0.0000000000000000     
   3.2206533138275165E-002   3.8774163638289574E-002   0.0000000000000000     
   3.4592897226465309E-002   4.3488611647319632E-002   0.0000000000000000     
   3.6912194349305566E-002   4.8404385467142319E-002   0.0000000000000000     
   3.9164424506795956E-002   5.3521485097757608E-002   0.0000000000000000     
   4.1349587698936457E-002   5.8839910539165513E-002   0.0000000000000000     
   2.8761301459142765E-002   3.8099421852284432E-002   0.0000000000000000     
   3.0928847749768149E-002   4.2824150181675562E-002   0.0000000000000000     
   3.3036863531041946E-002   4.7752949087083912E-002   0.0000000000000000     
   3.5085348802964142E-002   5.2885818568509491E-002   0.0000000000000000     
   3.7074303565534747E-002   5.8222758625952289E-002   0.0000000000000000     
   2.5463756528278838E-002   3.7492220972734823E-002   0.0000000000000000     
   2.7413731513279395E-002   4.2227462190943310E-002   0.0000000000000000     
   2.9310715602801823E-002   4.7168273033270341E-002   0.0000000000000000     
   3.1154708796846117E-002   5.2314653499715945E-002   0.0000000000000000     
   3.2945711095412278E-002   5.7666603590280092E-002   0.0000000000000000     
   2.2313898345683387E-002   3.6952560999640761E-002   0.0000000000000000     
   2.4047548516999050E-002   4.1698547675122884E-002   0.0000000000000000     
   2.5733750564585212E-002   4.6650357305701613E-002   0.0000000000000000     
   2.7372504488441873E-002   5.1807989891376957E-002   0.0000000000000000     
   2.8963810288569047E-002   5.7171445432148915E-002   0.0000000000000000     
   4.5771563495617409E-002   5.9518059329919742E-002   0.0000000000000000     
   4.8078669785373673E-002   6.5003658173736323E-002   0.0000000000000000     
   5.0316333743563695E-002   7.0670306891822465E-002   0.0000000000000000     
   5.2484555370187487E-002   7.6518005484178128E-002   0.0000000000000000     
   5.4583334665245044E-002   8.2546753950803353E-002   0.0000000000000000     
   4.1349587698936457E-002   5.8839910539165513E-002   0.0000000000000000     
   4.3468830056077608E-002   6.4349063559435662E-002   0.0000000000000000     
   4.5523297708569901E-002   7.0038345926637657E-002   0.0000000000000000     
   4.7512990656413338E-002   7.5907757640771525E-002   0.0000000000000000     
   4.9437908899607905E-002   8.1957298701837253E-002   0.0000000000000000     
   3.7074303565534747E-002   5.8222758625952289E-002   0.0000000000000000     
   3.9003763642047301E-002   6.3751719774381335E-002   0.0000000000000000     
   4.0873764855795351E-002   6.9460652528765598E-002   0.0000000000000000     
   4.2684307206778876E-002   7.5349556889105107E-002   0.0000000000000000     
   4.4435390694997884E-002   8.1418432855399833E-002   0.0000000000000000     
   3.2945711095412278E-002   5.7666603590280092E-002   0.0000000000000000     
   3.4683470543282767E-002   6.3211626818573355E-002   0.0000000000000000     
   3.6367735185240051E-002   6.8937226698206275E-002   0.0000000000000000     
   3.7998505021284115E-002   7.4843403229178845E-002   0.0000000000000000     
   3.9575780051414988E-002   8.0930156411491067E-002   0.0000000000000000     
   2.8963810288569047E-002   5.7171445432148915E-002   0.0000000000000000     
   3.0507950759783992E-002   6.2728784692011749E-002   0.0000000000000000     
   3.2005208696904000E-002   6.8468068434959700E-002   0.0000000000000000     
   3.3455584099929062E-002   7.4389296660992782E-002   0.0000000000000000     
   3.4859076968859183E-002   8.0492469370111008E-002   0.0000000000000000     
   5.4583334665245044E-002   8.2546753950803353E-002   0.0000000000000000     
   5.6606037370825230E-002   8.8744685714088320E-002   0.0000000000000000     
   5.8546029229016909E-002   9.5099934196423375E-002   0.0000000000000000     
   6.0403310239820096E-002  0.10161249939780841        0.0000000000000000     
   6.2177880403234770E-002  0.10828238131824351        0.0000000000000000     
   4.9437908899607905E-002   8.1957298701837253E-002   0.0000000000000000     
   5.1292697649678802E-002   8.8175823904802955E-002   0.0000000000000000     
   5.3072002118151163E-002   9.4552188044636734E-002   0.0000000000000000     
   5.4775822305025014E-002  0.10108639112133859        0.0000000000000000     
   5.6404158210300322E-002  0.10777843313490851        0.0000000000000000     
   4.4435390694997884E-002   8.1418432855399833E-002   0.0000000000000000     
   4.6122406439163786E-002   8.7656334592506727E-002   0.0000000000000000     
   4.7740745557987962E-002   9.4052316265282668E-002   0.0000000000000000     
   4.9290408051470398E-002  0.10060637787372768        0.0000000000000000     
   5.0771393919611107E-002  0.10731851941784175        0.0000000000000000     
   3.9575780051414988E-002   8.0930156411491067E-002   0.0000000000000000     
   4.1095163739280183E-002   8.7186217777199634E-002   0.0000000000000000     
   4.2552259548527281E-002   9.3600318858361203E-002   0.0000000000000000     
   4.3947067479156249E-002  0.10017245965497570        0.0000000000000000     
   4.5279587531167127E-002  0.10690264016704323        0.0000000000000000     
   3.4859076968859183E-002   8.0492469370111008E-002   0.0000000000000000     
   3.6210969550027998E-002   8.6765473458881720E-002   0.0000000000000000     
   3.7506544089769132E-002   9.3196195823872272E-002   0.0000000000000000     
   3.8745800588082593E-002   9.9784636465082704E-002   0.0000000000000000     
   3.9928739044968374E-002  0.10653079538251296        0.0000000000000000     
   6.2177880403234770E-002  0.10828238131824351        0.0000000000000000     
   6.3882833572206393E-002  0.11509792748320648        0.0000000000000000     
   6.5531263599680353E-002  0.12204748541817520        0.0000000000000000     
   6.7123170485656691E-002  0.12913105512314968        0.0000000000000000     
   6.8658554230135393E-002  0.13634863659812993        0.0000000000000000     
   5.6404158210300322E-002  0.10777843313490851        0.0000000000000000     
   5.7967535874373477E-002  0.11461601846501560        0.0000000000000000     
   5.9476481337640857E-002  0.12158685149132897        0.0000000000000000     
   6.0930994600102449E-002  0.12869093221384859        0.0000000000000000     
   6.2331075661758259E-002  0.13592826063257452        0.0000000000000000     
   5.0771393919611107E-002  0.10731851941784175        0.0000000000000000     
   5.2192501174825615E-002  0.11417623768587995        0.0000000000000000     
   5.3562527829529430E-002  0.12116702946609728        0.0000000000000000     
   5.4881473883722560E-002  0.12829089475849384        0.0000000000000000     
   5.6149339337404992E-002  0.13554783356306957        0.0000000000000000     
   4.5279587531167127E-002  0.10690264016704323        0.0000000000000000     
   4.6557729473562758E-002  0.11377858514579947        0.0000000000000000     
   4.7789403075346050E-002  0.12078801934248022        0.0000000000000000     
   4.8974608336517005E-002  0.12793094275708541        0.0000000000000000     
   5.0113345257075607E-002  0.13520735538961509        0.0000000000000000     
   3.9928739044968374E-002  0.10653079538251296        0.0000000000000000     
   4.1063220770584941E-002  0.11342306084477424        0.0000000000000000     
   4.2157107075090745E-002  0.12044982112047770        0.0000000000000000     
   4.3210397958485802E-002  0.12761107620962336        0.0000000000000000     
   4.4223093420770090E-002  0.13490682611221116        0.0000000000000000     
   6.8658554230135393E-002  0.13634863659812993        0.0000000000000000     
   7.0114547119778381E-002  0.14368738674222648        0.0000000000000000     
   7.1468281441247616E-002  0.15113446245454978        0.0000000000000000     
   7.2719757194543058E-002  0.15868986373509988        0.0000000000000000     
   7.3868974379664748E-002  0.16635359058387683        0.0000000000000000     
   6.2331075661758259E-002  0.13592826063257452        0.0000000000000000     
   6.3660146416383442E-002  0.14328883905126835        0.0000000000000000     
   6.4901628757753196E-002  0.15076266977369190        0.0000000000000000     
   6.6055522685867493E-002  0.15834975279984517        0.0000000000000000     
   6.7121828200726374E-002  0.16605008812972810        0.0000000000000000     
   5.6149339337404992E-002  0.13554783356306957        0.0000000000000000     
   5.7352916473458235E-002  0.14292894570869302        0.0000000000000000     
   5.8478997574763762E-002  0.15042533102423283        0.0000000000000000     
   5.9527582641321589E-002  0.15803698950968903        0.0000000000000000     
   6.0498671673131693E-002  0.16576392116506156        0.0000000000000000     
   5.0113345257075607E-002  0.13520735538961509        0.0000000000000000     
   5.1192857291002744E-002  0.14260770671450046        0.0000000000000000     
   5.2200387892279307E-002  0.15012244620617257        0.0000000000000000     
   5.3135937060905303E-002  0.15775157386463146        0.0000000000000000     
   5.3999504796880704E-002  0.16549508968987720        0.0000000000000000     
   4.4223093420770090E-002  0.13490682611221116        0.0000000000000000     
   4.5179968869016984E-002  0.14232512206869061        0.0000000000000000     
   4.6065799710299837E-002  0.14985401531951104        0.0000000000000000     
   4.6880585944618650E-002  0.15749350586467251        0.0000000000000000     
   4.7624327571973421E-002  0.16524359370417502        0.0000000000000000     
   0.0000000000000000        0.0000000000000000        0.0000000000000000     
   1.7983216976248746E-003   1.2768072131572410E-003   0.0000000000000000     
   3.6213410445776048E-003   2.9391182507510077E-003   0.0000000000000000     
   5.4690580408581907E-003   4.9869331127812997E-003   0.0000000000000000     
   7.3414726864666317E-003   7.4202517992481183E-003   0.0000000000000000     
   0.0000000000000000        0.0000000000000000        0.0000000000000000     
   1.5350120314617144E-003   1.2175359121432490E-003   0.0000000000000000     
   3.0993590768765159E-003   2.8208417480503024E-003   0.0000000000000000     
   4.6930411362444040E-003   4.8099175077211606E-003   0.0000000000000000     
   6.3160582095653809E-003   7.1847631911558241E-003   0.0000000000000000     
   0.0000000000000000        0.0000000000000000        0.0000000000000000     
   1.2877969507313315E-003   1.1699738001171951E-003   0.0000000000000000     
   2.6054893025962826E-003   2.7245835064435521E-003   0.0000000000000000     
   3.9530770555948527E-003   4.6638291189790709E-003   0.0000000000000000     
   5.3305602097270428E-003   6.9877106377237500E-003   0.0000000000000000     
   0.0000000000000000        0.0000000000000000        0.0000000000000000     
   1.0566764554337262E-003   1.1341208770790801E-003   0.0000000000000000     
   2.1397317217369057E-003   2.6503435259307559E-003   0.0000000000000000     
   3.2491657989095367E-003   4.5486679465550281E-003   0.0000000000000000     
   4.3849786869516209E-003   6.8290941389518960E-003   0.0000000000000000     
   0.0000000000000000        0.0000000000000000        0.0000000000000000     
   8.4165054556889886E-004   1.1099771430289037E-003   0.0000000000000000     
   1.7020863342983839E-003   2.5981218065119151E-003   0.0000000000000000     
   2.5813073661884547E-003   4.4644339904490347E-003   0.0000000000000000     
   3.4793136412391117E-003   6.7089136948402621E-003   0.0000000000000000     
   7.3414726864666317E-003   7.4202517992481183E-003   0.0000000000000000     
   9.2308954183396800E-003   1.0186626623321154E-002   0.0000000000000000     
   1.1129636673414085E-002   1.3233609898170098E-002   0.0000000000000000     
   1.3037696451689848E-002   1.6561201623794947E-002   0.0000000000000000     
   1.4955074753166970E-002   2.0169401800195708E-002   0.0000000000000000     
   6.3160582095653809E-003   7.1847631911558241E-003   0.0000000000000000     
   7.9556910136352292E-003   9.8957904179648361E-003   0.0000000000000000     
   9.5992202652497409E-003   1.2893410807758736E-002   0.0000000000000000     
   1.1246645964408910E-002   1.6177624360537525E-002   0.0000000000000000     
   1.2897968111112743E-002   1.9748431076301205E-002   0.0000000000000000     
   5.3305602097270428E-003   6.9877106377237500E-003   0.0000000000000000     
   6.7234465355842229E-003   9.6501093740736978E-003   0.0000000000000000     
   8.1172438037577632E-003   1.2604906639425024E-002   0.0000000000000000     
   9.5119520142476644E-003   1.5852102433777722E-002   0.0000000000000000     
   1.0907571167053926E-002   1.9391696757131795E-002   0.0000000000000000     
   4.3849786869516209E-003   6.8290941389518960E-003   0.0000000000000000     
   5.5341619841866585E-003   9.4495834916477443E-003   0.0000000000000000     
   6.6837072889381543E-003   1.2368097393168952E-002   0.0000000000000000     
   7.8336146012061049E-003   1.5584635843515531E-002   0.0000000000000000     
   8.9838839209905146E-003   1.9099198842687470E-002   0.0000000000000000     
   3.4793136412391117E-003   6.7089136948402621E-003   0.0000000000000000     
   4.3878373594425368E-003   9.2942127706869705E-003   0.0000000000000000     
   5.2986107207909127E-003   1.2182983068990537E-002   0.0000000000000000     
   6.2116337252842366E-003   1.5375224589750956E-002   0.0000000000000000     
   7.1269063729225111E-003   1.8870937332968234E-002   0.0000000000000000     
   1.4955074753166970E-002   2.0169401800195708E-002   0.0000000000000000     
   1.6856529400007595E-002   2.4029727551502560E-002   0.0000000000000000     
   1.8716818214373872E-002   2.8113696001845680E-002   0.0000000000000000     
   2.0535941196265804E-002   3.2421307151225091E-002   0.0000000000000000     
   2.2313898345683387E-002   3.6952560999640761E-002   0.0000000000000000     
   1.2897968111112743E-002   1.9748431076301205E-002   0.0000000000000000     
   1.4536886052215009E-002   2.3579781007098087E-002   0.0000000000000000     
   1.6147099134569486E-002   2.7645624204976474E-002   0.0000000000000000     
   1.7728607358176166E-002   3.1945960669936366E-002   0.0000000000000000     
   1.9281410723035054E-002   3.6480790401977770E-002   0.0000000000000000     
   1.0907571167053926E-002   1.9391696757131795E-002   0.0000000000000000     
   1.2293902529087164E-002   2.3198889503747211E-002   0.0000000000000000     
   1.3660747367258006E-002   2.7248880567883948E-002   0.0000000000000000     
   1.5008105681566446E-002   3.1541669949541995E-002   0.0000000000000000     
   1.6335977472012486E-002   3.6077257648721363E-002   0.0000000000000000     
   8.9838839209905146E-003   1.9099198842687470E-002   0.0000000000000000     
   1.0127578830624064E-002   2.2887053041449938E-002   0.0000000000000000     
   1.1257762912439443E-002   2.6923465090568109E-002   0.0000000000000000     
   1.2374436166436647E-002   3.1208434990041979E-002   0.0000000000000000     
   1.3477598592615677E-002   3.5741962739871541E-002   0.0000000000000000     
   7.1269063729225111E-003   1.8870937332968234E-002   0.0000000000000000     
   8.0379149568257056E-003   2.2644271620206265E-002   0.0000000000000000     
   8.9381457701137902E-003   2.6669377773028965E-002   0.0000000000000000     
   9.8275988127867649E-003   3.0946255791436315E-002   0.0000000000000000     
   1.0706274084844630E-002   3.5474905675428325E-002   0.0000000000000000     
   2.2313898345683387E-002   3.6952560999640761E-002   0.0000000000000000     
   2.4047548516999050E-002   4.1698547675122884E-002   0.0000000000000000     
   2.5733750564585212E-002   4.6650357305701613E-002   0.0000000000000000     
   2.7372504488441873E-002   5.1807989891376957E-002   0.0000000000000000     
   2.8963810288569047E-002   5.7171445432148915E-002   0.0000000000000000     
   1.9281410723035054E-002   3.6480790401977770E-002   0.0000000000000000     
   2.0798805444455063E-002   4.1235808936235060E-002   0.0000000000000000     
   2.2274087737745109E-002   4.6196711807842621E-002   0.0000000000000000     
   2.3707257602905180E-002   5.1363499016800450E-002   0.0000000000000000     
   2.5098315039935287E-002   5.6736170563108562E-002   0.0000000000000000     
   1.6335977472012486E-002   3.6077257648721363E-002   0.0000000000000000     
   1.7636008979175416E-002   4.0837648276300591E-002   0.0000000000000000     
   1.8899846443634516E-002   4.5804846443158263E-002   0.0000000000000000     
   2.0127489865389786E-002   5.0978852149294332E-002   0.0000000000000000     
   2.1318939244441240E-002   5.6359665394708859E-002   0.0000000000000000     
   1.3477598592615677E-002   3.5741962739871541E-002   0.0000000000000000     
   1.4559159121160089E-002   4.0504065695319502E-002   0.0000000000000000     
   1.5611026682253427E-002   4.5474761211648528E-002   0.0000000000000000     
   1.6633201275895699E-002   5.0654049288858617E-002   0.0000000000000000     
   1.7625682902086898E-002   5.6041929926949785E-002   0.0000000000000000     
   1.0706274084844630E-002   3.5474905675428325E-002   0.0000000000000000     
   1.1568255870409088E-002   4.0235061193291774E-002   0.0000000000000000     
   1.2407628453601849E-002   4.5206456113313427E-002   0.0000000000000000     
   1.3224391834422906E-002   5.0389090435493285E-002   0.0000000000000000     
   1.4018546012872266E-002   5.5782964159831347E-002   0.0000000000000000     
   2.8963810288569047E-002   5.7171445432148915E-002   0.0000000000000000     
   3.0507950759783992E-002   6.2728784692011749E-002   0.0000000000000000     
   3.2005208696904000E-002   6.8468068434959700E-002   0.0000000000000000     
   3.3455584099929062E-002   7.4389296660992782E-002   0.0000000000000000     
   3.4859076968859183E-002   8.0492469370111008E-002   0.0000000000000000     
   2.5098315039935287E-002   5.6736170563108562E-002   0.0000000000000000     
   2.6448220670205361E-002   6.2303517220176914E-002   0.0000000000000000     
   2.7757935115085338E-002   6.8054329761415469E-002   0.0000000000000000     
   2.9027458374575217E-002   7.3988608186824234E-002   0.0000000000000000     
   3.0256790448674999E-002   8.0106352496403230E-002   0.0000000000000000     
   2.1318939244441240E-002   5.6359665394708859E-002   0.0000000000000000     
   2.2475296653201245E-002   6.1936148228549301E-002   0.0000000000000000     
   2.3597664164082197E-002   6.7697162699963204E-002   0.0000000000000000     
   2.4686041777084094E-002   7.3642708808950560E-002   0.0000000000000000     
   2.5740429492206930E-002   7.9772786555511357E-002   0.0000000000000000     
   1.7625682902086898E-002   5.6041929926949785E-002   0.0000000000000000     
   1.8589178708771650E-002   6.1626677717128903E-002   0.0000000000000000     
   1.9524395843894586E-002   6.7396567250602890E-002   0.0000000000000000     
   2.0431334307455692E-002   7.3351598527371734E-002   0.0000000000000000     
   2.1309994099454978E-002   7.9491771547435433E-002   0.0000000000000000     
   1.4018546012872266E-002   5.5782964159831347E-002   0.0000000000000000     
   1.4789866836916576E-002   6.1375105685915726E-002   0.0000000000000000     
   1.5538130154522493E-002   6.7152543413334528E-002   0.0000000000000000     
   1.6263335965690018E-002   7.3115277342087767E-002   0.0000000000000000     
   1.6965484270419145E-002   7.9263307472175415E-002   0.0000000000000000     
   3.4859076968859183E-002   8.0492469370111008E-002   0.0000000000000000     
   3.6210969550027998E-002   8.6765473458881720E-002   0.0000000000000000     
   3.7506544089769132E-002   9.3196195823872272E-002   0.0000000000000000     
   3.8745800588082593E-002   9.9784636465082704E-002   0.0000000000000000     
   3.9928739044968374E-002  0.10653079538251296        0.0000000000000000     
   3.0256790448674999E-002   8.0106352496403230E-002   0.0000000000000000     
   3.1440889466200543E-002   8.6394533337739027E-002   0.0000000000000000     
   3.2574713555967687E-002   9.2840121358418279E-002   0.0000000000000000     
   3.3658262717976450E-002   9.9443116558440917E-002   0.0000000000000000     
   3.4691536952226806E-002  0.10620351893780700        0.0000000000000000     
   2.5740429492206930E-002   7.9772786555511357E-002   0.0000000000000000     
   2.6755989082591126E-002   8.6073829113957653E-002   0.0000000000000000     
   2.7727882321377104E-002   9.2532269658601410E-002   0.0000000000000000     
   2.8656109208564848E-002   9.9148108189442682E-002   0.0000000000000000     
   2.9540669744154369E-002  0.10592134470648146        0.0000000000000000     
   2.1309994099454978E-002   7.9491771547435433E-002   0.0000000000000000     
   2.2156268399199767E-002   8.5803360787537572E-002   0.0000000000000000     
   2.2966050385997375E-002   9.2272640724421776E-002   0.0000000000000000     
   2.3739340059847808E-002   9.8899611358088016E-002   0.0000000000000000     
   2.4476137420751064E-002  0.10568427268853632        0.0000000000000000     
   1.6965484270419145E-002   7.9263307472175415E-002   0.0000000000000000     
   1.7641727416026456E-002   8.5583128358478811E-002   0.0000000000000000     
   1.8289217749828512E-002   9.2061234555879334E-002   0.0000000000000000     
   1.8907955271825323E-002   9.8697626064376917E-002   0.0000000000000000     
   1.9497939982016890E-002  0.10549230288397160        0.0000000000000000     
   3.9928739044968374E-002  0.10653079538251296        0.0000000000000000     
   4.1063220770584941E-002  0.11342306084477424        0.0000000000000000     
   4.2157107075090745E-002  0.12044982112047770        0.0000000000000000     
   4.3210397958485802E-002  0.12761107620962336        0.0000000000000000     
   4.4223093420770090E-002  0.13490682611221116        0.0000000000000000     
   3.4691536952226806E-002  0.10620351893780700        0.0000000000000000     
   3.5682459500085757E-002  0.11311044203544175        0.0000000000000000     
   3.6638953602920243E-002  0.12015299939027034        0.0000000000000000     
   3.7561019260730293E-002  0.12733119100229279        0.0000000000000000     
   3.8448656473515891E-002  0.13464501687150909        0.0000000000000000     
   2.9540669744154369E-002  0.10592134470648146        0.0000000000000000     
   3.0388930096258815E-002  0.11284150597043953        0.0000000000000000     
   3.1208256432991306E-002  0.11989811874203866        0.0000000000000000     
   3.1998648754351856E-002  0.12709118302127892        0.0000000000000000     
   3.2760107060340472E-002  0.13442069880816021        0.0000000000000000     
   2.4476137420751064E-002  0.10568427268853632        0.0000000000000000     
   2.5182632559104110E-002  0.11261625264976761        0.0000000000000000     
   2.5865015565303916E-002  0.11968517917578272        0.0000000000000000     
   2.6523286439350490E-002  0.12689105226658173        0.0000000000000000     
   2.7157445181243817E-002  0.13423387192216460        0.0000000000000000     
   1.9497939982016890E-002  0.10549230288397160        0.0000000000000000     
   2.0063566888621657E-002  0.11243468207342594        0.0000000000000000     
   2.0609230999858091E-002  0.11951418069150249        0.0000000000000000     
   2.1134932315726183E-002  0.12673079873820123        0.0000000000000000     
   2.1640670836225936E-002  0.13408453621352218        0.0000000000000000     
   4.4223093420770090E-002  0.13490682611221116        0.0000000000000000     
   4.5179968869016984E-002  0.14232512206869061        0.0000000000000000     
   4.6065799710299837E-002  0.14985401531951104        0.0000000000000000     
   4.6880585944618650E-002  0.15749350586467251        0.0000000000000000     
   4.7624327571973421E-002  0.16524359370417502        0.0000000000000000     
   3.8448656473515891E-002  0.13464501687150909        0.0000000000000000     
   3.9284103303454297E-002  0.14208000756330069        0.0000000000000000     
   4.0049597812722784E-002  0.14962169364304903        0.0000000000000000     
   4.0745140001321331E-002  0.15727007511075408        0.0000000000000000     
   4.1370729869249959E-002  0.16502515196641590        0.0000000000000000     
   3.2760107060340472E-002  0.13442069880816021        0.0000000000000000     
   3.3475112690268073E-002  0.14187117899036791        0.0000000000000000     
   3.4126146983445606E-002  0.14942713645558720        0.0000000000000000     
   3.4713209939873063E-002  0.15708857120381814        0.0000000000000000     
   3.5236301559550459E-002  0.16485548323506063        0.0000000000000000     
   2.7157445181243817E-002  0.13423387192216460        0.0000000000000000     
   2.7752997029458291E-002  0.14169863634989227        0.0000000000000000     
   2.8295447222468302E-002  0.14927034375712556        0.0000000000000000     
   2.8784795760273849E-002  0.15694899414386460        0.0000000000000000     
   2.9221042642874919E-002  0.16473458751010928        0.0000000000000000     
   2.1640670836225936E-002  0.13408453621352218        0.0000000000000000     
   2.2117756321024966E-002  0.14156237964187368        0.0000000000000000     
   2.2557498529790877E-002  0.14915131554766414        0.0000000000000000     
   2.2959897462523665E-002  0.15685134393089351        0.0000000000000000     
   2.3324953119223342E-002  0.16466246479156177        0.0000000000000000     
   0.0000000000000000        0.0000000000000000        0.0000000000000000     
   8.4165054556889886E-004   1.1099771430289037E-003   0.0000000000000000     
   1.7020863342983839E-003   2.5981218065119151E-003   0.0000000000000000     
   2.5813073661884547E-003   4.4644339904490347E-003   0.0000000000000000     
   3.4793136412391117E-003   6.7089136948402621E-003   0.0000000000000000     
   0.0000000000000000        0.0000000000000000        0.0000000000000000     
   6.3381297875159484E-004   1.0939735708085357E-003   0.0000000000000000     
   1.2780123268664664E-003   2.5620610633340498E-003   0.0000000000000000     
   1.9325980443446141E-003   4.4042624775765425E-003   0.0000000000000000     
   2.5975701311860386E-003   6.6205778135360136E-003   0.0000000000000000     
   0.0000000000000000        0.0000000000000000        0.0000000000000000     
   4.2425751259656029E-004   1.0825411332598457E-003   0.0000000000000000     
   8.5296888602690068E-004   2.5363040115441802E-003   0.0000000000000000     
   1.2861341202910213E-003   4.3612886348530040E-003   0.0000000000000000     
   1.7237532153889217E-003   6.5574950031863167E-003   0.0000000000000000     
   0.0000000000000000        0.0000000000000000        0.0000000000000000     
   2.1298414710379509E-004   1.0756798303828338E-003   0.0000000000000000     
   4.2695601177968702E-004   2.5208506511423066E-003   0.0000000000000000     
   6.4191559402767564E-004   4.3355124622784192E-003   0.0000000000000000     
   8.5786289384776092E-004   6.5196652637911695E-003   0.0000000000000000     
   0.0000000000000000        0.0000000000000000        0.0000000000000000     
  -7.1177267006500202E-009   1.0733896621775002E-003   0.0000000000000000     
  -2.6295875174759450E-008   2.5157009821284290E-003   0.0000000000000000     
  -5.7534445422463814E-008   4.3269339598527865E-003   0.0000000000000000     
  -1.0083343744376311E-007   6.5070885953505729E-003   0.0000000000000000     
   3.4793136412391117E-003   6.7089136948402621E-003   0.0000000000000000     
   4.3878373594425368E-003   9.2942127706869705E-003   0.0000000000000000     
   5.2986107207909127E-003   1.2182983068990537E-002   0.0000000000000000     
   6.2116337252842366E-003   1.5375224589750956E-002   0.0000000000000000     
   7.1269063729225111E-003   1.8870937332968234E-002   0.0000000000000000     
   2.5975701311860386E-003   6.6205778135360136E-003   0.0000000000000000     
   3.2699548638882902E-003   9.1780276905655284E-003   0.0000000000000000     
   3.9467785189489183E-003   1.2043632728018155E-002   0.0000000000000000     
   4.6280410963679217E-003   1.5217392925893889E-002   0.0000000000000000     
   5.3137425961453039E-003   1.8699308284192733E-002   0.0000000000000000     
   1.7237532153889217E-003   6.5574950031863167E-003   0.0000000000000000     
   2.1659967000603499E-003   9.0950587306575636E-003   0.0000000000000000     
   2.6130351030450526E-003   1.1944115431380194E-002   0.0000000000000000     
   3.0648684243430300E-003   1.5104665105354203E-002   0.0000000000000000     
   3.5214966639542824E-003   1.8576707752579597E-002   0.0000000000000000     
   8.5786289384776092E-004   6.5196652637911695E-003   0.0000000000000000     
   1.0759628679587168E-003   9.0453058909630759E-003   0.0000000000000000     
   1.2973804730793158E-003   1.1884431179076655E-002   0.0000000000000000     
   1.5221157092095595E-003   1.5037041128131909E-002   0.0000000000000000     
   1.7501685763494468E-003   1.8503135738128833E-002   0.0000000000000000     
  -1.0083343744376311E-007   6.5070885953505729E-003   0.0000000000000000     
  -1.4663241660994701E-007   9.0287691714820636E-003   0.0000000000000000     
  -1.8537094829170208E-007   1.1864579971107542E-002   0.0000000000000000     
  -2.1704903249000918E-007   1.5014520994227003E-002   0.0000000000000000     
  -2.4166666920378242E-007   1.8478592240840450E-002   0.0000000000000000     
   7.1269063729225111E-003   1.8870937332968234E-002   0.0000000000000000     
   8.0379149568257056E-003   2.2644271620206265E-002   0.0000000000000000     
   8.9381457701137902E-003   2.6669377773028965E-002   0.0000000000000000     
   9.8275988127867649E-003   3.0946255791436315E-002   0.0000000000000000     
   1.0706274084844630E-002   3.5474905675428325E-002   0.0000000000000000     
   5.3137425961453039E-003   1.8699308284192733E-002   0.0000000000000000     
   5.9970262835450363E-003   2.2462042663799309E-002   0.0000000000000000     
   6.6710354238310966E-003   2.6478259925598269E-002   0.0000000000000000     
   7.3357700170034821E-003   3.0747960069589589E-002   0.0000000000000000     
   7.9912300630621928E-003   3.5271143095773290E-002   0.0000000000000000     
   3.5214966639542824E-003   1.8576707752579597E-002   0.0000000000000000     
   3.9770281866350083E-003   2.2331863596012188E-002   0.0000000000000000     
   4.4255713571414064E-003   2.6341752858607785E-002   0.0000000000000000     
   4.8671261754734746E-003   3.0606375540366396E-002   0.0000000000000000     
   5.3016926416312154E-003   3.5125731641288023E-002   0.0000000000000000     
   1.7501685763494468E-003   1.8503135738128833E-002   0.0000000000000000     
   1.9779206660956194E-003   2.2253734416844889E-002   0.0000000000000000     
   2.2017535700447188E-003   2.6259856572057528E-002   0.0000000000000000     
   2.4216672881967449E-003   3.0521502203766728E-002   0.0000000000000000     
   2.6376618205516977E-003   3.5038671311972518E-002   0.0000000000000000     
  -2.4166666920378242E-007   1.8478592240840450E-002   0.0000000000000000     
  -2.9627807312995053E-007   2.2227655126297423E-002   0.0000000000000000     
  -4.1793745896533379E-007   2.6232571065947473E-002   0.0000000000000000     
  -6.0664482670811618E-007   3.0493340059790593E-002   0.0000000000000000     
  -8.6240017636049320E-007   3.5009962107826795E-002   0.0000000000000000     
   1.0706274084844630E-002   3.5474905675428325E-002   0.0000000000000000     
   1.1568255870409088E-002   4.0235061193291774E-002   0.0000000000000000     
   1.2407628453601849E-002   4.5206456113313427E-002   0.0000000000000000     
   1.3224391834422906E-002   5.0389090435493285E-002   0.0000000000000000     
   1.4018546012872266E-002   5.5782964159831347E-002   0.0000000000000000     
   7.9912300630621928E-003   3.5271143095773290E-002   0.0000000000000000     
   8.6342196965446243E-003   4.0028004237773501E-002   0.0000000000000000     
   9.2615430519881730E-003   4.4998738729214394E-002   0.0000000000000000     
   9.8732001293928336E-003   5.0183346570095960E-002   0.0000000000000000     
   1.0469190928758611E-002   5.5581827760418208E-002   0.0000000000000000     
   5.3016926416312154E-003   3.5125731641288023E-002   0.0000000000000000     
   5.7279710691888969E-003   3.9880264296320793E-002   0.0000000000000000     
   6.1446617717207889E-003   4.4850416640412893E-002   0.0000000000000000     
   6.5517647492268922E-003   5.0036188673564304E-002   0.0000000000000000     
   6.9492800017072042E-003   5.5437580395775017E-002   0.0000000000000000     
   2.6376618205516977E-003   3.5038671311972518E-002   0.0000000000000000     
   2.8495099883419062E-003   3.9791841368933656E-002   0.0000000000000000     
   3.0569846127997007E-003   4.4761489846908906E-002   0.0000000000000000     
   3.2600856939250804E-003   4.9947616745898274E-002   0.0000000000000000     
   3.4588132317180456E-003   5.5350222065901782E-002   0.0000000000000000     
  -8.6240017636049320E-007   3.5009962107826795E-002   0.0000000000000000     
  -1.1635459963472983E-006   3.9762735455612076E-002   0.0000000000000000     
  -1.4884247750928769E-006   4.4731958348702451E-002   0.0000000000000000     
  -1.8370365125997093E-006   4.9917630787097919E-002   0.0000000000000000     
  -2.2093812088663182E-006   5.5319752770798487E-002   0.0000000000000000     
   1.4018546012872266E-002   5.5782964159831347E-002   0.0000000000000000     
   1.4789866836916576E-002   6.1375105685915726E-002   0.0000000000000000     
   1.5538130154522493E-002   6.7152543413334528E-002   0.0000000000000000     
   1.6263335965690018E-002   7.3115277342087767E-002   0.0000000000000000     
   1.6965484270419145E-002   7.9263307472175415E-002   0.0000000000000000     
   1.0469190928758611E-002   5.5581827760418208E-002   0.0000000000000000     
   1.1048414026826105E-002   6.1179883987772882E-002   0.0000000000000000     
   1.1609768000335918E-002   6.6963216939751741E-002   0.0000000000000000     
   1.2153252849288051E-002   7.2931826616354792E-002   0.0000000000000000     
   1.2678868573682500E-002   7.9085713017582035E-002   0.0000000000000000     
   6.9492800017072042E-003   5.5437580395775017E-002   0.0000000000000000     
   7.3358732676903262E-003   6.1039464475563486E-002   0.0000000000000000     
   7.7102102857048525E-003   6.6826713581448163E-002   0.0000000000000000     
   8.0722910557507830E-003   7.2799327713428993E-002   0.0000000000000000     
   8.4221155778281195E-003   7.8957306871506067E-002   0.0000000000000000     
   3.4588132317180456E-003   5.5350222065901782E-002   0.0000000000000000     
   3.6522445595092361E-003   6.0953847149287546E-002   0.0000000000000000     
   3.8394570106292927E-003   6.6743033338423741E-002   0.0000000000000000     
   4.0204505850782151E-003   7.2717780633310386E-002   0.0000000000000000     
   4.1952252828560037E-003   7.8878089033947441E-002   0.0000000000000000     
  -2.2093812088663182E-006   5.5319752770798487E-002   0.0000000000000000     
  -2.4720977171623776E-006   6.0923032008945055E-002   0.0000000000000000     
  -2.4918248907586458E-006   6.6712176210678528E-002   0.0000000000000000     
  -2.2685627296551770E-006   7.2687185375998914E-002   0.0000000000000000     
  -1.8023112338505076E-006   7.8848059504906212E-002   0.0000000000000000     
   1.6965484270419145E-002   7.9263307472175415E-002   0.0000000000000000     
   1.7641727416026456E-002   8.5583128358478811E-002   0.0000000000000000     
   1.8289217749828512E-002   9.2061234555879334E-002   0.0000000000000000     
   1.8907955271825323E-002   9.8697626064376917E-002   0.0000000000000000     
   1.9497939982016890E-002  0.10549230288397160        0.0000000000000000     
   1.2678868573682500E-002   7.9085713017582035E-002   0.0000000000000000     
   1.3185071511883048E-002   8.5411693787075804E-002   0.0000000000000000     
   1.3670318002253467E-002   9.1896586568478433E-002   0.0000000000000000     
   1.4134608044793761E-002   9.8540391361789922E-002   0.0000000000000000     
   1.4577941639503928E-002  0.10534310816701026        0.0000000000000000     
   8.4221155778281195E-003   7.8957306871506067E-002   0.0000000000000000     
   8.7590060655814081E-003   8.5287619033622974E-002   0.0000000000000000     
   9.0822847326551982E-003   9.1777232177723489E-002   0.0000000000000000     
   9.3919515790494828E-003   9.8426146303807582E-002   0.0000000000000000     
   9.6880066047642689E-003  0.10523436141187525        0.0000000000000000     
   4.1952252828560037E-003   7.8878089033947441E-002   0.0000000000000000     
   4.3635310771215378E-003   8.5210904098120363E-002   0.0000000000000000     
   4.5251179410337010E-003   9.1703171383614515E-002   0.0000000000000000     
   4.6799858745924924E-003   9.8354890890429938E-002   0.0000000000000000     
   4.8281348777979112E-003  0.10516606261856659        0.0000000000000000     
  -1.8023112338505076E-006   7.8848059504906212E-002   0.0000000000000000     
  -1.3534534965657652E-006   8.5181548980567900E-002   0.0000000000000000     
  -1.1823726110203971E-006   9.1674404186151484E-002   0.0000000000000000     
  -1.2890685772126280E-006   9.8326625121656921E-002   0.0000000000000000     
  -1.6735413951446398E-006  0.10513821178708427        0.0000000000000000     
   1.9497939982016890E-002  0.10549230288397160        0.0000000000000000     
   2.0063566888621657E-002  0.11243468207342594        0.0000000000000000     
   2.0609230999858091E-002  0.11951418069150249        0.0000000000000000     
   2.1134932315726183E-002  0.12673079873820123        0.0000000000000000     
   2.1640670836225936E-002  0.13408453621352218        0.0000000000000000     
   1.4577941639503928E-002  0.10534310816701026        0.0000000000000000     
   1.5002854631736820E-002  0.11229379056164011        0.0000000000000000     
   1.5411882866845285E-002  0.11938149212318012        0.0000000000000000     
   1.5805026344829328E-002  0.12660621285163029        0.0000000000000000     
   1.6182285065688952E-002  0.13396795274699064        0.0000000000000000     
   9.6880066047642689E-003  0.10523436141187525        0.0000000000000000     
   9.9716173353749660E-003  0.11219057443463562        0.0000000000000000     
   1.0243951296456982E-002  0.11928348230479782        0.0000000000000000     
   1.0505008488010319E-002  0.12651308502236183        0.0000000000000000     
   1.0754788910034981E-002  0.13387938258732768        0.0000000000000000     
   4.8281348777979112E-003  0.10516606261856659        0.0000000000000000     
   4.9698549995360946E-003  0.11212503369241247        0.0000000000000000     
   5.1054362886931732E-003  0.11922015123635554        0.0000000000000000     
   5.2348787452691529E-003  0.12645141525039583        0.0000000000000000     
   5.3581823692640277E-003  0.13381882573453327        0.0000000000000000     
  -1.6735413951446398E-006  0.10513821178708427        0.0000000000000000     
  -2.4323757797930449E-006  0.11209716833497067        0.0000000000000000     
  -3.6621564461362987E-006  0.11919149891785333        0.0000000000000000     
  -5.3628833941747535E-006  0.12642120353573225        0.0000000000000000     
  -7.5345566239093040E-006  0.13378628218860739        0.0000000000000000     
   2.1640670836225936E-002  0.13408453621352218        0.0000000000000000     
   2.2117756321024966E-002  0.14156237964187368        0.0000000000000000     
   2.2557498529790877E-002  0.14915131554766414        0.0000000000000000     
   2.2959897462523665E-002  0.15685134393089351        0.0000000000000000     
   2.3324953119223342E-002  0.16466246479156177        0.0000000000000000     
   1.6182285065688952E-002  0.13396795274699064        0.0000000000000000     
   1.6540887047531271E-002  0.14145584888763935        0.0000000000000000     
   1.6878060308463411E-002  0.14905903835195453        0.0000000000000000     
   1.7193804848485376E-002  0.15677752113993620        0.0000000000000000     
   1.7488120667597164E-002  0.16461129725158441        0.0000000000000000     
   1.0754788910034981E-002  0.13387938258732768        0.0000000000000000     
   1.0993885691540400E-002  0.14137248410851624        0.0000000000000000     
   1.1222891961536013E-002  0.14898249869474839        0.0000000000000000     
   1.1441807720021823E-002  0.15670942634602414        0.0000000000000000     
   1.1650632966997827E-002  0.16455326706234344        0.0000000000000000     
   5.3581823692640277E-003  0.13381882573453327        0.0000000000000000     
   5.4767522530523522E-003  0.14131228530450438        0.0000000000000000     
   5.5919934890086747E-003  0.14892169657604573        0.0000000000000000     
   5.7039060771329987E-003  0.15664705954915720        0.0000000000000000     
   5.8124900174253199E-003  0.16448837422383886        0.0000000000000000     
  -7.5345566239093040E-006  0.13378628218860739        0.0000000000000000     
  -1.0513267932872258E-005  0.14127525247560382        0.0000000000000000     
  -1.4635109118600153E-005  0.14887663199584647        0.0000000000000000     
  -1.9900080181091770E-005  0.15659042074933543        0.0000000000000000     
  -2.6308181120347079E-005  0.16441661873607066        0.0000000000000000     
   0.0000000000000000        0.0000000000000000        0.0000000000000000     
  -7.1177267006500202E-009   1.0733896621775002E-003   0.0000000000000000     
  -2.6295875174759450E-008   2.5157009821284290E-003   0.0000000000000000     
  -5.7534445422463814E-008   4.3269339598527865E-003   0.0000000000000000     
  -1.0083343744376311E-007   6.5070885953505729E-003   0.0000000000000000     
   0.0000000000000000        0.0000000000000000        0.0000000000000000     
  -2.1299925872200482E-004   1.0756742606634136E-003   0.0000000000000000     
  -4.2700822774586588E-004   2.5208570741697290E-003   0.0000000000000000     
  -6.4202690707158339E-004   4.3355484405189458E-003   0.0000000000000000     
  -8.5805529669915682E-004   6.5197483597110653E-003   0.0000000000000000     
   0.0000000000000000        0.0000000000000000        0.0000000000000000     
  -4.2427525270919509E-004   1.0825372578601427E-003   0.0000000000000000     
  -8.5301997464056725E-004   2.5363209969333882E-003   0.0000000000000000     
  -1.2862341657941170E-003   4.3613512172197355E-003   0.0000000000000000     
  -1.7239178261698434E-003   6.5576279187191857E-003   0.0000000000000000     
   0.0000000000000000        0.0000000000000000        0.0000000000000000     
  -6.3383509968827155E-004   1.0939786537676880E-003   0.0000000000000000     
  -1.2780615365592793E-003   2.5620927504194065E-003   0.0000000000000000     
  -1.9326793106130230E-003   4.4043422899551557E-003   0.0000000000000000     
  -2.5976884218495032E-003   6.6207272723749350E-003   0.0000000000000000     
   0.0000000000000000        0.0000000000000000        0.0000000000000000     
  -8.4167879965923412E-004   1.1099984483860491E-003   0.0000000000000000     
  -1.7021329135020016E-003   2.5981723346277840E-003   0.0000000000000000     
  -2.5813623415283024E-003   4.4645216587252045E-003   0.0000000000000000     
  -3.4793670837381368E-003   6.7090464206783123E-003   0.0000000000000000     
  -1.0083343744376311E-007   6.5070885953505729E-003   0.0000000000000000     
  -1.4663241660994701E-007   9.0287691714820636E-003   0.0000000000000000     
  -1.8537094829170208E-007   1.1864579971107542E-002   0.0000000000000000     
  -2.1704903249000918E-007   1.5014520994227003E-002   0.0000000000000000     
  -2.4166666920378242E-007   1.8478592240840450E-002   0.0000000000000000     
  -8.5805529669915682E-004   6.5197483597110653E-003   0.0000000000000000     
  -1.0762413993812966E-003   9.0454235034527625E-003   0.0000000000000000     
  -1.2977332178707114E-003   1.1884540543450719E-002   0.0000000000000000     
  -1.5225307521674013E-003   1.5037099479704932E-002   0.0000000000000000     
  -1.7506340022713665E-003   1.8503100312215401E-002   0.0000000000000000     
  -1.7239178261698434E-003   6.5576279187191857E-003   0.0000000000000000     
  -2.1662310312510111E-003   9.0952438181134063E-003   0.0000000000000000     
  -2.6133338565208822E-003   1.1944291632084056E-002   0.0000000000000000     
  -3.0652263019794578E-003   1.5104771360631146E-002   0.0000000000000000     
  -3.5219083676267383E-003   1.8576683003754663E-002   0.0000000000000000     
  -2.5976884218495032E-003   6.6207272723749350E-003   0.0000000000000000     
  -3.2701155280257534E-003   9.1782301154639864E-003   0.0000000000000000     
  -3.9469872868988050E-003   1.2043833237007556E-002   0.0000000000000000     
  -4.6283036984686617E-003   1.5217536637005638E-002   0.0000000000000000     
  -5.3140647627353214E-003   1.8699340315458234E-002   0.0000000000000000     
  -3.4793670837381368E-003   6.7090464206783123E-003   0.0000000000000000     
  -4.3878948897055226E-003   9.2943823955045114E-003   0.0000000000000000     
  -5.2986935090044811E-003   1.2183165358221214E-002   0.0000000000000000     
  -6.2117629416350096E-003   1.5375395308828418E-002   0.0000000000000000     
  -7.1271031875971107E-003   1.8871072247326117E-002   0.0000000000000000     
  -2.4166666920378242E-007   1.8478592240840450E-002   0.0000000000000000     
  -2.9627807312995053E-007   2.2227655126297423E-002   0.0000000000000000     
  -4.1793745896533379E-007   2.6232571065947473E-002   0.0000000000000000     
  -6.0664482670811618E-007   3.0493340059790593E-002   0.0000000000000000     
  -8.6240017636049320E-007   3.5009962107826795E-002   0.0000000000000000     
  -1.7506340022713665E-003   1.8503100312215401E-002   0.0000000000000000     
  -1.9784912607287652E-003   2.2253661397808797E-002   0.0000000000000000     
  -2.2025508200857534E-003   2.6259901093311784E-002   0.0000000000000000     
  -2.4228126803423331E-003   3.0521819398724354E-002   0.0000000000000000     
  -2.6392768414985040E-003   3.5039416314046522E-002   0.0000000000000000     
  -3.5219083676267383E-003   1.8576683003754663E-002   0.0000000000000000     
  -3.9775328967288082E-003   2.2331788904818010E-002   0.0000000000000000     
  -4.4262527325517557E-003   2.6341851407184584E-002   0.0000000000000000     
  -4.8680678750955778E-003   3.0606870510854367E-002   0.0000000000000000     
  -5.3029783243602772E-003   3.5126846215827380E-002   0.0000000000000000     
  -5.3140647627353214E-003   1.8699340315458234E-002   0.0000000000000000     
  -5.9974211860732637E-003   2.2462037647325076E-002   0.0000000000000000     
  -6.6715236748569702E-003   2.6478422007565876E-002   0.0000000000000000     
  -7.3363722290864433E-003   3.0748493396180646E-002   0.0000000000000000     
  -7.9919668487616821E-003   3.5272251813169384E-002   0.0000000000000000     
  -7.1271031875971107E-003   1.8871072247326117E-002   0.0000000000000000     
  -8.0381561287621254E-003   2.2644407625329981E-002   0.0000000000000000     
  -8.9383636470013982E-003   2.6669612894455672E-002   0.0000000000000000     
  -9.8277257423149290E-003   3.0946688054703176E-002   0.0000000000000000     
  -1.0706242414702718E-002   3.5475633106072511E-002   0.0000000000000000     
  -8.6240017636049320E-007   3.5009962107826795E-002   0.0000000000000000     
  -1.1635459963472983E-006   3.9762735455612076E-002   0.0000000000000000     
  -1.4884247750928769E-006   4.4731958348702451E-002   0.0000000000000000     
  -1.8370365125997093E-006   4.9917630787097919E-002   0.0000000000000000     
  -2.2093812088663182E-006   5.5319752770798487E-002   0.0000000000000000     
  -2.6392768414985040E-003   3.5039416314046522E-002   0.0000000000000000     
  -2.8516777519069399E-003   3.9792722963118497E-002   0.0000000000000000     
  -3.0597498599203169E-003   4.4761770469780512E-002   0.0000000000000000     
  -3.2634931655386363E-003   4.9946558834032574E-002   0.0000000000000000     
  -3.4629076687618977E-003   5.5347088055874655E-002   0.0000000000000000     
  -5.3029783243602772E-003   3.5126846215827380E-002   0.0000000000000000     
  -5.7296608474709521E-003   3.9881580298215369E-002   0.0000000000000000     
  -6.1467922115526980E-003   4.4850874534130114E-002   0.0000000000000000     
  -6.5543724166055193E-003   5.0034728923571588E-002   0.0000000000000000     
  -6.9524014626294126E-003   5.5433143466539811E-002   0.0000000000000000     
  -7.9919668487616821E-003   3.5272251813169384E-002   0.0000000000000000     
  -8.6351128326883821E-003   4.0029307460902698E-002   0.0000000000000000     
  -9.2626154796722360E-003   4.4999270541751235E-002   0.0000000000000000     
  -9.8744747897132456E-003   5.0182141055714995E-002   0.0000000000000000     
  -1.0470690762811414E-002   5.5577919002793963E-002   0.0000000000000000     
  -1.0706242414702718E-002   3.5475633106072511E-002   0.0000000000000000     
  -1.1568033707559228E-002   4.0235904451180478E-002   0.0000000000000000     
  -1.2407219664278928E-002   4.5206958492643896E-002   0.0000000000000000     
  -1.3223800284861819E-002   5.0388795230462760E-002   0.0000000000000000     
  -1.4017775569307901E-002   5.5781414664637076E-002   0.0000000000000000     
  -2.2093812088663182E-006   5.5319752770798487E-002   0.0000000000000000     
  -2.4720977171623776E-006   6.0923032008945055E-002   0.0000000000000000     
  -2.4918248907586458E-006   6.6712176210678528E-002   0.0000000000000000     
  -2.2685627296551770E-006   7.2687185375998914E-002   0.0000000000000000     
  -1.8023112338505076E-006   7.8848059504906212E-002   0.0000000000000000     
  -3.4629076687618977E-003   5.5347088055874655E-002   0.0000000000000000     
  -3.6568242788080100E-003   6.0948546442798103E-002   0.0000000000000000     
  -3.8440739048948907E-003   6.6736122302294185E-002   0.0000000000000000     
  -4.0246565470225372E-003   7.2709815634362948E-002   0.0000000000000000     
  -4.1985722051909521E-003   7.8869626439004373E-002   0.0000000000000000     
  -6.9524014626294126E-003   5.5433143466539811E-002   0.0000000000000000     
  -7.3393595585824470E-003   6.1031917839108760E-002   0.0000000000000000     
  -7.7137269134226923E-003   6.6816851717352438E-002   0.0000000000000000     
  -8.0755035271501442E-003   7.2787945101270832E-002   0.0000000000000000     
  -8.4246893997648106E-003   7.8945197990863927E-002   0.0000000000000000     
  -1.0470690762811414E-002   5.5577919002793963E-002   0.0000000000000000     
  -1.1050077937040475E-002   6.1173146197877067E-002   0.0000000000000000     
  -1.1611450850474162E-002   6.6954364455853260E-002   0.0000000000000000     
  -1.2154809503112481E-002   7.2921573776722537E-002   0.0000000000000000     
  -1.2680153894955425E-002   7.9074774160484876E-002   0.0000000000000000     
  -1.4017775569307901E-002   5.5781414664637076E-002   0.0000000000000000     
  -1.4788979414182089E-002   6.1372231519103003E-002   0.0000000000000000     
  -1.5537245716049298E-002   6.7148660517796652E-002   0.0000000000000000     
  -1.6262574474909537E-002   7.3110701660718078E-002   0.0000000000000000     
  -1.6964965690762800E-002   7.9258354947867232E-002   0.0000000000000000     
  -1.8023112338505076E-006   7.8848059504906212E-002   0.0000000000000000     
  -1.3534534965657652E-006   8.5181548980567900E-002   0.0000000000000000     
  -1.1823726110203971E-006   9.1674404186151484E-002   0.0000000000000000     
  -1.2890685772126280E-006   9.8326625121656921E-002   0.0000000000000000     
  -1.6735413951446398E-006  0.10513821178708427        0.0000000000000000     
  -4.1985722051909521E-003   7.8869626439004373E-002   0.0000000000000000     
  -4.3660504325514823E-003   8.5202069407828679E-002   0.0000000000000000     
  -4.5273207822554779E-003   9.1693659232446045E-002   0.0000000000000000     
  -4.6823832543029442E-003   9.8344395912856555E-002   0.0000000000000000     
  -4.8312378486938760E-003  0.10515427944906010        0.0000000000000000     
  -8.4246893997648106E-003   7.8945197990863927E-002   0.0000000000000000     
  -8.7609627663217879E-003   8.5274981106765638E-002   0.0000000000000000     
  -9.0840018618761897E-003   9.1763665169609876E-002   0.0000000000000000     
  -9.3938066864280127E-003   9.8411250179396600E-002   0.0000000000000000     
  -9.6903772399772586E-003  0.10521773613612588        0.0000000000000000     
  -1.2680153894955425E-002   7.9074774160484876E-002   0.0000000000000000     
  -1.3186090454807488E-002   8.5400284077378846E-002   0.0000000000000000     
  -1.3671225611473152E-002   9.1884421997642948E-002   0.0000000000000000     
  -1.4135559364952421E-002   9.8527187921277182E-002   0.0000000000000000     
  -1.4579091715245296E-002  0.10532858184828160        0.0000000000000000     
  -1.6964965690762800E-002   7.9258354947867232E-002   0.0000000000000000     
  -1.7641433498008580E-002   8.5577978319668235E-002   0.0000000000000000     
  -1.8288992031046371E-002   9.2055929716545262E-002   0.0000000000000000     
  -1.8907641289876171E-002   9.8692209138498271E-002   0.0000000000000000     
  -1.9497381274497984E-002  0.10548681658552725        0.0000000000000000     
  -1.6735413951446398E-006  0.10513821178708427        0.0000000000000000     
  -2.4323757797930449E-006  0.11209716833497067        0.0000000000000000     
  -3.6621564461362987E-006  0.11919149891785333        0.0000000000000000     
  -5.3628833941747535E-006  0.12642120353573225        0.0000000000000000     
  -7.5345566239093040E-006  0.13378628218860739        0.0000000000000000     
  -4.8312378486938760E-003  0.10515427944906010        0.0000000000000000     
  -4.9743605301711211E-003  0.11211109295592944        0.0000000000000000     
  -5.1122272634775319E-003  0.11920261954833723        0.0000000000000000     
  -5.2448380486131039E-003  0.12642885922628341        0.0000000000000000     
  -5.3721928855778398E-003  0.13378981198976811        0.0000000000000000     
  -9.6903772399772586E-003  0.10521773613612588        0.0000000000000000     
  -9.9750452032363202E-003  0.11217092214890799        0.0000000000000000     
  -1.0249142256917592E-002  0.11925860732685324        0.0000000000000000     
  -1.0512668401021079E-002  0.12648079166996168        0.0000000000000000     
  -1.0765623635546773E-002  0.13383747517823333        0.0000000000000000     
  -1.4579091715245296E-002  0.10532858184828160        0.0000000000000000     
  -1.5004486394975388E-002  0.11227665591390630        0.0000000000000000     
  -1.5414407136766324E-002  0.11935946225340147        0.0000000000000000     
  -1.5808853940618095E-002  0.12657700086676710        0.0000000000000000     
  -1.6187826806530716E-002  0.13392927175400318        0.0000000000000000     
  -1.9497381274497984E-002  0.10548681658552725        0.0000000000000000     
  -2.0062684105388327E-002  0.11242829425092439        0.0000000000000000     
  -2.0608021903023716E-002  0.11950518432798181        0.0000000000000000     
  -2.1133394667404166E-002  0.12671748681669953        0.0000000000000000     
  -2.1638802398529659E-002  0.13406520171707756        0.0000000000000000     
  -7.5345566239093040E-006  0.13378628218860739        0.0000000000000000     
  -1.0513267932872258E-005  0.14127525247560382        0.0000000000000000     
  -1.4635109118600153E-005  0.14887663199584647        0.0000000000000000     
  -1.9900080181091770E-005  0.15659042074933543        0.0000000000000000     
  -2.6308181120347079E-005  0.16441661873607066        0.0000000000000000     
  -5.3721928855778398E-003  0.13378981198976811        0.0000000000000000     
  -5.4962674937012899E-003  0.14127252904033402        0.0000000000000000     
  -5.6190375923130080E-003  0.14886406157952403        0.0000000000000000     
  -5.7405031814129958E-003  0.15656440960733817        0.0000000000000000     
  -5.8606642610012473E-003  0.16437357312377635        0.0000000000000000     
  -1.0765623635546773E-002  0.13383747517823333        0.0000000000000000     
  -1.1008867046538917E-002  0.14131525841721454        0.0000000000000000     
  -1.1243257720041746E-002  0.14890074195245157        0.0000000000000000     
  -1.1468795656055256E-002  0.15659392578394454        0.0000000000000000     
  -1.1685480854579449E-002  0.16439480991169339        0.0000000000000000     
  -1.6187826806530716E-002  0.13392927175400318        0.0000000000000000     
  -1.6548311926445756E-002  0.14140344060624532        0.0000000000000000     
  -1.6887295492304808E-002  0.14898667311462915        0.0000000000000000     
  -1.7204777504107874E-002  0.15667896927915462        0.0000000000000000     
  -1.7500757961854952E-002  0.16448032909982183        0.0000000000000000     
  -2.1638802398529659E-002  0.13406520171707756        0.0000000000000000     
  -2.2114602133421805E-002  0.14153707560742643        0.0000000000000000     
  -2.2551150909102206E-002  0.14912185506605671        0.0000000000000000     
  -2.2948448725570853E-002  0.15681954009296845        0.0000000000000000     
  -2.3306495582827751E-002  0.16463013068816162        0.0000000000000000     
   0.0000000000000000        0.0000000000000000        0.0000000000000000     
  -8.4167879965923412E-004   1.1099984483860491E-003   0.0000000000000000     
  -1.7021329135020016E-003   2.5981723346277840E-003   0.0000000000000000     
  -2.5813623415283024E-003   4.4645216587252045E-003   0.0000000000000000     
  -3.4793670837381368E-003   6.7090464206783123E-003   0.0000000000000000     
   0.0000000000000000        0.0000000000000000        0.0000000000000000     
  -1.0567075751912217E-003   1.1341583035793252E-003   0.0000000000000000     
  -2.1397718763528301E-003   2.6504105743105589E-003   0.0000000000000000     
  -3.2491929034848253E-003   4.5487568121937005E-003   0.0000000000000000     
  -4.3849706565872075E-003   6.8291970172287501E-003   0.0000000000000000     
   0.0000000000000000        0.0000000000000000        0.0000000000000000     
  -1.2878226488533733E-003   1.1700198812116161E-003   0.0000000000000000     
  -2.6055161959958610E-003   2.7246582942197679E-003   0.0000000000000000     
  -3.9530806414274635E-003   4.6639152390244576E-003   0.0000000000000000     
  -5.3305159851481827E-003   6.9877907156256818E-003   0.0000000000000000     
   0.0000000000000000        0.0000000000000000        0.0000000000000000     
  -1.5350240206456888E-003   1.2175831812829211E-003   0.0000000000000000     
  -3.0993658724310954E-003   2.8209154943554132E-003   0.0000000000000000     
  -4.6930255553562185E-003   4.8099969392174750E-003   0.0000000000000000     
  -6.3160030694210580E-003   7.1848275158691082E-003   0.0000000000000000     
   0.0000000000000000        0.0000000000000000        0.0000000000000000     
  -1.7983116905681681E-003   1.2768482037932411E-003   0.0000000000000000     
  -3.6213209056585307E-003   2.9391821747174925E-003   0.0000000000000000     
  -5.4690276452710879E-003   4.9870019127727554E-003   0.0000000000000000     
  -7.3414319094058395E-003   7.4203074179590286E-003   0.0000000000000000     
  -3.4793670837381368E-003   6.7090464206783123E-003   0.0000000000000000     
  -4.3878948897055226E-003   9.2943823955045114E-003   0.0000000000000000     
  -5.2986935090044811E-003   1.2183165358221214E-002   0.0000000000000000     
  -6.2117629416350096E-003   1.5375395308828418E-002   0.0000000000000000     
  -7.1271031875971107E-003   1.8871072247326117E-002   0.0000000000000000     
  -4.3849706565872075E-003   6.8291970172287501E-003   0.0000000000000000     
  -5.5341238948128611E-003   9.4497020852682620E-003   0.0000000000000000     
  -6.6836713773146678E-003   1.2368242912164790E-002   0.0000000000000000     
  -7.8336131040926283E-003   1.5584819497918342E-002   0.0000000000000000     
  -8.9839490751467445E-003   1.9099431842528904E-002   0.0000000000000000     
  -5.3305159851481827E-003   6.9877907156256818E-003   0.0000000000000000     
  -6.7233573218703066E-003   9.6501906117885203E-003   0.0000000000000000     
  -8.1171397463061269E-003   1.2605020815278057E-002   0.0000000000000000     
  -9.5118632584556446E-003   1.5852281326094283E-002   0.0000000000000000     
  -1.0907527858318857E-002   1.9391972144237206E-002   0.0000000000000000     
  -6.3160030694210580E-003   7.1848275158691082E-003   0.0000000000000000     
  -7.9555951708778598E-003   9.8958479750652917E-003   0.0000000000000000     
  -9.5990986159788568E-003   1.2893499067561001E-002   0.0000000000000000     
  -1.1246513404724056E-002   1.6177780793356245E-002   0.0000000000000000     
  -1.2897839537113450E-002   1.9748693152451011E-002   0.0000000000000000     
  -7.3414319094058395E-003   7.4203074179590286E-003   0.0000000000000000     
  -9.2308374418355182E-003   1.0186674175098569E-002   0.0000000000000000     
  -1.1129547986332857E-002   1.3233677669013632E-002   0.0000000000000000     
  -1.3037563542897859E-002   1.6561317899704220E-002   0.0000000000000000     
  -1.4954884111530519E-002   2.0169594867170328E-002   0.0000000000000000     
  -7.1271031875971107E-003   1.8871072247326117E-002   0.0000000000000000     
  -8.0381561287621254E-003   2.2644407625329981E-002   0.0000000000000000     
  -8.9383636470013982E-003   2.6669612894455672E-002   0.0000000000000000     
  -9.8277257423149290E-003   3.0946688054703176E-002   0.0000000000000000     
  -1.0706242414702718E-002   3.5475633106072511E-002   0.0000000000000000     
  -8.9839490751467445E-003   1.9099431842528904E-002   0.0000000000000000     
  -1.0127656628133789E-002   2.2887327239777752E-002   0.0000000000000000     
  -1.1257713100710533E-002   2.6923752983446143E-002   0.0000000000000000     
  -1.2374118492876975E-002   3.1208709073534076E-002   0.0000000000000000     
  -1.3476872804633123E-002   3.5742195510041555E-002   0.0000000000000000     
  -1.0907527858318857E-002   1.9391972144237206E-002   0.0000000000000000     
  -1.2293841587526642E-002   2.3199224891613413E-002   0.0000000000000000     
  -1.3660512487709867E-002   2.7249171190129495E-002   0.0000000000000000     
  -1.5007540558868531E-002   3.1541811039785456E-002   0.0000000000000000     
  -1.6334925801002643E-002   3.6077144440581299E-002   0.0000000000000000     
  -1.2897839537113450E-002   1.9748693152451011E-002   0.0000000000000000     
  -1.4536711006940685E-002   2.3580100580836948E-002   0.0000000000000000     
  -1.6146761807999396E-002   2.7645867514505731E-002   0.0000000000000000     
  -1.7727991940289591E-002   3.1945993953457326E-002   0.0000000000000000     
  -1.9280401403811268E-002   3.6480479897691744E-002   0.0000000000000000     
  -1.4954884111530519E-002   2.0169594867170328E-002   0.0000000000000000     
  -1.6856264886375913E-002   2.4029954307448389E-002   0.0000000000000000     
  -1.8716461061579131E-002   2.8113841956574834E-002   0.0000000000000000     
  -2.0535472637140166E-002   3.2421257814549666E-002   0.0000000000000000     
  -2.2313299613059008E-002   3.6952201881372888E-002   0.0000000000000000     
  -1.0706242414702718E-002   3.5475633106072511E-002   0.0000000000000000     
  -1.1568033707559228E-002   4.0235904451180478E-002   0.0000000000000000     
  -1.2407219664278928E-002   4.5206958492643896E-002   0.0000000000000000     
  -1.3223800284861819E-002   5.0388795230462760E-002   0.0000000000000000     
  -1.4017775569307901E-002   5.5781414664637076E-002   0.0000000000000000     
  -1.3476872804633123E-002   3.5742195510041555E-002   0.0000000000000000     
  -1.4557947052202782E-002   4.0504310264441540E-002   0.0000000000000000     
  -1.5609312251809773E-002   4.5475151308206965E-002   0.0000000000000000     
  -1.6630968403454089E-002   5.0654718641337845E-002   0.0000000000000000     
  -1.7622915507135736E-002   5.6043012263834180E-002   0.0000000000000000     
  -1.6334925801002643E-002   3.6077144440581299E-002   0.0000000000000000     
  -1.7634376446738334E-002   4.0837463896078695E-002   0.0000000000000000     
  -1.8897600728701756E-002   4.5805061909839309E-002   0.0000000000000000     
  -2.0124598646892908E-002   5.0979938481863156E-002   0.0000000000000000     
  -2.1315370201311794E-002   5.6362093612150221E-002   0.0000000000000000     
  -1.9280401403811268E-002   3.6480479897691744E-002   0.0000000000000000     
  -2.0797321891165881E-002   4.1235365346091971E-002   0.0000000000000000     
  -2.2272085094954885E-002   4.6196690297540956E-002   0.0000000000000000     
  -2.3704691015178282E-002   5.1364454752038685E-002   0.0000000000000000     
  -2.5095139651836067E-002   5.6738658709585200E-002   0.0000000000000000     
  -2.2313299613059008E-002   3.6952201881372888E-002   0.0000000000000000     
  -2.4046783385485427E-002   4.1698014614481332E-002   0.0000000000000000     
  -2.5732765350569155E-002   4.6650036471311870E-002   0.0000000000000000     
  -2.7371245508310202E-002   5.1808267451864468E-002   0.0000000000000000     
  -2.8962223858708558E-002   5.7172707556139152E-002   0.0000000000000000     
  -1.4017775569307901E-002   5.5781414664637076E-002   0.0000000000000000     
  -1.4788979414182089E-002   6.1372231519103003E-002   0.0000000000000000     
  -1.5537245716049298E-002   6.7148660517796652E-002   0.0000000000000000     
  -1.6262574474909537E-002   7.3110701660718078E-002   0.0000000000000000     
  -1.6964965690762800E-002   7.9258354947867232E-002   0.0000000000000000     
  -1.7622915507135736E-002   5.6043012263834180E-002   0.0000000000000000     
  -1.8586044264159076E-002   6.1628171454146417E-002   0.0000000000000000     
  -1.9521245375828476E-002   6.7398335490725020E-002   0.0000000000000000     
  -2.0428518842143924E-002   7.3353504373569967E-002   0.0000000000000000     
  -2.1307864663105438E-002   7.9493678102681264E-002   0.0000000000000000     
  -2.1315370201311794E-002   5.6362093612150221E-002   0.0000000000000000     
  -2.2471252761123231E-002   6.1939963654367165E-002   0.0000000000000000     
  -2.3593583695492054E-002   6.7701984962180661E-002   0.0000000000000000     
  -2.4682363004418256E-002   7.3648157535590703E-002   0.0000000000000000     
  -2.5737590687901834E-002   7.9778481374597310E-002   0.0000000000000000     
  -2.5095139651836067E-002   5.6738658709585200E-002   0.0000000000000000     
  -2.6444604905074550E-002   6.2307608119765254E-002   0.0000000000000000     
  -2.7754260675040030E-002   6.8059608932163632E-002   0.0000000000000000     
  -2.9024106961732517E-002   7.3994661146780313E-002   0.0000000000000000     
  -3.0254143765152001E-002   8.0112764763615327E-002   0.0000000000000000     
  -2.8962223858708558E-002   5.7172707556139152E-002   0.0000000000000000     
  -3.0506100696013033E-002   6.2731104850340696E-002   0.0000000000000000     
  -3.2003276314472417E-002   6.8471207400673917E-002   0.0000000000000000     
  -3.3453750714086725E-002   7.4393015207138785E-002   0.0000000000000000     
  -3.4857523894855934E-002   8.0496528269735343E-002   0.0000000000000000     
  -1.6964965690762800E-002   7.9258354947867232E-002   0.0000000000000000     
  -1.7641433498008580E-002   8.5577978319668235E-002   0.0000000000000000     
  -1.8288992031046371E-002   9.2055929716545262E-002   0.0000000000000000     
  -1.8907641289876171E-002   9.8692209138498271E-002   0.0000000000000000     
  -1.9497381274497984E-002  0.10548681658552725        0.0000000000000000     
  -2.1307864663105438E-002   7.9493678102681264E-002   0.0000000000000000     
  -2.2154788369940497E-002   8.5805379414755245E-002   0.0000000000000000     
  -2.2964795493876613E-002   9.2275131046488254E-002   0.0000000000000000     
  -2.3737886034913776E-002   9.8902932997880236E-002   0.0000000000000000     
  -2.4474059993051994E-002  0.10568878526893125        0.0000000000000000     
  -2.5737590687901834E-002   7.9778481374597310E-002   0.0000000000000000     
  -2.6753951544618678E-002   8.6079802943761247E-002   0.0000000000000000     
  -2.7726130373244645E-002   9.2538968707643332E-002   0.0000000000000000     
  -2.8654127173779759E-002   9.9155978666243566E-002   0.0000000000000000     
  -2.9537941946223997E-002  0.10593083281956196        0.0000000000000000     
  -3.0254143765152001E-002   8.0112764763615327E-002   0.0000000000000000     
  -3.1438923022043118E-002   8.6401248906686198E-002   0.0000000000000000     
  -3.2572996669150492E-002   9.2847442700010510E-002   0.0000000000000000     
  -3.3656364706474109E-002   9.9451346143588248E-002   0.0000000000000000     
  -3.4689027134013992E-002  0.10621295923741940        0.0000000000000000     
  -3.4857523894855934E-002   8.0496528269735343E-002   0.0000000000000000     
  -3.6209702802213820E-002   8.6769717303530156E-002   0.0000000000000000     
  -3.7505394381594115E-002   9.3200553023589774E-002   0.0000000000000000     
  -3.8744598632996841E-002   9.9789035429914255E-002   0.0000000000000000     
  -3.9927315556421983E-002  0.10653516452250356        0.0000000000000000     
  -1.9497381274497984E-002  0.10548681658552725        0.0000000000000000     
  -2.0062684105388327E-002  0.11242829425092439        0.0000000000000000     
  -2.0608021903023716E-002  0.11950518432798181        0.0000000000000000     
  -2.1133394667404166E-002  0.12671748681669953        0.0000000000000000     
  -2.1638802398529659E-002  0.13406520171707756        0.0000000000000000     
  -2.4474059993051994E-002  0.10568878526893125        0.0000000000000000     
  -2.5179523040902277E-002  0.11262172332688825        0.0000000000000000     
  -2.5860480851075642E-002  0.11969078263899820        0.0000000000000000     
  -2.6516933423572080E-002  0.12689596320526114        0.0000000000000000     
  -2.7148880758391607E-002  0.13423726502567709        0.0000000000000000     
  -2.9537941946223997E-002  0.10593083281956196        0.0000000000000000     
  -3.0384887907944382E-002  0.11285282930872385        0.0000000000000000     
  -3.1202278276307945E-002  0.11991126627485453        0.0000000000000000     
  -3.1990113051314668E-002  0.12710614371795401        0.0000000000000000     
  -3.2748392232964552E-002  0.13443746163802234        0.0000000000000000     
  -3.4689027134013992E-002  0.10621295923741940        0.0000000000000000     
  -3.5678778706514661E-002  0.11312161219643119        0.0000000000000000     
  -3.6633414178720632E-002  0.12016663523555075        0.0000000000000000     
  -3.7552933550631905E-002  0.12734802835477810        0.0000000000000000     
  -3.8437336822248494E-002  0.13466579155411329        0.0000000000000000     
  -3.9927315556421983E-002  0.10653516452250356        0.0000000000000000     
  -4.1061195436613088E-002  0.11342807199001026        0.0000000000000000     
  -4.2153888558313694E-002  0.12045688952108689        0.0000000000000000     
  -4.3205394921523803E-002  0.12762161711573347        0.0000000000000000     
  -4.4215714526243427E-002  0.13492225477394998        0.0000000000000000     
  -2.1638802398529659E-002  0.13406520171707756        0.0000000000000000     
  -2.2114602133421805E-002  0.14153707560742643        0.0000000000000000     
  -2.2551150909102206E-002  0.14912185506605671        0.0000000000000000     
  -2.2948448725570853E-002  0.15681954009296845        0.0000000000000000     
  -2.3306495582827751E-002  0.16463013068816162        0.0000000000000000     
  -2.7148880758391607E-002  0.13423726502567709        0.0000000000000000     
  -2.7740373735105871E-002  0.14170486854738329        0.0000000000000000     
  -2.8275463233286544E-002  0.14928895421751717        0.0000000000000000     
  -2.8754149252933622E-002  0.15698952203607860        0.0000000000000000     
  -2.9176431794047102E-002  0.16480657200306770        0.0000000000000000     
  -3.2748392232964552E-002  0.13443746163802234        0.0000000000000000     
  -3.3458262799136752E-002  0.14189552455274140        0.0000000000000000     
  -3.4100871727710438E-002  0.14947063697979321        0.0000000000000000     
  -3.4676219018685610E-002  0.15716279891917778        0.0000000000000000     
  -3.5184304672062246E-002  0.16497201037089501        0.0000000000000000     
  -3.8437336822248494E-002  0.13466579155411329        0.0000000000000000     
  -3.9268269325514464E-002  0.14210904362350071        0.0000000000000000     
  -4.0027376392373901E-002  0.14966690335288496        0.0000000000000000     
  -4.0714658022826811E-002  0.15733937074226587        0.0000000000000000     
  -4.1330114216873194E-002  0.16512644579164359        0.0000000000000000     
  -4.4215714526243427E-002  0.13492225477394998        0.0000000000000000     
  -4.5170393314238985E-002  0.14234542575966128        0.0000000000000000     
  -4.6054977227276916E-002  0.14987775333679229        0.0000000000000000     
  -4.6869466265357235E-002  0.15751923750534300        0.0000000000000000     
  -4.7613860428479940E-002  0.16526987826531339        0.0000000000000000     
   0.0000000000000000        0.0000000000000000        0.0000000000000000     
  -1.7983116905681681E-003   1.2768482037932411E-003   0.0000000000000000     
  -3.6213209056585307E-003   2.9391821747174925E-003   0.0000000000000000     
  -5.4690276452710879E-003   4.9870019127727554E-003   0.0000000000000000     
  -7.3414319094058395E-003   7.4203074179590286E-003   0.0000000000000000     
   0.0000000000000000        0.0000000000000000        0.0000000000000000     
  -2.0694197724052785E-003   1.3549341184723462E-003   0.0000000000000000     
  -4.1640348806281507E-003   3.0939767600274095E-003   0.0000000000000000     
  -6.2838453246686190E-003   5.2171279246651910E-003   0.0000000000000000     
  -8.4288511045266818E-003   7.7243876123856900E-003   0.0000000000000000     
   0.0000000000000000        0.0000000000000000        0.0000000000000000     
  -2.3400823799414865E-003   1.4589600950500070E-003   0.0000000000000000     
  -4.7201613822899398E-003   3.2998176750065650E-003   0.0000000000000000     
  -7.1402370070453580E-003   5.5225727398696750E-003   0.0000000000000000     
  -9.6003092542077447E-003   8.1272252896393352E-003   0.0000000000000000     
   0.0000000000000000        0.0000000000000000        0.0000000000000000     
  -2.6102995131767931E-003   1.5889261335262236E-003   0.0000000000000000     
  -5.2897004106438944E-003   3.5567049196549602E-003   0.0000000000000000     
  -8.0382026924013042E-003   5.9033363583862073E-003   0.0000000000000000     
  -1.0855806358449025E-002   8.6288204497199684E-003   0.0000000000000000     
   0.0000000000000000        0.0000000000000000        0.0000000000000000     
  -2.8800711721111965E-003   1.7448322339009966E-003   0.0000000000000000     
  -5.8726519656900162E-003   3.8646384939725934E-003   0.0000000000000000     
  -8.9777423807364601E-003   6.3594187802147898E-003   0.0000000000000000     
  -1.2195342417250527E-002   9.2291730926275864E-003   0.0000000000000000     
  -7.3414319094058395E-003   7.4203074179590286E-003   0.0000000000000000     
  -9.2308374418355182E-003   1.0186674175098569E-002   0.0000000000000000     
  -1.1129547986332857E-002   1.3233677669013632E-002   0.0000000000000000     
  -1.3037563542897859E-002   1.6561317899704220E-002   0.0000000000000000     
  -1.4954884111530519E-002   2.0169594867170328E-002   0.0000000000000000     
  -8.4288511045266818E-003   7.7243876123856900E-003   0.0000000000000000     
  -1.0590700163824166E-002   1.0558301961898048E-002   0.0000000000000000     
  -1.2761040446182896E-002   1.3661417111911406E-002   0.0000000000000000     
  -1.4939871951602878E-002   1.7033733062425768E-002   0.0000000000000000     
  -1.7127194680084105E-002   2.0675249813441130E-002   0.0000000000000000     
  -9.6003092542077447E-003   8.1272252896393352E-003   0.0000000000000000     
  -1.2076799365924677E-002   1.1046364085473416E-002   0.0000000000000000     
  -1.4546128584343742E-002   1.4212577888529788E-002   0.0000000000000000     
  -1.7008296909464926E-002   1.7625866698808446E-002   0.0000000000000000     
  -1.9463304341288255E-002   2.1286230516309387E-002   0.0000000000000000     
  -1.0855806358449025E-002   8.6288204497199684E-003   0.0000000000000000     
  -1.3689135048137053E-002   1.1650860545824676E-002   0.0000000000000000     
  -1.6484812400815382E-002   1.4887159998868773E-002   0.0000000000000000     
  -1.9242838416484023E-002   1.8337718808852252E-002   0.0000000000000000     
  -2.1963213095142965E-002   2.2002536975775113E-002   0.0000000000000000     
  -1.2195342417250527E-002   9.2291730926275864E-003   0.0000000000000000     
  -1.5427707210461293E-002   1.2371791342951828E-002   0.0000000000000000     
  -1.8577091895597836E-002   1.5685163442928363E-002   0.0000000000000000     
  -2.1643496472660145E-002   1.9169289392557187E-002   0.0000000000000000     
  -2.4626920941648235E-002   2.2824169191838304E-002   0.0000000000000000     
  -1.4954884111530519E-002   2.0169594867170328E-002   0.0000000000000000     
  -1.6856264886375913E-002   2.4029954307448389E-002   0.0000000000000000     
  -1.8716461061579131E-002   2.8113841956574834E-002   0.0000000000000000     
  -2.0535472637140166E-002   3.2421257814549666E-002   0.0000000000000000     
  -2.2313299613059008E-002   3.6952201881372888E-002   0.0000000000000000     
  -1.7127194680084105E-002   2.0675249813441130E-002   0.0000000000000000     
  -1.9291898491001113E-002   2.4558378997641777E-002   0.0000000000000000     
  -2.1402873243728440E-002   2.8655532247711991E-002   0.0000000000000000     
  -2.3460118938266078E-002   3.2966709563651775E-002   0.0000000000000000     
  -2.5463635574614042E-002   3.7491910945461129E-002   0.0000000000000000     
  -1.9463304341288255E-002   2.1286230516309387E-002   0.0000000000000000     
  -2.1883007085985059E-002   2.5174967577611174E-002   0.0000000000000000     
  -2.4239261349726711E-002   2.9273376119292358E-002   0.0000000000000000     
  -2.6532067132513198E-002   3.3581456141352925E-002   0.0000000000000000     
  -2.8761424434344526E-002   3.8099207643792897E-002   0.0000000000000000     
  -2.1963213095142965E-002   2.2002536975775113E-002   0.0000000000000000     
  -2.4629590671327757E-002   2.5879720047356596E-002   0.0000000000000000     
  -2.7225625379573938E-002   2.9967373571315938E-002   0.0000000000000000     
  -2.9751317219881512E-002   3.4265497547653130E-002   0.0000000000000000     
  -3.2206666192250481E-002   3.8774091976368157E-002   0.0000000000000000     
  -2.4626920941648235E-002   2.2824169191838304E-002   0.0000000000000000     
  -2.7531649247029194E-002   2.6672636406878038E-002   0.0000000000000000     
  -3.0361965333270121E-002   3.0737524603782731E-002   0.0000000000000000     
  -3.3117869200371026E-002   3.5018833782552355E-002   0.0000000000000000     
  -3.5799360848331893E-002   3.9516563943186950E-002   0.0000000000000000     
  -2.2313299613059008E-002   3.6952201881372888E-002   0.0000000000000000     
  -2.4046783385485427E-002   4.1698014614481332E-002   0.0000000000000000     
  -2.5732765350569155E-002   4.6650036471311870E-002   0.0000000000000000     
  -2.7371245508310202E-002   5.1808267451864468E-002   0.0000000000000000     
  -2.8962223858708558E-002   5.7172707556139152E-002   0.0000000000000000     
  -2.5463635574614042E-002   3.7491910945461129E-002   0.0000000000000000     
  -2.7413766034106380E-002   4.2226972731729914E-002   0.0000000000000000     
  -2.9310853198077177E-002   4.7167731261047986E-002   0.0000000000000000     
  -3.1154897066526428E-002   5.2314186533415345E-002   0.0000000000000000     
  -3.2945897639454130E-002   5.7666338548831991E-002   0.0000000000000000     
  -2.8761424434344526E-002   3.8099207643792897E-002   0.0000000000000000     
  -3.0929274941438160E-002   4.2823800728320809E-002   0.0000000000000000     
  -3.3037560340011561E-002   4.7752405496645257E-002   0.0000000000000000     
  -3.5086280630064713E-002   5.2885021948766223E-002   0.0000000000000000     
  -3.7075435811597633E-002   5.8221650084683711E-002   0.0000000000000000     
  -3.2206666192250481E-002   3.8774091976368157E-002   0.0000000000000000     
  -3.4593310107480763E-002   4.3488498604254015E-002   0.0000000000000000     
  -3.6912886776372292E-002   4.8404059178103663E-002   0.0000000000000000     
  -3.9165396198925062E-002   5.3520773697917086E-002   0.0000000000000000     
  -4.1350838375139094E-002   5.8838642163694298E-002   0.0000000000000000     
  -3.5799360848331893E-002   3.9516563943186950E-002   0.0000000000000000     
  -3.8405871532234195E-002   4.4221066359529548E-002   0.0000000000000000     
  -4.0936832507159390E-002   4.9122692305423210E-002   0.0000000000000000     
  -4.3392243773107485E-002   5.4221441780867949E-002   0.0000000000000000     
  -4.5772105330078472E-002   5.9517314785863751E-002   0.0000000000000000     
  -2.8962223858708558E-002   5.7172707556139152E-002   0.0000000000000000     
  -3.0506100696013033E-002   6.2731104850340696E-002   0.0000000000000000     
  -3.2003276314472417E-002   6.8471207400673917E-002   0.0000000000000000     
  -3.3453750714086725E-002   7.4393015207138785E-002   0.0000000000000000     
  -3.4857523894855934E-002   8.0496528269735343E-002   0.0000000000000000     
  -3.2945897639454130E-002   5.7666338548831991E-002   0.0000000000000000     
  -3.4683607646599224E-002   6.3211624910368872E-002   0.0000000000000000     
  -3.6367779817700639E-002   6.8937483221096899E-002   0.0000000000000000     
  -3.7998414152758390E-002   7.4843913481016114E-002   0.0000000000000000     
  -3.9575510651772464E-002   8.0930915690126476E-002   0.0000000000000000     
  -3.7075435811597633E-002   5.8221650084683711E-002   0.0000000000000000     
  -3.9004993269493665E-002   6.3750339364125164E-002   0.0000000000000000     
  -4.0874920388636132E-002   6.9459139246818000E-002   0.0000000000000000     
  -4.2685217169025035E-002   7.5348049732762240E-002   0.0000000000000000     
  -4.4435883610660386E-002   8.1417070821957843E-002   0.0000000000000000     
  -4.1350838375139094E-002   5.8838642163694298E-002   0.0000000000000000     
  -4.3470257564696357E-002   6.4347248211609573E-002   0.0000000000000000     
  -4.5524698027278897E-002   7.0036175477837193E-002   0.0000000000000000     
  -4.7514159762886685E-002   7.5905423962377136E-002   0.0000000000000000     
  -4.9438642771519742E-002   8.1954993665229431E-002   0.0000000000000000     
  -4.5772105330078472E-002   5.9517314785863751E-002   0.0000000000000000     
  -4.8079400532207307E-002   6.5002351452822099E-002   0.0000000000000000     
  -5.0317112733628919E-002   7.0668591914154463E-002   0.0000000000000000     
  -5.2485241934343320E-002   7.6516036169860871E-002   0.0000000000000000     
  -5.4583788134350497E-002   8.2544684219941267E-002   0.0000000000000000     
  -3.4857523894855934E-002   8.0496528269735343E-002   0.0000000000000000     
  -3.6209702802213820E-002   8.6769717303530156E-002   0.0000000000000000     
  -3.7505394381594115E-002   9.3200553023589774E-002   0.0000000000000000     
  -3.8744598632996841E-002   9.9789035429914255E-002   0.0000000000000000     
  -3.9927315556421983E-002  0.10653516452250356        0.0000000000000000     
  -3.9575510651772464E-002   8.0930915690126476E-002   0.0000000000000000     
  -4.1094750079678007E-002   8.7187011620967425E-002   0.0000000000000000     
  -4.2551813201410202E-002   9.3600723046078430E-002   0.0000000000000000     
  -4.3946700016969029E-002  0.10017204996545942        0.0000000000000000     
  -4.5279410526354508E-002  0.10690099237911044        0.0000000000000000     
  -4.4435883610660386E-002   8.1417070821957843E-002   0.0000000000000000     
  -4.6122524048982927E-002   8.7654935345672466E-002   0.0000000000000000     
  -4.7740742819433399E-002   9.4050376135173683E-002   0.0000000000000000     
  -4.9290539922011795E-002  0.10060339319046153        0.0000000000000000     
  -5.0771915356718121E-002  0.10731398651153599        0.0000000000000000     
  -4.9438642771519742E-002   8.1954993665229431E-002   0.0000000000000000     
  -5.1293024710128567E-002   8.8173488477645223E-002   0.0000000000000000     
  -5.3072183235663692E-002   9.4549512290875617E-002   0.0000000000000000     
  -5.4776118348125104E-002  0.10108306510492063        0.0000000000000000     
  -5.6404830047512809E-002  0.10777414691978023        0.0000000000000000     
  -5.4583788134350497E-002   8.2544684219941267E-002   0.0000000000000000     
  -5.6606252063114940E-002   8.8742671016885710E-002   0.0000000000000000     
  -5.8546134450101095E-002   9.5098131513184164E-002   0.0000000000000000     
  -6.0403435295308984E-002  0.10161106570883664        0.0000000000000000     
  -6.2178154598738593E-002  0.10828147360384316        0.0000000000000000     
  -3.9927315556421983E-002  0.10653516452250356        0.0000000000000000     
  -4.1061195436613088E-002  0.11342807199001026        0.0000000000000000     
  -4.2153888558313694E-002  0.12045688952108689        0.0000000000000000     
  -4.3205394921523803E-002  0.12762161711573347        0.0000000000000000     
  -4.4215714526243427E-002  0.13492225477394998        0.0000000000000000     
  -4.5279410526354508E-002  0.10690099237911044        0.0000000000000000     
  -4.6557597068103321E-002  0.11377635361931812        0.0000000000000000     
  -4.7788911980752163E-002  0.12078693701836915        0.0000000000000000     
  -4.8973355264301056E-002  0.12793274257626350        0.0000000000000000     
  -5.0110926918749965E-002  0.13521377029300116        0.0000000000000000     
  -5.0771915356718121E-002  0.10731398651153599        0.0000000000000000     
  -5.2193442570849000E-002  0.11417060201421179        0.0000000000000000     
  -5.3563695011701065E-002  0.12116168561430367        0.0000000000000000     
  -5.4882672679274297E-002  0.12828723731181166        0.0000000000000000     
  -5.6150375573568709E-002  0.13554725710673571        0.0000000000000000     
  -5.6404830047512809E-002  0.10777414691978023        0.0000000000000000     
  -5.7968731944850131E-002  0.11461081717469128        0.0000000000000000     
  -5.9478237651160379E-002  0.12158113530889049        0.0000000000000000     
  -6.0933347166443559E-002  0.12868510132237793        0.0000000000000000     
  -6.2334060490699665E-002  0.13592271521515356        0.0000000000000000     
  -6.2178154598738593E-002  0.10828147360384316        0.0000000000000000     
  -6.3883465190106722E-002  0.11509699910075653        0.0000000000000000     
  -6.5532539899130118E-002  0.12204528610212960        0.0000000000000000     
  -6.7125378725808829E-002  0.12912633460796233        0.0000000000000000     
  -6.8661981670142841E-002  0.13634014461825478        0.0000000000000000     
  -4.4215714526243427E-002  0.13492225477394998        0.0000000000000000     
  -4.5170393314238985E-002  0.14234542575966128        0.0000000000000000     
  -4.6054977227276916E-002  0.14987775333679229        0.0000000000000000     
  -4.6869466265357235E-002  0.15751923750534300        0.0000000000000000     
  -4.7613860428479940E-002  0.16526987826531339        0.0000000000000000     
  -5.0110926918749965E-002  0.13521377029300116        0.0000000000000000     
  -5.1190813438133767E-002  0.14261444010442045        0.0000000000000000     
  -5.2202201316487291E-002  0.15011917194635954        0.0000000000000000     
  -5.3145090553810559E-002  0.15772796581881848        0.0000000000000000     
  -5.4019481150103563E-002  0.16544082172179736        0.0000000000000000     
  -5.6150375573568709E-002  0.13554725710673571        0.0000000000000000     
  -5.7355708370022233E-002  0.14292585580097555        0.0000000000000000     
  -5.8487575744072817E-002  0.15040714419643095        0.0000000000000000     
  -5.9545977695720460E-002  0.15799112229310192        0.0000000000000000     
  -6.0530914224965149E-002  0.16567779009098837        0.0000000000000000     
  -6.2334060490699665E-002  0.13592271521515356        0.0000000000000000     
  -6.3665078109904419E-002  0.14327967284932669        0.0000000000000000     
  -6.4911100510033515E-002  0.15074167008700654        0.0000000000000000     
  -6.6072127691086932E-002  0.15830870692819313        0.0000000000000000     
  -6.7148159653064698E-002  0.16598078337288649        0.0000000000000000     
  -6.8661981670142841E-002  0.13634014461825478        0.0000000000000000     
  -7.0118922657780275E-002  0.14367589124947377        0.0000000000000000     
  -7.1472775614369322E-002  0.15112274961808625        0.0000000000000000     
  -7.2723540539909967E-002  0.15868071972409223        0.0000000000000000     
  -7.3871217434402225E-002  0.16634980156749168        0.0000000000000000     
   0.0000000000000000        0.0000000000000000        0.0000000000000000     
  -2.8800711721111965E-003   1.7448322339009966E-003   0.0000000000000000     
  -5.8726519656900162E-003   3.8646384939725934E-003   0.0000000000000000     
  -8.9777423807364601E-003   6.3594187802147898E-003   0.0000000000000000     
  -1.2195342417250527E-002   9.2291730926275864E-003   0.0000000000000000     
   0.0000000000000000        0.0000000000000000        0.0000000000000000     
  -3.2832228384077925E-003   1.9993419644003993E-003   0.0000000000000000     
  -6.6769761771396721E-003   4.3309348845157860E-003   0.0000000000000000     
  -1.0181260016195636E-002   6.9947787603461611E-003   0.0000000000000000     
  -1.3796074355575692E-002   9.9908735918915227E-003   0.0000000000000000     
   0.0000000000000000        0.0000000000000000        0.0000000000000000     
  -3.9535799937296737E-003   2.4251188932505070E-003   0.0000000000000000     
  -7.9106331747042253E-003   5.0629105778408606E-003   0.0000000000000000     
  -1.1871159542923655E-002   7.9133750537710608E-003   0.0000000000000000     
  -1.5835159098387962E-002   1.0976512321041108E-002   0.0000000000000000     
   0.0000000000000000        0.0000000000000000        0.0000000000000000     
  -4.8911426380768407E-003   3.0221630204513182E-003   0.0000000000000000     
  -9.5736229583836766E-003   6.0605655739478150E-003   0.0000000000000000     
  -1.4047440960920508E-002   9.1152076604894914E-003   0.0000000000000000     
  -1.8312596645687341E-002   1.2186089280076346E-002   0.0000000000000000     
   0.0000000000000000        0.0000000000000000        0.0000000000000000     
  -6.0959107714492920E-003   3.7904743460028339E-003   0.0000000000000000     
  -1.1665945528178026E-002   7.3238998728366502E-003   0.0000000000000000     
  -1.6710104270186200E-002   1.0600276580501449E-002   0.0000000000000000     
  -2.1228386997473817E-002   1.3619604468997230E-002   0.0000000000000000     
  -1.2195342417250527E-002   9.2291730926275864E-003   0.0000000000000000     
  -1.5427707210461293E-002   1.2371791342951828E-002   0.0000000000000000     
  -1.8577091895597836E-002   1.5685163442928363E-002   0.0000000000000000     
  -2.1643496472660145E-002   1.9169289392557187E-002   0.0000000000000000     
  -2.4626920941648235E-002   2.2824169191838304E-002   0.0000000000000000     
  -1.3796074355575692E-002   9.9908735918915227E-003   0.0000000000000000     
  -1.7404341210765926E-002   1.3221199332549257E-002   0.0000000000000000     
  -2.0888982597252439E-002   1.6587735935716753E-002   0.0000000000000000     
  -2.4249998515035228E-002   2.0090483401394011E-002   0.0000000000000000     
  -2.7487388964114293E-002   2.3729441729581035E-002   0.0000000000000000     
  -1.5835159098387962E-002   1.0976512321041108E-002   0.0000000000000000     
  -1.9730862406919486E-002   1.4211127370311355E-002   0.0000000000000000     
  -2.3486500034340562E-002   1.7576025192242155E-002   0.0000000000000000     
  -2.7102071980651187E-002   2.1071205786833500E-002   0.0000000000000000     
  -3.0577578245851365E-002   2.4696669154085395E-002   0.0000000000000000     
  -1.8312596645687341E-002   1.2186089280076346E-002   0.0000000000000000     
  -2.2407270798921960E-002   1.5341575456238118E-002   0.0000000000000000     
  -2.6369644206862192E-002   1.8650031212504546E-002   0.0000000000000000     
  -3.0199716869508016E-002   2.2111456548875634E-002   0.0000000000000000     
  -3.3897488786859449E-002   2.5725851465351387E-002   0.0000000000000000     
  -2.1228386997473817E-002   1.3619604468997230E-002   0.0000000000000000     
  -2.5433566386773361E-002   1.6612543590329546E-002   0.0000000000000000     
  -2.9538415114817335E-002   1.9809753996503948E-002   0.0000000000000000     
  -3.3542933181605727E-002   2.3211235687520426E-002   0.0000000000000000     
  -3.7447120587138547E-002   2.6816988663378998E-002   0.0000000000000000     
  -2.4626920941648235E-002   2.2824169191838304E-002   0.0000000000000000     
  -2.7531649247029194E-002   2.6672636406878038E-002   0.0000000000000000     
  -3.0361965333270121E-002   3.0737524603782731E-002   0.0000000000000000     
  -3.3117869200371026E-002   3.5018833782552355E-002   0.0000000000000000     
  -3.5799360848331893E-002   3.9516563943186950E-002   0.0000000000000000     
  -2.7487388964114293E-002   2.3729441729581035E-002   0.0000000000000000     
  -3.0624241730855980E-002   2.7547233999868598E-002   0.0000000000000000     
  -3.3683644601626608E-002   3.1586483291847475E-002   0.0000000000000000     
  -3.6665597576426213E-002   3.5847189605517679E-002   0.0000000000000000     
  -3.9570100655254764E-002   4.0329352940879193E-002   0.0000000000000000     
  -3.0577578245851365E-002   2.4696669154085395E-002   0.0000000000000000     
  -3.3942427040574687E-002   2.8497030170021365E-002   0.0000000000000000     
  -3.7226026575454749E-002   3.2516903710664929E-002   0.0000000000000000     
  -4.0428376850491547E-002   3.6756289776016089E-002   0.0000000000000000     
  -4.3549477865685089E-002   4.1215188366074837E-002   0.0000000000000000     
  -3.3897488786859449E-002   2.5725851465351387E-002   0.0000000000000000     
  -3.7486205176185339E-002   2.9522024917336350E-002   0.0000000000000000     
  -4.0989111254754532E-002   3.3528785860235076E-002   0.0000000000000000     
  -4.4406207022567049E-002   3.7746134294047592E-002   0.0000000000000000     
  -4.7737492479622876E-002   4.2174070218773882E-002   0.0000000000000000     
  -3.7447120587138547E-002   2.6816988663378998E-002   0.0000000000000000     
  -4.1255576137687919E-002   3.0622218241813541E-002   0.0000000000000000     
  -4.4972898639525964E-002   3.4622129740557943E-002   0.0000000000000000     
  -4.8599088092652697E-002   3.8816723159612203E-002   0.0000000000000000     
  -5.2134144497068116E-002   4.3205998498976328E-002   0.0000000000000000     
  -3.5799360848331893E-002   3.9516563943186950E-002   0.0000000000000000     
  -3.8405871532234195E-002   4.4221066359529548E-002   0.0000000000000000     
  -4.0936832507159390E-002   4.9122692305423210E-002   0.0000000000000000     
  -4.3392243773107485E-002   5.4221441780867949E-002   0.0000000000000000     
  -4.5772105330078472E-002   5.9517314785863751E-002   0.0000000000000000     
  -3.9570100655254764E-002   4.0329352940879193E-002   0.0000000000000000     
  -4.2394038320184180E-002   4.5019303838258841E-002   0.0000000000000000     
  -4.5134295053286352E-002   4.9903372837983441E-002   0.0000000000000000     
  -4.7790870854561303E-002   5.4981559940053000E-002   0.0000000000000000     
  -5.0363765724009010E-002   6.0253865144467511E-002   0.0000000000000000     
  -4.3549477865685089E-002   4.1215188366074837E-002   0.0000000000000000     
  -4.6584889575816447E-002   4.5881010884553375E-002   0.0000000000000000     
  -4.9530171935666688E-002   5.0741168735163926E-002   0.0000000000000000     
  -5.2385324945235831E-002   5.5795661917906456E-002   0.0000000000000000     
  -5.5150348604523877E-002   6.1044490432780991E-002   0.0000000000000000     
  -4.7737492479622876E-002   4.2174070218773882E-002   0.0000000000000000     
  -5.0978425299130999E-002   4.6806187498413157E-002   0.0000000000000000     
  -5.4124463154300410E-002   5.1636079996964623E-002   0.0000000000000000     
  -5.7175606045131104E-002   5.6663747714428309E-002   0.0000000000000000     
  -6.0131853971623087E-002   6.1889190650804185E-002   0.0000000000000000     
  -5.2134144497068116E-002   4.3205998498976328E-002   0.0000000000000000     
  -5.5574645490127847E-002   4.7794833679838167E-002   0.0000000000000000     
  -5.8917168709187506E-002   5.2588106623385575E-002   0.0000000000000000     
  -6.2161714154247101E-002   5.7585817329618552E-002   0.0000000000000000     
  -6.5308281825306652E-002   6.2787965798537113E-002   0.0000000000000000     
  -4.5772105330078472E-002   5.9517314785863751E-002   0.0000000000000000     
  -4.8079400532207307E-002   6.5002351452822099E-002   0.0000000000000000     
  -5.0317112733628919E-002   7.0668591914154463E-002   0.0000000000000000     
  -5.2485241934343320E-002   7.6516036169860871E-002   0.0000000000000000     
  -5.4583788134350497E-002   8.2544684219941267E-002   0.0000000000000000     
  -5.0363765724009010E-002   6.0253865144467511E-002   0.0000000000000000     
  -5.2857854030090780E-002   6.5714132138998321E-002   0.0000000000000000     
  -5.5278010141267923E-002   7.1356204611416771E-002   0.0000000000000000     
  -5.7624234057540434E-002   7.7180082561722901E-002   0.0000000000000000     
  -5.9896525778908305E-002   8.3185765989916685E-002   0.0000000000000000     
  -5.5150348604523877E-002   6.1044490432780991E-002   0.0000000000000000     
  -5.7831049916411047E-002   6.6481073321373749E-002   0.0000000000000000     
  -6.0433235883777595E-002   7.2098829625271033E-002   0.0000000000000000     
  -6.2956906506623500E-002   7.7897759344472781E-002   0.0000000000000000     
  -6.5402061784948784E-002   8.3877862478979048E-002   0.0000000000000000     
  -6.0131853971623087E-002   6.1889190650804185E-002   0.0000000000000000     
  -6.2998988191168115E-002   6.7303174999948437E-002   0.0000000000000000     
  -6.5782789961157939E-002   7.2896466955717193E-002   0.0000000000000000     
  -6.8483259281592532E-002   7.8669066518110495E-002   0.0000000000000000     
  -7.1100396152471948E-002   8.4620973687128301E-002   0.0000000000000000     
  -6.5308281825306652E-002   6.2787965798537113E-002   0.0000000000000000     
  -6.8361668854361970E-002   6.8180437174722330E-002   0.0000000000000000     
  -7.1326672373408923E-002   7.3749116602755321E-002   0.0000000000000000     
  -7.4203292382447536E-002   7.9494004082636030E-002   0.0000000000000000     
  -7.6991528881477769E-002   8.5415099614364526E-002   0.0000000000000000     
  -5.4583788134350497E-002   8.2544684219941267E-002   0.0000000000000000     
  -5.6606252063114940E-002   8.8742671016885710E-002   0.0000000000000000     
  -5.8546134450101095E-002   9.5098131513184164E-002   0.0000000000000000     
  -6.0403435295308984E-002  0.10161106570883664        0.0000000000000000     
  -6.2178154598738593E-002  0.10828147360384316        0.0000000000000000     
  -5.9896525778908305E-002   8.3185765989916685E-002   0.0000000000000000     
  -6.2086946436586521E-002   8.9361181661199413E-002   0.0000000000000000     
  -6.4187557161789990E-002   9.5694256340772318E-002   0.0000000000000000     
  -6.6198357954518755E-002  0.10218499002863543        0.0000000000000000     
  -6.8119348814772815E-002  0.10883338272478876        0.0000000000000000     
  -6.5402061784948784E-002   8.3877862478979048E-002   0.0000000000000000     
  -6.7759848159187772E-002   9.0027719108391774E-002   0.0000000000000000     
  -7.0021412069774774E-002   9.6335909312313020E-002   0.0000000000000000     
  -7.2186753516709792E-002  0.10280243309074275        0.0000000000000000     
  -7.4255872499992825E-002  0.10942729044368099        0.0000000000000000     
  -7.1100396152471948E-002   8.4620973687128301E-002   0.0000000000000000     
  -7.3624957230918706E-002   9.0742283358462864E-002   0.0000000000000000     
  -7.6047699174055433E-002   9.7023090427806283E-002   0.0000000000000000     
  -7.8368621981882061E-002  0.10346339489515866        0.0000000000000000     
  -8.0587725654398659E-002  0.11006319676051989        0.0000000000000000     
  -7.6991528881477769E-002   8.5415099614364526E-002   0.0000000000000000     
  -7.9682273651779337E-002   9.1504874411412612E-002   0.0000000000000000     
  -8.2266418474631953E-002   9.7755799687252107E-002   0.0000000000000000     
  -8.4743963350035589E-002  0.10416787544188304        0.0000000000000000     
  -8.7114908277990274E-002  0.11074110167530538        0.0000000000000000     
  -6.2178154598738593E-002  0.10828147360384316        0.0000000000000000     
  -6.3883465190106722E-002  0.11509699910075653        0.0000000000000000     
  -6.5532539899130118E-002  0.12204528610212960        0.0000000000000000     
  -6.7125378725808829E-002  0.12912633460796233        0.0000000000000000     
  -6.8661981670142841E-002  0.13634014461825478        0.0000000000000000     
  -6.8119348814772815E-002  0.10883338272478876        0.0000000000000000     
  -6.9966046218401828E-002  0.11562660505918294        0.0000000000000000     
  -7.1753966641255537E-002  0.12255182766176861        0.0000000000000000     
  -7.3483110083333872E-002  0.12960905053254582        0.0000000000000000     
  -7.5153476544636916E-002  0.13679827367151451        0.0000000000000000     
  -7.4255872499992825E-002  0.10942729044368099        0.0000000000000000     
  -7.6244878941518615E-002  0.11619709231674578        0.0000000000000000     
  -7.8169882763181833E-002  0.12309844965555522        0.0000000000000000     
  -8.0030883964982508E-002  0.13013136246010928        0.0000000000000000     
  -8.1827882546920624E-002  0.13729583073040799        0.0000000000000000     
  -8.0587725654398659E-002  0.11006319676051989        0.0000000000000000     
  -8.2719963359457027E-002  0.11680846087344508        0.0000000000000000     
  -8.4780288264909021E-002  0.12368515208348939        0.0000000000000000     
  -8.6768700370754681E-002  0.13069327039065282        0.0000000000000000     
  -8.8685199676993953E-002  0.13783281579493525        0.0000000000000000     
  -8.7114908277990274E-002  0.11074110167530538        0.0000000000000000     
  -8.9391299472217092E-002  0.11746071072928084        0.0000000000000000     
  -9.1585183146437127E-002  0.12431193494557113        0.0000000000000000     
  -9.3696559300650406E-002  0.13129477432417630        0.0000000000000000     
  -9.5725427934856916E-002  0.13840922886509624        0.0000000000000000     
  -6.8661981670142841E-002  0.13634014461825478        0.0000000000000000     
  -7.0118922657780275E-002  0.14367589124947377        0.0000000000000000     
  -7.1472775614369322E-002  0.15112274961808625        0.0000000000000000     
  -7.2723540539909967E-002  0.15868071972409223        0.0000000000000000     
  -7.3871217434402225E-002  0.16634980156749168        0.0000000000000000     
  -7.5153476544636916E-002  0.13679827367151451        0.0000000000000000     
  -7.6735017394460425E-002  0.14411168662525134        0.0000000000000000     
  -7.8197684002100240E-002  0.15154147894033285        0.0000000000000000     
  -7.9541476367556346E-002  0.15908765061675911        0.0000000000000000     
  -8.0766394490828772E-002  0.16675020165453011        0.0000000000000000     
  -8.1827882546920624E-002  0.13729583073040799        0.0000000000000000     
  -8.3531137700755417E-002  0.14458423460049377        0.0000000000000000     
  -8.5110908618246162E-002  0.15198895420440903        0.0000000000000000     
  -8.6567195299392843E-002  0.15950998954215379        0.0000000000000000     
  -8.7899997744195435E-002  0.16714734061372802        0.0000000000000000     
  -8.8685199676993953E-002  0.13783281579493525        0.0000000000000000     
  -9.0507283576665293E-002  0.14509353517520113        0.0000000000000000     
  -9.2212449462807128E-002  0.15246517541031476        0.0000000000000000     
  -9.3800697335419417E-002  0.15994773650027619        0.0000000000000000     
  -9.5272027194502243E-002  0.16754121844508532        0.0000000000000000     
  -9.5725427934856916E-002  0.13840922886509624        0.0000000000000000     
  -9.7663455022190024E-002  0.14563958834937341        0.0000000000000000     
  -9.9502306535783097E-002  0.15297014255805011        0.0000000000000000     
 -0.10124198247563612       0.16040089149112635        0.0000000000000000     
 -0.10288248284174913       0.16793183514860213        0.0000000000000000     
 </DataArray>
 <DataArray  type="Float64" Name="stress" NumberOfComponents="3" format="ascii">
   13416523236.475660        4024956970.9426980        2893998733.6104908     
   11766474082.739487        1890416445.9427950        1715844163.5348296     
   10313713359.041910        413504021.07155704        810754809.19392133     
   9058241065.3829365       -405780303.67101240        178730670.58776566     
   8000057201.7625599       -567436528.28492022       -180228252.28363737     
   10539892794.374079        3161967838.3122234        2225747739.0997181     
   9667567230.6654530        1589560135.3041291        1446718860.7668402     
   8943889077.8071060        512643801.79695177        863150723.18383074     
   8368858335.7990322       -68781162.209309578        475043326.35069036     
   7942475004.6412296       -154714756.71465540        282396670.26741904     
   8337925272.4154911        2501377581.7246475        1712338266.6732416     
   8021596227.3490362        1424584579.2927480        1275687224.3634341     
   7805273573.9445295        681146215.73401475        956892447.81861210     
   7688957312.2019777        271062491.04845047        755953937.03877556     
   7672647442.1213703        194333405.23604965        672871692.02392268     
   6810620670.5998993        2043186201.1799698        1353770316.3310614     
   6828561072.7902308        1395489777.9086499        1202749254.3246126     
   6897866847.4541855        919011262.88274741        1091979983.0982652     
   7018537994.5917664        613750656.10226178        1021462502.6520182     
   7190574514.2029734        479707957.56719375        991196812.98587298     
   5957978988.9273024        1787393696.6781907        1150043888.0731771     
   6088461766.9890366        1502275731.1518357        1227904950.6503742     
   6221668898.3360710        1226238943.2431483        1268413329.0227890     
   6357600382.9684048        959283332.95212805        1271569023.1904211     
   6496256220.8860407        701408900.27877665        1237372033.1532702     
   8000057201.7625599       -567436528.28492022       -180228252.28363737     
   7917660737.0704756       -200059433.96553373       -78341449.975344524     
   7793776127.5627413        29023844.301677704       -9034654.7537974864     
   7628403373.2393560        119813306.51671648        27692133.381000951     
   7421542474.1003141        72308952.679580688        31838914.429050062     
   7942475004.6412296       -154714756.71465540        282396670.26741904     
   7739757872.0949659        16427646.401766300        281098224.12618858     
   7513652320.8115921        109608653.72783422        265110353.92301527     
   7264158350.7911167        124828265.26355028        234433059.65790474     
   6991275962.0335302        62086481.008914471        189066341.33085388     
   7672647442.1213703        194333405.23604965        672871692.02392268     
   7400725593.2203693        184575902.59934044        589504344.52480364     
   7123515051.6608124        157189424.43410254        509338155.98855144     
   6841015817.4426937        112173970.74032974        432373126.41516614     
   6553227890.5660152        49529541.518029690        358609255.80465353     
   7190574514.2029734        479707957.56719375        991196812.98587298     
   6900563900.4466896        304385334.62719011        846876911.22050309     
   6623364320.1103992        171766156.42047858        723648751.44281042     
   6358975773.1940908        81850422.947056532        621512333.65279210     
   6107398259.6977720        34638134.206924200        540467657.85044909     
   6496256220.8860407        701408900.27877665        1237372033.1532702     
   6239272793.7739296        375855942.48531485        1053215924.2132879     
   6013200126.1603527        153338849.68696570        908042140.28578937     
   5818038218.0453110        33857621.883728504        801850681.37077308     
   5653787069.4287996        17412259.075601816        734641547.46824324     
   7421542474.1003141        72308952.679580688        31838914.429050062     
   7219279617.5209513       -18289938.846622944        14934225.544967739     
   7029181421.9394646       -68339960.379915714        2332472.4990037871     
   6851247887.3558483       -77841111.920300007       -5966344.7088293070     
   6685479013.7700977       -46793393.467796803       -9962226.0785389077     
   6991275962.0335302        62086481.008914471        189066341.33085388     
   6808808467.5627804        2800541.5381846428        180771718.48038960     
   6634123706.0035467       -30542954.894161224        176175295.55485371     
   6467221677.3558273       -37944008.288121939        175277072.55424580     
   6308102381.6196260       -19402618.643694878        178077049.47856632     
   6553227890.5660152        49529541.518029690        358609255.80465353     
   6388827941.3090267        21038209.034311533        353812449.55372947     
   6227828796.8771992        3882892.6344637871        352109107.31453621     
   6070230457.2705317       -1936407.6815128326        353499229.08707237     
   5916032922.4890242        3580308.0863761902        357982814.87134057     
   6107398259.6977720        34638134.206924200        540467657.85044909     
   5959338038.7596951        36423063.641766071        534056418.76498407     
   5810296694.5604229        34937582.205961943        530133907.77805173     
   5660274227.0999537        30181689.899504900        528700124.88965559     
   5509270636.3782940        22155386.722400904        529755070.09979069     
   5653787069.4287996        17412259.075601816        734641547.46824324     
   5520338759.9147835        48955105.360549450        721503626.11415482     
   5381527399.0532150        62621113.820327520        710249696.94540513     
   5237352986.8441000        58410284.454942703        700879759.96198821     
   5087815523.2874317        36322617.264389515        693393815.16390955     
   6685479013.7700977       -46793393.467796803       -9962226.0785389077     
   6509349114.5338879       -8059875.7005727291       -4246302.8848119471     
   6328171547.9326763        13848084.183302164        2991860.1215752969     
   6141946313.9664612        18930486.183839083        11752262.940627307     
   5950673412.6352444        7187330.3010339737        22034905.572338320     
   6308102381.6196260       -19402618.643694878        178077049.47856632     
   6132184463.6563978        1268476.1056902409        174566920.15966037     
   5953210818.3463058        11753813.032202721        173865865.01142409     
   5771181445.6893606        12053392.135855436        175973884.03386602     
   5586096345.6855478        2167213.4166374207        180890977.22697029     
   5916032922.4890242        3580308.0863761902        357982814.87134057     
   5744003655.3930807        7291980.6962025166        347570563.06097668     
   5570910600.9684229        7457695.5436494350        341254219.77929127     
   5396753759.2150488        4077452.6287019253        339033785.02628034     
   5221533130.1329565       -2848748.0486257076        340909258.80194592     
   5509270636.3782940        22155386.722400904        529755070.09979069     
   5344806689.7439451        10010638.070976973        514764625.81913006     
   5181270895.7990236        959731.71764111519        505156924.42515588     
   5018663254.5435276       -4997332.3376071453        500931965.91786683     
   4856983765.9774590       -7860554.0947685242        502089750.29726225     
   5087815523.2874317        36322617.264389515        693393815.16390955     
   4934593566.7089825        9424448.2299942970        676149108.43412364     
   4784291702.8381042       -7740078.4458289146        665573978.94903004     
   4636909931.6747971       -15170962.763086796        661668426.70862710     
   4492448253.2190599       -12868204.721776485        664432451.71291792     
   5950673412.6352444        7187330.3010339737        22034905.572338320     
   5776872068.5758467       -3509851.0201301575        14666907.055695869     
   5605352133.0111847       -6602337.3588480949        11257331.314003356     
   5436113605.9412622       -2090128.7151002884        11806178.347257258     
   5269156487.3660727        10026774.911092281        16313448.155454051     
   5586096345.6855478        2167213.4166374207        180890977.22697029     
   5423944596.9244080       -3190838.5007967949        175642724.66765749     
   5263297886.3424358       -3532096.4876747131        174165169.70042619     
   5104156213.9396114        1143439.4559574127        176458312.32528007     
   4946519579.7159576        10835769.330135345        182522152.54220870     
   5221533130.1329565       -2848748.0486257076        340909258.80194592     
   5070494619.0047512       -3028577.8619170189        336874986.83178514     
   4920184775.7401352       -779514.79657649994        336423687.27084523     
   4770603600.3390961        3898441.1473624706        339555360.11912465     
   4621751092.8016491        11005289.969927073        346270005.37662286     
   4856983765.9774590       -7860554.0947685242        502089750.29726225     
   4716522134.8168688       -3023069.1035058498        498363693.54808372     
   4576012801.2042847        1655407.7144551277        498032884.02526039     
   4435455765.1397095        6174876.3591055870        501097321.72879899     
   4294851026.6231432        10535336.830449104        507557006.65868604     
   4492448253.2190599       -12868204.721776485        664432451.71291792     
   4362027144.3607531       -3174312.2255682945        660108844.81655312     
   4230781962.7348871        3772671.0454261303        658992759.96367753     
   4098712708.3414474        7972745.0911791325        661084197.15429509     
   3965819381.1804442        9425909.9117238522        666383156.38840806     
   5269156487.3660727        10026774.911092281        16313448.155454051     
   5066714505.8281069        12063207.141272783        13658502.943562591     
   4862363635.0214415        7736675.1424777508        14021589.517030023     
   4656103874.9460850       -2952821.0852880478        17402707.875853144     
   4447935225.6020489       -20005281.542008877        23801858.020041559     
   4946519579.7159576        10835769.330135345        182522152.54220870     
   4751765579.2288322        9663247.5788848400        177542828.77799812     
   4555684798.7517567        4068125.8611490726        176199832.64786771     
   4358277238.2847328       -5949595.8230795860        178493164.15181518     
   4159542897.8277564       -20389917.473834753        184422823.28984475     
   4621751092.8016491        11005289.969927073        346270005.37662286     
   4436451632.9331312        7153782.1075842381        339645430.55196190     
   4250407502.3534179        820038.54124403000        337275479.21009457     
   4063618701.0624838       -7995940.7291531563        339160151.35102516     
   3876085229.0603495       -19294155.703561544        345299446.97475910     
   4294851026.6231432        10535336.830449104        507557006.65868604     
   4120772666.9410152        4534810.7273714542        499966308.26543570     
   3946531745.8264151       -2007586.8172767162        497248529.20370221     
   3772128263.2793498       -9091855.8034787178        499403669.47348464     
   3597562219.2998133       -16717996.231247187        506431729.07478559     
   3965819381.1804442        9425909.9117238522        666383156.38840806     
   3804728681.2524610        1806333.4382023811        658505461.91843235     
   3644057529.1707568       -4414750.2143867016        656118982.62869680     
   3483805924.9353199       -9237341.0460863113        659223718.51919281     
   3323973868.5461602       -12661439.056857586        667819669.58992779     
   4447935225.6020489       -20005281.542008877        23801858.020041559     
   4288370740.8750763       -20861313.999088526        9993911.2278508879     
   4131780098.3494549       -11804539.118332624        4873367.8002578812     
   3978163298.0251899        7165043.1002769470        8440227.7372586951     
   3827520339.9022894        36047432.656768084        20694491.038854610     
   4159542897.8277564       -20389917.473834753        184422823.28984475     
   4021845752.5910463       -15402782.523759127        174328949.02635503     
   3886211408.0264997       -3539645.3331184387        171020278.52757251     
   3752639864.1341453        15199494.098154545        174496811.79353020     
   3621131120.9139714        40814635.770027876        184758548.82419831     
   3876085229.0603495       -19294155.703561544        345299446.97475910     
   3754820567.3142357       -10094310.146281719        337856763.45592761     
   3634707664.7111292        2944732.5543599129        335297084.10194802     
   3515746521.2510362        19822972.398373604        337620408.91280609     
   3397937136.9339547        40540409.385765076        344826737.88851291     
   3597562219.2998133       -16717996.231247187        506431729.07478559     
   3487295185.0446582       -4935896.8666255474        500577354.51658714     
   3377268868.4033427        7648594.5441224575        497703784.52335680     
   3267483269.3758607        21035478.000992537        497811019.09509796     
   3157938387.9622221        35224753.504000545        500899058.23179936     
   3323973868.5461602       -12661439.056857586        667819669.58992779     
   3219269605.7823205        72457.315212607384        662490722.20832670     
   3113895019.1031427        10571940.636160851        658240379.79181385     
   3007850108.5086303        18837010.905991435        655068642.34039211     
   2901134873.9987798        24867668.124706626        652975509.85406375     
   3827520339.9022894        36047432.656768084        20694491.038854610     
   3627232111.9552584        40011200.804352760        30871399.655547809     
   3417360125.0189710        12029105.654417276        29513343.253578793     
   3197904379.0934353       -47898852.793004155        16620321.832936037     
   2968864874.1786351       -139772674.53799319       -7807664.6063689301     
   3621131120.9139714        40814635.770027876        184758548.82419831     
   3394755899.7432332        31728010.064563274        182866582.45099503     
   3162202389.5538349        2047087.6302375793        175454292.58276623     
   2923470590.3457675       -48228131.532987237        162521679.21952599     
   2678560502.1190395       -119097647.42507029        144068742.36125514     
   3397937136.9339547        40540409.385765076        344826737.88851291     
   3162659612.6070642        23558796.847534299        334838944.82443953     
   2924609269.2320919       -2665545.8509490490        325345469.78898567     
   2683786106.8090534       -38132618.709677339        316346312.78214902     
   2440190125.3379402       -82842421.728625178        307841473.80394667     
   3157938387.9622221        35224753.504000545        500899058.23179936     
   2930943250.5467286        15503561.153239965        486788486.77587909     
   2704580764.0537558       -2108794.7891145945        479186874.87222379     
   2478850928.4832869       -17612314.323073506        478094222.52082431     
   2253753743.8353724       -31006997.448620915        483510529.72170115     
   2901134873.9987798        24867668.124706626        652975509.85406375     
   2699606813.5622416        7562302.9817137718        638715208.30532420     
   2502116874.0188107        3717340.8157415390        636978507.83248520     
   2308665055.3684955        13332781.626822472        647765408.43555033     
   2119251357.6112921        36408625.414943099        671075910.11453724     
   5957978988.9273024        1787393696.6781907        1150043888.0731771     
   6088461766.9890366        1502275731.1518357        1227904950.6503742     
   6221668898.3360710        1226238943.2431483        1268413329.0227890     
   6357600382.9684048        959283332.95212805        1271569023.1904211     
   6496256220.8860407        701408900.27877665        1237372033.1532702     
   5434635542.2430410        1630390662.6729124        1033470216.2386003     
   5489916594.1567068        1372517449.1945343        1113863633.8392849     
   5547393797.5383329        1121964740.6093574        1167475003.5197818     
   5607067152.3879194        878732536.91738260        1194304325.2800915     
   5668936658.7054682        642820838.11860895        1194351599.1202140     
   4895225645.3924589        1468567693.6177378        936360535.16634250     
   4905506789.1140423        1246999777.5741320        1018670072.3369510     
   4917455882.4862480        1030991693.6992623        1084768197.8719673     
   4931072925.5090742        820543441.99312818        1134654911.7713919     
   4946357918.1825199        615655022.45572960        1168330214.0352244     
   4339749298.3755541        1301924789.5126662        858714844.85640383     
   4335232351.8610430        1125722716.2906291        942324266.14337289     
   4331855153.1798143        953319802.51286256        1020292912.0793458     
   4329617702.3318653        784716048.17936504        1092620782.6643219     
   4328519999.3171968        619911453.29013729        1159307877.8983014     
   3768206501.1923275        1130461950.3576982        800533145.30878389     
   3779093282.3977084        1008686265.3440263        884826215.25855112     
   3790591609.6190305        888949067.05015779        974049146.14191711     
   3802701482.8562946        771250355.47609329        1068201937.9588813     
   3815422902.1094990        655590130.62183261        1167284590.7094445     
   6496256220.8860407        701408900.27877665        1237372033.1532702     
   6239272793.7739296        375855942.48531485        1053215924.2132879     
   6013200126.1603527        153338849.68696570        908042140.28578937     
   5818038218.0453110        33857621.883728504        801850681.37077308     
   5653787069.4287996        17412259.075601816        734641547.46824324     
   5668936658.7054682        642820838.11860895        1194351599.1202140     
   5518845119.3108263        383270496.73542237        1073484476.8902233     
   5392897870.9510221        204201125.46836329        980628185.64342940     
   5291094913.6260548        105612724.31742668        915782725.37983394     
   5213436247.3359241        87505293.282616377        878948096.09943593     
   4946357918.1825199        615655022.45572960        1168330214.0352244     
   4871811140.7073860        412703159.74342990        1102857865.3075800     
   4814642185.8033934        267677372.26826930        1054424853.5338467     
   4774851053.4705429        180577660.03024817        1023031178.7140261     
   4752437743.7088346        151404023.02936745        1008676840.8481156     
   4328519999.3171968        619911453.29013729        1159307877.8983014     
   4298170857.9636106        464153931.50933695        1141336089.4653585     
   4278433070.7174678        343767590.08668816        1129432143.9570410     
   4269306637.5787759        258752429.02219415        1123596041.3733475     
   4270791558.5475249        209108448.31585193        1123827781.7142808     
   3815422902.1094990        655590130.62183261        1167284590.7094445     
   3797924271.0794988        537622812.03314173        1188919149.3635583     
   3784270525.6932468        432471778.92361701        1205650056.9130108     
   3774461665.9507461        340137031.29325867        1217477313.3578022     
   3768497691.8519959        260618569.14207125        1224400918.6979313     
   5653787069.4287996        17412259.075601816        734641547.46824324     
   5520338759.9147835        48955105.360549450        721503626.11415482     
   5381527399.0532150        62621113.820327520        710249696.94540513     
   5237352986.8441000        58410284.454942703        700879759.96198821     
   5087815523.2874317        36322617.264389515        693393815.16390955     
   5213436247.3359241        87505293.282616377        878948096.09943593     
   5077546258.8905096        85356434.539726496        855292185.90848601     
   4939552398.4905882        76194669.281820536        835649077.82216489     
   4799454666.1361637        60019997.508903980        820018771.84046984     
   4657253061.8272352        36832419.220971346        808401267.96340263     
   4752437743.7088346        151404023.02936745        1008676840.8481156     
   4620188390.3871365        117388153.47517395        978305317.77885664     
   4489094344.5039806        87223308.716120958        954075406.73351812     
   4359155606.0593662        60909488.752204418        935987107.71209812     
   4230372175.0532923        38446693.583426476        924040420.71459460     
   4270791558.5475249        209108448.31585193        1123827781.7142808     
   4148265154.4046655        145050262.16689444        1090543021.7252669     
   4030153237.0933919        95707032.123225927        1065528683.6794631     
   3916455806.6137071        61078758.184848547        1048784767.5768695     
   3807172862.9656086        41165440.351761341        1040311273.4174868     
   3768497691.8519959        260618569.14207125        1224400918.6979313     
   3661776550.9430914        168342760.61487973        1192005297.7477160     
   3562729076.2588220        101645839.50313687        1170008908.6600018     
   3471355267.7991829        60527805.806831837        1158411751.4347892     
   3387655125.5641780        44988659.525971770        1157213826.0720782     
   5087815523.2874317        36322617.264389515        693393815.16390955     
   4934593566.7089825        9424448.2299942970        676149108.43412364     
   4784291702.8381042       -7740078.4458289146        665573978.94903004     
   4636909931.6747971       -15170962.763086796        661668426.70862710     
   4492448253.2190599       -12868204.721776485        664432451.71291792     
   4657253061.8272352        36832419.220971346        808401267.96340263     
   4522182634.7292147        15826240.466777802        795023865.32308006     
   4389243802.4673281        1925377.8330259323        787579910.35835183     
   4258436565.0415721       -4870168.6802887917        786069403.06921268     
   4129760922.4519515       -4560399.0731580257        790492343.45566380     
   4230372175.0532923        38446693.583426476        924040420.71459460     
   4111350050.0954113        22701536.907345057        913610407.98039377     
   3993671022.1022253        11433370.113579273        908377713.35268354     
   3877335091.0737348        4642193.2021262646        908342336.83146238     
   3762342257.0099344        2328006.1729857922        913504278.41673088     
   3807172862.9656086        41165440.351761341        1040311273.4174868     
   3702095812.8075743        30050337.551704884        1031908736.4060620     
   3597573361.7428031        20783898.395838499        1027967387.9320259     
   3493605509.7712831        13366122.884155512        1028487227.9953804     
   3390192256.8930225        7797011.0166652203        1033468256.5961206     
   3387655125.5641780        44988659.525971770        1157213826.0720782     
   3294419922.8657064        37872642.399854660        1149918850.6000841     
   3200950821.3890548        29976962.679799080        1146348934.0963795     
   3107247821.1342182        21301620.365800023        1146504076.5609622     
   3013310922.1012030        11846615.457866073        1150384277.9938335     
   4492448253.2190599       -12868204.721776485        664432451.71291792     
   4362027144.3607531       -3174312.2255682945        660108844.81655312     
   4230781962.7348871        3772671.0454261303        658992759.96367753     
   4098712708.3414474        7972745.0911791325        661084197.15429509     
   3965819381.1804442        9425909.9117238522        666383156.38840806     
   4129760922.4519515       -4560399.0731580257        790492343.45566380     
   4006816868.3888535        184197.13585948944        784072336.29998147     
   3883531560.1779332        3791279.5187957287        781338533.00954759     
   3759904997.8191867        6260848.0756452084        782290933.58436608     
   3635937181.3126202        7592902.8064236641        786929538.02443194     
   3762342257.0099344        2328006.1729857922        913504278.41673088     
   3648242920.0899267        2533604.7991790771        905551159.39143229     
   3534285147.6418371        3211084.9984292984        901762926.05314136     
   3420468939.6656656        4360446.7707362175        902139578.40185678     
   3306794296.1614108        5981690.1161062717        906681116.43758011     
   3390192256.8930225        7797011.0166652203        1033468256.5961206     
   3286305299.4639783        3873910.7643895149        1024545314.0909054     
   3183042725.1265945        2032087.4843169451        1020265939.0944536     
   3080404533.8808694        2271541.1764434576        1020630131.6067677     
   2978390725.7268038        4592271.8407667875        1025637891.6278452     
   3013310922.1012030        11846615.457866073        1150384277.9938335     
   2921004006.5110054        4205115.0314986706        1141054800.3983986     
   2829804292.6322060        254286.97646260262        1136847572.1334898     
   2739711780.4648094       -5868.7072314023972        1137762593.1990981     
   2650726470.0088153        3424647.9804197550        1143799863.5952313     
   3965819381.1804442        9425909.9117238522        666383156.38840806     
   3804728681.2524610        1806333.4382023811        658505461.91843235     
   3644057529.1707568       -4414750.2143867016        656118982.62869680     
   3483805924.9353199       -9237341.0460863113        659223718.51919281     
   3323973868.5461602       -12661439.056857586        667819669.58992779     
   3635937181.3126202        7592902.8064236641        786929538.02443194     
   3489323479.9846377        1979967.2770416737        779541567.18942428     
   3342951324.1360846       -2827816.6542458534        777335462.95630813     
   3196820713.7669621       -6830448.9874227047        780311225.32507527     
   3050931648.8772721       -10027929.722504497        788468854.29572594     
   3306794296.1614108        5981690.1161062717        906681116.43758011     
   3173773740.3524256        2110239.6065505743        899575199.80955613     
   3040816727.6560283       -1549400.5277105570        897341801.20506895     
   2907923258.0722194       -4997230.2866809368        899980920.62411940     
   2775093331.6009994       -8233249.6703618765        907492558.06670797     
   2978390725.7268038        4592271.8407667875        1025637891.6278452     
   2858079462.3558273        2197150.4267538786        1018606359.7788206     
   2737653739.7305894       -579501.83479332924        1016137997.3749857     
   2617113557.8510990       -3737684.9438493252        1018232804.4163373     
   2496458916.7173529       -7277398.9004303217        1024890780.9028767     
   2650726470.0088153        3424647.9804197550        1143799863.5952313     
   2542240645.9948411        2240699.7376325130        1136635047.0972211     
   2433462360.3597627        81879.424505829811        1133724051.4660528     
   2324391613.1035929       -3051812.9589309692        1135066876.7017212     
   2215028404.2263165       -7160377.4127191305        1140663522.8042262     
   3323973868.5461602       -12661439.056857586        667819669.58992779     
   3219269605.7823205        72457.315212607384        662490722.20832670     
   3113895019.1031427        10571940.636160851        658240379.79181385     
   3007850108.5086303        18837010.905991435        655068642.34039211     
   2901134873.9987798        24867668.124706626        652975509.85406375     
   3050931648.8772721       -10027929.722504497        788468854.29572594     
   2949432462.2163424        7533.2314163446426        782062507.95311630     
   2847636332.4190888        9053185.7309346199        777665715.20568299     
   2745543259.4855080        17109027.776033759        775278476.05343783     
   2643153243.4156098        24175059.366723895        774900790.49636889     
   2775093331.6009994       -8233249.6703618765        907492558.06670797     
   2679459074.2718058       -98264.165932655334        900444423.67193937     
   2583901254.5853014        8291513.4807851315        896336791.50243676     
   2488419872.5414810        16936083.269797921        895169661.55820739     
   2393014928.1403532        25835445.201097012        896943033.83924484     
   2496458916.7173529       -7277398.9004303217        1024890780.9028767     
   2409349441.9487209       -244934.87685179710        1017636469.3647885     
   2322689785.6017876        8286923.8857209682        1014253608.6820658     
   2236479947.6765523        18318177.387288332        1014742198.8546981     
   2150719928.1730189        29848825.627849102        1019102239.8826929     
   2215028404.2263165       -7160377.4127191305        1140663522.8042262     
   2139103565.2470760       -432478.90134060383        1133638645.0316768     
   2064001925.4685421        9039416.9457340240        1131416166.7445738     
   1989723484.8907223        21255310.128516674        1133996087.9429157     
   1916268243.5136085        36215200.646988630        1141378408.6267078     
   2901134873.9987798        24867668.124706626        652975509.85406375     
   2699606813.5622416        7562302.9817137718        638715208.30532420     
   2502116874.0188107        3717340.8157415390        636978507.83248520     
   2308665055.3684955        13332781.626822472        647765408.43555033     
   2119251357.6112921        36408625.414943099        671075910.11453724     
   2643153243.4156098        24175059.366723895        774900790.49636889     
   2471758191.7555161        13424065.334570527        765333598.07899582     
   2302561941.5092535        10002409.348535180        764909494.92663121     
   2135564492.6768286        13910091.408616304        773628481.03927326     
   1970765845.2582467        25147111.514823318        791490556.41691494     
   2393014928.1403532        25835445.201097012        896943033.83924484     
   2242094280.0826988        18741240.727599740        889923077.82742476     
   2091533113.9596059        12845309.369291425        888665699.26970255     
   1941331429.7710741        8147651.1261870861        893170898.16609180     
   1791489227.5170903        4648265.9982699156        903438674.51657975     
   2150719928.1730189        29848825.627849102        1019102239.8826929     
   2010615078.5437982        23513829.160804033        1012483647.5505962     
   1869030391.3698559        12246040.878022075        1008247120.8617034     
   1725965866.6512032       -3954539.2204754353        1006392659.8160188     
   1581421504.3878202       -25087911.134713948        1006920264.4135233     
   1916268243.5136085        36215200.646988630        1141378408.6267078     
   1777320587.1388118        27741830.634182334        1133015307.2485216     
   1635053773.7400177        8204603.8747271299        1123653759.7026293     
   1489467803.3172278       -22396479.631382167        1113293765.9890361     
   1340562675.8704481       -64061419.884135306        1101935326.1077476     
   3768206501.1923275        1130461950.3576982        800533145.30878389     
   3779093282.3977084        1008686265.3440263        884826215.25855112     
   3790591609.6190305        888949067.05015779        974049146.14191711     
   3802701482.8562946        771250355.47609329        1068201937.9588813     
   3815422902.1094990        655590130.62183261        1167284590.7094445     
   3207759875.8368430        962327962.75105298        756665317.11607122     
   3235842517.4131012        868192678.70548606        853040123.50403428     
   3263650477.1767421        773141788.61786461        951334099.78951025     
   3291183755.1277666        677175292.48818874        1051547245.9724988     
   3318442351.2661753        580293190.31645823        1153679562.0530007     
   2685572044.3031664        805671613.29094994        721961240.87085354     
   2722248571.8614841        736596137.89684343        829383851.23036218     
   2757764189.7786279        663650963.69882369        935714940.45129776     
   2792118898.0545979        586836090.69689155        1040954508.5336605     
   2825312696.6893940        506151518.89104682        1145102555.4774501     
   2201643006.5912967        660492901.97738898        696420916.57313132     
   2238311445.7428589        613896642.91809785        813857398.43753469     
   2272932747.4246883        560476592.29303551        927191668.12727976     
   2305506911.6367874        500232750.10220194        1036423725.6423662     
   2336033938.3791552        433165116.34559840        1141553570.9827940     
   1755972762.7012341        526791828.81037027        680044344.22290432     
   1784031139.0572233        500094193.76924932        806460765.12555242     
   1809156150.1149232        463618674.40049905        925764282.81745636     
   1831347795.8743351        417365270.70412010        1037954897.2986158     
   1850606076.3354578        361333982.68011165        1143032608.5690315     
   3815422902.1094990        655590130.62183261        1167284590.7094445     
   3797924271.0794988        537622812.03314173        1188919149.3635583     
   3784270525.6932468        432471778.92361701        1205650056.9130108     
   3774461665.9507461        340137031.29325867        1217477313.3578022     
   3768497691.8519959        260618569.14207125        1224400918.6979313     
   3318442351.2661753        580293190.31645823        1153679562.0530007     
   3293756709.5315585        473070453.58190954        1181981070.9590597     
   3272802433.2133546        378285601.56873429        1207178242.3075814     
   3255579522.3115606        295938634.27692819        1229271076.0985670     
   3242087976.8261795        226029551.70649636        1248259572.3320153     
   2825312696.6893940        506151518.89104682        1145102555.4774501     
   2798580940.0990877        411215632.76531810        1179938574.3702276     
   2775467028.6978536        328339230.60316682        1213469569.2525914     
   2755970962.4856925        257522312.40459168        1245695540.1245408     
   2740092741.4626045        198764878.16959369        1276616486.9860773     
   2336033938.3791552        433165116.34559840        1141553570.9827940     
   2312396962.7820821        352058349.58336669        1182791659.5970607     
   2292264312.1467438        282632666.02691764        1224524037.7480376     
   2275635986.4731402        224888065.67625046        1266750705.4357238     
   2262511985.7612724        178824548.53136480        1309471662.6601205     
   1850606076.3354578        361333982.68011165        1143032608.5690315     
   1835204777.5805445        295598604.03605479        1190540326.6395590     
   1823194283.5600276        241165907.83998722        1240341647.7939210     
   1814574594.2739065        198035894.09190345        1292436572.0321159     
   1809345709.7221806        166208562.79180688        1346825099.3541448     
   3768497691.8519959        260618569.14207125        1224400918.6979313     
   3661776550.9430914        168342760.61487973        1192005297.7477160     
   3562729076.2588220        101645839.50313687        1170008908.6600018     
   3471355267.7991829        60527805.806831837        1158411751.4347892     
   3387655125.5641780        44988659.525971770        1157213826.0720782     
   3242087976.8261795        226029551.70649636        1248259572.3320153     
   3164708159.0823412        151807921.87956965        1231224464.4017861     
   3093390778.8370657        97794417.047852278        1222194024.2667379     
   3028135836.0903516        63989037.211336851        1221168251.9268694     
   2968943330.8421998        50391782.370034933        1228147147.3821845     
   2740092741.4626045        198764878.16959369        1276616486.9860773     
   2685212635.2629151        140544943.55665445        1273062125.2287548     
   2634783737.8357162        97162371.518688917        1275117867.1992900     
   2588806049.1810088        68617162.055691838        1282783712.8976846     
   2547279569.2987928        54909315.167668819        1296059662.3239393     
   2262511985.7612724        178824548.53136480        1309471662.6601205     
   2223289979.4848123        134553825.64613950        1317518280.2286208     
   2186907953.2547722        99749702.915646434        1328780437.4576571     
   2153365907.0711546        74412180.339892745        1343258134.3472340     
   2122663840.9339564        58541257.918872833        1360951370.8973455     
   1809345709.7221806        166208562.79180688        1346825099.3541448     
   1778940191.7480330        133834568.14801711        1364592929.4013848     
   1749763425.0942359        105556411.23872828        1383181735.0418415     
   1721815409.7607887        81374092.063938558        1402591516.2755156     
   1695096145.7476914        61287610.623651564        1422822273.1024060     
   3387655125.5641780        44988659.525971770        1157213826.0720782     
   3294419922.8657064        37872642.399854660        1149918850.6000841     
   3200950821.3890548        29976962.679799080        1146348934.0963795     
   3107247821.1342182        21301620.365800023        1146504076.5609622     
   3013310922.1012030        11846615.457866073        1150384277.9938335     
   2968943330.8421998        50391782.370034933        1228147147.3821845     
   2884649348.6382761        38931381.722087026        1220079458.9690664     
   2800666971.0984874        28509663.287923336        1216167123.5500431     
   2716996198.2228327        19126627.067537189        1216410141.1251156     
   2633637030.0113111        10782273.060929418        1220808511.6942821     
   2547279569.2987928        54909315.167668819        1296059662.3239393     
   2473156219.0917220        39473354.448583603        1287855681.6524005     
   2399889976.9910989        26894420.750996232        1284237348.0007620     
   2327480842.9969282        17172514.074912548        1285204661.3690233     
   2255928817.1092062        10307634.420329213        1290757621.7571881     
   2122663840.9339564        58541257.918872833        1360951370.8973455     
   2059940534.2260418        39498560.579339027        1353247518.6500876     
   1998619839.0668931        25131235.069026470        1350559607.4485366     
   1938701755.4565125        15439281.387938499        1352887637.2926915     
   1880186283.3948956        10422699.536066175        1360231608.1825562     
   1695096145.7476914        61287610.623651564        1422822273.1024060     
   1645002294.0412383        39007000.114359379        1416254969.9621294     
   1596856557.3258693        23220106.242014229        1415133901.8933635     
   1550658935.6015806        13926929.006605327        1419459068.8961155     
   1506409428.8683763        11127468.408140540        1429230470.9703805     
   3013310922.1012030        11846615.457866073        1150384277.9938335     
   2921004006.5110054        4205115.0314986706        1141054800.3983986     
   2829804292.6322060        254286.97646260262        1136847572.1334898     
   2739711780.4648094       -5868.7072314023972        1137762593.1990981     
   2650726470.0088153        3424647.9804197550        1143799863.5952313     
   2633637030.0113111        10782273.060929418        1220808511.6942821     
   2554896671.0624852        5537996.3947985172        1213109572.3289216     
   2476975103.8638129        3023025.5625017881        1210170990.9509659     
   2399872328.4152904        3237360.5640423298        1211992767.5604126     
   2323588344.7169185        6181001.3994189501        1218574902.1572642     
   2255928817.1092062        10307634.420329213        1290757621.7571881     
   2189721039.5357070        7150388.9346244335        1284352742.3337750     
   2124043643.7511072        5761082.7452487946        1282346329.5546486     
   2058896629.7554064        6139715.8522067070        1284738383.4198060     
   1994279997.5486059        8286288.2554936409        1291528903.9292519     
   1880186283.3948956        10422699.536066175        1360231608.1825562     
   1825477111.9306686        9042292.6509705782        1354784310.4129622     
   1771009912.2940919        8468458.5247071981        1353373587.9445350     
   1716784684.4851592        8701197.1572620869        1355999440.7772791     
   1662801428.5038764        9740508.5486431122        1362661868.9111884     
   1506409428.8683763        11127468.408140540        1429230470.9703805     
   1462164888.2473691        11213707.543836772        1424404276.5664804     
   1417873909.4927604        11145152.900861979        1423252766.1206303     
   1373536492.6045489        10921804.479208112        1425775939.6328304     
   1329152637.5827322        10543662.278871596        1431973797.1030788     
   2650726470.0088153        3424647.9804197550        1143799863.5952313     
   2542240645.9948411        2240699.7376325130        1136635047.0972211     
   2433462360.3597627        81879.424505829811        1133724051.4660528     
   2324391613.1035929       -3051812.9589309692        1135066876.7017212     
   2215028404.2263165       -7160377.4127191305        1140663522.8042262     
   2323588344.7169185        6181001.3994189501        1218574902.1572642     
   2226387485.3437877        3937674.4760264158        1210629561.0750132     
   2129085259.4580896        1356459.1774059534        1207355613.1605628     
   2031681667.0598207       -1562644.4964500666        1208753058.4139121     
   1934176708.1489832       -4819636.5455341339        1214821896.8350532     
   1994279997.5486059        8286288.2554936409        1291528903.9292519     
   1909557166.5333488        5341501.7666105032        1283025982.5560472     
   1824924064.1140490        2695810.5975890160        1279612026.6515977     
   1740380690.2907124        349214.74844014645        1281287036.2159042     
   1655927045.0633328       -1698285.7808526754        1288051011.2489669     
   1662801428.5038764        9740508.5486431122        1362661868.9111884     
   1591749689.5635145        6452181.6093764305        1353824311.5403128     
   1520978774.3276420        4099933.6850689054        1350493291.9391496     
   1450488682.7962556        2683764.7757191658        1352668810.1077046     
   1380279414.9693587        2203674.8813308477        1360350866.0459704     
   1329152637.5827322        10543662.278871596        1431973797.1030788     
   1272965054.4342890        7269714.0043166280        1423024548.0278165     
   1217249390.0988631        5568828.4398222566        1419999409.0232246     
   1162005644.5764606        5441005.5854012966        1422898380.0893056     
   1107233817.8670721        6886245.4410272837        1431721461.2260623     
   2215028404.2263165       -7160377.4127191305        1140663522.8042262     
   2139103565.2470760       -432478.90134060383        1133638645.0316768     
   2064001925.4685421        9039416.9457340240        1131416166.7445738     
   1989723484.8907223        21255310.128516674        1133996087.9429157     
   1916268243.5136085        36215200.646988630        1141378408.6267078     
   1934176708.1489832       -4819636.5455341339        1214821896.8350532     
   1870365033.9091289        2816830.8114202023        1209300841.1583488     
   1807172621.1300244        12517503.037549019        1208085535.2928946     
   1744599469.8116720        24282380.132844210        1211175979.2386994     
   1682645579.9540706        38111462.097315371        1218572172.9957612     
   1655927045.0633328       -1698285.7808526754        1288051011.2489669     
   1602809536.4937403        6421050.7009409070        1283795850.3048241     
   1550107351.6449416        15924799.585381210        1283349789.4977405     
   1497820490.5169387        26812960.872473717        1286712828.8277209     
   1445948953.1097269        39085534.562202096        1293884968.2947628     
   1380279414.9693587        2203674.8813308477        1360350866.0459704     
   1336437073.0009089        10380180.767225981        1357123672.4711020     
   1292806117.0132954        19261306.589247763        1357208929.3591077     
   1249386547.0065169        28847052.347383320        1360606636.7099793     
   1206178362.9805789        39137418.041653395        1367316794.5237174     
   1107233817.8670721        6886245.4410272837        1431721461.2260623     
   1071247643.4306411        14694221.010293424        1429284307.6571884     
   1035268917.2350873        22527024.049144864        1429662954.8769908     
   999297639.28041697        30384654.557610810        1432857402.8854671     
   963333809.56661785        38267112.535647333        1438867651.6826293     
   1916268243.5136085        36215200.646988630        1141378408.6267078     
   1777320587.1388118        27741830.634182334        1133015307.2485216     
   1635053773.7400177        8204603.8747271299        1123653759.7026293     
   1489467803.3172278       -22396479.631382167        1113293765.9890361     
   1340562675.8704481       -64061419.884135306        1101935326.1077476     
   1682645579.9540706        38111462.097315371        1218572172.9957612     
   1545239647.3425055        27786539.012970507        1208056834.2613027     
   1406213315.5409701        12060285.295394719        1200153164.5289264     
   1265566584.5494637       -9067299.0554019809        1194861163.7986245     
   1123299454.3680029       -35596214.039420366        1192180832.0704176     
   1445948953.1097269        39085534.562202096        1293884968.2947628     
   1320399359.0321939        30003442.837547123        1283199276.3437362     
   1194928123.5987246        21182546.593102455        1278735368.5645802     
   1069535246.8093135        12622845.828857124        1280493244.9572761     
   944220728.66396880        4324340.5448244214        1288472905.5218446     
   1206178362.9805789        39137418.041653395        1367316794.5237174     
   1102799722.2078846        34392542.107929289        1358442633.4958255     
   1001198197.9132816        35571387.767844498        1359400371.8095784     
   901373790.09676886        42673955.021397173        1370190009.4649780     
   803326498.75834954        55700243.868587047        1390811546.4620166     
   963333809.56661785        38267112.535647333        1438867651.6826293     
   892440736.86957359        40953836.824117780        1433786905.7175682     
   825023538.48464942        55226808.819646508        1442148174.2639272     
   761082214.41183734        81086028.522225350        1463951457.3217204     
   700616764.65115023        118531495.93188235        1499196754.8909414     
   1755972762.7012341        526791828.81037027        680044344.22290432     
   1784031139.0572233        500094193.76924932        806460765.12555242     
   1809156150.1149232        463618674.40049905        925764282.81745636     
   1831347795.8743351        417365270.70412010        1037954897.2986158     
   1850606076.3354578        361333982.68011165        1143032608.5690315     
   1326318686.3893592        397895605.91680771        669723035.04003417     
   1339549739.5366144        375526352.48268872        791877426.59509349     
   1350582569.2511988        345829687.60633397        908740230.82948565     
   1359417175.5331128        308805611.28774393        1020311447.7432112     
   1366053558.3823562        264454123.52691853        1126591077.3362696     
   890438151.41205144        267131445.42361546        662348500.24438250     
   894045641.03650832        250651701.50227883        781098527.96174037     
   896190049.09391260        229295019.02410045        896378284.24850893     
   896871375.58426416        203061397.98908001        1008187769.1046883     
   896089620.50756335        171950838.39721799        1116526982.5302777     
   448331157.76931185        134499347.33079356        657920739.83594906     
   447518843.55690557        125470240.82802005        774124069.22549367     
   445978589.64306474        114014668.65379834        888678443.07452667     
   443710396.02778947        100132630.80812839        1001583861.3830467     
   440714262.71107954        83824127.291009903        1112840324.1510553     
  -2294.5388600823781       -688.36165802471339        656439753.81473422     
  -30652.902194150185       -18029.540087937050        770954050.38635337     
  -51809.101344688817       -11363.504572275084        885640707.30753779     
  -65763.136311611059        19309.744888362846        1000499724.5782872     
  -72515.007094732486        73990.208295176970        1115531102.1986020     
   1850606076.3354578        361333982.68011165        1143032608.5690315     
   1835204777.5805445        295598604.03605479        1190540326.6395590     
   1823194283.5600276        241165907.83998722        1240341647.7939210     
   1814574594.2739065        198035894.09190345        1292436572.0321159     
   1809345709.7221806        166208562.79180688        1346825099.3541448     
   1366053558.3823562        264454123.52691853        1126591077.3362696     
   1360311745.8504336        216905645.32689810        1181986801.8830590     
   1357108685.2183170        177819673.45956588        1238322320.3381534     
   1356444376.4860065        147196207.92491871        1295597632.7015524     
   1358318819.6535017        125035248.72295862        1353812738.9732552     
   896089620.50756335        171950838.39721799        1116526982.5302777     
   896139267.98283422        141428852.77649537        1178816651.9129739     
   897875614.52332103        116529197.37315878        1240692306.0284448     
   901298660.12902355        97251872.187209040        1302153944.8766923     
   906408404.79994237        83596877.218646079        1363201568.4577141     
   440714262.71107954        83824127.291009903        1112840324.1510553     
   442687343.97774637        69168226.384845003        1181029876.7293026     
   445495071.47503901        57294479.580766335        1247451604.8647964     
   449137445.20295805        48202886.878775224        1312105508.5575364     
   453614465.16150254        41893448.278869405        1374991587.8075225     
  -72515.007094732486        73990.208295176970        1115531102.1986020     
  -44026.164829216410        123766.15194954515        1188626476.3320460     
  -32943.926528325537        115520.08238845255        1258600216.8472068     
  -39268.292191194196        49251.999614676461        1325452323.7440853     
  -62999.261818126179       -75038.096372297150        1389182797.0226810     
   1809345709.7221806        166208562.79180688        1346825099.3541448     
   1778940191.7480330        133834568.14801711        1364592929.4013848     
   1749763425.0942359        105556411.23872828        1383181735.0418415     
   1721815409.7607887        81374092.063938558        1402591516.2755156     
   1695096145.7476914        61287610.623651564        1422822273.1024060     
   1358318819.6535017        125035248.72295862        1353812738.9732552     
   1332997366.6049061        99987506.755151868        1372823952.4485562     
   1308613196.4470415        78064041.089782596        1393234335.8096845     
   1285166309.1799085        59264851.726850927        1415043889.0566392     
   1262656704.8035049        43589938.666352808        1438252612.1894209     
   906408404.79994237        83596877.218646079        1363201568.4577141     
   887823000.37007129        66370983.034777731        1383116118.8598537     
   869883410.40131152        51297803.721278816        1405008033.4404304     
   852589634.89366341        38377339.278153807        1428877312.1994443     
   835941673.84712732        27609589.705401838        1454723955.1368942     
   453614465.16150254        41893448.278869405        1374991587.8075225     
   443417093.04352725        32984996.986887395        1395469428.6352787     
   433574066.95704454        25257699.133213937        1418502827.9340811     
   424085386.90205455        18711554.717849180        1444091785.7039311     
   414951052.87855643        13346563.740791127        1472236301.9448299     
  -62999.261818126179       -75038.096372297150        1389182797.0226810     
  -220355.37472426528       -170451.38851162736        1409883881.7748301     
  -314833.88575933292       -56272.674413879431        1433718719.2906363     
  -346434.79491981218        267498.04593214986        1460687309.5701005     
  -315158.10220710392        800860.77252265753        1490789652.6132214     
   1695096145.7476914        61287610.623651564        1422822273.1024060     
   1645002294.0412383        39007000.114359379        1416254969.9621294     
   1596856557.3258693        23220106.242014229        1415133901.8933635     
   1550658935.6015806        13926929.006605327        1419459068.8961155     
   1506409428.8683763        11127468.408140540        1429230470.9703805     
   1262656704.8035049        43589938.666352808        1438252612.1894209     
   1227823036.3091209        27741889.800603986        1435314768.8200319     
   1194375656.4164047        16514802.940412760        1437184855.5475941     
   1162314565.1253581        9908678.0857874155        1443862872.3721077     
   1131639762.4359779        7923515.2367184758        1455348819.2935746     
   835941673.84712732        27609589.705401838        1454723955.1368942     
   814544460.06605923        17646983.933561176        1454760107.4174116     
   793971708.49724722        10432585.535907120        1458965884.8203192     
   774223419.14068878        5966394.5124323368        1467341287.3456149     
   755299591.99638546        4248410.8631421924        1479886314.9932988     
   414951052.87855643        13346563.740791127        1472236301.9448299     
   405166565.31205332        8722282.5132347494        1474590985.7542694     
   395644713.56839442        4973454.0284910649        1480476989.7115369     
   386385497.64757502        2100078.2865462750        1489894313.8166318     
   377388917.54959655        102155.28740416467        1502842958.0695491     
  -315158.10220710392        800860.77252265753        1490789652.6132214     
  -310647.95289429306        967785.53962949128        1494807403.8306038     
  -605328.37015213596        137408.41816851986        1501718170.2212503     
  -1199199.3539850591       -1690270.5918765727        1511521951.7851589     
  -2092260.9043882927       -4515251.4904893674        1524218748.5223322     
   1506409428.8683763        11127468.408140540        1429230470.9703805     
   1462164888.2473691        11213707.543836772        1424404276.5664804     
   1417873909.4927604        11145152.900861979        1423252766.1206303     
   1373536492.6045489        10921804.479208112        1425775939.6328304     
   1329152637.5827322        10543662.278871596        1431973797.1030788     
   1131639762.4359779        7923515.2367184758        1455348819.2935746     
   1097021230.9151332        6890807.3363944292        1450115302.1934588     
   1062424481.2969115        5930705.7781479955        1448869942.0668087     
   1027849513.5813172        5043210.5619936585        1451612738.9136226     
   993296327.76834846        4228321.6879218817        1458343692.7339015     
   755299591.99638546        4248410.8631421924        1479886314.9932988     
   731202706.76259768        2365447.0828545988        1474325065.2392361     
   707195823.46766543        782489.76542016864        1473065445.4740512     
   683278942.11158741       -500461.08916696906        1476107455.6977470     
   659452062.69436479       -1483405.4809028804        1483451095.9103191     
   377388917.54959655        102155.28740416467        1502842958.0695491     
   364709315.78976589       -2362373.2167719454        1497033565.7038083     
   352187936.00501972       -4299495.1373334825        1495839276.3423584     
   339824778.19535941       -5709210.4742752910        1499260089.9852037     
   327619842.36078185       -6591519.2276082486        1507296006.6323404     
  -2092260.9043882927       -4515251.4904893674        1524218748.5223322     
  -2458942.0033622729       -7292653.5624840744        1518240803.5871775     
  -2599181.0910232896       -9315248.9301025830        1517191434.6717303     
  -2512978.1673694784       -10583037.593337983        1521070641.7759910     
  -2200333.2324016737       -11096019.552193753        1529878424.8999608     
   1329152637.5827322        10543662.278871596        1431973797.1030788     
   1272965054.4342890        7269714.0043166280        1423024548.0278165     
   1217249390.0988631        5568828.4398222566        1419999409.0232246     
   1162005644.5764606        5441005.5854012966        1422898380.0893056     
   1107233817.8670721        6886245.4410272837        1431721461.2260623     
   993296327.76834846        4228321.6879218817        1458343692.7339015     
   952400841.61499786        2031300.6228984594        1450394658.6281884     
   911826798.55539083        905756.53701943159        1448036144.3227551     
   871574198.58952963        851689.43029510975        1451268149.8175926     
   831643041.71741378        1869099.3027188182        1460090675.1127112     
   659452062.69436479       -1483405.4809028804        1483451095.9103191     
   632895558.47782648       -2889433.8538897038        1476326721.7683430     
   606510021.63576090       -3725570.9786339998        1474459277.1562450     
   580295452.16816676       -3991816.8551405668        1477848762.0740268     
   554251850.07504427       -3688171.4834078848        1486495176.5216854     
   327619842.36078185       -6591519.2276082486        1507296006.6323404     
   314449205.02277976       -7492489.4260341972        1500820737.4482799     
   301299059.33997488       -8325154.1071359217        1499268807.5237010     
   288169405.31237000       -9089513.2709048092        1502640216.8586025     
   275060242.93996412       -9785566.9173436910        1510934965.4529870     
  -2200333.2324016737       -11096019.552193753        1529878424.8999608     
  -2938218.7501470200       -11777866.093549369        1523876705.6679966     
  -3806088.3319673906       -12892992.848488051        1522464735.4251187     
  -4803941.9778601443       -14441399.817001516        1525642514.1713223     
  -5931779.6878283564       -16423086.999099845        1533410041.9066131     
   1107233817.8670721        6886245.4410272837        1431721461.2260623     
   1071247643.4306411        14694221.010293424        1429284307.6571884     
   1035268917.2350873        22527024.049144864        1429662954.8769908     
   999297639.28041697        30384654.557610810        1432857402.8854671     
   963333809.56661785        38267112.535647333        1438867651.6826293     
   831643041.71741378        1869099.3027188182        1460090675.1127112     
   802506129.97372723        6408505.7534080148        1457145010.3100984     
   773234845.27237713        10500002.345221072        1457406493.5098193     
   743829187.61337733        14143589.078200728        1460875124.7118776     
   714289156.99671412        17339265.952302217        1467550903.9162717     
   554251850.07504427       -3688171.4834078848        1486495176.5216854     
   533082335.92027014       -2081893.6824470162        1482875542.4203718     
   511636627.60929894       -1396263.0688093603        1482854403.5350549     
   489914725.14213663       -1631279.6424762309        1486431759.8657355     
   467916628.51877743       -2786943.4034661055        1493607611.4124103     
   275060242.93996412       -9785566.9173436910        1510934965.4529870     
   262976261.27027261       -10776977.297262520        1506475903.9880114     
   250474264.24584973       -13161772.192953005        1506006684.9526978     
   237554251.86669680       -16939951.604409665        1509527308.3470354     
   224216224.13281435       -22111515.531632334        1517037774.1710317     
  -5931779.6878283564       -16423086.999099845        1533410041.9066131     
  -7812093.9762630556       -19676745.091034450        1527946095.0130236     
  -10252244.817969272       -24796525.027206752        1526863337.7627470     
  -13252232.212942250       -31782426.807602629        1530161770.1557860     
  -16812056.161182716       -40634450.432222091        1537841392.1921372     
   963333809.56661785        38267112.535647333        1438867651.6826293     
   892440736.86957359        40953836.824117780        1433786905.7175682     
   825023538.48464942        55226808.819646508        1442148174.2639272     
   761082214.41183734        81086028.522225350        1463951457.3217204     
   700616764.65115023        118531495.93188235        1499196754.8909414     
   714289156.99671412        17339265.952302217        1467550903.9162717     
   673905845.55663586        19872041.643841237        1464817837.1000497     
   635364654.14968264        28545217.445796669        1472147329.4924357     
   598665582.77585232        43358793.358166099        1489539381.0934272     
   563808631.43514633        64312769.380947173        1516993991.9030313     
   467916628.51877743       -2786943.4034661055        1493607611.4124103     
   448387491.75618589       -3304792.2826856375        1491316177.0861969     
   429066720.74772012       -3128088.6481518447        1495707846.6657698     
   409954315.49338526       -2256832.4998461306        1506782620.1511364     
   391050275.99318129       -691023.83777634799        1524540497.5422881     
   224216224.13281435       -22111515.531632334        1517037774.1710317     
   215885675.46822333       -28576664.955464616        1513281925.6760035     
   206129738.27876109       -39793109.462199345        1512829725.7839441     
   194948412.56444180       -55760849.051793769        1515681174.4948537     
   182341698.32525110       -76479883.724286079        1521836271.8087325     
  -16812056.161182716       -40634450.432222091        1537841392.1921372     
  -23599603.307252143       -55943576.374497466        1530715082.8694685     
  -33446293.257193264       -81449844.996343777        1523512966.8469450     
  -46352126.010983728       -117153256.29768893        1516235044.1245742     
  -62317101.568641543       -163053810.27859122        1508881314.7023449     
  -2294.5388600823781       -688.36165802471339        656439753.81473422     
  -30652.902194150185       -18029.540087937050        770954050.38635337     
  -51809.101344688817       -11363.504572275084        885640707.30753779     
  -65763.136311611059        19309.744888362846        1000499724.5782872     
  -72515.007094732486        73990.208295176970        1115531102.1986020     
  -448339840.50161213       -134501952.15048364        657910142.20944929     
  -447575155.03234082       -125490854.65436533        774125146.77682519     
  -446074701.26567811       -114027196.16694278        888694338.86405170     
  -443838479.20162427       -100110976.68821585        1001617718.4711294     
  -440866488.84017873       -83742196.218184441        1112895285.5980580     
  -890459115.10809278       -267137734.53242782        662336505.04880607     
  -894096165.31968522       -250656632.21580219        781102211.43401408     
  -896268881.10067880       -229294415.13051331        896403932.50935864     
  -896977262.45107353       -203051083.27656120        1008241668.2748399     
  -896221309.37086880       -171926636.65394562        1116615418.7304575     
  -1326360118.3583016       -397908035.50749046        669718842.33280444     
  -1339593683.7642276       -375515362.22439837        791885244.35792029     
  -1350634348.6063466       -345813020.39528418        908769488.24345839     
  -1359482112.8846593       -308801010.02014738        1020371573.9894190     
  -1366136976.5991654       -264479331.09898922        1126691501.5958018     
  -1756042850.2522390       -526812855.07567173        680057154.06144440     
  -1784067710.3659675       -500067044.68015391        806474245.54854381     
  -1809171103.7826822       -463583011.96125513        925791006.06635106     
  -1831353030.5023823       -417360756.91897500        1038007435.6148664     
  -1850613490.5250678       -361400279.55331373        1143123534.1940899     
  -72515.007094732486        73990.208295176970        1115531102.1986020     
  -44026.164829216410        123766.15194954515        1188626476.3320460     
  -32943.926528325537        115520.08238845255        1258600216.8472068     
  -39268.292191194196        49251.999614676461        1325452323.7440853     
  -62999.261818126179       -75038.096372297150        1389182797.0226810     
  -440866488.84017873       -83742196.218184441        1112895285.5980580     
  -442797918.78556705       -69023714.869583592        1181061335.9650166     
  -445583319.02574074       -57151801.170267329        1247456304.2509212     
  -449222689.56069905       -48126455.120233268        1312080190.4557717     
  -453716030.39044344       -41947676.719485998        1374932994.5795677     
  -896221309.37086880       -171926636.65394562        1116615418.7304575     
  -896253939.42611575       -141381834.29706043        1178876154.3583069     
  -897977103.46696818       -116472145.22552842        1240716359.4423304     
  -901390801.49342704       -97197569.439350575        1302136033.9825287     
  -906495033.50549233       -83558106.938527197        1363135177.9789011     
  -1366136976.5991654       -264479331.09898922        1126691501.5958018     
  -1360412088.0864742       -216950592.13047907        1182070931.5119171     
  -1357214297.2502098       -177845512.08339271        1238380382.4214346     
  -1356543604.0903730       -147164090.95773274        1295619854.3243551     
  -1358400008.6069639       -124906328.75349545        1353789347.2206790     
  -1850613490.5250678       -361400279.55331373        1143123534.1940899     
  -1835272364.7666430       -295729988.36984175        1190645667.4258466     
  -1823294900.3754661       -241271901.74386257        1240448373.1882339     
  -1814681097.3515387       -198026019.67537934        1292531651.4812534     
  -1809430955.6948588       -165992342.16439027        1346895502.3049033     
  -62999.261818126179       -75038.096372297150        1389182797.0226810     
  -220355.37472426528       -170451.38851162736        1409883881.7748301     
  -314833.88575933292       -56272.674413879431        1433718719.2906363     
  -346434.79491981218        267498.04593214986        1460687309.5701005     
  -315158.10220710392        800860.77252265753        1490789652.6132214     
  -453716030.39044344       -41947676.719485998        1374932994.5795677     
  -443790787.78888166       -33168808.956899807        1395531383.0550272     
  -434149257.75026172       -25335649.737452522        1418703952.9191756     
  -424791440.27458608       -18448199.061153457        1444450704.1720123     
  -415717335.36185205       -12506456.927992076        1472771636.8135386     
  -906495033.50549233       -83558106.938527197        1363135177.9789011     
  -888085967.54651451       -66384590.728327334        1383226514.9853854     
  -870307204.31529522       -51312083.610655427        1405332462.0055907     
  -853158743.81183481       -38340585.585512191        1429453019.0395150     
  -836640586.03613174       -27470096.652894676        1455588186.0871611     
  -1358400008.6069639       -124906328.75349545        1353789347.2206790     
  -1333105894.6476233       -99817796.702796400        1372969277.5659041     
  -1308788673.5808585       -77985574.294015586        1393604246.5498810     
  -1285448345.4066665       -59409661.527146578        1415694254.1726089     
  -1263084910.1250486       -44090058.402188063        1439239300.4340885     
  -1809430955.6948588       -165992342.16439027        1346895502.3049033     
  -1778850569.0922101       -133468426.88031417        1364759670.7965839     
  -1749593665.5469508       -105356121.78753304        1383519306.5520470     
  -1721660245.0590830       -81655426.886058569        1403174409.5712924     
  -1695050307.6286020       -62366342.175874949        1423724979.8543220     
  -315158.10220710392        800860.77252265753        1490789652.6132214     
  -310647.95289429306        967785.53962949128        1494807403.8306038     
  -605328.37015213596        137408.41816851986        1501718170.2212503     
  -1199199.3539850591       -1690270.5918765727        1511521951.7851589     
  -2092260.9043882927       -4515251.4904893674        1524218748.5223322     
  -415717335.36185205       -12506456.927992076        1472771636.8135386     
  -405963497.81889170       -7698000.4465008080        1474654838.4957745     
  -396807621.62995923       -4882748.4784350544        1480073384.9119244     
  -388249706.79505360       -4060701.0237925947        1489027276.0619903     
  -380289753.31417608       -5231858.0825771838        1501516511.9459722     
  -836640586.03613174       -27470096.652894676        1455588186.0871611     
  -815302193.78337717       -17469540.262177736        1454988272.3155520     
  -794860533.67210519       -10458091.009735346        1458566032.8385098     
  -775315605.70231593       -6435748.8955684304        1466321467.6560340     
  -756667409.87400889       -5402513.9196759760        1478254576.7681258     
  -1263084910.1250486       -44090058.402188063        1439239300.4340885     
  -1228326735.8463533       -28346833.907405019        1435807705.2899387     
  -1194764064.4965940       -16588619.175741732        1437196114.0010059     
  -1162396896.0757709       -8815414.2072003484        1443404526.5672927     
  -1131225230.5838864       -5027219.0017869473        1454432942.9887969     
  -1695050307.6286020       -62366342.175874949        1423724979.8543220     
  -1645037124.0078158       -40329881.382172823        1417113137.4189322     
  -1596518214.1034226       -23274332.976447880        1415963628.3994126     
  -1549493577.9154189       -11199696.958690882        1420276452.7957635     
  -1503963215.4438107       -4105973.3289152980        1430051610.6079848     
  -2092260.9043882927       -4515251.4904893674        1524218748.5223322     
  -2458942.0033622729       -7292653.5624840744        1518240803.5871775     
  -2599181.0910232896       -9315248.9301025830        1517191434.6717303     
  -2512978.1673694784       -10583037.593337983        1521070641.7759910     
  -2200333.2324016737       -11096019.552193753        1529878424.8999608     
  -380289753.31417608       -5231858.0825771838        1501516511.9459722     
  -367648865.49508250       -5764262.6913591027        1496177274.6661873     
  -354914759.96028668       -5985941.5811347961        1495397207.2736948     
  -342087436.70979035       -5896894.7519090325        1499176309.7684989     
  -329166895.74359071       -5497122.2036706954        1507514582.1505983     
  -756667409.87400889       -5402513.9196759760        1478254576.7681258     
  -732074399.22945487       -4006554.8930214345        1473398618.7988293     
  -707521395.16481352       -2743951.1327429414        1472732424.5844133     
  -683008397.68008268       -1614702.6388316154        1476255994.1248796     
  -658535406.77526379       -618809.41129449010        1483969327.4202268     
  -1131225230.5838864       -5027219.0017869473        1454432942.9887969     
  -1095735543.2064836       -2019530.1674840450        1449904835.9851072     
  -1060419086.7046055        410722.41506785154        1449197086.6038847     
  -1025275861.0782492        2263538.7458802462        1452309694.8451309     
  -990305866.32741940        3538918.8249394298        1459242660.7088437     
  -1503963215.4438107       -4105973.3289152980        1430051610.6079848     
  -1458632297.4261672        196811.48525601625        1425695926.2250190     
  -1413607834.5796616        3478079.0623006225        1424791193.3321083     
  -1368889826.9042916        5737829.4022280574        1427337411.9292514     
  -1324478274.4000604        6976062.5050243139        1433334582.0164506     
  -2200333.2324016737       -11096019.552193753        1529878424.8999608     
  -2938218.7501470200       -11777866.093549369        1523876705.6679966     
  -3806088.3319673906       -12892992.848488051        1522464735.4251187     
  -4803941.9778601443       -14441399.817001516        1525642514.1713223     
  -5931779.6878283564       -16423086.999099845        1533410041.9066131     
  -329166895.74359071       -5497122.2036706954        1507514582.1505983     
  -317241957.84285462       -5477746.2030278295        1500710208.2276146     
  -305464116.09382945       -5948690.7080868632        1498894898.1277637     
  -293833370.49651909       -6909955.7188615948        1502068651.8510470     
  -282349721.05091643       -8361541.2353302240        1510231469.3974617     
  -658535406.77526379       -618809.41129449010        1483969327.4202268     
  -632806745.93019354        444058.98910599947        1476342334.7039783     
  -607242293.32447445        959566.59166949987        1474103720.6449103     
  -581842048.95810270        927713.39640754461        1477253485.2430239     
  -556606012.83108449        348499.40330374241        1485791628.4983170     
  -990305866.32741940        3538918.8249394298        1459242660.7088437     
  -949632583.01216459        5987549.4828476310        1450773085.0970867     
  -909140620.02389610        7831779.0508028269        1448091202.9765577     
  -868829977.36261833        9071607.5287888050        1451197014.3472595     
  -828700655.02832580        9707034.9168232679        1460090519.2091885     
  -1324478274.4000604        6976062.5050243139        1433334582.0164506     
  -1267719469.0887675        11152725.278203130        1424002459.4069414     
  -1211159096.1921017        14667946.669288456        1420857345.1227071     
  -1154797155.7100580        17521726.678300560        1423899239.1637485     
  -1098633647.6426446        19714065.305212855        1433128141.5300708     
  -5931779.6878283564       -16423086.999099845        1533410041.9066131     
  -7812093.9762630556       -19676745.091034450        1527946095.0130236     
  -10252244.817969272       -24796525.027206752        1526863337.7627470     
  -13252232.212942250       -31782426.807602629        1530161770.1557860     
  -16812056.161182716       -40634450.432222091        1537841392.1921372     
  -282349721.05091643       -8361541.2353302240        1510231469.3974617     
  -273086527.22897422       -11122296.788880408        1504883915.7491388     
  -264100215.28826758       -14805991.946549118        1503613355.0335536     
  -255390785.22879943       -19412626.708344519        1506419787.2506948     
  -246958237.05056751       -24942201.074262388        1513303212.4005728     
  -556606012.83108449        348499.40330374241        1485791628.4983170     
  -537068444.35756898       -2180093.6494922638        1480890581.8793027     
  -517524803.09325987       -4688444.0663067400        1479762331.4824395     
  -497975089.03815901       -7176551.8471505642        1482406877.3077257     
  -478419302.19226164       -9644416.9920055270        1488824219.3551610     
  -828700655.02832580        9707034.9168232679        1460090519.2091885     
  -799757845.36204410        7149864.3271454871        1455966093.4035170     
  -770526008.23294091        5556118.6135358512        1455310267.1094129     
  -741005143.64101422        4925797.7760081291        1458123040.3268728     
  -711195251.58626354        5258901.8145573735        1464404413.0559049     
  -1098633647.6426446        19714065.305212855        1433128141.5300708     
  -1061154730.2424102        16867577.140987694        1430110450.3217783     
  -1023103830.7073159        15927696.092964470        1430257161.9144695     
  -984480949.03737342        16894422.161099076        1433568276.3081446     
  -945286085.23257089        19767755.345435321        1440043793.5028064     
  -16812056.161182716       -40634450.432222091        1537841392.1921372     
  -23599603.307252143       -55943576.374497466        1530715082.8694685     
  -33446293.257193264       -81449844.996343777        1523512966.8469450     
  -46352126.010983728       -117153256.29768893        1516235044.1245742     
  -62317101.568641543       -163053810.27859122        1508881314.7023449     
  -246958237.05056751       -24942201.074262388        1513303212.4005728     
  -247746381.62844118       -35918210.542263597        1504946145.6553445     
  -250024827.14393011       -51861889.802316070        1500279860.7068236     
  -253793573.59702373       -72773238.854383722        1499304357.5550056     
  -259052620.98772931       -98652257.698487490        1502019636.1999011     
  -478419302.19226164       -9644416.9920055270        1488824219.3551610     
  -462446362.78320479       -13058805.560108781        1481066710.6980059     
  -446394882.44550753       -16211391.032748029        1480766572.3341167     
  -430264861.17916572       -19102173.409902662        1487923804.2634902     
  -414056298.98418653       -21731152.691601276        1502538406.4861245     
  -711195251.58626354        5258901.8145573735        1464404413.0559049     
  -667699546.77153862        12634638.571978331        1459076777.9974468     
  -622556459.16191995        25501651.312376559        1464973101.7288115     
  -575765988.75740969        43859940.035744578        1482093384.2499971     
  -527328135.55801070        67709504.742078245        1510437625.5610006     
  -945286085.23257089        19767755.345435321        1440043793.5028064     
  -863505933.59344578        41162121.853990018        1438976347.5536742     
  -778509557.29317272        73277237.233037412        1452899448.8909247     
  -690296956.33175850        116113101.48255914        1481813097.5145476     
  -598868130.70920253        169669714.60254741        1525717293.4245529     
  -1756042850.2522390       -526812855.07567173        680057154.06144440     
  -1784067710.3659675       -500067044.68015391        806474245.54854381     
  -1809171103.7826822       -463583011.96125513        925791006.06635106     
  -1831353030.5023823       -417360756.91897500        1038007435.6148664     
  -1850613490.5250678       -361400279.55331373        1143123534.1940899     
  -2201731964.2149172       -660519589.26447511        696451436.31018174     
  -2238345965.5439048       -613883214.15062726        813883098.50452411     
  -2272920833.8454595       -560449728.94533300        927217929.64449799     
  -2305456569.1195798       -500219133.64859188        1036455929.7301033     
  -2335953171.3662663       -433191428.26040447        1141597098.7613399     
  -2685652113.6713476       -805695634.10140431        722001685.15447211     
  -2722273827.8872428       -736594265.77072072        829418528.77488053     
  -2757738742.7452855       -663636899.58052540        935742041.25584364     
  -2792046858.2454734       -586823535.53081775        1040972222.5973617     
  -2825198174.3878078       -506154173.62159836        1145109072.7994344     
  -3207803298.6215315       -962340989.58645952        756707900.59431577     
  -3235851297.3959818       -868200199.54043460        853080536.35961294     
  -3263624830.4821572       -773144523.86683178        951363340.90038812     
  -3291123897.8800616       -677173962.56565213        1051556314.2166418     
  -3318348499.5896912       -580288515.63689470        1153659456.3083739     
  -3768185519.0654683       -1130455655.7196405        800570082.62971234     
  -3779078374.0701199       -1008701015.4597682        884869121.25872135     
  -3790579097.0560789       -888972601.80425286        974081828.57813191     
  -3802687688.0233445       -771270414.75309467        1068208204.5879441     
  -3815404146.9719186       -655594454.30629385        1167248249.2881579     
  -1850613490.5250678       -361400279.55331373        1143123534.1940899     
  -1835272364.7666430       -295729988.36984175        1190645667.4258466     
  -1823294900.3754661       -241271901.74386257        1240448373.1882339     
  -1814681097.3515387       -198026019.67537934        1292531651.4812534     
  -1809430955.6948588       -165992342.16439027        1346895502.3049033     
  -2335953171.3662663       -433191428.26040447        1141597098.7613399     
  -2312395522.6467762       -352142769.16138369        1182861586.2540038     
  -2292324471.7320957       -282716102.74505937        1224617049.3594210     
  -2275740018.6222248       -224911429.01143306        1266863488.0775926     
  -2262642163.3171620       -178728747.96050417        1309600902.4085171     
  -2825198174.3878078       -506154173.62159836        1145109072.7994344     
  -2798537136.7583318       -411261086.82235217        1179972488.7091851     
  -2775485633.3712263       -328399780.83100677        1213537283.3138113     
  -2756043664.2264900       -257570255.64756143        1245803456.6133134     
  -2740211229.3241253       -198772511.27201676        1276771008.6076922     
  -3318348499.5896912       -580288515.63689470        1153659456.3083739     
  -3293697207.1013093       -473084941.35274768        1181978374.7913899     
  -3272778385.2928586       -378322936.00170374        1207209075.0514038     
  -3255592034.1643376       -296002499.58376348        1229351557.0884161     
  -3242138153.7157488       -226123632.09892821        1248405820.9024267     
  -3815404146.9719186       -655594454.30629385        1167248249.2881579     
  -3797875733.6757078       -537614332.75256956        1188879244.5006187     
  -3784202727.4969916       -432485568.25715196        1205632424.5721996     
  -3774385128.4357648       -340208160.82003963        1217507789.5029006     
  -3768422936.4920301       -260782110.44123423        1224505339.2927229     
  -1809430955.6948588       -165992342.16439027        1346895502.3049033     
  -1778850569.0922101       -133468426.88031417        1364759670.7965839     
  -1749593665.5469508       -105356121.78753304        1383519306.5520470     
  -1721660245.0590830       -81655426.886058569        1403174409.5712924     
  -1695050307.6286020       -62366342.175874949        1423724979.8543220     
  -2262642163.3171620       -178728747.96050417        1309600902.4085171     
  -2223105595.4413271       -134307103.00030470        1317650098.0256207     
  -2186473187.9114275       -99565992.526553750        1328947566.6638248     
  -2152744940.7274599       -74505416.539245367        1343493308.3231301     
  -2121920853.8894272       -59125375.038386941        1361287323.0035381     
  -2740211229.3241253       -198772511.27201676        1276771008.6076922     
  -2684996178.0113368       -140436445.98656487        1273161107.8469164     
  -2634265964.3330278       -97049839.482708216        1275152285.8645604     
  -2588020588.2891974       -68612691.760444283        1282744542.6606243     
  -2546260049.8798423       -55125002.819771290        1295937878.2351079     
  -3242138153.7157488       -226123632.09892821        1248405820.9024267     
  -3164522316.8022399       -151856455.83909416        1231292700.2604709     
  -3092971994.8117547       -97807662.656000018        1222133464.1542537     
  -3027487187.7442904       -63977252.549648046        1220928112.5837753     
  -2968067895.5998483       -50365225.520034432        1227676645.5490334     
  -3768422936.4920301       -260782110.44123423        1224505339.2927229     
  -3661684011.8140349       -168567132.55788779        1192044875.2662854     
  -3562591279.3476076       -101839462.04643488        1169891101.5329049     
  -3471144739.0927434       -60599098.906860828        1158044018.0925822     
  -3387344391.0494471       -44846043.139176965        1156503624.9453149     
  -1695050307.6286020       -62366342.175874949        1423724979.8543220     
  -1645037124.0078158       -40329881.382172823        1417113137.4189322     
  -1596518214.1034226       -23274332.976447880        1415963628.3994126     
  -1549493577.9154189       -11199696.958690882        1420276452.7957635     
  -1503963215.4438107       -4105973.3289152980        1430051610.6079848     
  -2121920853.8894272       -59125375.038386941        1361287323.0035381     
  -2059222801.2735109       -40269773.279760838        1353826360.2410955     
  -1997633750.6032681       -25110844.673376322        1351394699.9902079     
  -1937153701.8786962       -13648589.219232321        1353992342.2508755     
  -1877782655.0997982       -5883006.9173299074        1361619287.0230958     
  -2546260049.8798423       -55125002.819771290        1295937878.2351079     
  -2472114359.4239879       -39821429.442785263        1288077278.8781211     
  -2398692399.1430840       -26930289.982302308        1284812951.1283720     
  -2325994169.0371318       -16451584.438320994        1286144894.9858620     
  -2254019669.1061306       -8385312.8108487129        1292073110.4505916     
  -2968067895.5998483       -50365225.520034432        1227676645.5490334     
  -2883711798.4592433       -38984849.871243715        1219865893.3300090     
  -2799694159.7228656       -28732668.903210759        1216218381.8139071     
  -2716014979.3907213       -19608682.615957856        1216734111.0007272     
  -2632674257.4628086       -11612891.009468198        1221413080.8904712     
  -3387344391.0494471       -44846043.139176965        1156503624.9453149     
  -3294015118.3792772       -37760034.565131068        1149192203.5967588     
  -3200639032.3426170       -30517981.436118841        1145610992.0468106     
  -3107216132.9394674       -23119883.752139091        1145759990.2954686     
  -3013746420.1698294       -15565741.513197184        1149639198.3427339     
  -1503963215.4438107       -4105973.3289152980        1430051610.6079848     
  -1458632297.4261672        196811.48525601625        1425695926.2250190     
  -1413607834.5796616        3478079.0623006225        1424791193.3321083     
  -1368889826.9042916        5737829.4022280574        1427337411.9292514     
  -1324478274.4000604        6976062.5050243139        1433334582.0164506     
  -1877782655.0997982       -5883006.9173299074        1361619287.0230958     
  -1822955845.0427992       -1863903.6592381001        1356203032.5968060     
  -1768591378.9921567        614052.91099476814        1354705823.9929080     
  -1714689256.9478710        1550862.7933691740        1357127661.2114007     
  -1661249478.9099429        946525.98788821697        1363468544.2522857     
  -2254019669.1061306       -8385312.8108487129        1292073110.4505916     
  -2188359554.6316681       -4248667.3954037428        1285414415.6732202     
  -2123317672.9987855       -2172798.1185512543        1283142861.0505781     
  -2058894024.2074819       -2157704.9802938700        1285258446.5826626     
  -1995088608.2577550       -4203387.9806300402        1291761172.2694786     
  -2632674257.4628086       -11612891.009468198        1221413080.8904712     
  -2554843426.1927795       -6957479.7232378721        1213330075.4542618     
  -2477786716.5995507       -4882474.0263379812        1210102304.5051160     
  -2401504128.6831193       -5387873.9187642336        1211729768.0430377     
  -2325995662.4434881       -8473679.4005212784        1218212466.0680232     
  -3013746420.1698294       -15565741.513197184        1149639198.3427339     
  -2922407459.7261305       -9990340.6427531242        1139950011.9399300     
  -2831998509.7944498       -7514974.8123644590        1135584154.3565259     
  -2742519570.3747911       -8139644.0220499039        1136541625.5925264     
  -2653970641.4671493       -11864348.271794319        1142822425.6479266     
  -1324478274.4000604        6976062.5050243139        1433334582.0164506     
  -1267719469.0887675        11152725.278203130        1424002459.4069414     
  -1211159096.1921017        14667946.669288456        1420857345.1227071     
  -1154797155.7100580        17521726.678300560        1423899239.1637485     
  -1098633647.6426446        19714065.305212855        1433128141.5300708     
  -1661249478.9099429        946525.98788821697        1363468544.2522857     
  -1589151764.6170852        5006109.7441477776        1354683654.3496194     
  -1517207174.6572576        8555279.0569697022        1351537935.1114011     
  -1445415709.0304577        11594033.926362157        1354031386.5376301     
  -1373777367.7366917        14122374.352314293        1362164008.6283038     
  -1995088608.2577550       -4203387.9806300402        1291761172.2694786     
  -1909217235.4428427       -730458.37914109230        1283576374.5021846     
  -1823453678.8793695        2383083.7175604105        1280482909.7385075     
  -1737797938.5673306        5137238.3094818592        1282480777.9784486     
  -1652250014.5067279        7532005.3966107368        1289569979.2220054     
  -2325995662.4434881       -8473679.4005212784        1218212466.0680232     
  -2227915881.5660434       -6056979.0916604996        1210680619.8646305     
  -2129898608.8584378       -3848639.3489406109        1207692269.0040259     
  -2031943844.3206718       -1848660.1723456383        1209247413.4862058     
  -1934051587.9527452       -57041.561879754066        1215346053.3111732     
  -2653970641.4671493       -11864348.271794319        1142822425.6479266     
  -2545247702.9866819       -10973452.393416166        1135996390.4369638     
  -2436541964.5944591       -10139890.142516851        1133166012.9079554     
  -2327853426.2904816       -9363661.5191042423        1134331293.0609047     
  -2219182088.0747490       -8644766.5231760740        1139492230.8958123     
  -1098633647.6426446        19714065.305212855        1433128141.5300708     
  -1061154730.2424102        16867577.140987694        1430110450.3217783     
  -1023103830.7073159        15927696.092964470        1430257161.9144695     
  -984480949.03737342        16894422.161099076        1433568276.3081446     
  -945286085.23257089        19767755.345435321        1440043793.5028064     
  -1373777367.7366917        14122374.352314293        1362164008.6283038     
  -1328239480.2818244        9081811.4029191136        1358693009.5424855     
  -1282376227.1029363        5125800.8669227958        1358763140.3404412     
  -1236187608.2000408        2254342.7442847490        1362374401.0221665     
  -1189673623.5731266        467437.03504616022        1369526791.5876710     
  -1652250014.5067279        7532005.3966107368        1289569979.2220054     
  -1597576793.9035411        620276.59015411139        1285357953.1126792     
  -1542824823.9871774       -6028954.5057122111        1285063783.9699166     
  -1487994104.7576439       -12415687.891010523        1288687471.7937167     
  -1433084636.2149351       -18539923.565722227        1296229016.5840778     
  -1934051587.9527452       -57041.561879754066        1215346053.3111732     
  -1869166671.1075563       -8517027.2972877026        1210105281.0323634     
  -1804449621.3600349       -17536570.024928570        1209159092.8028996     
  -1739900438.7101789       -27115669.744785190        1212507488.6227899     
  -1675519123.1579926       -37254326.456863701        1220150468.4920328     
  -2219182088.0747490       -8644766.5231760740        1139492230.8958123     
  -2143009111.8938773       -18330100.259444475        1132934993.3015287     
  -2067250619.2215109       -29397045.690731287        1131049066.8393884     
  -1991906610.0576508       -41845602.817042828        1133834451.5093911     
  -1916977084.4022999       -55675771.638380051        1141291147.3115304     
  -945286085.23257089        19767755.345435321        1440043793.5028064     
  -863505933.59344578        41162121.853990018        1438976347.5536742     
  -778509557.29317272        73277237.233037412        1452899448.8909247     
  -690296956.33175850        116113101.48255914        1481813097.5145476     
  -598868130.70920253        169669714.60254741        1525717293.4245529     
  -1189673623.5731266        467437.03504616022        1369526791.5876710     
  -1075039428.1850851        21599159.046850085        1369118225.0308120     
  -959093742.81157351        47102514.343553722        1379052062.8013811     
  -841836567.45259559        76977502.925143123        1399328304.8993750     
  -723267902.10814691        111224124.79163402        1429946951.3247871     
  -1433084636.2149351       -18539923.565722227        1296229016.5840778     
  -1298876805.5321317       -1654968.5869135857        1294257138.9645424     
  -1165262219.5395362        13252504.091207266        1297979522.7134755     
  -1032240878.2371484        26182494.468639016        1307396167.8308737     
  -899812781.62496769        37135002.545364439        1322507074.3167431     
  -1675519123.1579926       -37254326.456863701        1220150468.4920328     
  -1535018065.6345856       -28600261.047298849        1214393089.3548620     
  -1397014987.4770586       -28272793.524000049        1209681828.6272018     
  -1261509888.6854212       -36271923.886994421        1206016686.3090611     
  -1128502769.2596674       -52597652.136272132        1203397662.4004276     
  -1916977084.4022999       -55675771.638380051        1141291147.3115304     
  -1783463208.4924493       -59236718.334306836        1129526076.2017701     
  -1654352046.6241577       -77473378.502103567        1114158980.5425651     
  -1529643598.7974200       -110385752.14173818        1095189860.3339229     
  -1409337865.0122511       -157973839.25327402        1072618715.5758322     
  -3768185519.0654683       -1130455655.7196405        800570082.62971234     
  -3779078374.0701199       -1008701015.4597682        884869121.25872135     
  -3790579097.0560789       -888972601.80425286        974081828.57813191     
  -3802687688.0233445       -771270414.75309467        1068208204.5879441     
  -3815404146.9719186       -655594454.30629385        1167248249.2881579     
  -4339668616.0804863       -1301900584.8241460        858742048.19519043     
  -4335192594.1989841       -1125730362.6532001        942353010.70304906     
  -4331852204.4940157       -953345581.07069516        1020315075.5303763     
  -4329647446.9655781       -784746240.07663095        1092628242.6771729     
  -4328578321.6136732       -619932339.67100704        1159292512.1434383     
  -4895122430.7439194       -1468536729.2231760        936377614.22527838     
  -4905456293.0360718       -1247004553.4590988        1018684775.7175571     
  -4917453551.6999807       -1031017032.2675462        1084780473.1583722     
  -4931114206.7356491       -820574165.64851832        1134664706.5477235     
  -4946438258.1430721       -615675953.60201406        1168337475.8856108     
  -5434546963.0557642       -1630364088.9167292        1033476780.7199761     
  -5489869470.5813770       -1372523587.8774631        1113864416.3022459     
  -5547383138.6739731       -1121986955.3948050        1167478021.4621191     
  -5607087967.3335533       -878754191.46875560        1194317596.1995964     
  -5668983956.5601139       -642825296.09931397        1194383140.5146766     
  -5957942213.0160208       -1787382663.9048061        1150039547.6792836     
  -6088432126.8349037       -1502287465.9082937        1227891932.4571152     
  -6221640965.4159946       -1226255350.4524729        1268407720.4416177     
  -6357568728.7592945       -959286317.53734434        1271586911.6327908     
  -6496215416.8647995       -701380367.16290617        1237429506.0306346     
  -3815404146.9719186       -655594454.30629385        1167248249.2881579     
  -3797875733.6757078       -537614332.75256956        1188879244.5006187     
  -3784202727.4969916       -432485568.25715196        1205632424.5721996     
  -3774385128.4357648       -340208160.82003963        1217507789.5029006     
  -3768422936.4920301       -260782110.44123423        1224505339.2927229     
  -4328578321.6136732       -619932339.67100704        1159292512.1434383     
  -4298144037.1450682       -464140897.18366575        1141317258.6227298     
  -4278331486.8647380       -343755235.32391453        1129421724.0062172     
  -4269140670.7726841       -258775354.09174848        1123605908.2939000     
  -4270571588.8689070       -209201253.48717022        1123869811.4857788     
  -4946438258.1430721       -615675953.60201406        1168337475.8856108     
  -4871790862.3732843       -412681018.14242077        1102861925.3824849     
  -4814531527.8625536       -267646286.87969589        1054423627.8286301     
  -4774660254.6108875       -180571759.81384110        1023022583.2240465     
  -4752177042.6182814       -151457436.94485474        1008658791.5687344     
  -5668983956.5601139       -642825296.09931397        1194383140.5146766     
  -5518816209.3603535       -383234695.62883115        1073513244.7798841     
  -5392802850.4904404       -204158722.92449903        980638136.03943896     
  -5290943879.9503727       -105597377.98631716        915757814.29334044     
  -5213239297.7401466       -87550660.814285994        878872279.54158807     
  -6496215416.8647995       -701380367.16290617        1237429506.0306346     
  -6239220078.1062832       -375801929.64289927        1053271216.8149279     
  -6013145454.7483969       -153292543.45832515        908065248.63864374     
  -5817991546.7911396       -33852208.609181643        801811601.50178170     
  -5653758354.2345142       -17480925.095469236        734510275.40434098     
  -3768422936.4920301       -260782110.44123423        1224505339.2927229     
  -3661684011.8140349       -168567132.55788779        1192044875.2662854     
  -3562591279.3476076       -101839462.04643488        1169891101.5329049     
  -3471144739.0927434       -60599098.906860828        1158044018.0925822     
  -3387344391.0494471       -44846043.139176965        1156503624.9453149     
  -4270571588.8689070       -209201253.48717022        1123869811.4857788     
  -4148228131.0897574       -145255699.97065067        1090537932.7981722     
  -4030270099.4634314       -95928233.630209446        1065426564.1338174     
  -3916697493.9899311       -61218854.465852976        1048535705.4927161     
  -3807510314.6692529       -41127562.477571011        1039865356.8748672     
  -4752177042.6182814       -151457436.94485474        1008658791.5687344     
  -4620189566.7945576       -117569462.31213450        978259725.28848946     
  -4489326751.0649185       -87430354.659687042        953994988.76169348     
  -4359588595.4293604       -61040113.987514257        935864581.98834693     
  -4230975099.8878851       -38398740.295616150        923868504.96844804     
  -5213239297.7401466       -87550660.814285994        878872279.54158807     
  -5077568318.9284363       -85508419.582340479        855210252.73723865     
  -4939761234.1520662       -76345825.134862661        835596375.41653299     
  -4799818043.4110346       -60062877.471849918        820030647.57947147     
  -4657738746.7053442       -36659576.593308449        808513069.22605574     
  -5653758354.2345142       -17480925.095469236        734510275.40434098     
  -5520364387.4913969       -49072571.781275749        721389515.14441788     
  -5381573548.7248755       -62674645.055733919        710230724.09833598     
  -5237385837.9349566       -58287144.918863297        701033902.26609290     
  -5087801255.1216316       -35910071.370647669        693799049.64769268     
  -3387344391.0494471       -44846043.139176965        1156503624.9453149     
  -3294015118.3792772       -37760034.565131068        1149192203.5967588     
  -3200639032.3426170       -30517981.436118841        1145610992.0468106     
  -3107216132.9394674       -23119883.752139091        1145759990.2954686     
  -3013746420.1698294       -15565741.513197184        1149639198.3427339     
  -3807510314.6692529       -41127562.477571011        1039865356.8748672     
  -3702310459.0536742       -29938468.430206060        1031382926.6341368     
  -3597806056.9529963       -21067552.765845299        1027354638.3666571     
  -3493997108.3672171       -14514815.484479189        1027780492.0724275     
  -3390883613.2963400       -10280256.586120129        1032660487.7514459     
  -4230975099.8878851       -38398740.295616150        923868504.96844804     
  -4111836283.6850600       -22486047.482378483        913349087.80725467     
  -3994135187.8785262       -11365755.990111589        908007744.79395425     
  -3877871812.4682817       -5037865.8188123703        907844475.92854643     
  -3763046157.4543324       -3502376.9684896469        912859281.21103060     
  -4657738746.7053442       -36659576.593308449        808513069.22605574     
  -4522592592.2734375       -15402771.721649647        795090687.11611104     
  -4389626425.1192093       -1412591.1089265347        787570311.32870162     
  -4258840245.2426643        5310965.2448570728        785951941.86382782     
  -4130234052.6438031        4767897.3396983147        790235578.72148871     
  -5087801255.1216316       -35910071.370647669        693799049.64769268     
  -4934579384.8188057       -8688641.1480157375        676607724.56070518     
  -4784279768.6750479        8791941.8777103424        666042337.97089767     
  -4636902406.6903629        16531677.706532478        662102889.87826920     
  -4492447298.8647518        14530566.338441372        664789380.28281808     
  -3013746420.1698294       -15565741.513197184        1149639198.3427339     
  -2922407459.7261305       -9990340.6427531242        1139950011.9399300     
  -2831998509.7944498       -7514974.8123644590        1135584154.3565259     
  -2742519570.3747911       -8139644.0220499039        1136541625.5925264     
  -2653970641.4671493       -11864348.271794319        1142822425.6479266     
  -3390883613.2963400       -10280256.586120129        1032660487.7514459     
  -3287326759.5018959       -7732894.6174845695        1023600774.9357333     
  -3184274587.0585728       -6867803.8192535639        1019314891.0093026     
  -3081727095.9663687       -7684984.1914182901        1019802835.9721552     
  -2979684286.2252879       -10184435.733989596        1025064609.8242867     
  -3763046157.4543324       -3502376.9684896469        912859281.21103060     
  -3648841410.1094823       -4454053.8417685032        904925259.33679318     
  -3534716014.9548569       -5670238.0157878399        901215566.42171609     
  -3420669971.9904518       -7150929.4905400276        901730202.46580172     
  -3306703281.2162695       -8896128.2660372257        906469167.46905184     
  -4130234052.6438031        4767897.3396983147        790235578.72148871     
  -4006951411.5488911       -153818.31559777260        783923465.14310420     
  -3883322793.4833059       -3922277.4019751549        781286180.59376526     
  -3759348198.4470406       -6537479.9194192886        782323725.07346749     
  -3635027626.4400959       -7999425.8679387569        787036098.58221352     
  -4492447298.8647518        14530566.338441372        664789380.28281808     
  -4361656763.8201180        5167811.9610259533        660595392.35467088     
  -4230094922.6439128       -1623921.9778032303        659526733.52545035     
  -4097761775.3361259       -5844635.4780352116        661583403.79515076     
  -3964657321.8967676       -7494328.5396971703        666765403.16377747     
  -2653970641.4671493       -11864348.271794319        1142822425.6479266     
  -2545247702.9866819       -10973452.393416166        1135996390.4369638     
  -2436541964.5944591       -10139890.142516851        1133166012.9079554     
  -2327853426.2904816       -9363661.5191042423        1134331293.0609047     
  -2219182088.0747490       -8644766.5231760740        1139492230.8958123     
  -2979684286.2252879       -10184435.733989596        1025064609.8242867     
  -2859678737.9288468       -8094300.9220259190        1017964101.8521208     
  -2739695476.5529866       -6078455.8453323841        1015270119.3794583     
  -2619734502.0977101       -4136900.5039175749        1016982662.4063009     
  -2499795814.5630159       -2269634.8977774382        1023101730.9326453     
  -3306703281.2162695       -8896128.2660372257        906469167.46905184     
  -3174241215.0537167       -5254582.1054428816        899088252.09795487     
  -3041806522.6440883       -1704281.7879240513        896524730.04390895     
  -2909399203.9873757        1754772.6865378618        898778601.30691350     
  -2777019259.0835838        5122581.3179326057        905849865.88696992     
  -3635027626.4400959       -7999425.8679387569        787036098.58221352     
  -3488935134.3613005       -2454295.9436812401        779368841.17445838     
  -3342875102.8677616        2982632.0297181606        776929844.90130234     
  -3196847531.9594793        8311358.0522637367        779719109.76274538     
  -3050852421.6364508        13531882.123950481        787736635.75878549     
  -3964657321.8967676       -7494328.5396971703        666765403.16377747     
  -3803760495.8515849        306557.56328177452        658805869.08163643     
  -3642901217.2240100        7982285.6075809002        656485463.95164311     
  -3482079486.0140190        15532855.593257189        659804187.77379596     
  -3321295302.2216244        22958267.520279646        668762040.54809320     
  -2219182088.0747490       -8644766.5231760740        1139492230.8958123     
  -2143009111.8938773       -18330100.259444475        1132934993.3015287     
  -2067250619.2215109       -29397045.690731287        1131049066.8393884     
  -1991906610.0576508       -41845602.817042828        1133834451.5093911     
  -1916977084.4022999       -55675771.638380051        1141291147.3115304     
  -2499795814.5630159       -2269634.8977774382        1023101730.9326453     
  -2412387636.5403442       -10887467.728646517        1016749848.0084149     
  -2325435817.0366859       -21026495.622894168        1014122770.5444916     
  -2238940356.0520539       -32686718.580561399        1015220498.5408747     
  -2152901253.5864406       -45868136.601629019        1020043031.9975605     
  -2777019259.0835838        5122581.3179326057        905849865.88696992     
  -2681080181.1386337       -3239041.1833803654        899654483.45386124     
  -2585639336.7232237       -13261442.116472006        896237400.80921996     
  -2490696725.8373456       -24944621.481339693        895598617.95305169     
  -2396252348.4809971       -38288579.277989388        897738134.88535166     
  -3050852421.6364508        13531882.123950481        787736635.75878549     
  -2949086745.6887646        4615179.3763326406        781648899.63786197     
  -2847861178.2811260       -6101885.1714578867        777392957.63357663     
  -2747175719.4135337       -18619311.519400239        774968809.74592304     
  -2647030369.0859857       -32937099.667492628        774376455.97490335     
  -3321295302.2216244        22958267.520279646        668762040.54809320     
  -3216407330.1907263        12675193.950483084        662733096.56043053     
  -3112101341.7103896        452175.21215033531        657589441.01755691     
  -3008377336.7806101       -13710788.694705963        653331073.91949189     
  -2905235315.4013896       -29813697.770103693        649957995.26622045     
  -1916977084.4022999       -55675771.638380051        1141291147.3115304     
  -1783463208.4924493       -59236718.334306836        1129526076.2017701     
  -1654352046.6241577       -77473378.502103567        1114158980.5425651     
  -1529643598.7974200       -110385752.14173818        1095189860.3339229     
  -1409337865.0122511       -157973839.25327402        1072618715.5758322     
  -2152901253.5864406       -45868136.601629019        1020043031.9975605     
  -2022483043.8783793       -49532073.501801848        1004339666.7969711     
  -1894111498.3228450       -60018224.243727446        989880811.42234683     
  -1767786616.9198356       -77326588.827400804        976666465.87369168     
  -1643508399.6693535       -101457167.25281513        964696630.15099800     
  -2396252348.4809971       -38288579.277989388        897738134.88535166     
  -2255082563.9021387       -37901334.060642123        880845200.46447563     
  -2113603393.5867696       -36482803.054925799        870043310.24497330     
  -1971814837.5348840       -34032986.260829926        865332464.22684884     
  -1829716895.7464962       -30551883.678375006        866712662.41009879     
  -2647030369.0859857       -32937099.667492628        774376455.97490335     
  -2481261768.5637274       -24344500.010832906        759042677.20428407     
  -2312827732.4159269       -6867114.9356856346        754646477.01044774     
  -2141728260.6425710        19495055.557947636        761187855.39339614     
  -1967963353.2436895        54742011.470049858        778666812.35312271     
  -2905235315.4013896       -29813697.770103693        649957995.26622045     
  -2701020657.8631439       -8861571.3523687124        638932097.01639593     
  -2491784514.8103175        28828840.113966942        643690311.71876276     
  -2277526886.2429075        83257536.628922820        664232639.37332118     
  -2058247772.1609125        154424518.19247270        700559079.98007524     
  -5957942213.0160208       -1787382663.9048061        1150039547.6792836     
  -6088432126.8349037       -1502287465.9082937        1227891932.4571152     
  -6221640965.4159946       -1226255350.4524729        1268407720.4416177     
  -6357568728.7592945       -959286317.53734434        1271586911.6327908     
  -6496215416.8647995       -701380367.16290617        1237429506.0306346     
  -6810635790.5844364       -2043190737.1753309        1353759866.9855306     
  -6828543485.8916769       -1395487852.7919734        1202741930.9159296     
  -6897816846.7277708       -919003853.50479460        1091983601.3285735     
  -7018455873.0927181       -613738739.31379485        1021484878.2234615     
  -7190460564.9865198       -479692510.21897459        991245761.60059428     
  -8337955305.7207584       -2501386591.7162275        1712331690.5210464     
  -8021577344.5861444       -1424564989.5669615        1275688902.7095921     
  -7805211789.7470303       -681118075.06936169        956901924.65595663     
  -7688858641.2034178       -271045848.22342873        755970756.36013961     
  -7672517898.9553022       -194348309.02916145        672895397.82214034     
  -10539900758.424988       -3161970227.5274963        2225755018.2858305     
  -9667533702.9183064       -1589518876.2332582        1446732847.8381033     
  -8943825794.4737740       -512598015.14617395        863162690.42376792     
  -8368777033.0913858        68792355.733757019        475044546.04282421     
  -7942387418.7711468        154652236.40653324        282378414.69527340     
  -13416472148.697119       -4024941644.6091356        2894029850.2798839     
  -11766412560.888165       -1890349512.7908626        1715873766.3014624     
  -10313658860.908001       -413443673.73523092        810765898.63200700     
  -9058211048.7566319        405775872.55775976        178706247.27151698     
  -8000069124.4340515        567309126.08810949       -180305187.78000751     
  -6496215416.8647995       -701380367.16290617        1237429506.0306346     
  -6239220078.1062832       -375801929.64289927        1053271216.8149279     
  -6013145454.7483969       -153292543.45832515        908065248.63864374     
  -5817991546.7911396       -33852208.609181643        801811601.50178170     
  -5653758354.2345142       -17480925.095469236        734510275.40434098     
  -7190460564.9865198       -479692510.21897459        991245761.60059428     
  -6900508940.8023453       -304390095.97555804        846907254.41244662     
  -6623365745.3803921       -171782444.27287936        723646497.26844215     
  -6359030978.7206593       -81869555.110938549        621463490.16858172     
  -6107504640.8231516       -34651428.489737034        540358233.11286557     
  -7672517898.9553022       -194348309.02916145        672895397.82214034     
  -7400680192.1891203       -184642978.91543150        589507673.73969543     
  -7123538627.5467567       -157258122.54774570        509323128.70611411     
  -6841093205.0282049       -112193739.92610621        432341762.72139913     
  -6553343924.6334639       -49449831.050505638        358563575.78554845     
  -7942387418.7711468        154652236.40653324        282378414.69527340     
  -7739733832.2666159       -16560578.462520599        281072474.79667342     
  -7513664101.2474909       -109719578.28292656        265095142.95165932     
  -7264178225.7137699       -124824763.05467749        234446419.16023183     
  -6991276205.6654539       -61876132.777780056        189126303.42238835     
  -8000069124.4340515        567309126.08810949       -180305187.78000751     
  -7917669861.0348244        199857105.38317728       -78398342.416619480     
  -7793742166.4825907       -29166811.478410244       -9037459.9949243758     
  -7628286040.7773590       -119762624.49665928        27777459.485080421     
  -7421301483.9191179       -71930333.671554565        32046416.023391053     
  -5653758354.2345142       -17480925.095469236        734510275.40434098     
  -5520364387.4913969       -49072571.781275749        721389515.14441788     
  -5381573548.7248755       -62674645.055733919        710230724.09833598     
  -5237385837.9349566       -58287144.918863297        701033902.26609290     
  -5087801255.1216316       -35910071.370647669        693799049.64769268     
  -6107504640.8231516       -34651428.489737034        540358233.11286557     
  -5959318690.3588448       -36377594.490059853        534005083.83542812     
  -5810154317.5443420       -34842352.656387806        530176380.35610455     
  -5660011522.3796377       -30045702.988718510        528872122.67489964     
  -5508890304.8647346       -21987645.487046957        530092310.79181069     
  -6553343924.6334639       -49449831.050505638        358563575.78554845     
  -6388758914.4928999       -20828393.578829288        353823179.53852737     
  -6227613931.6753368       -3673713.8504972458        352169705.67389560     
  -6069908976.1807795        2014208.1344873905        353603154.19165742     
  -5915644048.0092230       -3764627.6238653660        358123525.09180707     
  -6991276205.6654539       -61876132.777780056        189126303.42238835     
  -6808685059.8935585       -2424969.0475816727        180843802.25371605     
  -6633952391.1178665        30831271.361928940        176210700.05170351     
  -6467078199.3383818        37892588.450757980        175226996.81636119     
  -6308062484.5551004        18758982.218901157        177892692.54768416     
  -7421301483.9191179       -71930333.671554565        32046416.023391053     
  -7219097126.5608177        18832679.103691101        15066951.980990630     
  -7029169695.8719254        68672602.980901241        2299363.4895325415     
  -6851519191.8524418        77589437.960089207       -6256349.4509806484     
  -6686145614.5023623        45583184.041252613       -10600186.840552785     
  -5087801255.1216316       -35910071.370647669        693799049.64769268     
  -4934579384.8188057       -8688641.1480157375        676607724.56070518     
  -4784279768.6750479        8791941.8777103424        666042337.97089767     
  -4636902406.6903629        16531677.706532478        662102889.87826920     
  -4492447298.8647518        14530566.338441372        664789380.28281808     
  -5508890304.8647346       -21987645.487046957        530092310.79181069     
  -5344574284.5093012       -9825541.3299083710        515077607.45427740     
  -5181140682.6777067       -604832.25222706795        505446156.29053015     
  -5018589499.3699512        5674481.7459812164        501197957.30056781     
  -4856920734.5860357        9012400.6647284031        502333010.48439211     
  -5915644048.0092230       -3764627.6238653660        358123525.09180707     
  -5743784409.9537354       -7727009.2379827499        347665251.74483567     
  -5570767354.7868538       -7831333.8141198158        341347544.24825191     
  -5396592882.5085821       -4077601.3522861004        339170402.60206509     
  -5221260993.1189108        3534188.1475365162        341133826.80626720     
  -6308062484.5551004        18758982.218901157        177892692.54768416     
  -6132209761.1521063       -2393044.8722376823        174370657.43237799     
  -5953159785.0024881       -12887562.807951450        173746501.84406403     
  -5770912556.1062498       -12724571.588264227        176020225.78275415     
  -5585468074.4633760       -1904071.2131335735        181191829.24843866     
  -6686145614.5023623        45583184.041252613       -10600186.840552785     
  -6509850338.1044168        6176351.7673273087       -4806175.4830938019     
  -6328317973.3246164       -15773519.233741760        2643029.0779653923     
  -6141548520.1629562       -20266428.961947680        11747426.842639452     
  -5949541978.6194315       -7302377.4172739983        22507017.810917087     
  -4492447298.8647518        14530566.338441372        664789380.28281808     
  -4361656763.8201180        5167811.9610259533        660595392.35467088     
  -4230094922.6439128       -1623921.9778032303        659526733.52545035     
  -4097761775.3361259       -5844635.4780352116        661583403.79515076     
  -3964657321.8967676       -7494328.5396971703        666765403.16377747     
  -4856920734.5860357        9012400.6647284031        502333010.48439211     
  -4716266749.9183331        4692968.8340828419        498716338.24450558     
  -4575622379.7253809        341488.75427246094        498397762.18187970     
  -4434987624.0071831       -4042039.5747165680        501377282.29651129     
  -4294362482.7637339       -8457616.1528730392        507654898.58840829     
  -5221260993.1189108        3534188.1475365162        341133826.80626720     
  -5070249938.6043205        4406164.9308106899        337183396.21392173     
  -4920029419.1708088        2643024.7771639824        336703828.87717670     
  -4770599434.8183775       -1755232.3134374619        339695124.79602617     
  -4621959985.5470238       -8788606.3409445286        346157283.97047400     
  -5585468074.4633760       -1904071.2131335735        181191829.24843866     
  -5423606329.8780785        4307400.2512061596        175996566.26292980     
  -5263316040.9801950        5280686.0908479691        174444933.61134163     
  -5104597207.7697086        1015786.3058133125        176536931.29369476     
  -4947449830.2466373       -8487299.1039135456        182272559.30997646     
  -5949541978.6194315       -7302377.4172739983        22507017.810917087     
  -5776335923.7396116        4396674.7952706814        15155848.391514122     
  -5605482245.1535254        8254472.6953825951        11621076.384381633     
  -5436980942.8611822        4271016.2830071449        11902701.789517857     
  -5270832016.8625641       -7553694.4417839050        16000724.606919114     
  -3964657321.8967676       -7494328.5396971703        666765403.16377747     
  -3803760495.8515849        306557.56328177452        658805869.08163643     
  -3642901217.2240100        7982285.6075809002        656485463.95164311     
  -3482079486.0140190        15532855.593257189        659804187.77379596     
  -3321295302.2216244        22958267.520279646        668762040.54809320     
  -4294362482.7637339       -8457616.1528730392        507654898.58840829     
  -4120105799.1347990       -2385571.8946051598        500268647.91980356     
  -3945576979.1932421        4593593.4057238102        497919045.32764268     
  -3770776022.9390635        12479879.748149157        500606090.81192690     
  -3595702930.3722596        21273287.132637739        508329784.37265623     
  -4621959985.5470238       -8788606.3409445286        346157283.97047400     
  -4436064818.2649078       -4961816.1065583229        339705614.40065914     
  -4249587830.9399509        804374.27063035965        337688112.03158927     
  -4062529023.5721550        8509964.7906169891        340104776.86326033     
  -3874888396.1615195        18154955.453401566        346955608.89567399     
  -4947449830.2466373       -8487299.1039135456        182272559.30997646     
  -4751637553.2419071       -7422175.0725603104        177116768.52420825     
  -4554933772.4641390       -3385371.7977201939        175792664.06347981     
  -4357338487.9132996        3623110.7206707001        178300245.92779210     
  -4158851699.5894103        13603272.482581139        184639514.11714867     
  -5270832016.8625641       -7553694.4417839050        16000724.606919114     
  -5066824004.0658207       -9766648.7926728725        12502110.290449983     
  -4861614803.7657928       -7975644.7993021011        12232701.423315318     
  -4655204415.9624901       -2180682.4616839886        15192498.005518883     
  -4447592840.6559219        7618238.2201776505        21381500.037065405     
  -3321295302.2216244        22958267.520279646        668762040.54809320     
  -3216407330.1907263        12675193.950483084        662733096.56043053     
  -3112101341.7103896        452175.21215033531        657589441.01755691     
  -3008377336.7806101       -13710788.694705963        653331073.91949189     
  -2905235315.4013896       -29813697.770103693        649957995.26622045     
  -3595702930.3722596        21273287.132637739        508329784.37265623     
  -3486160733.2071462        10241267.387540102        501057668.51740324     
  -3377000227.4155922       -2063056.9360775948        496653271.13027751     
  -3268221412.9975858       -15639685.838197112        495116592.21128005     
  -3159824289.9531374       -30488619.318835258        496447631.76041049     
  -3874888396.1615195        18154955.453401566        346955608.89567399     
  -3755027888.0812535        8073215.2672877312        338673995.37934053     
  -3635348779.1975317       -2613188.9073166847        335242530.35446244     
  -3515851069.5103579       -13904257.070407152        336661213.82104039     
  -3396534759.0197392       -25799989.222018003        342930045.77907878     
  -4158851699.5894103        13603272.482581139        184639514.11714867     
  -4023008794.8130431        6171037.5897421837        175582077.14623764     
  -3887146997.0562253       -1198220.7016034126        173357218.69011393     
  -3751266306.3189402       -8504502.3913834095        177964938.74877521     
  -3615366722.6011992       -15747807.479647160        189405237.32223472     
  -4447592840.6559219        7618238.2201776505        21381500.037065405     
  -4290103453.4025149        4534734.3548789024        11781913.818090880     
  -4132394880.9916515        2181847.6811199188        10997336.137232775     
  -3974467123.4233074        559578.19894552231        19027766.994489487     
  -3816320180.6975255       -332074.09174990654        35873206.389863260     
  -2905235315.4013896       -29813697.770103693        649957995.26622045     
  -2701020657.8631439       -8861571.3523687124        638932097.01639593     
  -2491784514.8103175        28828840.113966942        643690311.71876276     
  -2277526886.2429075        83257536.628922820        664232639.37332118     
  -2058247772.1609125        154424518.19247270        700559079.98007524     
  -3159824289.9531374       -30488619.318835258        496447631.76041049     
  -2923995905.5725617       -5189154.6925766468        491442544.92672026     
  -2686520542.1001539        25600240.239810228        493968364.66374022     
  -2447398199.5359039        61879565.478313923        504025090.97146648     
  -2206628877.8798265        103648821.02293277        521612723.84990430     
  -3396534759.0197392       -25799989.222018003        342930045.77907878     
  -3152673237.4582129       -3227363.2856260538        340008846.20165616     
  -2910539243.2276073        13586838.214368463        336365346.81345868     
  -2670132776.3279128        24642615.278004885        331999547.61448765     
  -2431453836.7591171        29939967.905286431        326911448.60473907     
  -3615366722.6011992       -15747807.479647160        189405237.32223472     
  -3387052653.5201197       -2976197.1315934658        184631000.84120157     
  -3163840618.1926856       -7211365.9623808861        170881258.16792092     
  -2945730616.6189103       -28453313.972012520        148156009.30238044     
  -2732722648.7987795       -66702041.160471320        116455254.24457799     
  -3816320180.6975255       -332074.09174990654        35873206.389863260     
  -3627134153.7582545       -4435656.2304019928        25309008.845364038     
  -3446424666.9953804       -36794372.290398359       -2483901.2728746268     
  -3274191720.4089022       -97408222.271704316       -47505523.964850657     
  -3110435313.9988265       -186277206.17435098       -109755859.23056646     
 </DataArray>
 <DataArray  type="Float64" Name="VM" NumberOfComponents="1" format="ascii">
   12935537548.041115     
   11340741340.084883     
   10210331873.336531     
   9272964931.5361767     
   8304208017.5365076     
   10130273327.342773     
   9322036499.2978725     
   8826438336.9929638     
   8443644887.2142963     
   8035851391.2021570     
   7982348985.0271931     
   7734994418.5239658     
   7669201564.9441271     
   7669664305.8924198     
   7666452992.1379251     
   6491677734.1448011     
   6586901257.5341625     
   6757454570.6426201     
   6961256358.1085844     
   7171646890.4384613     
   5657812174.6093502     
   5890916941.4783545     
   6116387025.9387684     
   6331763608.9529133     
   6536823085.1277895     
   8304208017.5365076     
   8020710080.6729183     
   7779320551.3216877     
   7569359919.0704727     
   7385859358.6230354     
   8035851391.2021570     
   7746871911.6482697     
   7473571732.3658457     
   7213992163.4300203     
   6968139553.0270319     
   7666452992.1379251     
   7381148832.0145340     
   7101247076.8810244     
   6826824742.6904774     
   6558084505.6570206     
   7171646890.4384613     
   6910977038.9146509     
   6658212315.9267960     
   6409494540.2822208     
   6161678366.3116665     
   6536823085.1277895     
   6328705734.7732267     
   6142772416.0512123     
   5965117237.1335793     
   5786731445.1074057     
   7385859358.6230354     
   7228488223.2604818     
   7063600506.3909225     
   6890505960.9657040     
   6709020290.1086817     
   6968139553.0270319     
   6814605453.1906414     
   6656445685.5035000     
   6493377737.4523926     
   6325350593.4560156     
   6558084505.6570206     
   6407706713.0568972     
   6255687578.5053034     
   6101994846.7555256     
   5946657231.1928310     
   6161678366.3116665     
   6012788697.9667759     
   5865227742.8579893     
   5719034016.7797298     
   5574263636.3382463     
   5786731445.1074057     
   5636309990.4483976     
   5490093369.5982218     
   5347995896.2358541     
   5210064136.2931414     
   6709020290.1086817     
   6513386944.9387665     
   6321261006.3862267     
   6132536767.4533854     
   5947205467.9001465     
   6325350593.4560156     
   6139000749.6916628     
   5954961988.9588442     
   5773215626.8292055     
   5593794370.0206585     
   5946657231.1928310     
   5771842157.5175695     
   5598474588.0993137     
   5426582209.6037083     
   5256229498.8867731     
   5574263636.3382463     
   5413732695.4939299     
   5254155207.2247200     
   5095574969.2693596     
   4938098219.6560078     
   5210064136.2931414     
   5067082939.6935463     
   4924987712.0770264     
   4783819141.7730217     
   4643756894.0498886     
   5947205467.9001465     
   5778683633.0220366     
   5608690108.5934372     
   5437197425.1470385     
   5264226093.5743542     
   5593794370.0206585     
   5434063231.4491806     
   5273699660.6813536     
   5112728066.1222153     
   4951213692.5973454     
   5256229498.8867731     
   5105461341.7056484     
   4954956799.4053831     
   4804786105.5197134     
   4655056317.5053034     
   4938098219.6560078     
   4796347326.1062641     
   4655795419.7944717     
   4516548810.7840080     
   4378749933.1465483     
   4643756894.0498886     
   4510916578.8679657     
   4380226395.2555008     
   4251814716.7697468     
   4125849038.5695724     
   5264226093.5743542     
   5060748980.3421364     
   4858560616.3111906     
   4657678522.3823442     
   4458162150.9592419     
   4951213692.5973454     
   4756891461.7868109     
   4563867502.3664112     
   4372199137.7841835     
   4181992460.2120094     
   4655056317.5053034     
   4471743945.6128445     
   4289958433.0371666     
   4109822643.5900874     
   3931525134.5447512     
   4378749933.1465483     
   4208562693.0370307     
   4040397029.4654388     
   3874473127.7898345     
   3711104516.6360307     
   4125849038.5695724     
   3971143326.8360600     
   3819258923.8988271     
   3670544630.9404631     
   3525478437.9788084     
   4458162150.9592419     
   4298874211.8105774     
   4137703606.7365785     
   3974612504.9418044     
   3809793153.6961312     
   4181992460.2120094     
   4040866227.2118435     
   3899250088.6761894     
   3757239167.1306324     
   3615088995.5380034     
   3931525134.5447512     
   3805144319.0780792     
   3679358319.2175775     
   3554312398.6527100     
   3430245324.4976792     
   3711104516.6360307     
   3595858459.9028463     
   3481852857.5502162     
   3369214117.0830665     
   3258109519.9119039     
   3525478437.9788084     
   3417622771.9524093     
   3311098795.7776790     
   3205963658.7882185     
   3102287631.4464760     
   3809793153.6961312     
   3607789199.4605017     
   3411744458.4463658     
   3222249427.7007246     
   3041191231.1403394     
   3615088995.5380034     
   3393815846.0709496     
   3175753054.6358514     
   2961290201.6014595     
   2751390244.0401182     
   3430245324.4976792     
   3203874801.5062780     
   2979713272.6242051     
   2758029500.3594170     
   2539259949.8825021     
   3258109519.9119039     
   3042386848.0166984     
   2830075113.0096283     
   2621906306.0670443     
   2419007400.8532796     
   3102287631.4464760     
   2913999012.2791653     
   2732860462.4115658     
   2560884856.2576666     
   2401337441.3669343     
   5657812174.6093502     
   5890916941.4783545     
   6116387025.9387684     
   6331763608.9529133     
   6536823085.1277895     
   5151411477.4880600     
   5311314208.6876116     
   5467851153.1089506     
   5618126826.9316492     
   5760675141.2579165     
   4643411257.8689747     
   4755513177.0635653     
   4868739692.0602331     
   4980455550.6791792     
   5088735022.9042110     
   4134075288.7197948     
   4224351631.5992556     
   4320548263.1453180     
   4421007662.8800812     
   4524274609.0736217     
   3624923493.8630276     
   3719654126.8208046     
   3825635572.9582944     
   3942803184.1437898     
   4071063336.4837337     
   6536823085.1277895     
   6328705734.7732267     
   6142772416.0512123     
   5965117237.1335793     
   5786731445.1074057     
   5760675141.2579165     
   5652118539.1583443     
   5559559752.9661865     
   5473938845.5114737     
   5389714341.2676029     
   5088735022.9042110     
   5054022383.2658291     
   5029820583.2299757     
   5010923849.1285324     
   4994130194.5597763     
   4524274609.0736217     
   4539013428.2362261     
   4558424066.9276667     
   4580026497.2000513     
   4602096797.4052954     
   4071063336.4837337     
   4112420523.4310107     
   4151134932.0666838     
   4186307789.4040203     
   4217206331.7953548     
   5786731445.1074057     
   5636309990.4483976     
   5490093369.5982218     
   5347995896.2358541     
   5210064136.2931414     
   5389714341.2676029     
   5248803164.2508059     
   5111119653.0166445     
   4976705395.5205984     
   4845653995.2774143     
   4994130194.5597763     
   4867115084.0896063     
   4743290200.1433277     
   4622623629.6839314     
   4505156508.0802364     
   4602096797.4052954     
   4493916851.5137758     
   4389947046.6463747     
   4289870966.4522109     
   4193599705.6681972     
   4217206331.7953548     
   4133175910.8854041     
   4055612937.4807301     
   3983668014.6071033     
   3917046934.1034079     
   5210064136.2931414     
   5067082939.6935463     
   4924987712.0770264     
   4783819141.7730217     
   4643756894.0498886     
   4845653995.2774143     
   4719640446.1803665     
   4595417310.4797392     
   4473115281.4047689     
   4352977586.3103285     
   4505156508.0802364     
   4394818831.5340767     
   4287111853.7042122     
   4182225128.1427536     
   4080433325.3409691     
   4193599705.6681972     
   4097520484.6326504     
   4004790296.1687369     
   3915625120.5959086     
   3830300363.9242272     
   3917046934.1034079     
   3833641697.7150378     
   3754114760.1054811     
   3678677501.5238848     
   3607580557.7934456     
   4643756894.0498886     
   4510916578.8679657     
   4380226395.2555008     
   4251814716.7697468     
   4125849038.5695724     
   4352977586.3103285     
   4230620721.8558021     
   4110787991.1922336     
   3993660214.7878103     
   3879466949.7809434     
   4080433325.3409691     
   3969950670.2469420     
   3862559002.8247533     
   3758494308.1942368     
   3658053583.4919682     
   3830300363.9242272     
   3733117460.8993850     
   3639797337.4222317     
   3550627773.1050973     
   3465970870.9716492     
   3607580557.7934456     
   3525055617.1112556     
   3447367114.7241344     
   3374840422.0152164     
   3307887411.3017259     
   4125849038.5695724     
   3971143326.8360600     
   3819258923.8988271     
   3670544630.9404631     
   3525478437.9788084     
   3879466949.7809434     
   3740525188.6415048     
   3605209573.8566232     
   3473931760.5438313     
   3347226974.1148214     
   3658053583.4919682     
   3534664539.2950530     
   3415691312.0841413     
   3301586161.4967408     
   3192912001.6989927     
   3465970870.9716492     
   3357829679.8148270     
   3254833958.7413979     
   3157447295.3458748     
   3066224249.6443324     
   3307887411.3017259     
   3214516109.1219015     
   3126904298.2016783     
   3045493348.6762633     
   2970791537.3948188     
   3525478437.9788084     
   3417622771.9524093     
   3311098795.7776790     
   3205963658.7882185     
   3102287631.4464760     
   3347226974.1148214     
   3245611641.8192697     
   3146049324.9618115     
   3048687763.4395642     
   2953702561.2668948     
   3192912001.6989927     
   3100349128.0064130     
   3010888394.1389351     
   2924784158.8272810     
   2842337722.4299345     
   3066224249.6443324     
   2985348702.9933805     
   2908924149.5708895     
   2837307714.3635402     
   2770920212.4426656     
   2970791537.3948188     
   2903807689.8407497     
   2842856998.2551737     
   2788368793.2557459     
   2740845033.5548053     
   3102287631.4464760     
   2913999012.2791653     
   2732860462.4115658     
   2560884856.2576666     
   2401337441.3669343     
   2953702561.2668948     
   2798891614.4839988     
   2652191543.2104535     
   2515278588.0988026     
   2390473431.8258276     
   2842337722.4299345     
   2713154551.3656373     
   2591715561.9459782     
   2479169129.6114249     
   2376916543.7728057     
   2770920212.4426656     
   2659176196.5760283     
   2553472756.2643204     
   2454440418.5339360     
   2362808328.3782768     
   2740845033.5548053     
   2638466033.7593360     
   2539261015.5516429     
   2443490086.5170856     
   2351568602.1647358     
   3624923493.8630276     
   3719654126.8208046     
   3825635572.9582944     
   3942803184.1437898     
   4071063336.4837337     
   3137914707.0932064     
   3255477368.7920966     
   3382455883.4376817     
   3518380791.8273129     
   3662794004.8825498     
   2694698293.3200650     
   2830485133.5032992     
   2973582084.8253684     
   3122906861.5366073     
   3277548545.6452775     
   2298764777.5740013     
   2449470744.6624951     
   2604896322.7679644     
   2763119121.2677231     
   2922709673.0334601     
   1955325753.3142855     
   2119390145.9340007     
   2284808131.2603240     
   2448619745.1919241     
   2608867353.0157218     
   4071063336.4837337     
   4112420523.4310107     
   4151134932.0666838     
   4186307789.4040203     
   4217206331.7953548     
   3662794004.8825498     
   3702119351.3157268     
   3740069471.5526619     
   3775744705.2650199     
   3808394936.9105592     
   3277548545.6452775     
   3320707524.1052480     
   3364112714.4435978     
   3406940241.3793249     
   3448511341.6101217     
   2922709673.0334601     
   2975569603.7454104     
   3030654299.6414070     
   3087280754.8066778     
   3144915599.2490292     
   2608867353.0157218     
   2676757356.9628043     
   2749154105.5210485     
   2825548645.7567825     
   2905588060.6823535     
   4217206331.7953548     
   4133175910.8854041     
   4055612937.4807301     
   3983668014.6071033     
   3917046934.1034079     
   3808394936.9105592     
   3755760462.7487259     
   3709095389.6526189     
   3667927131.3023186     
   3632160477.4782500     
   3448511341.6101217     
   3422687283.9262094     
   3401955431.9462047     
   3386087818.2976975     
   3375069007.4838719     
   3144915599.2490292     
   3141581472.5744305     
   3141869719.3725576     
   3145681563.1234183     
   3153003544.3909879     
   2905588060.6823535     
   2920752949.8471632     
   2937293071.6122718     
   2955156132.4339719     
   2974304689.2514710     
   3917046934.1034079     
   3833641697.7150378     
   3754114760.1054811     
   3678677501.5238848     
   3607580557.7934456     
   3632160477.4782500     
   3560364558.6864505     
   3493120328.4151402     
   3430660007.9706316     
   3373260134.6966748     
   3375069007.4838719     
   3316044756.6330686     
   3262429809.0123968     
   3214458949.3468242     
   3172417611.2294636     
   3153003544.3909879     
   3107633664.8730340     
   3068699857.4173551     
   3036409982.7770886     
   3011030149.2886090     
   2974304689.2514710     
   2942910448.6229897     
   2919113348.2545624     
   2903055859.2313175     
   2894949029.2676849     
   3607580557.7934456     
   3525055617.1112556     
   3447367114.7241344     
   3374840422.0152164     
   3307887411.3017259     
   3373260134.6966748     
   3305795390.5353832     
   3243681292.4215856     
   3187225725.7712927     
   3136799846.0493135     
   3172417611.2294636     
   3118967441.6667304     
   3071252859.3742561     
   3029539590.3254938     
   2994133751.4092035     
   3011030149.2886090     
   2970229542.3399134     
   2935372260.1881685     
   2906663161.0600123     
   2884328178.8946762     
   2894949029.2676849     
   2865037215.7312865     
   2841062041.7280765     
   2823159821.0905180     
   2811474814.5855885     
   3307887411.3017259     
   3214516109.1219015     
   3126904298.2016783     
   3045493348.6762633     
   2970791537.3948188     
   3136799846.0493135     
   3056946475.3977895     
   2983829853.5061450     
   2917903271.6961889     
   2859678569.1892600     
   2994133751.4092035     
   2928259588.3328452     
   2870131751.9932270     
   2820178489.0335531     
   2778873103.0473475     
   2884328178.8946762     
   2832306347.5464897     
   2789023794.0932345     
   2754844928.5928054     
   2730164439.8737631     
   2811474814.5855885     
   2772406063.2487955     
   2743017207.6389222     
   2723579197.2236161     
   2714381788.1020718     
   2970791537.3948188     
   2903807689.8407497     
   2842856998.2551737     
   2788368793.2557459     
   2740845033.5548053     
   2859678569.1892600     
   2807174801.4736218     
   2760764434.6125669     
   2720789531.4781380     
   2687633712.1038952     
   2778873103.0473475     
   2739186608.2195392     
   2705431813.6974807     
   2677856207.1340647     
   2656726425.4654822     
   2730164439.8737631     
   2701416910.9907079     
   2678220631.8626099     
   2660734679.8815007     
   2649123803.0240393     
   2714381788.1020718     
   2694551387.5973382     
   2679697028.3322253     
   2669905746.7531104     
   2665264105.9437099     
   2740845033.5548053     
   2638466033.7593360     
   2539261015.5516429     
   2443490086.5170856     
   2351568602.1647358     
   2687633712.1038952     
   2593030031.0911479     
   2506336940.7366033     
   2428228957.2442708     
   2359436240.1882744     
   2656726425.4654822     
   2577700389.0387540     
   2511669311.1649427     
   2459583959.3351798     
   2422390479.9126320     
   2649123803.0240393     
   2591432259.1704006     
   2551853690.6394444     
   2531421058.9009953     
   2531157990.3679714     
   2665264105.9437099     
   2632263946.9254313     
   2622503477.9448566     
   2636962183.1101680     
   2676684729.8244944     
   1955325753.3142855     
   2119390145.9340007     
   2284808131.2603240     
   2448619745.1919241     
   2608867353.0157218     
   1653872009.7708664     
   1820326040.7676549     
   1988473364.8124237     
   2155617466.5276780     
   2320000469.3852420     
   1393733076.1322758     
   1571112521.0270159     
   1749492206.5859327     
   1926867918.0654871     
   2101989021.2453718     
   1207215702.7930002     
   1399167546.5284708     
   1590690501.4865413     
   1781007092.6791499     
   1969658299.9054661     
   1136987005.7169545     
   1335331585.8367832     
   1533974703.0329955     
   1732916357.6500776     
   1932156550.5971975     
   2608867353.0157218     
   2676757356.9628043     
   2749154105.5210485     
   2825548645.7567825     
   2905588060.6823535     
   2320000469.3852420     
   2407013753.0290747     
   2496471450.5983438     
   2587984597.9514189     
   2681278220.2536244     
   2101989021.2453718     
   2205709377.0262766     
   2309346908.3291211     
   2412666348.2070446     
   2515501395.5041633     
   1969658299.9054661     
   2086775296.6754789     
   2201052163.6849704     
   2312414503.9944377     
   2420810457.1614060     
   1932156550.5971975     
   2058761453.7429829     
   2179959526.1791868     
   2295750769.0203629     
   2406135186.4563961     
   2905588060.6823535     
   2920752949.8471632     
   2937293071.6122718     
   2955156132.4339719     
   2974304689.2514710     
   2681278220.2536244     
   2703244940.9800339     
   2727583656.1919956     
   2754277981.2526250     
   2783320793.2303128     
   2515501395.5041633     
   2544157954.3789148     
   2576208109.9956417     
   2611653289.3877306     
   2650499221.2473593     
   2420810457.1614060     
   2454604936.7909360     
   2492814505.3611522     
   2535442071.3860674     
   2582491727.5113821     
   2406135186.4563961     
   2441990524.2067742     
   2483273682.6019788     
   2529984690.3213305     
   2582123614.0270891     
   2974304689.2514710     
   2942910448.6229897     
   2919113348.2545624     
   2903055859.2313175     
   2894949029.2676849     
   2783320793.2303128     
   2766702431.8404450     
   2757459337.1072240     
   2755680734.7709222     
   2761489693.3679347     
   2650499221.2473593     
   2645449064.1223197     
   2647255388.9229546     
   2655957367.6731482     
   2671605737.3022952     
   2582491727.5113821     
   2585335137.3496399     
   2594229771.0536447     
   2609184148.8014455     
   2630208114.0300136     
   2582123614.0270891     
   2589082628.5369821     
   2601052259.5285745     
   2618033250.4205542     
   2640027215.3916335     
   2894949029.2676849     
   2865037215.7312865     
   2841062041.7280765     
   2823159821.0905180     
   2811474814.5855885     
   2761489693.3679347     
   2739424551.1283951     
   2723995659.2832518     
   2715300172.4207244     
   2713439602.3253222     
   2671605737.3022952     
   2655905978.4535294     
   2647515550.7523136     
   2646486723.9450560     
   2652873709.8023434     
   2630208114.0300136     
   2618627223.5433130     
   2614990340.3625574     
   2619312134.5899539     
   2631608154.0673757     
   2640027215.3916335     
   2629678062.0468950     
   2627865838.6435723     
   2634589040.5564260     
   2649846699.9241338     
   2811474814.5855885     
   2772406063.2487955     
   2743017207.6389222     
   2723579197.2236161     
   2714381788.1020718     
   2713439602.3253222     
   2686274534.4063201     
   2668525634.8160849     
   2660345414.8877258     
   2661892852.3877683     
   2652873709.8023434     
   2634580728.4733911     
   2625303480.0447235     
   2625106868.3516469     
   2634057064.9200602     
   2631608154.0673757     
   2618907998.6027212     
   2614723630.5376563     
   2619069760.2404652     
   2631961041.5933084     
   2649846699.9241338     
   2639453236.4762187     
   2637011235.3842120     
   2642521049.9410186     
   2655983161.7544370     
   2714381788.1020718     
   2694551387.5973382     
   2679697028.3322253     
   2669905746.7531104     
   2665264105.9437099     
   2661892852.3877683     
   2647400429.7905459     
   2638557270.6078677     
   2635418349.5394893     
   2638037408.1963334     
   2634057064.9200602     
   2623366263.9487510     
   2618980701.3110394     
   2620926633.2949276     
   2629229713.4458208     
   2631961041.5933084     
   2623073711.1866059     
   2621140148.8416452     
   2626168544.8589711     
   2638168004.4286857     
   2655983161.7544370     
   2646535904.5976529     
   2644692933.5452175     
   2650462164.3688722     
   2663854181.0222840     
   2665264105.9437099     
   2632263946.9254313     
   2622503477.9448566     
   2636962183.1101680     
   2676684729.8244944     
   2638037408.1963334     
   2622637220.3084002     
   2624503711.2122412     
   2643956457.8775067     
   2681337077.8601160     
   2629229713.4458208     
   2621948876.7050381     
   2626190412.4154677     
   2642001973.0264797     
   2669431064.2663593     
   2638168004.4286857     
   2631284686.8026094     
   2630254140.0877695     
   2635119145.8847857     
   2645940296.7615743     
   2663854181.0222840     
   2651722529.5222826     
   2639754499.3490243     
   2628183636.9711175     
   2617341664.9172168     
   1136987005.7169545     
   1335331585.8367832     
   1533974703.0329955     
   1732916357.6500776     
   1932156550.5971975     
   1207200923.4610336     
   1399183373.9341538     
   1590739789.1847894     
   1781094006.9223535     
   1969787967.9078114     
   1393726555.6583474     
   1571142119.7836814     
   1749566922.9276643     
   1926997543.3029926     
   2102183880.7258582     
   1653893165.3973963     
   1820365825.3633263     
   1988546905.0177953     
   2155739937.1205764     
   2320186583.2200098     
   1955388842.9130507     
   2119437025.0405860     
   2284857821.1863670     
   2448690945.3675771     
   2608977283.1205058     
   1932156550.5971975     
   2058761453.7429829     
   2179959526.1791868     
   2295750769.0203629     
   2406135186.4563961     
   1969787967.9078114     
   2086860884.3759894     
   2201087600.7926979     
   2312392908.5364833     
   2420724628.9491024     
   2102183880.7258582     
   2205854229.7708373     
   2309430789.8535624     
   2412677869.6065040     
   2515428936.4613523     
   2320186583.2200098     
   2407181227.5277691     
   2496606320.1526179     
   2588073749.6995363     
   2681308674.1807327     
   2608977283.1205058     
   2676909994.7307267     
   2749335027.9456325     
   2825746259.8590398     
   2905791568.7727885     
   2406135186.4563961     
   2441990524.2067742     
   2483273682.6019788     
   2529984690.3213305     
   2582123614.0270891     
   2420724628.9491024     
   2454761484.2650857     
   2493249032.4293861     
   2536191037.1812620     
   2583591888.4459319     
   2515428936.4613523     
   2544424326.1350679     
   2576875679.9800944     
   2612785302.6481214     
   2652159569.3095822     
   2681308674.1807327     
   2703553427.8292203     
   2728248759.4716115     
   2755378298.7771902     
   2784935767.2526646     
   2905791568.7727885     
   2921028869.7854557     
   2937724377.5447750     
   2955823739.1497188     
   2975289813.3326268     
   2582123614.0270891     
   2589082628.5369821     
   2601052259.5285745     
   2618033250.4205542     
   2640027215.3916335     
   2583591888.4459319     
   2585645217.6742554     
   2593722092.3182015     
   2607831368.1500096     
   2627986596.9472432     
   2652159569.3095822     
   2646082484.5896630     
   2646855593.3988333     
   2654517265.0188427     
   2669119074.0233784     
   2784935767.2526646     
   2767562508.5501409     
   2757628487.7275548     
   2755221792.7722282     
   2760459098.6318069     
   2975289813.3326268     
   2943816981.2934513     
   2920122120.1983256     
   2904351481.7940602     
   2896703265.1934261     
   2640027215.3916335     
   2629678062.0468950     
   2627865838.6435723     
   2634589040.5564260     
   2649846699.9241338     
   2627986596.9472432     
   2617005732.1427331     
   2613907848.7737041     
   2618707726.6135383     
   2631420194.3332362     
   2669119074.0233784     
   2654378712.9680429     
   2646785792.8092585     
   2646392923.1451926     
   2653253974.1167803     
   2760459098.6318069     
   2739543700.7651505     
   2724966226.1195402     
   2716822926.8352470     
   2715214590.6722770     
   2896703265.1934261     
   2868051937.3927388     
   2844873579.0226107     
   2827299594.9605718     
   2815470667.5878224     
   2649846699.9241338     
   2639453236.4762187     
   2637011235.3842120     
   2642521049.9410186     
   2655983161.7544370     
   2631420194.3332362     
   2618268145.5162549     
   2613729968.5494256     
   2617820873.5792813     
   2630556533.3193769     
   2653253974.1167803     
   2634290349.6244721     
   2624551799.9546585     
   2624102587.9792323     
   2633008667.2439837     
   2715214590.6722770     
   2687331668.9375787     
   2669198866.4423175     
   2660967461.5714798     
   2662794810.1982775     
   2815470667.5878224     
   2775738564.0127325     
   2746159774.5846424     
   2727006536.7993464     
   2718567983.6479859     
   2655983161.7544370     
   2646535904.5976529     
   2644692933.5452175     
   2650462164.3688722     
   2663854181.0222840     
   2630556533.3193769     
   2620246058.4983883     
   2616986289.5624747     
   2620790953.8035250     
   2631674493.5918217     
   2633008667.2439837     
   2620379200.3686323     
   2614290953.6345196     
   2614774827.3649936     
   2621861292.4137297     
   2662794810.1982775     
   2646675969.4547124     
   2636627818.7063503     
   2632704185.8269944     
   2634958690.9207978     
   2718567983.6479859     
   2698125402.2569103     
   2683318369.9331632     
   2674224075.4640579     
   2670921397.7142601     
   2663854181.0222840     
   2651722529.5222826     
   2639754499.3490243     
   2628183636.9711175     
   2617341664.9172168     
   2631674493.5918217     
   2616936851.4984770     
   2608592396.5036192     
   2606717938.6523018     
   2611412140.0224671     
   2621861292.4137297     
   2605506472.5181432     
   2601980677.0045009     
   2611326385.5148187     
   2633587274.0365429     
   2634958690.9207978     
   2615556077.3137951     
   2615825235.5947833     
   2635998032.7769761     
   2676309049.5325389     
   2670921397.7142601     
   2644775858.2805400     
   2645986420.8974953     
   2675342002.1928811     
   2733583803.9501672     
   1955388842.9130507     
   2119437025.0405860     
   2284857821.1863670     
   2448690945.3675771     
   2608977283.1205058     
   2298859823.2144628     
   2449526350.2292385     
   2604921192.1905499     
   2763121128.1652851     
   2922695493.7833939     
   2694793841.4422207     
   2830537034.2943721     
   2973590291.5424614     
   3122870188.8528543     
   3277464765.7277718     
   3137980580.3345633     
   3255514961.9999843     
   3382458047.4130507     
   3518339057.2056618     
   3662698789.7321839     
   3624930735.2582669     
   3719668128.7178020     
   3825643402.3364873     
   3942790572.6840835     
   4071014679.4078827     
   2608977283.1205058     
   2676909994.7307267     
   2749335027.9456325     
   2825746259.8590398     
   2905791568.7727885     
   2922695493.7833939     
   2975629146.4149723     
   3030785969.0719314     
   3087485568.5305142     
   3145196002.5415554     
   3277464765.7277718     
   3320695948.9398489     
   3364181365.1138382     
   3407098912.8693800     
   3448771092.7729306     
   3662698789.7321839     
   3702063038.2490726     
   3740066941.6733131     
   3775811084.4802117     
   3808545513.7988625     
   4071014679.4078827     
   4112347067.6487937     
   4151056445.3020997     
   4186242195.5943608     
   4217169836.3785415     
   2905791568.7727885     
   2921028869.7854557     
   2937724377.5447750     
   2955823739.1497188     
   2975289813.3326268     
   3145196002.5415554     
   3141697527.8807735     
   3141844190.9269404     
   3145535484.9272957     
   3152759756.3351851     
   3448771092.7729306     
   3422670473.5003872     
   3401640899.5704703     
   3385452391.2118821     
   3374089709.5148520     
   3808545513.7988625     
   3755656250.8315749     
   3708686607.2382092     
   3667162093.0483332     
   3630984180.3553920     
   4217169836.3785415     
   4133039808.6994758     
   4055311466.2959080     
   3983135404.5117874     
   3916210681.5142236     
   2975289813.3326268     
   2943816981.2934513     
   2920122120.1983256     
   2904351481.7940602     
   2896703265.1934261     
   3152759756.3351851     
   3107673278.4570336     
   3069171189.5442829     
   3037465575.4725175     
   3012818705.0658550     
   3374089709.5148520     
   3315406649.8487086     
   3262221013.7419658     
   3214772046.7001843     
   3173347300.6321549     
   3630984180.3553920     
   3559369449.3108077     
   3492310370.7593303     
   3430042285.9807200     
   3372845295.6577563     
   3916210681.5142236     
   3832689324.4843445     
   3752947928.6647053     
   3677198120.3252153     
   3605691256.7122273     
   2896703265.1934261     
   2868051937.3927388     
   2844873579.0226107     
   2827299594.9605718     
   2815470667.5878224     
   3012818705.0658550     
   2972815781.3622880     
   2938483530.7130613     
   2910018447.9336233     
   2887639616.7788143     
   3173347300.6321549     
   3120337904.7299900     
   3072984856.2059093     
   3031546568.3796396     
   2996322891.5360894     
   3372845295.6577563     
   3305451207.2569318     
   3243515975.6549640     
   3187346733.5844712     
   3137314571.5513701     
   3605691256.7122273     
   3522758494.5203166     
   3444944665.9897943     
   3372586146.3839121     
   3306106862.4936209     
   2815470667.5878224     
   2775738564.0127325     
   2746159774.5846424     
   2727006536.7993464     
   2718567983.6479859     
   2887639616.7788143     
   2835293154.2153206     
   2791941135.5781121     
   2757956159.8201580     
   2733740487.8725786     
   2996322891.5360894     
   2930259597.6286373     
   2871975607.0126638     
   2821908288.0744157     
   2780540197.7854090     
   3137314571.5513701     
   3057350832.3979945     
   2983931556.5680990     
   2917512767.9975801     
   2858608632.6550679     
   3306106862.4936209     
   3212777541.1589994     
   3124792622.4283185     
   3042583518.6813164     
   2966645781.6550946     
   2718567983.6479859     
   2698125402.2569103     
   2683318369.9331632     
   2674224075.4640579     
   2670921397.7142601     
   2733740487.8725786     
   2704534248.1237631     
   2681380256.7881613     
   2664421832.4010162     
   2653806802.5505419     
   2780540197.7854090     
   2740379196.3044906     
   2706512507.2208028     
   2679170083.1759858     
   2658596436.8452115     
   2858608632.6550679     
   2805530469.2908845     
   2758785828.0948467     
   2718700693.4165711     
   2685634632.2225251     
   2966645781.6550946     
   2898994234.4715333     
   2837504929.1330528     
   2782594500.6598024     
   2734740975.6828690     
   2670921397.7142601     
   2644775858.2805400     
   2645986420.8974953     
   2675342002.1928811     
   2733583803.9501672     
   2653806802.5505419     
   2608227441.3382001     
   2583139360.7170372     
   2579491409.9039383     
   2598110266.0138588     
   2658596436.8452115     
   2590412847.3741403     
   2535292258.4256783     
   2494210819.8349452     
   2468102810.9013600     
   2685634632.2225251     
   2595659501.1259832     
   2510566288.5753198     
   2431130231.8090949     
   2358267630.8589506     
   2734740975.6828690     
   2627944247.4229612     
   2517690465.0955744     
   2404467962.9786053     
   2289122793.8481932     
   3624930735.2582669     
   3719668128.7178020     
   3825643402.3364873     
   3942790572.6840835     
   4071014679.4078827     
   4134025330.9524617     
   4224333478.4674892     
   4320554098.9072962     
   4421030259.0633497     
   4524307470.9707985     
   4643335628.9121246     
   4755475946.9332342     
   4868738359.3290796     
   4980489568.7216682     
   5088805616.5102024     
   5151341603.5875835     
   5311270495.3027201     
   5467836655.2908688     
   5618147017.5662184     
   5760736969.3139286     
   5657778933.5085659     
   5890878874.6249828     
   6116352867.5549641     
   6331743954.6398125     
   6536828478.2981091     
   4071014679.4078827     
   4112347067.6487937     
   4151056445.3020997     
   4186242195.5943608     
   4217169836.3785415     
   4524307470.9707985     
   4538980035.3547859     
   4558329674.1483564     
   4579874351.2724171     
   4601889610.8146782     
   5088805616.5102024     
   5054015185.5285149     
   5029730056.5671759     
   5010742811.2081432     
   4993851331.2109814     
   5760736969.3139286     
   5652122733.5011168     
   5559493599.8730106     
   5473788931.7678604     
   5389467135.0190945     
   6536828478.2981091     
   6328706352.5701075     
   6142751337.1659012     
   5965058698.7841959     
   5786620103.1814919     
   4217169836.3785415     
   4133039808.6994758     
   4055311466.2959080     
   3983135404.5117874     
   3916210681.5142236     
   4601889610.8146782     
   4493791385.2040491     
   4389881991.5378351     
   4289845294.5038829     
   4193589457.2124043     
   4993851331.2109814     
   4867007014.4599142     
   4743365327.5350256     
   4622894805.1594629     
   4505636435.4536734     
   5389467135.0190945     
   5248713233.7452917     
   5111223287.6175795     
   4977039351.3598604     
   4846256656.0292511     
   5786620103.1814919     
   5636234656.9320040     
   5490105354.5282898     
   5348147448.9501505     
   5210410655.8435612     
   3916210681.5142236     
   3832689324.4843445     
   3752947928.6647053     
   3677198120.3252153     
   3605691256.7122273     
   4193589457.2124043     
   4097366198.7147508     
   4004401073.2195053     
   3914908679.5824108     
   3829164563.9601235     
   4505636435.4536734     
   4395209206.4929819     
   4287339840.4300909     
   4182215173.0388293     
   4080108484.5212598     
   4846256656.0292511     
   4720267804.0542126     
   4596022452.7430258     
   4473648215.7334270     
   4353385510.6166840     
   5210410655.8435612     
   5067609737.0336542     
   4925678684.2786913     
   4784656070.4023638     
   4644718122.1624060     
   3605691256.7122273     
   3522758494.5203166     
   3444944665.9897943     
   3372586146.3839121     
   3306106862.4936209     
   3829164563.9601235     
   3731545538.9609060     
   3637965280.2694130     
   3548719684.8653903     
   3464180729.7153440     
   4080108484.5212598     
   3969191418.1079707     
   3861447302.2866611     
   3757116620.1499085     
   3656502144.0296264     
   4353385510.6166840     
   4230679767.2788744     
   4110499254.5151896     
   3993025943.4283338     
   3878490577.9421263     
   4644718122.1624060     
   4511737522.3801394     
   4380840431.2747545     
   4252153995.7824450     
   4125842908.9194326     
   3306106862.4936209     
   3212777541.1589994     
   3124792622.4283185     
   3042583518.6813164     
   2966645781.6550946     
   3464180729.7153440     
   3356103937.5447545     
   3252942572.4720092     
   3155146526.1299801     
   3063253515.0462842     
   3656502144.0296264     
   3533303644.7598839     
   3414480268.6585426     
   3300472854.6298609     
   3191830141.4265361     
   3878490577.9421263     
   3739834072.2259469     
   3604948455.5975580     
   3474242224.7351036     
   3348246467.5910096     
   4125842908.9194326     
   3971377040.1130109     
   3820051199.4515457     
   3672224142.5265083     
   3528386140.0509109     
   2966645781.6550946     
   2898994234.4715333     
   2837504929.1330528     
   2782594500.6598024     
   2734740975.6828690     
   3063253515.0462842     
   2982416572.7845325     
   2905947877.6911197     
   2834211831.9148049     
   2767634637.4188161     
   3191830141.4265361     
   3099621246.0162621     
   3010173047.3325438     
   2923756758.1153436     
   2840694195.3281817     
   3348246467.5910096     
   3247101708.4040937     
   3147378692.4366322     
   3049245900.1883512     
   2952904639.6748552     
   3528386140.0509109     
   3421089129.6208539     
   3314189765.1516275     
   3207771724.5230646     
   3101935117.5705113     
   2734740975.6828690     
   2627944247.4229612     
   2517690465.0955744     
   2404467962.9786053     
   2289122793.8481932     
   2767634637.4188161     
   2649303268.6351638     
   2533213652.4852600     
   2419914083.6248789     
   2310105295.1452451     
   2840694195.3281817     
   2707217768.3175292     
   2581175354.1869054     
   2463433796.8243752     
   2355094171.3569107     
   2952904639.6748552     
   2797371069.2572474     
   2653641034.3201351     
   2523361639.6887517     
   2408852991.3563337     
   3101935117.5705113     
   2914851369.8231192     
   2743112844.8987522     
   2589844939.5178280     
   2459760926.9172082     
   5657778933.5085659     
   5890878874.6249828     
   6116352867.5549641     
   6331743954.6398125     
   6536828478.2981091     
   6491683728.5294409     
   6586881466.6980419     
   6757411459.0985622     
   6961191987.9084167     
   7171563458.7313623     
   7982369536.1993599     
   7734983955.2494154     
   7669156796.2509327     
   7669579857.9444866     
   7666324148.1550131     
   10130284671.333641     
   9322025458.3751583     
   8826400098.9862576     
   8443569817.7191191     
   8035729954.8987617     
   12935516572.877087     
   11340719638.868113     
   10210308603.983809     
   9272931182.9178314     
   8304154848.3945179     
   6536828478.2981091     
   6328706352.5701075     
   6142751337.1659012     
   5965058698.7841959     
   5786620103.1814919     
   7171563458.7313623     
   6910932360.1507902     
   6658205299.2687654     
   6409525503.8150902     
   6161748206.4053106     
   7666324148.1550131     
   7381072726.3881435     
   7101234296.4514685     
   6826886116.1356449     
   6558231746.7494717     
   8035729954.8987617     
   7746778994.2625961     
   7473527738.6342182     
   7214015009.7546368     
   6968248329.4485312     
   8304154848.3945179     
   8020615959.5755758     
   7779215518.2299013     
   7569268274.4936886     
   7385807600.6924610     
   5786620103.1814919     
   5636234656.9320040     
   5490105354.5282898     
   5348147448.9501505     
   5210410655.8435612     
   6161748206.4053106     
   6012778159.2681828     
   5865145242.9040823     
   5718888993.4192781     
   5574066907.9603033     
   6558231746.7494717     
   6407743692.7109156     
   6255587966.8818645     
   6101731776.1560688     
   5946204323.4188108     
   6968248329.4485312     
   6814675393.3851023     
   6656422365.9352531     
   6493204456.8566847     
   6324972290.1080313     
   7385807600.6924610     
   7228578973.1626902     
   7063757483.1524162     
   6890650064.1230688     
   6709078468.9815750     
   5210410655.8435612     
   5067609737.0336542     
   4925678684.2786913     
   4784656070.4023638     
   4644718122.1624060     
   5574066907.9603033     
   5413683802.5026712     
   5254285191.0853176     
   5095914916.3463240     
   4938678782.9683104     
   5946204323.4188108     
   5771425314.5401659     
   5598163819.5112715     
   5426447815.8315830     
   5256343656.0828543     
   6324972290.1080313     
   6138447931.4260473     
   5954336179.2159624     
   5772617310.6010523     
   5593327591.3648682     
   6709078468.9815750     
   6512946030.4418650     
   6320447633.4315939     
   6131474186.7654219     
   5946021945.5225019     
   4644718122.1624060     
   4511737522.3801394     
   4380840431.2747545     
   4252153995.7824450     
   4125842908.9194326     
   4938678782.9683104     
   4797028385.5016251     
   4656509829.2700424     
   4517227324.9528065     
   4379319705.5389318     
   5256343656.0828543     
   5105964369.2179737     
   4955785370.2402325     
   4805874204.7080259     
   4656333896.5864697     
   5593327591.3648682     
   5434317822.1803770     
   5274619479.8565664     
   5114254073.6322689     
   4953282873.8297272     
   5946021945.5225019     
   5778595141.0719490     
   5609650148.2210941     
   5439156779.4726048     
   5267132144.0929976     
   4125842908.9194326     
   3971377040.1130109     
   3820051199.4515457     
   3672224142.5265083     
   3528386140.0509109     
   4379319705.5389318     
   4209068167.5039158     
   4040976775.8963199     
   3875278798.7921786     
   3712306836.2078600     
   4656333896.5864697     
   4472458436.5835896     
   4290048417.2122407     
   4109233534.8035340     
   3930212805.3028407     
   4953282873.8297272     
   4757831238.0051279     
   4563411242.7172747     
   4370076873.2443066     
   4177927925.6114955     
   5267132144.0929976     
   5061994062.9508238     
   4857678099.1777487     
   4654188846.9564886     
   4451560899.4155493     
   3528386140.0509109     
   3421089129.6208539     
   3314189765.1516275     
   3207771724.5230646     
   3101935117.5705113     
   3712306836.2078600     
   3597540911.1055427     
   3483842887.3299942     
   3371323652.1652493     
   3260132079.0171351     
   3930212805.3028407     
   3804565019.9446554     
   3680139995.2366776     
   3557040777.5178003     
   3435445603.9053125     
   4177927925.6114955     
   4037567483.1251607     
   3898129516.6104918     
   3759678594.3060918     
   3622404376.2385201     
   4451560899.4155493     
   4292421126.2069373     
   4133530124.8811793     
   3974883573.2893591     
   3816659952.3175540     
   3101935117.5705113     
   2914851369.8231192     
   2743112844.8987522     
   2589844939.5178280     
   2459760926.9172082     
   3260132079.0171351     
   3042885676.6150784     
   2831755251.1788688     
   2628146655.3146238     
   2434113404.3972516     
   3435445603.9053125     
   3205620405.2705650     
   2974961050.8317103     
   2743480718.9599972     
   2511229797.8263760     
   3622404376.2385201     
   3400635208.0883298     
   3174070739.8795700     
   2942817233.1844883     
   2707513534.1630278     
   3816659952.3175540     
   3625183410.8061881     
   3428178275.4306731     
   3227639526.5456924     
   3027580368.1718636     
 </DataArray>
 <DataArray  type="Float64" Name="strain" NumberOfComponents="3" format="ascii">
  0.20348393575321419        0.0000000000000000       0.12540661178978793     
  0.18665581914927745       -2.7325429647984179E-002   7.4353247086509283E-002
  0.16982770254534071       -4.4676833110683600E-002   3.5132708398403260E-002
  0.15299958594140400       -5.2054210388098224E-002   7.7449957254698450E-003
  0.13617146933746727       -4.9457561480228132E-002  -7.8098909322909527E-003
  0.15985504071467352        0.0000000000000000        9.6449068694321113E-002
  0.15317831983457025       -2.1845167231591779E-002   6.2691150633229747E-002
  0.14650159895446702       -3.6175382025753003E-002   3.7403198004632668E-002
  0.13982487807436375       -4.2990644382483657E-002   2.0585210808529916E-002
  0.13314815719426046       -4.2290954301783742E-002   1.2237189044921493E-002
  0.12645853329830162        0.0000000000000000        7.4201324889173803E-002
  0.12657034755935354       -1.6364904815199383E-002   5.5279779722415476E-002
  0.12668216182040543       -2.7673930940822405E-002   4.1465339405473194E-002
  0.12679397608145737       -3.3927078376869049E-002   3.2758003938346943E-002
  0.12690579034250926       -3.5124347123339360E-002   2.9157773321036650E-002
  0.10329441350409847        0.0000000000000000        5.8663380374345993E-002
  0.10683190232362726       -1.0884642398806987E-002   5.2119134354066544E-002
  0.11036939114315603       -1.9172479855891808E-002   4.7319132600924824E-002
  0.11390687996268480       -2.4863512371254469E-002   4.4263375114920789E-002
  0.11744436878221359       -2.7957739944894970E-002   4.2951861896054495E-002
   9.0362681332064085E-002   0.0000000000000000        4.9835235149837676E-002
   9.3962984127391430E-002  -5.4043799824145897E-003   5.3209214528182877E-002
   9.7563286922718775E-002  -1.0671028770961218E-002   5.4964577590987523E-002
  0.10116358971804611       -1.5799946365639889E-002   5.5101324338251580E-002
  0.10476389251337347       -2.0791132766450594E-002   5.3619454769975046E-002
  0.13617146933746727       -4.9457561480228132E-002  -7.8098909322909527E-003
  0.13296130945433560       -4.2922627584777939E-002  -3.3947961655982628E-003
  0.12975114957120396       -3.8485149899452412E-002  -3.9150170599789105E-004
  0.12654098968807234       -3.6145128424251501E-002   1.1999924465100412E-003
  0.12333082980494067       -3.5902563159175227E-002   1.3796862919255026E-003
  0.13314815719426046       -4.2290954301783742E-002   1.2237189044921493E-002
  0.12891382630290726       -3.8424995253778724E-002   1.2180923045468171E-002
  0.12467949541155403       -3.5741450708594052E-002   1.1488115336663995E-002
  0.12044516452020085       -3.4240320666229743E-002   1.0158765918509206E-002
  0.11621083362884760       -3.3921605126685739E-002   8.1928747910036681E-003
  0.12690579034250926       -3.5124347123339360E-002   2.9157773321036650E-002
  0.12242254704067612       -3.3927362922779508E-002   2.5545188262741492E-002
  0.11793930373884302       -3.2997751517735686E-002   2.2071320092837229E-002
  0.11345606043700991       -3.2335512908207971E-002   1.8736168811323867E-002
  0.10897281713517679       -3.1940647094196251E-002   1.5539734418201653E-002
  0.11744436878221359       -2.7957739944894970E-002   4.2951861896054495E-002
  0.11348747166764223       -2.9429730591780286E-002   3.6697999486221801E-002
  0.10953057455307093       -3.0254052326877352E-002   3.1358112562521787E-002
  0.10557367743849957       -3.0430705150186182E-002   2.6932201124954324E-002
  0.10161678032392825       -2.9959689061706790E-002   2.3420265173519458E-002
  0.10476389251337347       -2.0791132766450594E-002   5.3619454769975046E-002
  0.10210860018380558       -2.4932098260781063E-002   4.5639356715909143E-002
   9.9453307854237713E-002  -2.7510353136018999E-002   3.9348492745717542E-002
   9.6798015524669864E-002  -2.8525897392164410E-002   3.4746862859400166E-002
   9.4142723195101988E-002  -2.7978731029217302E-002   3.1834467056957208E-002
  0.12333082980494067       -3.5902563159175227E-002   1.3796862919255026E-003
  0.12041277665291564       -3.6401230401715140E-002   6.4714977361526871E-004
  0.11749472350089064       -3.6284906449362581E-002   1.0107380829016410E-004
  0.11457667034886565       -3.5553591302117583E-002  -2.5854160404926996E-004
  0.11165861719684061       -3.4207284959980433E-002  -4.3169646340335266E-004
  0.11621083362884760       -3.3921605126685739E-002   8.1928747910036681E-003
  0.11346613841835541       -3.3997366645510826E-002   7.8334411341502153E-003
  0.11072144320786326       -3.3679667778253757E-002   7.6342628073769944E-003
  0.10797674799737107       -3.2968508524914508E-002   7.5953398106839848E-003
  0.10523205278687892       -3.1863888885493047E-002   7.7166721440712072E-003
  0.10897281713517679       -3.1940647094196251E-002   1.5539734418201653E-002
  0.10637527464331223       -3.1593502889306610E-002   1.5331872813994944E-002
  0.10377773215144767       -3.1074429107144932E-002   1.5258061316963237E-002
  0.10118018965958310       -3.0383425747711208E-002   1.5318299927106468E-002
   9.8582647167718529E-002  -2.9520492811005522E-002   1.5512588644424757E-002
  0.10161678032392825       -2.9959689061706790E-002   2.3420265173519458E-002
   9.9140185327786082E-002  -2.9189639133102373E-002   2.3142444813149310E-002
   9.6663590331643900E-002  -2.8469190436036081E-002   2.2972469337048908E-002
   9.4186995335501705E-002  -2.7798342970508018E-002   2.2910338745218410E-002
   9.1710400339359566E-002  -2.7177096736518122E-002   2.2956053037657596E-002
   9.4142723195101988E-002  -2.7978731029217302E-002   3.1834467056957208E-002
   9.1760870471776973E-002  -2.6785775376898094E-002   3.1265157131613375E-002
   8.9379017748451944E-002  -2.5863951764927284E-002   3.0777486867634221E-002
   8.6997165025126957E-002  -2.5213260193304790E-002   3.0371456265019491E-002
   8.4615312301801915E-002  -2.4833700662030667E-002   3.0047065323769412E-002
  0.11165861719684061       -3.4207284959980433E-002  -4.3169646340335266E-004
  0.10852945128740099       -3.2681076834345651E-002  -1.8400645834185103E-004
  0.10540028537796142       -3.1410056336608344E-002   1.2964727193492953E-004
  0.10227111946852183       -3.0394223466768323E-002   5.0926472742718332E-004
   9.9141953559082230E-002  -2.9633578224825652E-002   9.5484590813466053E-004
  0.10523205278687892       -3.1863888885493047E-002   7.7166721440712072E-003
  0.10219673201374485       -3.0639781049853820E-002   7.5645665402519491E-003
   9.9161411240610758E-002  -2.9570157207861485E-002   7.5341874838283779E-003
   9.6126090467476735E-002  -2.8655017359515880E-002   7.6255349748008613E-003
   9.3090769694342601E-002  -2.7894361504817111E-002   7.8386090131687125E-003
   9.8582647167718529E-002  -2.9520492811005522E-002   1.5512588644424757E-002
   9.5696934353070334E-002  -2.8598485265362031E-002   1.5061391065975656E-002
   9.2811221538422140E-002  -2.7730258079114625E-002   1.4787682857102621E-002
   8.9925508723773973E-002  -2.6915811252263545E-002   1.4691464017805481E-002
   8.7039795909125736E-002  -2.6155144784808543E-002   1.4772734548084324E-002
   9.1710400339359566E-002  -2.7177096736518122E-002   2.2956053037657596E-002
   8.9030058305377538E-002  -2.6557189480870109E-002   2.2306467118828971E-002
   8.6349716271395524E-002  -2.5890358950367766E-002   2.1890133391756755E-002
   8.3669374237413482E-002  -2.5176605145011084E-002   2.1707051856440895E-002
   8.0989032203431482E-002  -2.4415928064800099E-002   2.1757222512881366E-002
   8.4615312301801915E-002  -2.4833700662030667E-002   3.0047065323769412E-002
   8.2196103870666407E-002  -2.4515893696378341E-002   2.9299794698812026E-002
   7.9776895439530898E-002  -2.4050459821621011E-002   2.8841539087791301E-002
   7.7357687008395390E-002  -2.3437399037758766E-002   2.8672298490707175E-002
   7.4938478577259882E-002  -2.2676711344791572E-002   2.8792072907559779E-002
   9.9141953559082230E-002  -2.9633578224825652E-002   9.5484590813466053E-004
   9.6298750398031430E-002  -2.8942857859881405E-002   6.3556597241348767E-004
   9.3455547236980657E-002  -2.8136799621036726E-002   4.8781769027347877E-004
   9.0612344075929871E-002  -2.7215403508291314E-002   5.1160106171448116E-004
   8.7769140914879085E-002  -2.6178669521645492E-002   7.0691608673634221E-004
   9.3090769694342601E-002  -2.7894361504817111E-002   7.8386090131687125E-003
   9.0415030807910773E-002  -2.7172903626301981E-002   7.6111847355984918E-003
   8.7739291921478973E-002  -2.6375357706506758E-002   7.5471573536851355E-003
   8.5063553035047076E-002  -2.5501723745432102E-002   7.6465268674288031E-003
   8.2387814148615290E-002  -2.4552001743077534E-002   7.9092932768290436E-003
   8.7039795909125736E-002  -2.6155144784808543E-002   1.4772734548084324E-002
   8.4523386539388776E-002  -2.5402949392722377E-002   1.4597916096044022E-002
   8.2006977169651801E-002  -2.4613915791976949E-002   1.4578359781736626E-002
   7.9490567799914785E-002  -2.3788043982572775E-002   1.4714065605162068E-002
   7.6974158430177853E-002  -2.2925333964509464E-002   1.5005033566320325E-002
   8.0989032203431482E-002  -2.4415928064800099E-002   2.1757222512881366E-002
   7.8623817592465353E-002  -2.3632995159142779E-002   2.1595760053750294E-002
   7.6258602981499141E-002  -2.2852473877447172E-002   2.1581424974427950E-002
   7.3893388370532956E-002  -2.2074364219713451E-002   2.1714217274914623E-002
   7.1528173759566799E-002  -2.1298666185941562E-002   2.1994136955209728E-002
   7.4938478577259882E-002  -2.2676711344791572E-002   2.8792072907559779E-002
   7.2716323967140395E-002  -2.1863040925563237E-002   2.8604716608717301E-002
   7.0494169357020992E-002  -2.1091031962917332E-002   2.8556352931759357E-002
   6.8272014746901560E-002  -2.0360684456854253E-002   2.8646981876686121E-002
   6.6049860136782129E-002  -1.9671998407373492E-002   2.8876603443497684E-002
   8.7769140914879085E-002  -2.6178669521645492E-002   7.0691608673634221E-004
   8.4384925728095417E-002  -2.5132519076785986E-002   5.9186846088771228E-004
   8.1000710541311638E-002  -2.4182873589399245E-002   6.0760221240463430E-004
   7.7616495354527859E-002  -2.3329733059485228E-002   7.5411734128696950E-004
   7.4232280167744191E-002  -2.2573097487043725E-002   1.0314138475351342E-003
   8.2387814148615290E-002  -2.4552001743077534E-002   7.9092932768290436E-003
   7.9147776749252774E-002  -2.3597773769829411E-002   7.6935225803799190E-003
   7.5907739349890202E-002  -2.2710621896072966E-002   7.6353260814076007E-003
   7.2667701950527602E-002  -2.1890546121808321E-002   7.7347037799119917E-003
   6.9427664551165114E-002  -2.1137546447036026E-002   7.9916556758932722E-003
   7.6974158430177853E-002  -2.2925333964509464E-002   1.5005033566320325E-002
   7.3905091638347603E-002  -2.2063028462872586E-002   1.4717968657251682E-002
   7.0836024846517409E-002  -2.1238370202746354E-002   1.4615270765770766E-002
   6.7766958054687160E-002  -2.0451359184131636E-002   1.4696939891877758E-002
   6.4697891262856966E-002  -1.9701995407027773E-002   1.4962976035572895E-002
   7.1528173759566799E-002  -2.1298666185941562E-002   2.1994136955209728E-002
   6.8656870395380071E-002  -2.0528283155915553E-002   2.1665206691502212E-002
   6.5785567031193301E-002  -1.9766118509420019E-002   2.1547436265493762E-002
   6.2914263667006559E-002  -1.9012172246454729E-002   2.1640825677184335E-002
   6.0042960302819789E-002  -1.8266444367019852E-002   2.1945374926574043E-002
   6.6049860136782129E-002  -1.9671998407373492E-002   2.8876603443497684E-002
   6.3403113020350010E-002  -1.8993537848958936E-002   2.8535236683132070E-002
   6.0756365903917878E-002  -1.8293866816093560E-002   2.8431822580576860E-002
   5.8109618787485766E-002  -1.7572985308778041E-002   2.8566361135831692E-002
   5.5462871671053626E-002  -1.6830893327011764E-002   2.8938852348896871E-002
   7.4232280167744191E-002  -2.2573097487043725E-002   1.0314138475351342E-003
   7.1577152251246723E-002  -2.1789542271026863E-002   4.3306948654020516E-004
   6.8922024334749254E-002  -2.0855642810386155E-002   2.1117927134450820E-004
   6.6266896418251786E-002  -1.9771399105121337E-002   3.6574320194787679E-004
   6.3611768501754318E-002  -1.8536811155231980E-002   8.9676127835036645E-004
   6.9427664551165114E-002  -2.1137546447036026E-002   7.9916556758932722E-003
   6.7107776455802903E-002  -2.0365941805017884E-002   7.5542544578087178E-003
   6.4787888360440582E-002  -1.9490051129017805E-002   7.4108787361948092E-003
   6.2468000265078316E-002  -1.8509874419034816E-002   7.5615285110529756E-003
   6.0148112169716050E-002  -1.7425411675069391E-002   8.0062037823819265E-003
   6.4697891262856966E-002  -1.9701995407027773E-002   1.4962976035572895E-002
   6.2630814339302010E-002  -1.8942341339009211E-002   1.4640459749756862E-002
   6.0563737415747027E-002  -1.8124459447649649E-002   1.4529540311084416E-002
   5.8496660492192071E-002  -1.7248349732948955E-002   1.4630217719554930E-002
   5.6429583568637087E-002  -1.6314012194907024E-002   1.4942491975168892E-002
   6.0042960302819789E-002  -1.8266444367019852E-002   2.1945374926574043E-002
   5.8146265901744099E-002  -1.7518740873000385E-002   2.1691685362385443E-002
   5.6249571500668435E-002  -1.6758867766281341E-002   2.1567163996012127E-002
   5.4352877099592717E-002  -1.5986825046862763E-002   2.1571810827454244E-002
   5.2456182698517026E-002  -1.5202612714744435E-002   2.1705625856711305E-002
   5.5462871671053626E-002  -1.6830893327011764E-002   2.8938852348896871E-002
   5.3654131143129280E-002  -1.6095140406991393E-002   2.8707931295694156E-002
   5.1845390615204906E-002  -1.5393276084913032E-002   2.8523749790978603E-002
   5.0036650087280546E-002  -1.4725300360776628E-002   2.8386307834750324E-002
   4.8227909559356130E-002  -1.4091213234582123E-002   2.8295605427009429E-002
   6.3611768501754318E-002  -1.8536811155231980E-002   8.9676127835036645E-004
   6.0253812528565875E-002  -1.7469307213037077E-002   1.3377606517404050E-003
   5.6895856555377433E-002  -1.6886315530854568E-002   1.2789115409884144E-003
   5.3537900582188935E-002  -1.6787836108683910E-002   7.2021394609389500E-004
   5.0179944609000549E-002  -1.7173868946526394E-002  -3.3833213294265363E-004
   6.0148112169716050E-002  -1.7425411675069391E-002   8.0062037823819265E-003
   5.6420624945397735E-002  -1.6444979330973442E-002   7.9242185728764514E-003
   5.2693137721079392E-002  -1.5776893820598548E-002   7.6030193452532036E-003
   4.8965650496761062E-002  -1.5421155143945292E-002   7.0426060995127937E-003
   4.5238163272442677E-002  -1.5377763301013037E-002   6.2429788356543892E-003
   5.6429583568637087E-002  -1.6314012194907024E-002   1.4942491975168892E-002
   5.2593199559213405E-002  -1.5420651448909750E-002   1.4509687609059047E-002
   4.8756815549789612E-002  -1.4667472110342944E-002   1.4098303690856046E-002
   4.4920431540365943E-002  -1.4054474179206557E-002   1.3708340220559792E-002
   4.1084047530942136E-002  -1.3581657655500123E-002   1.3339797198171022E-002
   5.2456182698517026E-002  -1.5202612714744435E-002   2.1705625856711305E-002
   4.8771536370012608E-002  -1.4396323566846309E-002   2.1094167760288093E-002
   4.5086890041508169E-002  -1.3558050400087354E-002   2.0764764577796364E-002
   4.1402243713003481E-002  -1.2687793214467658E-002   2.0717416309235719E-002
   3.7717597384499313E-002  -1.1785552009987210E-002   2.0952122954607050E-002
   4.8227909559356130E-002  -1.4091213234582123E-002   2.8295605427009429E-002
   4.4955635377795455E-002  -1.3371995684782645E-002   2.7677659026564050E-002
   4.1683361196234808E-002  -1.2448628689831695E-002   2.7602402006074361E-002
   3.8411087014674147E-002  -1.1321112249728770E-002   2.8069834365540516E-002
   3.5138812833113486E-002  -9.9894463644740750E-003   2.9079956104963278E-002
   9.0362681332064085E-002   0.0000000000000000        4.9835235149837676E-002
   9.3962984127391430E-002  -5.4043799824145897E-003   5.3209214528182877E-002
   9.7563286922718775E-002  -1.0671028770961218E-002   5.4964577590987523E-002
  0.10116358971804611       -1.5799946365639889E-002   5.5101324338251580E-002
  0.10476389251337347       -2.0791132766450594E-002   5.3619454769975046E-002
   8.2425305724019460E-002   0.0000000000000000        4.4783709370339347E-002
   8.4636022656639109E-002  -4.5742921508746329E-003   4.8267424133035676E-002
   8.6846739589258759E-002  -9.0375566442023759E-003   5.0590583485857210E-002
   8.9057456521878423E-002  -1.3389793479983226E-002   5.1753187428803964E-002
   9.1268173454498086E-002  -1.7631002658217189E-002   5.1755235961875937E-002
   7.4244255621785632E-002   0.0000000000000000        4.0575623190541511E-002
   7.5523447597363388E-002  -3.7442043193346803E-003   4.4142369801267879E-002
   7.6802639572941159E-002  -7.4040845174435359E-003   4.7006621907785255E-002
   7.8081831548518929E-002  -1.0979640594326569E-002   4.9168379510093646E-002
   7.9361023524096685E-002  -1.4470872549983773E-002   5.0627642608193059E-002
   6.5819531025362574E-002   0.0000000000000000        3.7210976610444167E-002
   6.6625258949564226E-002  -2.9141164877947261E-003   4.0834051532879494E-002
   6.7430986873765919E-002  -5.7706123906846925E-003   4.4212692856771652E-002
   6.8236714797967599E-002  -8.5694877086699081E-003   4.7346900582120613E-002
   6.9042442722169264E-002  -1.1310742441750362E-002   5.0236674708926392E-002
   5.7151131934750299E-002   0.0000000000000000        3.4689769630047301E-002
   5.7941456713241676E-002  -2.0840286562547709E-003   3.8342469327870547E-002
   5.8731781491733054E-002  -4.1371402639258543E-003   4.2208796332816406E-002
   5.9522106270224445E-002  -6.1593348230132520E-003   4.6288750644884857E-002
   6.0312431048715823E-002  -8.1506123335169517E-003   5.0582332264075928E-002
  0.10476389251337347       -2.0791132766450594E-002   5.3619454769975046E-002
  0.10210860018380558       -2.4932098260781063E-002   4.5639356715909143E-002
   9.9453307854237713E-002  -2.7510353136018999E-002   3.9348492745717542E-002
   9.6798015524669864E-002  -2.8525897392164410E-002   3.4746862859400166E-002
   9.4142723195101988E-002  -2.7978731029217302E-002   3.1834467056957208E-002
   9.1268173454498086E-002  -1.7631002658217189E-002   5.1755235961875937E-002
   9.0064399504836648E-002  -2.1206383984297087E-002   4.6517660665243009E-002
   8.8860625555175210E-002  -2.3561137263615722E-002   4.2493888044548608E-002
   8.7656851605513786E-002  -2.4695262496173168E-002   3.9683918099792805E-002
   8.6453077655852334E-002  -2.4608759681969350E-002   3.8087750830975556E-002
   7.9361023524096685E-002  -1.4470872549983773E-002   5.0627642608193059E-002
   7.9133336546405947E-002  -1.7480669707813097E-002   4.7790507496661798E-002
   7.8905649568715208E-002  -1.9611921391212477E-002   4.5691743653133360E-002
   7.8677962591024483E-002  -2.0864627600181915E-002   4.4331351077607800E-002
   7.8450275613333745E-002  -2.1238788334721384E-002   4.3709329770085008E-002
   6.9042442722169264E-002  -1.1310742441750362E-002   5.0236674708926392E-002
   6.9315411308513500E-002  -1.3754955431329107E-002   4.9457897210165531E-002
   6.9588379894857694E-002  -1.5662705518809203E-002   4.8942059571471776E-002
   6.9861348481201957E-002  -1.7033992704190641E-002   4.8689161792845055E-002
   7.0134317067546151E-002  -1.7868816987473425E-002   4.8699203874285502E-002
   6.0312431048715823E-002  -8.1506123335169517E-003   5.0582332264075928E-002
   6.0610623791159265E-002  -1.0029241154845131E-002   5.1519829805754189E-002
   6.0908816533602694E-002  -1.1713489646405952E-002   5.2244835799563807E-002
   6.1207009276046137E-002  -1.3203357808199419E-002   5.2757350245504757E-002
   6.1505202018489580E-002  -1.4498845640225459E-002   5.3057373143577023E-002
   9.4142723195101988E-002  -2.7978731029217302E-002   3.1834467056957208E-002
   9.1760870471776973E-002  -2.6785775376898094E-002   3.1265157131613375E-002
   8.9379017748451944E-002  -2.5863951764927284E-002   3.0777486867634221E-002
   8.6997165025126957E-002  -2.5213260193304790E-002   3.0371456265019491E-002
   8.4615312301801915E-002  -2.4833700662030667E-002   3.0047065323769412E-002
   8.6453077655852334E-002  -2.4608759681969350E-002   3.8087750830975556E-002
   8.4198988808809855E-002  -2.3965124052123771E-002   3.7062661389367729E-002
   8.1944899961767376E-002  -2.3427850837755934E-002   3.6211460038960482E-002
   7.9690811114724883E-002  -2.2996940038865755E-002   3.5534146779753695E-002
   7.7436722267682390E-002  -2.2672391655453317E-002   3.5030721611747445E-002
   7.8450275613333745E-002  -2.1238788334721384E-002   4.3709329770085008E-002
   7.6416199072409735E-002  -2.1144472727349449E-002   4.2393230437083790E-002
   7.4382122531485739E-002  -2.0991749910584556E-002   4.1343267625119119E-002
   7.2348045990561757E-002  -2.0780619884426761E-002   4.0559441334190920E-002
   7.0313969449637748E-002  -2.0511082648876022E-002   4.0041751564299101E-002
   7.0134317067546151E-002  -1.7868816987473425E-002   4.8699203874285502E-002
   6.8412501262576614E-002  -1.8323821402575085E-002   4.7256864274761570E-002
   6.6690685457607063E-002  -1.8555648983413192E-002   4.6172909626110072E-002
   6.4968869652637540E-002  -1.8564299729987726E-002   4.5447339928331013E-002
   6.3247053847668003E-002  -1.8349773642298686E-002   4.5080155181424428E-002
   6.1505202018489580E-002  -1.4498845640225459E-002   5.3057373143577023E-002
   6.0187895379310456E-002  -1.5503170077800794E-002   5.1653562902401022E-002
   5.8870588740131347E-002  -1.6119548056241828E-002   5.0700386041933415E-002
   5.7553282100952223E-002  -1.6347979575548718E-002   5.0197842562174202E-002
   5.6235975461773113E-002  -1.6188464635721364E-002   5.0145932463123391E-002
   8.4615312301801915E-002  -2.4833700662030667E-002   3.0047065323769412E-002
   8.2196103870666407E-002  -2.4515893696378341E-002   2.9299794698812026E-002
   7.9776895439530898E-002  -2.4050459821621011E-002   2.8841539087791301E-002
   7.7357687008395390E-002  -2.3437399037758766E-002   2.8672298490707175E-002
   7.4938478577259882E-002  -2.2676711344791572E-002   2.8792072907559779E-002
   7.7436722267682390E-002  -2.2672391655453317E-002   3.5030721611747445E-002
   7.5290579376486366E-002  -2.2347142499199779E-002   3.4451034164000138E-002
   7.3144436485290343E-002  -2.1914129381786211E-002   3.4128462782195244E-002
   7.0998293594094319E-002  -2.1373352303212675E-002   3.4063007466332548E-002
   6.8852150702898310E-002  -2.0724811263479054E-002   3.4254668216412099E-002
   7.0313969449637748E-002  -2.0511082648876022E-002   4.0041751564299101E-002
   6.8408993150386802E-002  -2.0178391302021308E-002   3.9589784345817065E-002
   6.6504016851135855E-002  -1.9777798941951471E-002   3.9363034245282952E-002
   6.4599040551884951E-002  -1.9309305568666571E-002   3.9361501262696705E-002
   6.2694064252633977E-002  -1.8772911182166577E-002   3.9585185398058338E-002
   6.3247053847668003E-002  -1.8349773642298686E-002   4.5080155181424428E-002
   6.1551345192367719E-002  -1.8009640104842791E-002   4.4716045244262689E-002
   5.9855636537067519E-002  -1.7641468502116703E-002   4.4545253477054458E-002
   5.8159927881767270E-002  -1.7245258834120487E-002   4.4567779879799818E-002
   5.6464219226467049E-002  -1.6821011100854023E-002   4.4783624452498560E-002
   5.6235975461773113E-002  -1.6188464635721364E-002   5.0145932463123391E-002
   5.4717635502429168E-002  -1.5840888907664288E-002   4.9829816859336976E-002
   5.3199295543085251E-002  -1.5505138062281956E-002   4.9675120477509778E-002
   5.1680955583741306E-002  -1.5181212099574425E-002   4.9681843317641694E-002
   5.0162615624397389E-002  -1.4869111019541581E-002   4.9849985379732786E-002
   7.4938478577259882E-002  -2.2676711344791572E-002   2.8792072907559779E-002
   7.2716323967140395E-002  -2.1863040925563237E-002   2.8604716608717301E-002
   7.0494169357020992E-002  -2.1091031962917332E-002   2.8556352931759357E-002
   6.8272014746901560E-002  -2.0360684456854253E-002   2.8646981876686121E-002
   6.6049860136782129E-002  -1.9671998407373492E-002   2.8876603443497684E-002
   6.8852150702898310E-002  -2.0724811263479054E-002   3.4254668216412099E-002
   6.6779360154134923E-002  -2.0031014389679941E-002   3.3976467906332533E-002
   6.4706569605371578E-002  -1.9354469808909737E-002   3.3858003097080397E-002
   6.2633779056608219E-002  -1.8695177521168511E-002   3.3899273788655863E-002
   6.0560988507844887E-002  -1.8053137526456042E-002   3.4100279981058718E-002
   6.2694064252633977E-002  -1.8772911182166577E-002   3.9585185398058338E-002
   6.0791380644169543E-002  -1.8198987853796644E-002   3.9240550240295401E-002
   5.8888697035705144E-002  -1.7617907654902034E-002   3.9076393462302794E-002
   5.6986013427240745E-002  -1.7029670585482722E-002   3.9092715064080463E-002
   5.5083329818776318E-002  -1.6434276645538620E-002   3.9289515045628470E-002
   5.6464219226467049E-002  -1.6821011100854023E-002   4.4783624452498560E-002
   5.4752385437244359E-002  -1.6366961317913403E-002   4.4396963610605904E-002
   5.3040551648021662E-002  -1.5881345500894359E-002   4.4211524027426320E-002
   5.1328717858798938E-002  -1.5364163649796956E-002   4.4227305702959935E-002
   4.9616884069576227E-002  -1.4815415764621240E-002   4.4444308637206623E-002
   5.0162615624397389E-002  -1.4869111019541581E-002   4.9849985379732786E-002
   4.8662374533359268E-002  -1.4534934782030051E-002   4.9445708017263945E-002
   4.7162133442321119E-002  -1.4144783346886652E-002   4.9263394792451232E-002
   4.5661892351282984E-002  -1.3698656714111239E-002   4.9303045705294257E-002
   4.4161651260244822E-002  -1.3196554883703748E-002   4.9564660755793355E-002
   6.6049860136782129E-002  -1.9671998407373492E-002   2.8876603443497684E-002
   6.3403113020350010E-002  -1.8993537848958936E-002   2.8535236683132070E-002
   6.0756365903917878E-002  -1.8293866816093560E-002   2.8431822580576860E-002
   5.8109618787485766E-002  -1.7572985308778041E-002   2.8566361135831692E-002
   5.5462871671053626E-002  -1.6830893327011764E-002   2.8938852348896871E-002
   6.0560988507844887E-002  -1.8053137526456042E-002   3.4100279981058718E-002
   5.8145491496692084E-002  -1.7413617945305826E-002   3.3780134578208387E-002
   5.5729994485539308E-002  -1.6761886898251185E-002   3.3684536728106687E-002
   5.3314497474386477E-002  -1.6097944385291853E-002   3.3813486430753263E-002
   5.0899000463233729E-002  -1.5421790406428104E-002   3.4166983686148122E-002
   5.5083329818776318E-002  -1.6434276645538620E-002   3.9289515045628470E-002
   5.2885677807841008E-002  -1.5833698041652952E-002   3.8981591991747430E-002
   5.0688025796905692E-002  -1.5229906980408651E-002   3.8884811385552991E-002
   4.8490373785970396E-002  -1.4622903461805779E-002   3.8999173227045172E-002
   4.6292721775035128E-002  -1.4012687485844361E-002   3.9324677516224010E-002
   4.9616884069576227E-002  -1.4815415764621240E-002   4.4444308637206623E-002
   4.7623671953796687E-002  -1.4253778137999905E-002   4.4139608923748894E-002
   4.5630459838017126E-002  -1.3697927062566170E-002   4.4032646552916048E-002
   4.3637247722237558E-002  -1.3147862538319649E-002   4.4123421524707947E-002
   4.1644035606458032E-002  -1.2603584565260603E-002   4.4411933839124659E-002
   4.4161651260244822E-002  -1.3196554883703748E-002   4.9564660755793355E-002
   4.2359473934559189E-002  -1.2673858234346996E-002   4.9254185374212917E-002
   4.0557296608873514E-002  -1.2165947144723716E-002   4.9128042230195623E-002
   3.8755119283187874E-002  -1.1672821614833483E-002   4.9186231323741253E-002
   3.6952941957502206E-002  -1.1194481644676901E-002   4.9428752654849806E-002
   5.5462871671053626E-002  -1.6830893327011764E-002   2.8938852348896871E-002
   5.3654131143129280E-002  -1.6095140406991393E-002   2.8707931295694156E-002
   5.1845390615204906E-002  -1.5393276084913032E-002   2.8523749790978603E-002
   5.0036650087280546E-002  -1.4725300360776628E-002   2.8386307834750324E-002
   4.8227909559356130E-002  -1.4091213234582123E-002   2.8295605427009429E-002
   5.0899000463233729E-002  -1.5421790406428104E-002   3.4166983686148122E-002
   4.9157170037448628E-002  -1.4747036757224774E-002   3.3889375344635042E-002
   4.7415339611663471E-002  -1.4087295233246533E-002   3.3698847658912928E-002
   4.5673509185878300E-002  -1.3442565834493644E-002   3.3595400628982308E-002
   4.3931678760093212E-002  -1.2812848560965984E-002   3.3579034254842655E-002
   4.6292721775035128E-002  -1.4012687485844361E-002   3.9324677516224010E-002
   4.4658142558693090E-002  -1.3398933107457905E-002   3.9019258359117376E-002
   4.3023563342351100E-002  -1.2781314381580089E-002   3.8841260965105595E-002
   4.1388984126009026E-002  -1.2159831308210772E-002   3.8790685334188987E-002
   3.9754404909667071E-002  -1.1534483887350150E-002   3.8867531466367275E-002
   4.1644035606458032E-002  -1.2603584565260603E-002   4.4411933839124659E-002
   4.0157048706862944E-002  -1.2050829457691134E-002   4.4097580339140838E-002
   3.8670061807267855E-002  -1.1475333529913589E-002   4.3950989709556187E-002
   3.7183074907672767E-002  -1.0877096781927956E-002   4.3972161950370250E-002
   3.5696088008077734E-002  -1.0256119213734274E-002   4.4161097061583360E-002
   3.6952941957502206E-002  -1.1194481644676901E-002   4.9428752654849806E-002
   3.5653888481957968E-002  -1.0702725807924390E-002   4.9124341284705997E-002
   3.4354835006413703E-002  -1.0169352678247146E-002   4.9028033892264872E-002
   3.3055781530869452E-002  -9.5943622556450003E-003   4.9139830477526347E-002
   3.1756728055325201E-002  -8.9777545401182324E-003   4.9459731040490673E-002
   4.8227909559356130E-002  -1.4091213234582123E-002   2.8295605427009429E-002
   4.4955635377795455E-002  -1.3371995684782645E-002   2.7677659026564050E-002
   4.1683361196234808E-002  -1.2448628689831695E-002   2.7602402006074361E-002
   3.8411087014674147E-002  -1.1321112249728770E-002   2.8069834365540516E-002
   3.5138812833113486E-002  -9.9894463644740750E-003   2.9079956104963278E-002
   4.3931678760093212E-002  -1.2812848560965984E-002   3.3579034254842655E-002
   4.1128849535919082E-002  -1.2135056536534738E-002   3.3164455916756486E-002
   3.8326020311744882E-002  -1.1346102885070680E-002   3.3146078113487354E-002
   3.5523191087570731E-002  -1.0445987606573871E-002   3.3523900845035176E-002
   3.2720361863396663E-002  -9.4347107010441800E-003   3.4297924111399647E-002
   3.9754404909667071E-002  -1.1534483887350150E-002   3.8867531466367275E-002
   3.7274531797740318E-002  -1.0898117388286832E-002   3.8563333372521741E-002
   3.4794658685813641E-002  -1.0243577080309839E-002   3.8508846968353778E-002
   3.2314785573886964E-002  -9.5708629634189187E-003   3.8704072253863978E-002
   2.9834912461960156E-002  -8.8799750376142850E-003   3.9149009229051790E-002
   3.5696088008077734E-002  -1.0256119213734274E-002   4.4161097061583360E-002
   3.3392682163259288E-002  -9.6611782400389257E-003   4.3874291393859170E-002
   3.1089276318440821E-002  -9.1410512755489108E-003   4.3690708570673815E-002
   2.8785870473622428E-002  -8.6957383202639384E-003   4.3610348592027483E-002
   2.6482464628803909E-002  -8.3252393741843345E-003   4.3633211457919346E-002
   3.1756728055325201E-002  -8.9777545401182324E-003   4.9459731040490673E-002
   2.9483300632475951E-002  -8.4242390917910193E-003   4.9097329980769266E-002
   2.7209873209626659E-002  -8.0385254707879689E-003   4.8691662920447271E-002
   2.4936445786777374E-002  -7.8206136771091748E-003   4.8242729859524894E-002
   2.2663018363928145E-002  -7.7705037107544950E-003   4.7750530798002400E-002
   5.7151131934750299E-002   0.0000000000000000        3.4689769630047301E-002
   5.7941456713241676E-002  -2.0840286562547709E-003   3.8342469327870547E-002
   5.8731781491733054E-002  -4.1371402639258543E-003   4.2208796332816406E-002
   5.9522106270224445E-002  -6.1593348230132520E-003   4.6288750644884857E-002
   6.0312431048715823E-002  -8.1506123335169517E-003   5.0582332264075928E-002
   4.8651024783525454E-002   0.0000000000000000        3.2788830408363084E-002
   4.9589745230024254E-002  -1.7093346086407366E-003   3.6965072018508155E-002
   5.0528465676523047E-002  -3.4325559089192995E-003   4.1224477657545444E-002
   5.1467186123021834E-002  -5.1696639008356887E-003   4.5567047325474945E-002
   5.2405906569520634E-002  -6.9206585843899059E-003   4.9992781022296692E-002
   4.0731176005264692E-002   0.0000000000000000        3.1284987104403653E-002
   4.1687828841540521E-002  -1.3346405610266988E-003   3.5939966886649029E-002
   4.2644481677816343E-002  -2.7279715539127430E-003   4.0547647419556236E-002
   4.3601134514092171E-002  -4.1799929786581281E-003   4.5108028703125289E-002
   4.4557787350368000E-002  -5.6907048352628567E-003   4.9621110737356172E-002
   3.3391585599968000E-002   0.0000000000000000        3.0178239718169027E-002
   3.4235707547790491E-002  -9.5994651341266323E-004   3.5267153932293169E-002
   3.5079829495612967E-002  -2.0233871989061847E-003   4.0178305618848789E-002
   3.5923951443435444E-002  -3.1903220564805696E-003   4.4911694777835867E-002
   3.6768073391257927E-002  -4.4607510861358023E-003   4.9467321409254410E-002
   2.6632253567635385E-002   0.0000000000000000        2.9468588249659190E-002
   2.7233381348774142E-002  -5.8525246579862675E-004   3.4946633155440603E-002
   2.7834509129912893E-002  -1.3188028438996316E-003   4.0116452255423110E-002
   2.8435636911051651E-002  -2.2006511343030076E-003   4.4978045549606688E-002
   2.9036764692190405E-002  -3.2307973370087617E-003   4.9531413037991363E-002
   6.0312431048715823E-002  -8.1506123335169517E-003   5.0582332264075928E-002
   6.0610623791159265E-002  -1.0029241154845131E-002   5.1519829805754189E-002
   6.0908816533602694E-002  -1.1713489646405952E-002   5.2244835799563807E-002
   6.1207009276046137E-002  -1.3203357808199419E-002   5.2757350245504757E-002
   6.1505202018489580E-002  -1.4498845640225459E-002   5.3057373143577023E-002
   5.2405906569520634E-002  -6.9206585843899059E-003   4.9992781022296692E-002
   5.2530592890949759E-002  -8.5842759879593000E-003   5.1219179741559255E-002
   5.2655279212378905E-002  -1.0059252139921203E-002   5.2311057166661866E-002
   5.2779965533808038E-002  -1.1345587040275667E-002   5.3268413297604573E-002
   5.2904651855237177E-002  -1.2443280689022625E-002   5.4091248134387329E-002
   4.4557787350368000E-002  -5.6907048352628567E-003   4.9621110737356172E-002
   4.4586937504491532E-002  -7.1393108210734690E-003   5.1130671556043193E-002
   4.4616087658615057E-002  -8.4050146334364861E-003   5.2583681334278959E-002
   4.4645237812738582E-002  -9.4878162723519340E-003   5.3980140072063434E-002
   4.4674387966862107E-002  -1.0387715737819794E-002   5.5320047769396682E-002
   3.6768073391257927E-002  -4.4607510861358023E-003   4.9467321409254410E-002
   3.6779657631784535E-002  -5.6943456541876328E-003   5.1254305249205961E-002
   3.6791241872311142E-002  -6.7507771269517576E-003   5.3062708302414961E-002
   3.6802826112837757E-002  -7.6300455044281948E-003   5.4892530568881368E-002
   3.6814410353364378E-002  -8.3321507866169469E-003   5.6743772048605222E-002
   2.9036764692190405E-002  -3.2307973370087617E-003   4.9531413037991363E-002
   2.9108753272828799E-002  -4.2493804873018088E-003   5.1590080821047560E-002
   2.9180741853467189E-002  -5.0965396204670169E-003   5.3748138071069915E-002
   2.9252730434105589E-002  -5.7722747365044746E-003   5.6005584788058359E-002
   2.9324719014743976E-002  -6.2765858354141210E-003   5.8362420972012947E-002
   6.1505202018489580E-002  -1.4498845640225459E-002   5.3057373143577023E-002
   6.0187895379310456E-002  -1.5503170077800794E-002   5.1653562902401022E-002
   5.8870588740131347E-002  -1.6119548056241828E-002   5.0700386041933415E-002
   5.7553282100952223E-002  -1.6347979575548718E-002   5.0197842562174202E-002
   5.6235975461773113E-002  -1.6188464635721364E-002   5.0145932463123391E-002
   5.2904651855237177E-002  -1.2443280689022625E-002   5.4091248134387329E-002
   5.1986096375307836E-002  -1.3293408764085544E-002   5.3353060124077402E-002
   5.1067540895378502E-002  -1.3837046943387792E-002   5.2961741051558646E-002
   5.0148985415449175E-002  -1.4074195226929476E-002   5.2917290916831013E-002
   4.9230429935519827E-002  -1.4004853614710419E-002   5.3219709719894662E-002
   4.4674387966862107E-002  -1.0387715737819794E-002   5.5320047769396682E-002
   4.4050819203265312E-002  -1.1083647450370335E-002   5.5166025426579376E-002
   4.3427250439668497E-002  -1.1554545830533766E-002   5.5255107578635901E-002
   4.2803681676071688E-002  -1.1800410878310179E-002   5.5587294225566332E-002
   4.2180112912474865E-002  -1.1821242593699481E-002   5.6162585367370704E-002
   3.6814410353364378E-002  -8.3321507866169469E-003   5.6743772048605222E-002
   3.6382063863182844E-002  -8.8738861366550702E-003   5.7092458809906904E-002
   3.5949717373001309E-002  -9.2720447176797560E-003   5.7580485623165145E-002
   3.5517370882819782E-002  -9.5266265296908952E-003   5.8207852488380139E-002
   3.5085024392638241E-002  -9.6376315726885674E-003   5.8974559405551637E-002
   2.9324719014743976E-002  -6.2765858354141210E-003   5.8362420972012947E-002
   2.8979830355060465E-002  -6.6641248229398799E-003   5.9132360274060006E-002
   2.8634941695376958E-002  -6.9895436048257095E-003   5.9937875185146469E-002
   2.8290053035693451E-002  -7.2528421810716340E-003   6.0778965705272338E-002
   2.7945164376009933E-002  -7.4540205516775981E-003   6.1655631834437591E-002
   5.6235975461773113E-002  -1.6188464635721364E-002   5.0145932463123391E-002
   5.4717635502429168E-002  -1.5840888907664288E-002   4.9829816859336976E-002
   5.3199295543085251E-002  -1.5505138062281956E-002   4.9675120477509778E-002
   5.1680955583741306E-002  -1.5181212099574425E-002   4.9681843317641694E-002
   5.0162615624397389E-002  -1.4869111019541581E-002   4.9849985379732786E-002
   4.9230429935519827E-002  -1.4004853614710419E-002   5.3219709719894662E-002
   4.7882832235360835E-002  -1.3774390381156597E-002   5.2870109888659540E-002
   4.6535234535201836E-002  -1.3528173800693714E-002   5.2700575353835204E-002
   4.5187636835042858E-002  -1.3266203873321877E-002   5.2711106115421680E-002
   4.3840039134883865E-002  -1.2988480599041063E-002   5.2901702173418885E-002
   4.2180112912474865E-002  -1.1821242593699481E-002   5.6162585367370704E-002
   4.1021903545952448E-002  -1.1707891854648884E-002   5.5807079538270687E-002
   3.9863694179430004E-002  -1.1551209539105557E-002   5.5650285080033016E-002
   3.8705484812907573E-002  -1.1351195647069431E-002   5.5692201992657682E-002
   3.7547275446385128E-002  -1.1107850178540546E-002   5.5932830276144818E-002
   3.5085024392638241E-002  -9.6376315726885674E-003   5.8974559405551637E-002
   3.4134849434204001E-002  -9.6413933281412241E-003   5.8640725808170466E-002
   3.3184674475769754E-002  -9.5742452775173584E-003   5.8524249656103255E-002
   3.2234499517335514E-002  -9.4361874208169199E-003   5.8625130949349964E-002
   3.1284324558901261E-002  -9.2272197580400422E-003   5.8943369687910772E-002
   2.7945164376009933E-002  -7.4540205516775981E-003   6.1655631834437591E-002
   2.7221669900115507E-002  -7.5748948016335360E-003   6.1371048698358938E-002
   2.6498175424221084E-002  -7.5972810159291096E-003   6.1322469082045750E-002
   2.5774680948326648E-002  -7.5211791945644802E-003   6.1509892985498339E-002
   2.5051186472432235E-002  -7.3465893375395386E-003   6.1933320408716491E-002
   5.0162615624397389E-002  -1.4869111019541581E-002   4.9849985379732786E-002
   4.8662374533359268E-002  -1.4534934782030051E-002   4.9445708017263945E-002
   4.7162133442321119E-002  -1.4144783346886652E-002   4.9263394792451232E-002
   4.5661892351282984E-002  -1.3698656714111239E-002   4.9303045705294257E-002
   4.4161651260244822E-002  -1.3196554883703748E-002   4.9564660755793355E-002
   4.3840039134883865E-002  -1.2988480599041063E-002   5.2901702173418885E-002
   4.2553921202400764E-002  -1.2682183415399118E-002   5.2568081467586597E-002
   4.1267803269917705E-002  -1.2334491759944034E-002   5.2440742941208526E-002
   3.9981685337434625E-002  -1.1945405632675746E-002   5.2519686594284548E-002
   3.8695567404951545E-002  -1.1514925033594275E-002   5.2804912426814787E-002
   3.7547275446385128E-002  -1.1107850178540546E-002   5.5932830276144818E-002
   3.6459598714255331E-002  -1.0829432048768128E-002   5.5655285501130254E-002
   3.5371921982125541E-002  -1.0524200173001388E-002   5.5568340947368108E-002
   3.4284245249995737E-002  -1.0192154551240253E-002   5.5671996614858256E-002
   3.3196568517865961E-002  -9.8332951834848026E-003   5.5966252503600919E-002
   3.1284324558901261E-002  -9.2272197580400422E-003   5.8943369687910772E-002
   3.0379407068922958E-002  -8.9766806821371670E-003   5.8707320117895027E-002
   2.9474489578944663E-002  -8.7139085860586732E-003   5.8646188810929853E-002
   2.8569572088966343E-002  -8.4389034698047604E-003   5.8759975767015429E-002
   2.7664654598988057E-002  -8.1516653333753297E-003   5.9048680986151493E-002
   2.5051186472432235E-002  -7.3465893375395386E-003   6.1933320408716491E-002
   2.4313346266403635E-002  -7.1239293155062333E-003   6.1724185317880820E-002
   2.3575506060375034E-002  -6.9036169991161037E-003   6.1674286531893982E-002
   2.2837665854346441E-002  -6.6856523883692762E-003   6.1783624050755985E-002
   2.2099825648317847E-002  -6.4700354832658014E-003   6.2052197874466752E-002
   4.4161651260244822E-002  -1.3196554883703748E-002   4.9564660755793355E-002
   4.2359473934559189E-002  -1.2673858234346996E-002   4.9254185374212917E-002
   4.0557296608873514E-002  -1.2165947144723716E-002   4.9128042230195623E-002
   3.8755119283187874E-002  -1.1672821614833483E-002   4.9186231323741253E-002
   3.6952941957502206E-002  -1.1194481644676901E-002   4.9428752654849806E-002
   3.8695567404951545E-002  -1.1514925033594275E-002   5.2804912426814787E-002
   3.7086769716682996E-002  -1.1066309518785164E-002   5.2460614313250567E-002
   3.5477972028414469E-002  -1.0622818644333683E-002   5.2318743236957718E-002
   3.3869174340145927E-002  -1.0184452410239938E-002   5.2379299197936192E-002
   3.2260376651877393E-002  -9.7512108165038192E-003   5.2642282196185636E-002
   3.3196568517865961E-002  -9.8332951834848026E-003   5.5966252503600919E-002
   3.1799245266722759E-002  -9.4587608032232345E-003   5.5597792577428716E-002
   3.0401922015579539E-002  -9.0796901439437611E-003   5.5449854488235903E-002
   2.9004598764436340E-002  -8.6960832056462260E-003   5.5522438236022521E-002
   2.7607275513293145E-002  -8.3079399883308758E-003   5.5815543820788571E-002
   2.7664654598988057E-002  -8.1516653333753297E-003   5.9048680986151493E-002
   2.6496900584678358E-002  -7.8512120876612981E-003   5.8665720166746885E-002
   2.5329146570368690E-002  -7.5365616435537283E-003   5.8521375984029816E-002
   2.4161392556058998E-002  -7.2077140010526255E-003   5.8615648438000538E-002
   2.2993638541749323E-002  -6.8646691601579463E-003   5.8948537528658723E-002
   2.2099825648317847E-002  -6.4700354832658014E-003   6.2052197874466752E-002
   2.1179735670549898E-002  -6.2436633720995005E-003   6.1664397081205385E-002
   2.0259645692781943E-002  -5.9934331431639454E-003   6.1533307724339736E-002
   1.9339555715014004E-002  -5.7193447964589486E-003   6.1658929803869916E-002
   1.8419465737246066E-002  -5.4213983319849057E-003   6.2041263319796036E-002
   3.6952941957502206E-002  -1.1194481644676901E-002   4.9428752654849806E-002
   3.5653888481957968E-002  -1.0702725807924390E-002   4.9124341284705997E-002
   3.4354835006413703E-002  -1.0169352678247146E-002   4.9028033892264872E-002
   3.3055781530869452E-002  -9.5943622556450003E-003   4.9139830477526347E-002
   3.1756728055325201E-002  -8.9777545401182324E-003   4.9459731040490673E-002
   3.2260376651877393E-002  -9.7512108165038192E-003   5.2642282196185636E-002
   3.1158666411095048E-002  -9.3048779893553091E-003   5.2403036450195117E-002
   3.0056956170312663E-002  -8.8272380550243057E-003   5.2350373196025438E-002
   2.8955245929530311E-002  -8.3182910135109547E-003   5.2484292433676978E-002
   2.7853535688747932E-002  -7.7780368648150966E-003   5.2804794163149649E-002
   2.7607275513293145E-002  -8.3079399883308758E-003   5.5815543820788571E-002
   2.6681387021390966E-002  -7.9070301707863527E-003   5.5631153513209047E-002
   2.5755498529488788E-002  -7.4851234318016879E-003   5.5611824211568753E-002
   2.4829610037586609E-002  -7.0422197713767981E-003   5.5757555915867910E-002
   2.3903721545684438E-002  -6.5783191895119331E-003   5.6068348626106393E-002
   2.2993638541749323E-002  -6.8646691601579463E-003   5.8948537528658723E-002
   2.2222050312845687E-002  -6.5091823522174450E-003   5.8808692473747752E-002
   2.1450462083942020E-002  -6.1430088085790147E-003   5.8812386938894665E-002
   2.0678873855038367E-002  -5.7661485292428635E-003   5.8959620924099100E-002
   1.9907285626134717E-002  -5.3786015142086724E-003   5.9250394429361086E-002
   1.8419465737246066E-002  -5.4213983319849057E-003   6.2041263319796036E-002
   1.7780656285459218E-002  -5.1113345336483151E-003   6.1935653331811502E-002
   1.7141846833672397E-002  -4.8008941853563553E-003   6.1952061378002937E-002
   1.6503037381885563E-002  -4.4900772871085716E-003   6.2090487458370244E-002
   1.5864227930098729E-002  -4.1788838389056338E-003   6.2350931572913937E-002
   3.1756728055325201E-002  -8.9777545401182324E-003   4.9459731040490673E-002
   2.9483300632475951E-002  -8.4242390917910193E-003   4.9097329980769266E-002
   2.7209873209626659E-002  -8.0385254707879689E-003   4.8691662920447271E-002
   2.4936445786777374E-002  -7.8206136771091748E-003   4.8242729859524894E-002
   2.2663018363928145E-002  -7.7705037107544950E-003   4.7750530798002400E-002
   2.7853535688747932E-002  -7.7780368648150966E-003   5.2804794163149649E-002
   2.5615061427310237E-002  -7.2630892531630187E-003   5.2349129484656448E-002
   2.3376587165872528E-002  -6.8300618227816051E-003   5.2006637129586808E-002
   2.1138112904434743E-002  -6.4789545736706859E-003   5.1777317097940395E-002
   1.8899638642997152E-002  -6.2097675058303548E-003   5.1661169389718098E-002
   2.3903721545684438E-002  -6.5783191895119331E-003   5.6068348626106393E-002
   2.1856638769682163E-002  -6.1019394145351846E-003   5.5605301974895230E-002
   1.9809555993679898E-002  -5.6215981747752483E-003   5.5411865971131812E-002
   1.7762473217677606E-002  -5.1372954702322820E-003   5.5488040614815298E-002
   1.5715390441675359E-002  -4.6490313009061035E-003   5.5833825905946599E-002
   1.9907285626134717E-002  -5.3786015142086724E-003   5.9250394429361086E-002
   1.8208032659591762E-002  -4.9407895759072673E-003   5.8865847451485778E-002
   1.6508779693048804E-002  -4.4131345267689991E-003   5.8907349445081733E-002
   1.4809526726505829E-002  -3.7956363667938911E-003   5.9374900410149048E-002
   1.3110273759962890E-002  -3.0882950959819633E-003   6.0268500346687390E-002
   1.5864227930098729E-002  -4.1788838389056338E-003   6.2350931572913937E-002
   1.4669243097038973E-002  -3.7796397372792390E-003   6.2130765914427954E-002
   1.3474258263979258E-002  -3.2046708787624723E-003   6.2493087551436843E-002
   1.2279273430919495E-002  -2.4539772633554308E-003   6.3437896483941214E-002
   1.1084288597859759E-002  -1.5275588910577120E-003   6.4965192711940789E-002
   2.6632253567635385E-002   0.0000000000000000        2.9468588249659190E-002
   2.7233381348774142E-002  -5.8525246579862675E-004   3.4946633155440603E-002
   2.7834509129912893E-002  -1.3188028438996316E-003   4.0116452255423110E-002
   2.8435636911051651E-002  -2.2006511343030076E-003   4.4978045549606688E-002
   2.9036764692190405E-002  -3.2307973370087617E-003   4.9531413037991363E-002
   2.0115833410238614E-002   0.0000000000000000        2.9021331518401479E-002
   2.0448197229863463E-002  -4.3897615630492624E-004   3.4314688485787385E-002
   2.0780561049488309E-002  -9.8908471948376021E-004   3.9378743335944377E-002
   2.1112924869113162E-002  -1.6503256895364984E-003   4.4213496068872482E-002
   2.1445288688738011E-002  -2.4226990664631392E-003   4.8818946684571679E-002
   1.3504978629749448E-002   0.0000000000000000        2.8701768343923243E-002
   1.3647502176430411E-002  -2.9269984681122747E-004   3.3847602878342084E-002
   1.3790025723111374E-002  -6.5936659506788883E-004   3.8843058984102057E-002
   1.3932549269792337E-002  -1.1000002447699875E-003   4.3688136661203157E-002
   1.4075072816473300E-002  -1.6146007959175167E-003   4.8382835909645372E-002
   6.7996892261678963E-003   0.0000000000000000        2.8509898726224461E-002
   6.8312961884749923E-003  -1.4642353731752697E-004   3.3545376333104726E-002
   6.8629031507820874E-003  -3.2964847065201832E-004   3.8509399199896155E-002
   6.8945101130891825E-003  -5.4967480000347405E-004   4.3401967326598692E-002
   6.9261170753962768E-003  -8.0650252537189937E-004   4.8223080713212393E-002
  -3.4800506044582735E-008   0.0000000000000000        2.8445722665305151E-002
  -4.2073400279615120E-007  -1.4722782382819988E-007   3.3408008850075312E-002
  -8.0666749955010490E-007   6.9653763852192685E-008   3.8377763983326638E-002
  -1.1926009963019986E-006   6.5064476303076935E-007   4.3354988065059115E-002
  -1.5785344930547597E-006   1.5957451737266121E-006   4.8339681095272757E-002
   2.9036764692190405E-002  -3.2307973370087617E-003   4.9531413037991363E-002
   2.9108753272828799E-002  -4.2493804873018088E-003   5.1590080821047560E-002
   2.9180741853467189E-002  -5.0965396204670169E-003   5.3748138071069915E-002
   2.9252730434105589E-002  -5.7722747365044746E-003   5.6005584788058359E-002
   2.9324719014743976E-002  -6.2765858354141210E-003   5.8362420972012947E-002
   2.1445288688738011E-002  -2.4226990664631392E-003   4.8818946684571679E-002
   2.1587334204206068E-002  -3.1864646404705325E-003   5.1219428081599225E-002
   2.1729379719674122E-002  -3.8218822017654880E-003   5.3660633881319982E-002
   2.1871425235142183E-002  -4.3289517503480547E-003   5.6142564083733942E-002
   2.2013470750610234E-002  -4.7076732862181975E-003   5.8665218688841059E-002
   1.4075072816473300E-002  -1.6146007959175167E-003   4.8382835909645372E-002
   1.4228510202498094E-002  -2.1235487936392483E-003   5.1082054916228865E-002
   1.4381947588522889E-002  -2.5472247830639590E-003   5.3763333261232608E-002
   1.4535384974547681E-002  -2.8856287641916339E-003   5.6426670944656671E-002
   1.4688822360572477E-002  -3.1387607370222774E-003   5.9072067966500948E-002
   6.9261170753962768E-003  -8.0650252537189937E-004   4.8223080713212393E-002
   7.0322812677048813E-003  -1.0606329468079820E-003   5.1177961324936454E-002
   7.1384454600134858E-003  -1.2725673643624231E-003   5.4056236210807844E-002
   7.2446096523220913E-003  -1.4423057780352032E-003   5.6857905370826578E-002
   7.3507738446306949E-003  -1.5698481878263556E-003   5.9582968804992649E-002
  -1.5785344930547597E-006   1.5957451737266121E-006   4.8339681095272757E-002
  -1.3526001735679992E-006   2.2829000233051677E-006   5.1507147307721997E-002
  -1.1266658540810218E-006   2.0900543391158370E-006   5.4539342730045626E-002
  -9.0073153459328554E-007   1.0172081212005786E-006   5.7436267362243693E-002
  -6.7479721510728397E-007  -9.3563863044765494E-007   6.0197921204316177E-002
   2.9324719014743976E-002  -6.2765858354141210E-003   5.8362420972012947E-002
   2.8979830355060465E-002  -6.6641248229398799E-003   5.9132360274060006E-002
   2.8634941695376958E-002  -6.9895436048257095E-003   5.9937875185146469E-002
   2.8290053035693451E-002  -7.2528421810716340E-003   6.0778965705272338E-002
   2.7945164376009933E-002  -7.4540205516775981E-003   6.1655631834437591E-002
   2.2013470750610234E-002  -4.7076732862181975E-003   5.8665218688841059E-002
   2.1716685242972676E-002  -4.9985283871053325E-003   5.9489037939437439E-002
   2.1419899735335111E-002  -5.2419986307388304E-003   6.0373487885086327E-002
   2.1123114227697554E-002  -5.4380840171186938E-003   6.1318568525787702E-002
   2.0826328720059982E-002  -5.5867845462449772E-003   6.2324279861541571E-002
   1.4688822360572477E-002  -3.1387607370222774E-003   5.9072067966500948E-002
   1.4465195090993966E-002  -3.3329319512707279E-003   5.9935031817260329E-002
   1.4241567821415464E-002  -3.4944536566519106E-003   6.0883681449085320E-002
   1.4017940551836956E-002  -3.6233258531657543E-003   6.1918016861975921E-002
   1.3794313282258447E-002  -3.7195485408122730E-003   6.3038038055932083E-002
   7.3507738446306949E-003  -1.5698481878263556E-003   5.9582968804992649E-002
   7.2253598991243503E-003  -1.6673355154361797E-003   6.0470341907528743E-002
   7.0999459536180065E-003  -1.7469086825649903E-003   6.1468455877143516E-002
   6.9745320081116636E-003  -1.8085676892127867E-003   6.2577310713837014E-002
   6.8491180626053180E-003  -1.8523125353795966E-003   6.3796906417609295E-002
  -6.7479721510728397E-007  -9.3563863044765494E-007   6.0197921204316177E-002
  -2.8203326361796177E-006  -1.7390796015724630E-006   6.1094968210242642E-002
  -4.9658680572528188E-006   6.3629152189867422E-007   6.2127811169260909E-002
  -7.1114034783242852E-006   6.1904747401348922E-006   6.3296450081371025E-002
  -9.2569388993983537E-006   1.4923470053079813E-005   6.4600884946572928E-002
   2.7945164376009933E-002  -7.4540205516775981E-003   6.1655631834437591E-002
   2.7221669900115507E-002  -7.5748948016335360E-003   6.1371048698358938E-002
   2.6498175424221084E-002  -7.5972810159291096E-003   6.1322469082045750E-002
   2.5774680948326648E-002  -7.5211791945644802E-003   6.1509892985498339E-002
   2.5051186472432235E-002  -7.3465893375395386E-003   6.1933320408716491E-002
   2.0826328720059982E-002  -5.5867845462449772E-003   6.2324279861541571E-002
   2.0325007822815662E-002  -5.6767503515355380E-003   6.2196973315534719E-002
   1.9823686925571345E-002  -5.6966315664084763E-003   6.2278010407062406E-002
   1.9322366028327029E-002  -5.6464281908636654E-003   6.2567391136124667E-002
   1.8821045131082709E-002  -5.5261402249012492E-003   6.3065115502721564E-002
   1.3794313282258447E-002  -3.7195485408122730E-003   6.3038038055932083E-002
   1.3487506081433181E-002  -3.7786059014376094E-003   6.3039604654754500E-002
   1.3180698880607918E-002  -3.7959821168877840E-003   6.3221855008880501E-002
   1.2873891679782652E-002  -3.7716771871629052E-003   6.3584789118309976E-002
   1.2567084478957380E-002  -3.7056911122628905E-003   6.4128406983042952E-002
   6.8491180626053180E-003  -1.8523125353795966E-003   6.3796906417609295E-002
   6.7091646759680490E-003  -1.8804614513396878E-003   6.3898942716018342E-002
   6.5692112893307852E-003  -1.8953326673671212E-003   6.4154002887499936E-002
   6.4292579026935187E-003  -1.8969261834621037E-003   6.4562086932054050E-002
   6.2893045160562558E-003  -1.8852419996245803E-003   6.5123194849680460E-002
  -9.2569388993983537E-006   1.4923470053079813E-005   6.4600884946572928E-002
  -1.0016393579719007E-005   1.7682998758296320E-005   6.4774987499326170E-002
  -1.0775848260044865E-005   5.3167821535693438E-006   6.5074454042920851E-002
  -1.1535302940368121E-005  -2.2175179761350916E-005   6.5499284577356889E-002
  -1.2294757620691377E-005  -6.4792886986214659E-005   6.6049479102634395E-002
   2.5051186472432235E-002  -7.3465893375395386E-003   6.1933320408716491E-002
   2.4313346266403635E-002  -7.1239293155062333E-003   6.1724185317880820E-002
   2.3575506060375034E-002  -6.9036169991161037E-003   6.1674286531893982E-002
   2.2837665854346441E-002  -6.6856523883692762E-003   6.1783624050755985E-002
   2.2099825648317847E-002  -6.4700354832658014E-003   6.2052197874466752E-002
   1.8821045131082709E-002  -5.5261402249012492E-003   6.3065115502721564E-002
   1.8249233145236916E-002  -5.3702593656357600E-003   6.2838329761716549E-002
   1.7677421159391117E-002  -5.2132773101820906E-003   6.2784364156228373E-002
   1.7105609173545321E-002  -5.0551940585400260E-003   6.2903218686256979E-002
   1.6533797187699532E-002  -4.8960096107097117E-003   6.3194893351802395E-002
   1.2567084478957380E-002  -3.7056911122628905E-003   6.4128406983042952E-002
   1.2174884543962355E-002  -3.6165894157654116E-003   6.3887419493700234E-002
   1.1782684608967323E-002  -3.5229376212479908E-003   6.3832835970542220E-002
   1.1390484673972291E-002  -3.4247357287107193E-003   6.3964656413569035E-002
   1.0998284738977262E-002  -3.3219837381535389E-003   6.4282880822780497E-002
   6.2893045160562558E-003  -1.8852419996245803E-003   6.5123194849680460E-002
   6.0903004625799577E-003  -1.8629194658950285E-003   6.4871454513831694E-002
   5.8912964091036631E-003  -1.8325979323139899E-003   6.4819701974835525E-002
   5.6922923556273668E-003  -1.7942773988813853E-003   6.4967937232692161E-002
   5.4932883021510713E-003  -1.7479578655973799E-003   6.5316160287401420E-002
  -1.2294757620691377E-005  -6.4792886986214659E-005   6.6049479102634395E-002
  -4.5190989102841805E-006  -1.0924951602458988E-004   6.5790434822111027E-002
   3.2565598001247503E-006  -1.4225824337992660E-004   6.5744962169108315E-002
   1.1032218510531946E-005  -1.6381906905211900E-004   6.5913061143626273E-002
   1.8807877220940877E-005  -1.7393199304122087E-004   6.6294731745664970E-002
   2.2099825648317847E-002  -6.4700354832658014E-003   6.2052197874466752E-002
   2.1179735670549898E-002  -6.2436633720995005E-003   6.1664397081205385E-002
   2.0259645692781943E-002  -5.9934331431639454E-003   6.1533307724339736E-002
   1.9339555715014004E-002  -5.7193447964589486E-003   6.1658929803869916E-002
   1.8419465737246066E-002  -5.4213983319849057E-003   6.2041263319796036E-002
   1.6533797187699532E-002  -4.8960096107097117E-003   6.3194893351802395E-002
   1.5863190857135473E-002  -4.7281491976933487E-003   6.2850435207221500E-002
   1.5192584526571417E-002  -4.5440380504932973E-003   6.2748232920652722E-002
   1.4521978196007352E-002  -4.3436761691093961E-003   6.2888286492095685E-002
   1.3851371865443302E-002  -4.1270635535417544E-003   6.3270595921550821E-002
   1.0998284738977262E-002  -3.3219837381535389E-003   6.4282880822780497E-002
   1.0562706477233223E-002  -3.2126350232872941E-003   6.3974157943294863E-002
   1.0127128215489186E-002  -3.0946429578227047E-003   6.3893235343437285E-002
   9.6915499537451495E-003  -2.9680075417598435E-003   6.4040113023207834E-002
   9.2559716920011109E-003  -2.8327287750986863E-003   6.4414790982606371E-002
   5.4932883021510713E-003  -1.7479578655973799E-003   6.5316160287401420E-002
   5.2782825308431668E-003  -1.6971208488811354E-003   6.5035565289425459E-002
   5.0632767595352613E-003  -1.6452478651521399E-003   6.4968314992693704E-002
   4.8482709882273567E-003  -1.5923389144102632E-003   6.5114409397206113E-002
   4.6332652169194539E-003  -1.5383939966555488E-003   6.5473848502962770E-002
   1.8807877220940877E-005  -1.7393199304122087E-004   6.6294731745664970E-002
   9.9190179652965116E-006  -1.8160667447508771E-004   6.6034657245613193E-002
   1.0301587096504111E-006  -1.9585277248163058E-004   6.5973471868421812E-002
  -7.8587005459948220E-006  -2.1667028706072455E-004   6.6111175614090634E-002
  -1.6747559801640055E-005  -2.4405921821252230E-004   6.6447768482619907E-002
   1.8419465737246066E-002  -5.4213983319849057E-003   6.2041263319796036E-002
   1.7780656285459218E-002  -5.1113345336483151E-003   6.1935653331811502E-002
   1.7141846833672397E-002  -4.8008941853563553E-003   6.1952061378002937E-002
   1.6503037381885563E-002  -4.4900772871085716E-003   6.2090487458370244E-002
   1.5864227930098729E-002  -4.1788838389056338E-003   6.2350931572913937E-002
   1.3851371865443302E-002  -4.1270635535417544E-003   6.3270595921550821E-002
   1.3343059637461747E-002  -3.9057222206451692E-003   6.3142950446770929E-002
   1.2834747409480179E-002  -3.6911741872748677E-003   6.3154281385425504E-002
   1.2326435181498618E-002  -3.4834194534302081E-003   6.3304588737514697E-002
   1.1818122953517057E-002  -3.2824580191118669E-003   6.3593872503038440E-002
   9.2559716920011109E-003  -2.8327287750986863E-003   6.4414790982606371E-002
   8.8951150670834034E-003  -2.7001099076421342E-003   6.4257940171549441E-002
   8.5342584421656958E-003  -2.5814541891933176E-003   6.4257024153185710E-002
   8.1734018172479918E-003  -2.4767616197519538E-003   6.4412042927515206E-002
   7.8125451923302877E-003  -2.3860321993183220E-003   6.4722996494537777E-002
   4.6332652169194539E-003  -1.5383939966555488E-003   6.5473848502962770E-002
   4.4368225743241889E-003  -1.4944975946390715E-003   6.5280622506147162E-002
   4.2403799317289274E-003  -1.4717341911117988E-003   6.5260289681283570E-002
   4.0439372891336615E-003  -1.4701037860736449E-003   6.5412850028371536E-002
   3.8474946465384009E-003  -1.4896063795246106E-003   6.5738303547411378E-002
  -1.6747559801640055E-005  -2.4405921821252230E-004   6.6447768482619907E-002
  -3.1817840815878684E-005  -2.8888528163592553E-004   6.6210997450564357E-002
  -4.6888121830120782E-005  -3.6201419303026616E-004   6.6164077969719043E-002
  -6.1958402844357677E-005  -4.6344595239533257E-004   6.6307010040084061E-002
  -7.7028683858601510E-005  -5.9318055973112127E-004   6.6639793661659286E-002
   1.5864227930098729E-002  -4.1788838389056338E-003   6.2350931572913937E-002
   1.4669243097038973E-002  -3.7796397372792390E-003   6.2130765914427954E-002
   1.3474258263979258E-002  -3.2046708787624723E-003   6.2493087551436843E-002
   1.2279273430919495E-002  -2.4539772633554308E-003   6.3437896483941214E-002
   1.1084288597859759E-002  -1.5275588910577120E-003   6.4965192711940789E-002
   1.1818122953517057E-002  -3.2824580191118669E-003   6.3593872503038440E-002
   1.1132403884391393E-002  -3.0383285337191590E-003   6.3475439607668827E-002
   1.0446684815265728E-002  -2.7010696466518019E-003   6.3793050944672219E-002
   9.7609657461400420E-003  -2.2706813579098269E-003   6.4546706514048507E-002
   9.0752466770143703E-003  -1.7471636674932789E-003   6.5736406315798024E-002
   7.8125451923302877E-003  -2.3860321993183220E-003   6.4722996494537777E-002
   7.4896488240165267E-003  -2.2970173301590235E-003   6.4623701007068532E-002
   7.1667524557027622E-003  -2.1974684145411316E-003   6.4814006688850026E-002
   6.8438560873889855E-003  -2.0873854524643617E-003   6.5293913539882578E-002
   6.5209597190752366E-003  -1.9667684439288458E-003   6.6063421560165814E-002
   3.8474946465384009E-003  -1.4896063795246106E-003   6.5738303547411378E-002
   3.7409779159143786E-003  -1.5557061265988603E-003   6.5575550112626821E-002
   3.6344611852903485E-003  -1.6938671824304613E-003   6.5555954783970916E-002
   3.5279444546663318E-003  -1.9040895470187717E-003   6.5679517561443662E-002
   3.4214277240422822E-003  -2.1863732203643571E-003   6.5946238445045074E-002
  -7.7028683858601510E-005  -5.9318055973112127E-004   6.6639793661659286E-002
  -1.1360883991504839E-004  -8.1439492303869709E-004   6.6330986924343638E-002
  -1.5018899597150220E-004  -1.1902659503197632E-003   6.6018895230034291E-002
  -1.8676915202795082E-004  -1.7207936415732303E-003   6.5703518578731551E-002
  -2.2334930808440290E-004  -2.4059779967999795E-003   6.5384856970434946E-002
  -3.4800506044582735E-008   0.0000000000000000        2.8445722665305151E-002
  -4.2073400279615120E-007  -1.4722782382819988E-007   3.3408008850075312E-002
  -8.0666749955010490E-007   6.9653763852192685E-008   3.8377763983326638E-002
  -1.1926009963019986E-006   6.5064476303076935E-007   4.3354988065059115E-002
  -1.5785344930547597E-006   1.5957451737266121E-006   4.8339681095272757E-002
  -6.7998209142744511E-003   0.0000000000000000        2.8509439495742805E-002
  -6.8321316439338541E-003   1.4636153092228207E-004   3.3545423026995758E-002
  -6.8644423735932545E-003   3.2992023687934430E-004   3.8510088017442240E-002
  -6.8967531032526584E-003   5.5067611787119018E-004   4.3403434467082273E-002
  -6.9290638329120571E-003   8.0862917389781970E-004   4.8225462375915844E-002
  -1.3505296579139407E-002   0.0000000000000000        2.8701248552114929E-002
  -1.3648319594249076E-002   2.9287028966838973E-004   3.3847762495473943E-002
  -1.3791342609358747E-002   6.5977081999483902E-004   3.8844170408738873E-002
  -1.3934365624468419E-002   1.1007015909793470E-003   4.3690472291909727E-002
  -1.4077388639578085E-002   1.6156626026219171E-003   4.8386668144986496E-002
  -2.0116461795100907E-002   0.0000000000000000        2.9021149834421528E-002
  -2.0448984584948468E-002   4.3937904841449826E-004   3.4315027255509882E-002
  -2.0781507374796025E-002   9.8962140311033156E-004   3.9380011157216531E-002
  -2.1114030164643586E-002   1.6507270640875068E-003   4.4216101539541489E-002
  -2.1446552954491147E-002   2.4226960313460072E-003   4.8823298402484748E-002
  -2.6633316562158959E-002   0.0000000000000000        2.9469143342662589E-002
  -2.7234126616032025E-002   5.8588780716060680E-004   3.4947217307103567E-002
  -2.7834936669905094E-002   1.3194719862258258E-003   4.0117610262875213E-002
  -2.8435746723778160E-002   2.2007525371956597E-003   4.4980322209977545E-002
  -2.9036556777651226E-002   3.2297294600701094E-003   4.9535353148410566E-002
  -1.5785344930547597E-006   1.5957451737266121E-006   4.8339681095272757E-002
  -1.3526001735679992E-006   2.2829000233051677E-006   5.1507147307721997E-002
  -1.1266658540810218E-006   2.0900543391158370E-006   5.4539342730045626E-002
  -9.0073153459328554E-007   1.0172081212005786E-006   5.7436267362243693E-002
  -6.7479721510728397E-007  -9.3563863044765494E-007   6.0197921204316177E-002
  -6.9290638329120571E-003   8.0862917389781970E-004   4.8225462375915844E-002
  -7.0348467387448665E-003   1.0635943461014419E-003   5.1179324558484056E-002
  -7.1406296445776759E-003   1.2753865756242482E-003   5.4056439850873259E-002
  -7.2464125504104852E-003   1.4440058624662741E-003   5.6856808253083445E-002
  -7.3521954562432938E-003   1.5694522066274502E-003   5.9580429765114601E-002
  -1.4077388639578085E-002   1.6156626026219171E-003   4.8386668144986496E-002
  -1.4230656485616628E-002   2.1249057921795718E-003   5.1084633355526633E-002
  -1.4383924331655161E-002   2.5486830969093672E-003   5.3764375575834321E-002
  -1.4537192177693699E-002   2.8869945168112925E-003   5.6425894805909579E-002
  -1.4690460023732236E-002   3.1398400518853412E-003   5.9069191045752381E-002
  -2.1446552954491147E-002   2.4226960313460072E-003   4.8823298402484748E-002
  -2.1588781840788839E-002   3.1862172382577190E-003   5.1223073698849743E-002
  -2.1731010727086532E-002   3.8219796181945031E-003   5.3663149904928834E-002
  -2.1873239613384225E-002   4.3299831711563208E-003   5.6143527020722055E-002
  -2.2015468499681921E-002   4.7102278971432286E-003   5.8664205046229427E-002
  -2.9036556777651226E-002   3.2297294600701094E-003   4.9535353148410566E-002
  -2.9109222804261512E-002   4.2475286843358540E-003   5.1594645588453350E-002
  -2.9181888830871791E-002   5.0952761394796216E-003   5.3752762838156797E-002
  -2.9254554857482080E-002   5.7729718255013713E-003   5.6009704897520982E-002
  -2.9327220884092363E-002   6.2806157424011230E-003   5.8365471766545808E-002
  -6.7479721510728397E-007  -9.3563863044765494E-007   6.0197921204316177E-002
  -2.8203326361796177E-006  -1.7390796015724630E-006   6.1094968210242642E-002
  -4.9658680572528188E-006   6.3629152189867422E-007   6.2127811169260909E-002
  -7.1114034783242852E-006   6.1904747401348922E-006   6.3296450081371025E-002
  -9.2569388993983537E-006   1.4923470053079813E-005   6.4600884946572928E-002
  -7.3521954562432938E-003   1.5694522066274502E-003   5.9580429765114601E-002
  -7.2306690850301959E-003   1.6661404563294117E-003   6.0473026599051183E-002
  -7.1091427138170998E-003   1.7484854597937666E-003   6.1477171293164282E-002
  -6.9876163426040002E-003   1.8164872170203725E-003   6.2592863847453870E-002
  -6.8660899713909075E-003   1.8701457280093925E-003   6.3820104261920002E-002
  -1.4690460023732236E-002   3.1398400518853412E-003   5.9069191045752381E-002
  -1.4469509838800271E-002   3.3340199922604497E-003   5.9939815649366707E-002
  -1.4248559653868311E-002   3.4963346280655529E-003   6.0897740020242265E-002
  -1.4027609468936353E-002   3.6267839593006382E-003   6.1942964158378987E-002
  -1.3806659284004388E-002   3.7253679859657468E-003   6.3075488063776983E-002
  -2.2015468499681921E-002   4.7102278971432286E-003   5.8664205046229427E-002
  -2.1719342593946405E-002   5.0018995281915094E-003   5.9495335361189179E-002
  -2.1423216688210896E-002   5.2441837963373662E-003   6.0389517350494845E-002
  -2.1127090782475377E-002   5.4370807015808901E-003   6.1346751014146383E-002
  -2.0830964876739869E-002   5.5805902439221081E-003   6.2367036352143836E-002
  -2.9327220884092363E-002   6.2806157424011230E-003   5.8365471766545808E-002
  -2.8980167350468600E-002   6.6697790641224823E-003   5.9139585734518635E-002
  -2.8633113816844847E-002   6.9920329646092020E-003   5.9952503283922043E-002
  -2.8286060283221091E-002   7.2473774438611051E-003   6.0804224414756004E-002
  -2.7939006749597328E-002   7.4358125018784277E-003   6.1694749127020623E-002
  -9.2569388993983537E-006   1.4923470053079813E-005   6.4600884946572928E-002
  -1.0016393579719007E-005   1.7682998758296320E-005   6.4774987499326170E-002
  -1.0775848260044865E-005   5.3167821535693438E-006   6.5074454042920851E-002
  -1.1535302940368121E-005  -2.2175179761350916E-005   6.5499284577356889E-002
  -1.2294757620691377E-005  -6.4792886986214659E-005   6.6049479102634395E-002
  -6.8660899713909075E-003   1.8701457280093925E-003   6.3820104261920002E-002
  -6.7275682947490244E-003   1.9015174816527786E-003   6.3901709668150231E-002
  -6.5890466181071448E-003   1.9026589668425450E-003   6.4136513346183394E-002
  -6.4505249414652643E-003   1.8735701835787249E-003   6.4524515296019574E-002
  -6.3120032648233820E-003   1.8142511318612609E-003   6.5065715517658801E-002
  -1.3806659284004388E-002   3.7253679859657468E-003   6.3075488063776983E-002
  -1.3501022195078732E-002   3.7853519645472573E-003   6.3049491800340585E-002
  -1.3195385106153078E-002   3.8000011515316040E-003   6.3204528089668754E-002
  -1.2889748017227424E-002   3.7693155469187729E-003   6.3540596931761478E-002
  -1.2584110928301768E-002   3.6932951507087780E-003   6.4057698326618784E-002
  -2.0830964876739869E-002   5.5805902439221081E-003   6.2367036352143836E-002
  -2.0330378094568863E-002   5.6691864474416823E-003   6.2218333895897343E-002
  -1.9829791312397857E-002   5.6973433362206075E-003   6.2278498273376920E-002
  -1.9329204530226844E-002   5.6650609102588487E-003   6.2547529484582684E-002
  -1.8828617748055838E-002   5.5723391695563160E-003   6.3025427529514538E-002
  -2.7939006749597328E-002   7.4358125018784277E-003   6.1694749127020623E-002
  -2.7215635993219398E-002   7.5530209303361975E-003   6.1408235954820395E-002
  -2.6492265236841471E-002   7.5946855209096491E-003   6.1358423897307883E-002
  -2.5768894480463527E-002   7.5608062735989133E-003   6.1545312954483081E-002
  -2.5045523724085601E-002   7.4513831884037984E-003   6.1968903126346009E-002
  -1.2294757620691377E-005  -6.4792886986214659E-005   6.6049479102634395E-002
  -4.5190989102841805E-006  -1.0924951602458988E-004   6.5790434822111027E-002
   3.2565598001247503E-006  -1.4225824337992660E-004   6.5744962169108315E-002
   1.1032218510531946E-005  -1.6381906905211900E-004   6.5913061143626273E-002
   1.8807877220940877E-005  -1.7393199304122087E-004   6.6294731745664970E-002
  -6.3120032648233820E-003   1.8142511318612609E-003   6.5065715517658801E-002
  -6.0986597781279130E-003   1.7421732826194275E-003   6.4834348568868119E-002
  -5.8853162914324370E-003   1.6748081067825202E-003   6.4800545648526775E-002
  -5.6719728047369602E-003   1.6121556043504678E-003   6.4964306756634949E-002
  -5.4586293180414920E-003   1.5542157753234420E-003   6.5325631893192598E-002
  -1.2584110928301768E-002   3.6932951507087780E-003   6.4057698326618784E-002
  -1.2181207212692474E-002   3.5935960812635837E-003   6.3847273481282607E-002
  -1.1778303497083179E-002   3.4918744569450190E-003   6.3818405065324574E-002
  -1.1375399781473887E-002   3.3881302777532202E-003   6.3971093078744781E-002
  -1.0972496065864590E-002   3.2823635436880771E-003   6.4305337521543160E-002
  -1.8828617748055838E-002   5.5723391695563160E-003   6.3025427529514538E-002
  -1.8252161402603974E-002   5.4450188799076843E-003   6.2829209559354643E-002
  -1.7675705057152095E-002   5.3089408071074918E-003   6.2798540419501669E-002
  -1.7099248711700221E-002   5.1641049511559171E-003   6.2933420109955673E-002
  -1.6522792366248353E-002   5.0105113120527539E-003   6.3233848630716558E-002
  -2.5045523724085601E-002   7.4513831884037984E-003   6.1968903126346009E-002
  -2.4311522347862404E-002   7.2964416785517711E-003   6.1780156803084157E-002
  -2.3577520971639197E-002   7.1260071572699854E-003   6.1740951711058020E-002
  -2.2843519595416001E-002   6.9400796245585924E-003   6.1851287850267563E-002
  -2.2109518219192797E-002   6.7386590804173752E-003   6.2111165220712861E-002
   1.8807877220940877E-005  -1.7393199304122087E-004   6.6294731745664970E-002
   9.9190179652965116E-006  -1.8160667447508771E-004   6.6034657245613193E-002
   1.0301587096504111E-006  -1.9585277248163058E-004   6.5973471868421812E-002
  -7.8587005459948220E-006  -2.1667028706072455E-004   6.6111175614090634E-002
  -1.6747559801640055E-005  -2.4405921821252230E-004   6.6447768482619907E-002
  -5.4586293180414920E-003   1.5542157753234420E-003   6.5325631893192598E-002
  -5.2599772330324378E-003   1.4949140191638094E-003   6.5030775689863304E-002
  -5.0613251480233906E-003   1.4281757353343666E-003   6.4952112252203098E-002
  -4.8626730630143434E-003   1.3540009238349020E-003   6.5089641580212035E-002
  -4.6640209780052892E-003   1.2723895846657451E-003   6.5443363673890004E-002
  -1.0972496065864590E-002   3.2823635436880771E-003   6.4305337521543160E-002
  -1.0548999393782088E-002   3.1714347128027343E-003   6.3974834503839062E-002
  -1.0125502721699589E-002   3.0522042431501972E-003   6.3877827894612785E-002
  -9.7020060496170839E-003   2.9246721347306395E-003   6.4014317693864370E-002
  -9.2785093775345946E-003   2.7888383875438183E-003   6.4384303901593734E-002
  -1.6522792366248353E-002   5.0105113120527539E-003   6.3233848630716558E-002
  -1.5857147464283648E-002   4.8479554064416175E-003   6.2866833687540424E-002
  -1.5191502562318949E-002   4.6762327509661944E-003   6.2750618795650831E-002
  -1.4525857660354250E-002   4.4953433456262383E-003   6.2885203955047916E-002
  -1.3860212758389546E-002   4.3052871904220164E-003   6.3270589165731500E-002
  -2.2109518219192797E-002   6.7386590804173752E-003   6.2111165220712861E-002
  -2.1184421444537142E-002   6.5244761000805562E-003   6.1706773240967461E-002
  -2.0259324669881472E-002   6.3002612587819834E-003   6.1570484955317306E-002
  -1.9334227895225802E-002   6.0660145565219654E-003   6.1702300363762438E-002
  -1.8409131120570139E-002   5.8217359933001034E-003   6.2102219466303066E-002
  -1.6747559801640055E-005  -2.4405921821252230E-004   6.6447768482619907E-002
  -3.1817840815878684E-005  -2.8888528163592553E-004   6.6210997450564357E-002
  -4.6888121830120782E-005  -3.6201419303026616E-004   6.6164077969719043E-002
  -6.1958402844357677E-005  -4.6344595239533257E-004   6.6307010040084061E-002
  -7.7028683858601510E-005  -5.9318055973112127E-004   6.6639793661659286E-002
  -4.6640209780052892E-003   1.2723895846657451E-003   6.5443363673890004E-002
  -4.4958306365385017E-003   1.1800610229968644E-003   6.5211636349129354E-002
  -4.3276402950717142E-003   1.0737345439988527E-003   6.5156578718120653E-002
  -4.1594499536049346E-003   9.5341014767158852E-004   6.5278190780863443E-002
  -3.9912596121381462E-003   8.1908783401513086E-004   6.5576472537358155E-002
  -9.2785093775345946E-003   2.7888383875438183E-003   6.4384303901593734E-002
  -8.9402402710453549E-003   2.6490073276296405E-003   6.4171925214769790E-002
  -8.6019711645561308E-003   2.5094832810278536E-003   6.4123034364239051E-002
  -8.2637020580668980E-003   2.3702662477382858E-003   6.4237631350001448E-002
  -7.9254329515776670E-003   2.2313562277612164E-003   6.4515716172056981E-002
  -1.3860212758389546E-002   4.3052871904220164E-003   6.3270589165731500E-002
  -1.3365046744336462E-002   4.1179536322626456E-003   6.3091864047485735E-002
  -1.2869880730283362E-002   3.9452320180569690E-003   6.3063444908074556E-002
  -1.2374714716230277E-002   3.7871223478052060E-003   6.3185331747497825E-002
  -1.1879548702177179E-002   3.6436246215072743E-003   6.3457524565755874E-002
  -1.8409131120570139E-002   5.8217359933001034E-003   6.2102219466303066E-002
  -1.7770250056411776E-002   5.5868999368951788E-003   6.1971452847277064E-002
  -1.7131368992253419E-002   5.3809807550859873E-003   6.1977810349627016E-002
  -1.6492487928095052E-002   5.2039784478718522E-003   6.2121291973352935E-002
  -1.5853606863936692E-002   5.0558930152534431E-003   6.2401897718454946E-002
  -7.7028683858601510E-005  -5.9318055973112127E-004   6.6639793661659286E-002
  -1.1360883991504839E-004  -8.1439492303869709E-004   6.6330986924343638E-002
  -1.5018899597150220E-004  -1.1902659503197632E-003   6.6018895230034291E-002
  -1.8676915202795082E-004  -1.7207936415732303E-003   6.5703518578731551E-002
  -2.2334930808440290E-004  -2.4059779967999795E-003   6.5384856970434946E-002
  -3.9912596121381462E-003   8.1908783401513086E-004   6.5576472537358155E-002
  -3.9495153077627014E-003   6.4009506577114572E-004   6.5214332978398265E-002
  -3.9077710033872549E-003   3.8575930568104932E-004   6.5012127297295691E-002
  -3.8660266990118101E-003   5.6080553745389838E-005   6.4969855494050238E-002
  -3.8242823946363844E-003  -3.4894119003614499E-004   6.5087517568662379E-002
  -7.9254329515776670E-003   2.2313562277612164E-003   6.4515716172056981E-002
  -7.6421453519195364E-003   2.0945850545808775E-003   6.4179557463580256E-002
  -7.3588577522613850E-003   1.9617845616817370E-003   6.4166551467811722E-002
  -7.0755701526032493E-003   1.8329547490641175E-003   6.4476698184751241E-002
  -6.7922825529451031E-003   1.7080956167275785E-003   6.5109997614398729E-002
  -1.1879548702177179E-002   3.6436246215072743E-003   6.3457524565755874E-002
  -1.1191498972385534E-002   3.5490750433906648E-003   6.3226660379889360E-002
  -1.0503449242593882E-002   3.5378098176825426E-003   6.3482167741581830E-002
  -9.8153995128022180E-003   3.6098289443827914E-003   6.4224046650833214E-002
  -9.1273497830105695E-003   3.7651324234913575E-003   6.5452297107643359E-002
  -1.5853606863936692E-002   5.0558930152534431E-003   6.2401897718454946E-002
  -1.4597576169160714E-002   5.0035650322003966E-003   6.2355641727325883E-002
  -1.3341545474384733E-002   5.1138350736831539E-003   6.2958976118606735E-002
  -1.2085514779608770E-002   5.3867031397014445E-003   6.4211900892297058E-002
  -1.0829484084832780E-002   5.8221692302551364E-003   6.6114416048397295E-002
  -2.6633316562158959E-002   0.0000000000000000        2.9469143342662589E-002
  -2.7234126616032025E-002   5.8588780716060680E-004   3.4947217307103567E-002
  -2.7834936669905094E-002   1.3194719862258258E-003   4.0117610262875213E-002
  -2.8435746723778160E-002   2.2007525371956597E-003   4.4980322209977545E-002
  -2.9036556777651226E-002   3.2297294600701094E-003   4.9535353148410566E-002
  -3.3392934790592910E-002   0.0000000000000000        3.0179562240107875E-002
  -3.4236350021645282E-002   9.6034292520907113E-004   3.5268267601862711E-002
  -3.5079765252697660E-002   2.0237753534717478E-003   4.0179443617928245E-002
  -3.5923180483750039E-002   3.1902972847880351E-003   4.4913090288304473E-002
  -3.6766595714802418E-002   4.4599087191579245E-003   4.9469207612991395E-002
  -4.0732390390682105E-002   0.0000000000000000        3.1286739690027127E-002
  -4.1688259135933776E-002   1.3347980432575359E-003   3.5941469580244821E-002
  -4.2644127881185462E-002   2.7280787207176697E-003   4.0548821787753223E-002
  -4.3599996626437133E-002   4.1798420323804052E-003   4.5108796312552338E-002
  -4.4555865371688812E-002   5.6900879782457352E-003   4.9621393154642160E-002
  -4.8651683362426562E-002   0.0000000000000000        3.2790675692420349E-002
  -4.9589853958897527E-002   1.7092531613060000E-003   3.6966823242249897E-002
  -5.0528024555368464E-002   3.4323820879635886E-003   4.1225744772350151E-002
  -5.1466195151839436E-002   5.1693867799727728E-003   4.5567440282721146E-002
  -5.2404365748310380E-002   6.9202672373335442E-003   4.9991909773362868E-002
  -5.7150813705826267E-002   0.0000000000000000        3.4691370247287537E-002
  -5.7941134490536492E-002   2.0837082793544650E-003   3.8344328587877924E-002
  -5.8731455275246716E-002   4.1366854552095135E-003   4.2210212571719051E-002
  -5.9521776059956941E-002   6.1589315275651473E-003   4.6289022198810911E-002
  -6.0312096844667172E-002   8.1504464964213610E-003   5.0580757469153512E-002
  -2.9036556777651226E-002   3.2297294600701094E-003   4.9535353148410566E-002
  -2.9109222804261512E-002   4.2475286843358540E-003   5.1594645588453350E-002
  -2.9181888830871791E-002   5.0952761394796216E-003   5.3752762838156797E-002
  -2.9254554857482080E-002   5.7729718255013713E-003   5.6009704897520982E-002
  -2.9327220884092363E-002   6.2806157424011230E-003   5.8365471766545808E-002
  -3.6766595714802418E-002   4.4599087191579245E-003   4.9469207612991395E-002
  -3.6779211531639357E-002   5.6929314605441549E-003   5.1257335404340167E-002
  -3.6791827348476303E-002   6.7496873129094907E-003   5.3066738805574915E-002
  -3.6804443165313241E-002   7.6301762762539032E-003   5.4897417816695680E-002
  -3.6817058982150180E-002   8.3343983505774072E-003   5.6749372437702408E-002
  -4.4555865371688812E-002   5.6900879782457352E-003   4.9621393154642160E-002
  -4.4585980178527100E-002   7.1383342367524550E-003   5.1132141177398019E-002
  -4.4616094985365402E-002   8.4040984863393512E-003   5.2586615610265161E-002
  -4.4646209792203698E-002   9.4873807270064274E-003   5.3984816453243580E-002
  -4.4676324599042007E-002   1.0388180958753681E-002   5.5326743706333330E-002
  -5.2404365748310380E-002   6.9202672373335442E-003   4.9991909773362868E-002
  -5.2529528744924753E-002   8.5837370129607515E-003   5.1219062907626893E-002
  -5.2654691741539125E-002   1.0058509659769231E-002   5.2312393252227501E-002
  -5.2779854738153477E-002   1.1344585177758963E-002   5.3271900807164700E-002
  -5.2905017734767835E-002   1.2441963566929939E-002   5.4097585572438489E-002
  -6.0312096844667172E-002   8.1504464964213610E-003   5.0580757469153512E-002
  -6.0609857230832287E-002   1.0029139789169049E-002   5.1518100595026810E-002
  -6.0907617616997430E-002   1.1712920833199091E-002   5.2244071731461984E-002
  -6.1205378003162551E-002   1.3201789628511498E-002   5.2758670878459028E-002
  -6.1503138389327666E-002   1.4495746175106246E-002   5.3061898036017997E-002
  -2.9327220884092363E-002   6.2806157424011230E-003   5.8365471766545808E-002
  -2.8980167350468600E-002   6.6697790641224823E-003   5.9139585734518635E-002
  -2.8633113816844847E-002   6.9920329646092020E-003   5.9952503283922043E-002
  -2.8286060283221091E-002   7.2473774438611051E-003   6.0804224414756004E-002
  -2.7939006749597328E-002   7.4358125018784277E-003   6.1694749127020623E-002
  -3.6817058982150180E-002   8.3343983505774072E-003   5.6749372437702408E-002
  -3.6380224409020598E-002   8.8770762605348899E-003   5.7098170914443559E-002
  -3.5943389835891022E-002   9.2729327307812422E-003   5.7587727888765740E-002
  -3.5506555262761440E-002   9.5219677613165438E-003   5.8218043360668978E-002
  -3.5069720689631850E-002   9.6241813521406872E-003   5.8989117330153322E-002
  -4.4676324599042007E-002   1.0388180958753681E-002   5.5326743706333330E-002
  -4.4047754070256129E-002   1.1084373456947271E-002   5.5170314673366375E-002
  -4.3419183541470258E-002   1.1553832496953336E-002   5.5256599054130946E-002
  -4.2790613012684400E-002   1.1796558078771915E-002   5.5585596848627052E-002
  -4.2162042483898515E-002   1.1812550202403023E-002   5.6157308056854677E-002
  -5.2905017734767835E-002   1.2441963566929939E-002   5.4097585572438489E-002
  -5.1982756334175199E-002   1.3291670653359632E-002   5.3356017011287074E-002
  -5.1060494933582577E-002   1.3834732263125439E-002   5.2959116780017662E-002
  -5.0138233532989934E-002   1.4071148396227319E-002   5.2906884878630267E-002
  -4.9215972132397298E-002   1.4000919052665334E-002   5.3199321307124785E-002
  -6.1503138389327666E-002   1.4495746175106246E-002   5.3061898036017997E-002
  -6.0185231200777810E-002   1.5498967849772047E-002   5.1655277928205699E-002
  -5.8867324012227953E-002   1.6115632029297458E-002   5.0695281066425874E-002
  -5.7549416823678083E-002   1.6345738713682705E-002   5.0181907450678562E-002
  -5.6231509635128234E-002   1.6189287902927618E-002   5.0115157080963646E-002
  -2.7939006749597328E-002   7.4358125018784277E-003   6.1694749127020623E-002
  -2.7215635993219398E-002   7.5530209303361975E-003   6.1408235954820395E-002
  -2.6492265236841471E-002   7.5946855209096491E-003   6.1358423897307883E-002
  -2.5768894480463527E-002   7.5608062735989133E-003   6.1545312954483081E-002
  -2.5045523724085601E-002   7.4513831884037984E-003   6.1968903126346009E-002
  -3.5069720689631850E-002   9.6241813521406872E-003   5.8989117330153322E-002
  -3.4119031154826375E-002   9.6249511183715414E-003   5.8665808943780803E-002
  -3.3168341620020921E-002   9.5696546751267361E-003   5.8560436999575680E-002
  -3.2217652085215445E-002   9.4582920224062766E-003   5.8673001497537937E-002
  -3.1266962550409991E-002   9.2908631602101610E-003   5.9003502437667485E-002
  -4.2162042483898515E-002   1.1812550202403023E-002   5.6157308056854677E-002
  -4.1002798843185875E-002   1.1696881306406854E-002   5.5816682084718579E-002
  -3.9843555202473221E-002   1.1544623829343714E-002   5.5675227882229457E-002
  -3.8684311561760588E-002   1.1355777771213641E-002   5.5732945449387360E-002
  -3.7525067921047935E-002   1.1130343132016510E-002   5.5989834786192301E-002
  -4.9215972132397298E-002   1.4000919052665334E-002   5.3199321307124785E-002
  -4.7866939058297836E-002   1.3768811494442154E-002   5.2860855377633728E-002
  -4.6517905984198374E-002   1.3519592983560817E-002   5.2702796545269312E-002
  -4.5168872910098898E-002   1.3253263520020975E-002   5.2725144810031509E-002
  -4.3819839835999470E-002   1.2969823103822907E-002   5.2927900171920415E-002
  -5.6231509635128234E-002   1.6189287902927618E-002   5.0115157080963646E-002
  -5.4711451800162306E-002   1.5840741682477538E-002   4.9798328822526217E-002
  -5.3191393965196357E-002   1.5494562137777772E-002   4.9643142988695127E-002
  -5.1671336130230429E-002   1.5150749268828352E-002   4.9649599579470301E-002
  -5.0151278295264501E-002   1.4809303075629193E-002   4.9817698594851800E-002
  -2.5045523724085601E-002   7.4513831884037984E-003   6.1968903126346009E-002
  -2.4311522347862404E-002   7.2964416785517711E-003   6.1780156803084157E-002
  -2.3577520971639197E-002   7.1260071572699854E-003   6.1740951711058020E-002
  -2.2843519595416001E-002   6.9400796245585924E-003   6.1851287850267563E-002
  -2.2109518219192797E-002   6.7386590804173752E-003   6.2111165220712861E-002
  -3.1266962550409991E-002   9.2908631602101610E-003   5.9003502437667485E-002
  -3.0373277899083798E-002   9.0837141642266944E-003   5.8768798079194925E-002
  -2.9479593247757587E-002   8.8531911101440292E-003   5.8703919039692680E-002
  -2.8585908596431363E-002   8.5992939979621756E-003   5.8808865319160700E-002
  -2.7692223945105156E-002   8.3220228276811858E-003   5.9083636917599047E-002
  -3.7525067921047935E-002   1.1130343132016510E-002   5.5989834786192301E-002
  -3.6451415906884117E-002   1.0870986649901611E-002   5.5701291345839538E-002
  -3.5377763892720342E-002   1.0580375063018076E-002   5.5602857312191722E-002
  -3.4304111878556559E-002   1.0258508371365844E-002   5.5694532685248717E-002
  -3.3230459864392770E-002   9.9053865749449410E-003   5.5976317465010736E-002
  -4.3819839835999470E-002   1.2969823103822907E-002   5.2927900171920415E-002
  -4.2545936371263471E-002   1.2658259135576600E-002   5.2577636603018008E-002
  -4.1272032906527492E-002   1.2307559015892122E-002   5.2437766528555023E-002
  -3.9998129441791500E-002   1.1917722744769524E-002   5.2508289948531628E-002
  -3.8724225977055528E-002   1.1488750322208752E-002   5.2789206862947677E-002
  -5.0151278295264501E-002   1.4809303075629193E-002   4.9817698594851800E-002
  -4.8656839292221747E-002   1.4445531621251437E-002   4.9397833850730294E-002
  -4.7162400289179007E-002   1.4034742968766174E-002   4.9208646688782789E-002
  -4.5667961286136267E-002   1.3576937118173123E-002   4.9250137109009474E-002
  -4.4173522283093514E-002   1.3072114069472507E-002   4.9522305111410148E-002
  -2.2109518219192797E-002   6.7386590804173752E-003   6.2111165220712861E-002
  -2.1184421444537142E-002   6.5244761000805562E-003   6.1706773240967461E-002
  -2.0259324669881472E-002   6.3002612587819834E-003   6.1570484955317306E-002
  -1.9334227895225802E-002   6.0660145565219654E-003   6.1702300363762438E-002
  -1.8409131120570139E-002   5.8217359933001034E-003   6.2102219466303066E-002
  -2.7692223945105156E-002   8.3220228276811858E-003   5.9083636917599047E-002
  -2.6510893292338827E-002   8.0291939854878897E-003   5.8702958355150173E-002
  -2.5329562639572475E-002   7.7286238575691169E-003   5.8566643854827377E-002
  -2.4148231986806108E-002   7.4203124439249923E-003   5.8674693416630633E-002
  -2.2966901334039766E-002   7.1042597445553635E-003   5.9027107040559829E-002
  -3.3230459864392770E-002   9.9053865749449410E-003   5.5976317465010736E-002
  -3.1816634965485008E-002   9.5339118708951953E-003   5.5621642895094664E-002
  -3.0402810066577295E-002   9.1569864563561879E-003   5.5487592755335331E-002
  -2.8988985167669588E-002   8.7746103313280175E-003   5.5574167045732772E-002
  -2.7575160268761851E-002   8.3867834958104848E-003   5.5881365766286897E-002
  -3.8724225977055528E-002   1.1488750322208752E-002   5.2789206862947677E-002
  -3.7101646463975756E-002   1.1038629756302543E-002   5.2462826860800657E-002
  -3.5479066950895928E-002   1.0585349055143179E-002   5.2333331656841127E-002
  -3.3856487437816135E-002   1.0128908218730932E-002   5.2400721251068920E-002
  -3.2233907924736356E-002   9.6693072470657310E-003   5.2664995643484175E-002
  -4.4173522283093514E-002   1.3072114069472507E-002   4.9522305111410148E-002
  -4.2365927787810953E-002   1.2543347641709807E-002   4.9226510252268429E-002
  -4.0558333292528406E-002   1.2013711653930351E-002   4.9103860559344736E-002
  -3.8750738797245839E-002   1.1483206106134004E-002   4.9154356032639207E-002
  -3.6943144301963271E-002   1.0951830998320811E-002   4.9377996672151869E-002
  -1.8409131120570139E-002   5.8217359933001034E-003   6.2102219466303066E-002
  -1.7770250056411776E-002   5.5868999368951788E-003   6.1971452847277064E-002
  -1.7131368992253419E-002   5.3809807550859873E-003   6.1977810349627016E-002
  -1.6492487928095052E-002   5.2039784478718522E-003   6.2121291973352935E-002
  -1.5853606863936692E-002   5.0558930152534431E-003   6.2401897718454946E-002
  -2.2966901334039766E-002   7.1042597445553635E-003   5.9027107040559829E-002
  -2.2182733728378336E-002   6.7925609247911078E-003   5.8876697080174373E-002
  -2.1398566122716886E-002   6.4973111499633945E-003   5.8879736081419123E-002
  -2.0614398517055436E-002   6.2185104200716164E-003   5.9036224044293879E-002
  -1.9830230911394006E-002   5.9561587351164014E-003   5.9346160968799078E-002
  -2.7575160268761851E-002   8.3867834958104848E-003   5.5881365766286897E-002
  -2.6629381281343120E-002   7.9982219126869397E-003   5.5698844634882769E-002
  -2.5683602293924399E-002   7.6136415448406838E-003   5.5686097305363051E-002
  -2.4737823306505681E-002   7.2330423922713789E-003   5.5843123777727724E-002
  -2.3792044319086970E-002   6.8564244549793041E-003   5.6169924051976711E-002
  -3.2233907924736356E-002   9.6693072470657310E-003   5.2664995643484175E-002
  -3.1110192715306170E-002   9.2038829005829867E-003   5.2437895511402419E-002
  -2.9986477505875943E-002   8.7299719397180321E-003   5.2396894021458987E-002
  -2.8862762296445722E-002   8.2475743644711413E-003   5.2541991173654226E-002
  -2.7739047087015557E-002   7.7566901748422346E-003   5.2873186967988088E-002
  -3.6943144301963271E-002   1.0951830998320811E-002   4.9377996672151869E-002
  -3.5625168030267398E-002   1.0409543888478645E-002   4.9093849709732906E-002
  -3.4307191758571526E-002   9.8463023345953665E-003   4.9012126229706826E-002
  -3.2989215486875632E-002   9.2621063366708743E-003   4.9132826232073615E-002
  -3.1671239215179767E-002   8.6569558947051650E-003   4.9455949716832981E-002
  -1.5853606863936692E-002   5.0558930152534431E-003   6.2401897718454946E-002
  -1.4597576169160714E-002   5.0035650322003966E-003   6.2355641727325883E-002
  -1.3341545474384733E-002   5.1138350736831539E-003   6.2958976118606735E-002
  -1.2085514779608770E-002   5.3867031397014445E-003   6.4211900892297058E-002
  -1.0829484084832780E-002   5.8221692302551364E-003   6.6114416048397295E-002
  -1.9830230911394006E-002   5.9561587351164014E-003   5.9346160968799078E-002
  -1.8025319598319003E-002   5.7351831250395946E-003   5.9328456418001857E-002
  -1.6220408285243994E-002   5.5805106197837628E-003   5.9758922721393187E-002
  -1.4415496972168977E-002   5.4921412193486979E-003   6.0637559878972916E-002
  -1.2610585659093954E-002   5.4700749237346358E-003   6.1964367890740779E-002
  -2.3792044319086970E-002   6.8564244549793041E-003   5.6169924051976711E-002
  -2.1639671915934293E-002   6.4668012178787648E-003   5.6084476021796836E-002
  -1.9487299512781640E-002   6.0471861658844689E-003   5.6245779317583941E-002
  -1.7334927109629000E-002   5.5975792989963920E-003   5.6653833939337865E-002
  -1.5182554706476285E-002   5.1179806172142461E-003   5.7308639887058865E-002
  -2.7739047087015557E-002   7.7566901748422346E-003   5.2873186967988088E-002
  -2.5440633122006603E-002   7.1984193107179489E-003   5.2623700538710683E-002
  -2.3142219156997646E-002   6.5138617119852929E-003   5.2419545907178747E-002
  -2.0843805191988717E-002   5.7030173786438657E-003   5.2260723073392648E-002
  -1.8545391226979763E-002   4.7658863106938010E-003   5.2147232037351859E-002
  -3.1671239215179767E-002   8.6569558947051650E-003   4.9455949716832981E-002
  -2.9428203216535956E-002   7.9300374035571330E-003   4.8946129968743368E-002
  -2.7185167217892110E-002   6.9805372580857283E-003   4.8280222490177827E-002
  -2.4942131219248310E-002   5.8084554582914644E-003   4.7458227281136661E-002
  -2.2699095220604482E-002   4.4137920041733558E-003   4.6480144341619400E-002
  -5.7150813705826267E-002   0.0000000000000000        3.4691370247287537E-002
  -5.7941134490536492E-002   2.0837082793544650E-003   3.8344328587877924E-002
  -5.8731455275246716E-002   4.1366854552095135E-003   4.2210212571719051E-002
  -5.9521776059956941E-002   6.1589315275651473E-003   4.6289022198810911E-002
  -6.0312096844667172E-002   8.1504464964213610E-003   5.0580757469153512E-002
  -6.5818307343887383E-002   0.0000000000000000        3.7212155421791585E-002
  -6.6624558090050412E-002   2.9137902601082547E-003   4.0835297130465457E-002
  -6.7430808836213454E-002   5.7701680046251605E-003   4.4213653272982975E-002
  -6.8237059582376483E-002   8.5691332335507096E-003   4.7347223849344158E-002
  -6.9043310328539526E-002   1.1310685946884915E-002   5.0236008859548993E-002
  -7.4242690199616115E-002   0.0000000000000000        4.0576363283095399E-002
  -7.5522582116639037E-002   3.7438722408620444E-003   4.4143006947760806E-002
  -7.6802474033661958E-002   7.4036505540408032E-003   4.7007153836862797E-002
  -7.8082365950684893E-002   1.0979334939536274E-002   4.9168803950401359E-002
  -7.9362257867707800E-002   1.4470925397348459E-002   5.0627957288376470E-002
  -8.2423962273012422E-002   0.0000000000000000        4.4783993831198965E-002
  -8.4635206570302310E-002   4.5739542216158358E-003   4.8267458039763990E-002
  -8.6846450867592198E-002   9.0371331034564475E-003   5.0590714263358497E-002
  -8.9057695164882100E-002   1.3389536645521838E-002   5.1753762501982513E-002
  -9.1268939462171988E-002   1.7631164847812002E-002   5.1756602755635983E-002
  -9.0362123564076316E-002   0.0000000000000000        4.9835047066102291E-002
  -9.3962431451040260E-002   5.4040362023696237E-003   5.3208650406474996E-002
  -9.7562739338004217E-002   1.0670615652872093E-002   5.4964334552470101E-002
 -0.10116304722496819        1.5799738351507400E-002   5.5102099504087607E-002
 -0.10476335511193212        2.0791404298275556E-002   5.3621945261327499E-002
  -6.0312096844667172E-002   8.1504464964213610E-003   5.0580757469153512E-002
  -6.0609857230832287E-002   1.0029139789169049E-002   5.1518100595026810E-002
  -6.0907617616997430E-002   1.1712920833199091E-002   5.2244071731461984E-002
  -6.1205378003162551E-002   1.3201789628511498E-002   5.2758670878459028E-002
  -6.1503138389327666E-002   1.4495746175106246E-002   5.3061898036017997E-002
  -6.9043310328539526E-002   1.1310685946884915E-002   5.0236008859548993E-002
  -6.9315029466499464E-002   1.3755038565997574E-002   4.9457081206984957E-002
  -6.9586748604459389E-002   1.5662403512258446E-002   4.8941608040269410E-002
  -6.9858467742419328E-002   1.7032780785667612E-002   4.8689589359402340E-002
  -7.0130186880379267E-002   1.7866170386225032E-002   4.8701025164383752E-002
  -7.9362257867707800E-002   1.4470925397348459E-002   5.0627957288376470E-002
  -7.9133109282175956E-002   1.7480937342826072E-002   4.7790683433241013E-002
  -7.8903960696644085E-002   1.9611886191317839E-002   4.5691690539240638E-002
  -7.8674812111112241E-002   2.0863771942823746E-002   4.4330978606375346E-002
  -7.8445663525580411E-002   2.1236594597343828E-002   4.3708547634645156E-002
  -9.1268939462171988E-002   1.7631164847812002E-002   5.1756602755635983E-002
  -9.0064096677861749E-002   2.1206836119654585E-002   4.6518907273794978E-002
  -8.8859253893551510E-002   2.3561368870377217E-002   4.2494319228375689E-002
  -8.7654411109241298E-002   2.4694763099979911E-002   3.9682838619378089E-002
  -8.6449568324931017E-002   2.4607018808462632E-002   3.8084465446802149E-002
 -0.10476335511193212        2.0791404298275556E-002   5.3621945261327499E-002
 -0.10210799165355690        2.4932734896483098E-002   4.5641752728646880E-002
  -9.9452628195181664E-002   2.7510851549436569E-002   3.9349494107674562E-002
  -9.6797264736806429E-002   2.8525754257136007E-002   3.4745169398410540E-002
  -9.4141901278431223E-002   2.7977443019581417E-002   3.1828778600854778E-002
  -6.1503138389327666E-002   1.4495746175106246E-002   5.3061898036017997E-002
  -6.0185231200777810E-002   1.5498967849772047E-002   5.1655277928205699E-002
  -5.8867324012227953E-002   1.6115632029297458E-002   5.0695281066425874E-002
  -5.7549416823678083E-002   1.6345738713682705E-002   5.0181907450678562E-002
  -5.6231509635128234E-002   1.6189287902927618E-002   5.0115157080963646E-002
  -7.0130186880379267E-002   1.7866170386225032E-002   4.8701025164383752E-002
  -6.8410857018309373E-002   1.8320212322604609E-002   4.7256643754587463E-002
  -6.6691527156239480E-002   1.8552546603480331E-002   4.6168484445798755E-002
  -6.4972197294169587E-002   1.8563173228852106E-002   4.5436547238017697E-002
  -6.3252867432099694E-002   1.8352092198720082E-002   4.5060832131244247E-002
  -7.8445663525580411E-002   2.1236594597343828E-002   4.3708547634645156E-002
  -7.6415312135015290E-002   2.1141456795437212E-002   4.2391254762501211E-002
  -7.4384960744450210E-002   2.0989461177663142E-002   4.1339782846340052E-002
  -7.2354609353885102E-002   2.0780607744021566E-002   4.0554131886161700E-002
  -7.0324257963320008E-002   2.0514896494512491E-002   4.0034301881966085E-002
  -8.6449568324931017E-002   2.4607018808462632E-002   3.8084465446802149E-002
  -8.4198596550895580E-002   2.3962701268269843E-002   3.7059110951947007E-002
  -8.1947624776860128E-002   2.3426375751845956E-002   3.6209176268049766E-002
  -7.9696653002824663E-002   2.2998042259191009E-002   3.5534661395110433E-002
  -7.7445681228789198E-002   2.2677700790304914E-002   3.5035566333129084E-002
  -9.4141901278431223E-002   2.7977443019581417E-002   3.1828778600854778E-002
  -9.1760710265950229E-002   2.6783945741102384E-002   3.1260212322924773E-002
  -8.9379519253469250E-002   2.5863290326028812E-002   3.0776664710927892E-002
  -8.6998328240988299E-002   2.5215476774360399E-002   3.0378135764864027E-002
  -8.4617137228507291E-002   2.4840505086097364E-002   3.0064625484733348E-002
  -5.6231509635128234E-002   1.6189287902927618E-002   5.0115157080963646E-002
  -5.4711451800162306E-002   1.5840741682477538E-002   4.9798328822526217E-002
  -5.3191393965196357E-002   1.5494562137777772E-002   4.9643142988695127E-002
  -5.1671336130230429E-002   1.5150749268828352E-002   4.9649599579470301E-002
  -5.0151278295264501E-002   1.4809303075629193E-002   4.9817698594851800E-002
  -6.3252867432099694E-002   1.8352092198720082E-002   4.5060832131244247E-002
  -6.1555481975410206E-002   1.8012577821431605E-002   4.4693260154145931E-002
  -5.9858096518720712E-002   1.7637904405334227E-002   4.4518700995888477E-002
  -5.8160711062031224E-002   1.7228071950428102E-002   4.4537154656471858E-002
  -5.6463325605341737E-002   1.6783080456713034E-002   4.4748621135895991E-002
  -7.0324257963320008E-002   2.0514896494512491E-002   4.0034301881966085E-002
  -6.8418174490672445E-002   2.0184413960385658E-002   3.9578460471647703E-002
  -6.6512091018024883E-002   1.9781246672890770E-002   3.9347002274404685E-002
  -6.4606007545377306E-002   1.9305394632027871E-002   3.9339927290237012E-002
  -6.2699924072729757E-002   1.8756857837796834E-002   3.9557235519144661E-002
  -7.7445681228789198E-002   2.2677700790304914E-002   3.5035566333129084E-002
  -7.5299529345949037E-002   2.2356250099339690E-002   3.4453929775031478E-002
  -7.3153377463108862E-002   2.1924588940447270E-002   3.4128046824243738E-002
  -7.1007225580268687E-002   2.1382717313627602E-002   3.4057917480765872E-002
  -6.8861073697428540E-002   2.0730635218880654E-002   3.4243541744597844E-002
  -8.4617137228507291E-002   2.4840505086097364E-002   3.0064625484733348E-002
  -8.2199546541240009E-002   2.4528086238293764E-002   2.9319668064297227E-002
  -7.9781955853972686E-002   2.4067931208003747E-002   2.8861834645405565E-002
  -7.7364365166705376E-002   2.3460039995227354E-002   2.8691125228058334E-002
  -7.4946774479438066E-002   2.2704412599964446E-002   2.8807539812255450E-002
  -5.0151278295264501E-002   1.4809303075629193E-002   4.9817698594851800E-002
  -4.8656839292221747E-002   1.4445531621251437E-002   4.9397833850730294E-002
  -4.7162400289179007E-002   1.4034742968766174E-002   4.9208646688782789E-002
  -4.5667961286136267E-002   1.3576937118173123E-002   4.9250137109009474E-002
  -4.4173522283093514E-002   1.3072114069472507E-002   4.9522305111410148E-002
  -5.6463325605341737E-002   1.6783080456713034E-002   4.4748621135895991E-002
  -5.4750114851944177E-002   1.6307752220551405E-002   4.4356033580548446E-002
  -5.3036904098546611E-002   1.5806909538305304E-002   4.4170311943736447E-002
  -5.1323693345149052E-002   1.5280552409974871E-002   4.4191456225460057E-002
  -4.9610482591751520E-002   1.4728680835559949E-002   4.4419466425719090E-002
  -6.2699924072729757E-002   1.8756857837796834E-002   3.9557235519144661E-002
  -6.0791753232615861E-002   1.8169972819851270E-002   3.9213427904594374E-002
  -5.8883582392502007E-002   1.7579076107844486E-002   3.9052674544941032E-002
  -5.6975411552388160E-002   1.6984167701776590E-002   3.9074975440184741E-002
  -5.5067240712274305E-002   1.6385247601647390E-002   3.9280330590325582E-002
  -6.8861073697428540E-002   2.0730635218880654E-002   3.4243541744597844E-002
  -6.6781754434236854E-002   2.0032193419151158E-002   3.3970016822867849E-002
  -6.4702435171045222E-002   1.9351242677383612E-002   3.3855734492396497E-002
  -6.2623115907853577E-002   1.8687782993578213E-002   3.3900694753183594E-002
  -6.0543796644661904E-002   1.8041814367734832E-002   3.4104897605229251E-002
  -7.4946774479438066E-002   2.2704412599964446E-002   2.8807539812255450E-002
  -7.2720118456807092E-002   2.1894414018451019E-002   2.8625800335369073E-002
  -7.0493462434176202E-002   2.1123409246922846E-002   2.8579491786102848E-002
  -6.8266806411545256E-002   2.0391398285380044E-002   2.8668614164456534E-002
  -6.6040150388914309E-002   1.9698381133822218E-002   2.8893167470430359E-002
  -4.4173522283093514E-002   1.3072114069472507E-002   4.9522305111410148E-002
  -4.2365927787810953E-002   1.2543347641709807E-002   4.9226510252268429E-002
  -4.0558333292528406E-002   1.2013711653930351E-002   4.9103860559344736E-002
  -3.8750738797245839E-002   1.1483206106134004E-002   4.9154356032639207E-002
  -3.6943144301963271E-002   1.0951830998320811E-002   4.9377996672151869E-002
  -4.9610482591751520E-002   1.4728680835559949E-002   4.4419466425719090E-002
  -4.7620840794203985E-002   1.4163488674277136E-002   4.4111777746925235E-002
  -4.5631198996656450E-002   1.3597169785342728E-002   4.3995038506443193E-002
  -4.3641557199108914E-002   1.3029724168756592E-002   4.4069248704273041E-002
  -4.1651915401561379E-002   1.2461151824518790E-002   4.4334408340414633E-002
  -5.5067240712274305E-002   1.6385247601647390E-002   3.9280330590325582E-002
  -5.2877747340368063E-002   1.5783629706844535E-002   3.8960490924244709E-002
  -5.0688253968461855E-002   1.5180627916755042E-002   3.8849404968569388E-002
  -4.8498760596555619E-002   1.4576242231379178E-002   3.8947072723299586E-002
  -4.6309267224649397E-002   1.3970472650716798E-002   3.9253494188435364E-002
  -6.0543796644661904E-002   1.8041814367734832E-002   3.4104897605229251E-002
  -5.8136647426303270E-002   1.7403770739411815E-002   3.3772649784226533E-002
  -5.5729498207944615E-002   1.6764086048167443E-002   3.3666959945723100E-002
  -5.3322348989585974E-002   1.6122760294001792E-002   3.3787828089718967E-002
  -5.0915199771227271E-002   1.5479793476914763E-002   3.4135254216214037E-002
  -6.6040150388914309E-002   1.9698381133822218E-002   2.8893167470430359E-002
  -6.3397541052009496E-002   1.9023911771979291E-002   2.8548254326870914E-002
  -6.0754931715104737E-002   1.8347544179579733E-002   2.8447703437904537E-002
  -5.8112322378199938E-002   1.7669278356624379E-002   2.8591514803531157E-002
  -5.5469713041295138E-002   1.6989114303112784E-002   2.8979688423750705E-002
  -3.6943144301963271E-002   1.0951830998320811E-002   4.9377996672151869E-002
  -3.5625168030267398E-002   1.0409543888478645E-002   4.9093849709732906E-002
  -3.4307191758571526E-002   9.8463023345953665E-003   4.9012126229706826E-002
  -3.2989215486875632E-002   9.2621063366708743E-003   4.9132826232073615E-002
  -3.1671239215179767E-002   8.6569558947051650E-003   4.9455949716832981E-002
  -4.1651915401561379E-002   1.2461151824518790E-002   4.4334408340414633E-002
  -4.0152023270362505E-002   1.1880480387224279E-002   4.4059160080364645E-002
  -3.8652131139163631E-002   1.1276737491468528E-002   4.3945320056927972E-002
  -3.7152239007964757E-002   1.0649923137250914E-002   4.3992888270104571E-002
  -3.5652346876765870E-002   1.0000037324571720E-002   4.4201864719894290E-002
  -4.6309267224649397E-002   1.3970472650716798E-002   3.9253494188435364E-002
  -4.4668474479726994E-002   1.3351416885970163E-002   3.8985027616333989E-002
  -4.3027681734804701E-002   1.2707172648341584E-002   3.8836954035066200E-002
  -4.1386888989882395E-002   1.2037739937831067E-002   3.8809273444632239E-002
  -3.9746096244960005E-002   1.1343118754438497E-002   3.8901985845031906E-002
  -5.0915199771227271E-002   1.5479793476914763E-002   3.4135254216214037E-002
  -4.9174521658361073E-002   1.4822353384716033E-002   3.3871452317640688E-002
  -4.7433843545494812E-002   1.4137607805214666E-002   3.3687028164121655E-002
  -4.5693165432628559E-002   1.3425556738410997E-002   3.3581981755656666E-002
  -4.3952487319762298E-002   1.2686200184305052E-002   3.3556313092245812E-002
  -5.5469713041295138E-002   1.6989114303112784E-002   2.8979688423750705E-002
  -5.3670164806264520E-002   1.6293289883461681E-002   2.8718434184285324E-002
  -5.1870616571233916E-002   1.5568042962087789E-002   2.8495542444094135E-002
  -5.0071068336203305E-002   1.4813373538991283E-002   2.8311013203177984E-002
  -4.8271520101172638E-002   1.4029281614171885E-002   2.8164846461536219E-002
  -3.1671239215179767E-002   8.6569558947051650E-003   4.9455949716832981E-002
  -2.9428203216535956E-002   7.9300374035571330E-003   4.8946129968743368E-002
  -2.7185167217892110E-002   6.9805372580857283E-003   4.8280222490177827E-002
  -2.4942131219248310E-002   5.8084554582914644E-003   4.7458227281136661E-002
  -2.2699095220604482E-002   4.4137920041733558E-003   4.6480144341619400E-002
  -3.5652346876765870E-002   1.0000037324571720E-002   4.4201864719894290E-002
  -3.3460390363797318E-002   9.2868806610285348E-003   4.3521385561202081E-002
  -3.1268433850828781E-002   8.4702537542187678E-003   4.2894835161635031E-002
  -2.9076477337860257E-002   7.5501566041424988E-003   4.2322213521193308E-002
  -2.6884520824891817E-002   6.5265892107998491E-003   4.1803520639876579E-002
  -3.9746096244960005E-002   1.1343118754438497E-002   3.8901985845031906E-002
  -3.7395202728065770E-002   1.0643723918499992E-002   3.8169958686793945E-002
  -3.5044309211171534E-002   9.9599702503517518E-003   3.7701876777282178E-002
  -3.2693415694277250E-002   9.2918577499939217E-003   3.7497740116496786E-002
  -3.0342522177383063E-002   8.6393864174262314E-003   3.7557548704437616E-002
  -4.3952487319762298E-002   1.2686200184305052E-002   3.3556313092245812E-002
  -4.1232640309341290E-002   1.2000567175971422E-002   3.2891849345518975E-002
  -3.8512793298920357E-002   1.1449686746484874E-002   3.2701347337119401E-002
  -3.5792946288499258E-002   1.1033558895845317E-002   3.2984807067047164E-002
  -3.3073099278078409E-002   1.0752183624052614E-002   3.3742228535301982E-002
  -4.8271520101172638E-002   1.4029281614171885E-002   2.8164846461536219E-002
  -4.4972703107623885E-002   1.3357410433442907E-002   2.7687057537377158E-002
  -4.1673886114075132E-002   1.2939403242617706E-002   2.7893246841146385E-002
  -3.8375069120526406E-002   1.2775260041696584E-002   2.8783414372843916E-002
  -3.5076252126977570E-002   1.2864980830679107E-002   3.0357560132469930E-002
  -9.0362123564076316E-002   0.0000000000000000        4.9835047066102291E-002
  -9.3962431451040260E-002   5.4040362023696237E-003   5.3208650406474996E-002
  -9.7562739338004217E-002   1.0670615652872093E-002   5.4964334552470101E-002
 -0.10116304722496819        1.5799738351507400E-002   5.5102099504087607E-002
 -0.10476335511193212        2.0791404298275556E-002   5.3621945261327499E-002
 -0.10329464282386396        0.0000000000000000        5.8662927569372990E-002
 -0.10683161883423475        1.0884586549592165E-002   5.2118817006356948E-002
 -0.11036859484460554        1.9172353341892275E-002   4.7319289390904851E-002
 -0.11390557085497632        2.4863300376900342E-002   4.4264344723016665E-002
 -0.11744254686534712        2.7957427654616354E-002   4.2953983002692417E-002
 -0.12645898880343151        0.0000000000000000        7.4201039922578677E-002
 -0.12657013079526760        1.6365136896814701E-002   5.5279852450748991E-002
 -0.12668127278710370        2.7674091030912455E-002   4.1465750068424789E-002
 -0.12679241477893982        3.3926862402293277E-002   3.2758732775606050E-002
 -0.12690355677077589        3.5123451010957152E-002   2.9158800572292747E-002
 -0.15985516150277898        0.0000000000000000        9.6449384125719323E-002
 -0.15317796733413883        2.1845687244037230E-002   6.2691756739651147E-002
 -0.14650077316549873        3.6175828719932641E-002   3.7403716585029945E-002
 -0.13982357899685854        4.2990424427686212E-002   2.0585263661855716E-002
 -0.13314638482821844        4.2289474367297950E-002   1.2236397970128515E-002
 -0.20348316092190630        0.0000000000000000       0.12540796017879496     
 -0.18665512845084842        2.7326237591259774E-002   7.4354529873063374E-002
 -0.16982709597979054        4.4677566408952825E-002   3.5133188940720303E-002
 -0.15299906350873266        5.2053986453079154E-002   7.7439373817657364E-003
 -0.13617103103767475        4.9455497723638754E-002  -7.8132248038003255E-003
 -0.10476335511193212        2.0791404298275556E-002   5.3621945261327499E-002
 -0.10210799165355690        2.4932734896483098E-002   4.5641752728646880E-002
  -9.9452628195181664E-002   2.7510851549436569E-002   3.9349494107674562E-002
  -9.6797264736806429E-002   2.8525754257136007E-002   3.4745169398410540E-002
  -9.4141901278431223E-002   2.7977443019581417E-002   3.1828778600854778E-002
 -0.11744254686534712        2.7957427654616354E-002   4.2953983002692417E-002
 -0.11348653186682796        2.9429376437752421E-002   3.6699314357872687E-002
 -0.10953051686830881        3.0253787989020633E-002   3.1358014881632493E-002
 -0.10557450186978963        3.0430662308420987E-002   2.6930084573971873E-002
 -0.10161848687127051        2.9959999395953472E-002   2.3415523434890839E-002
 -0.12690355677077589        3.5123451010957152E-002   2.9158800572292747E-002
 -0.12242145497524151        3.3926017979021741E-002   2.5545332528720134E-002
 -0.11793935317970722        3.2996724428604692E-002   2.2070668910598279E-002
 -0.11345725138417288        3.2335570359705926E-002   1.8734809717927296E-002
 -0.10897514958863855        3.1942555772325562E-002   1.5537754950707099E-002
 -0.13314638482821844        4.2289474367297950E-002   1.2236397970128515E-002
 -0.12891276097879767        3.8422659520291072E-002   1.2179807241189181E-002
 -0.12467913712937688        3.5739660868188680E-002   1.1487456194571904E-002
 -0.12044551327995610        3.4240478410990892E-002   1.0159344830276713E-002
 -0.11621188943053533        3.3925112148697596E-002   8.1954731483034945E-003
 -0.13617103103767475        4.9455497723638754E-002  -7.8132248038003255E-003
 -0.13296044987749628        4.2919301061560403E-002  -3.3972615047201775E-003
 -0.12974986871731781        3.8482597307772787E-002  -3.9162326644672299E-004
 -0.12653928755713936        3.6145386462275809E-002   1.2036899110201517E-003
 -0.12332870639696086        3.5907668525069686E-002   1.3886780276802790E-003
  -9.4141901278431223E-002   2.7977443019581417E-002   3.1828778600854778E-002
  -9.1760710265950229E-002   2.6783945741102384E-002   3.1260212322924773E-002
  -8.9379519253469250E-002   2.5863290326028812E-002   3.0776664710927892E-002
  -8.6998328240988299E-002   2.5215476774360399E-002   3.0378135764864027E-002
  -8.4617137228507291E-002   2.4840505086097364E-002   3.0064625484733348E-002
 -0.10161848687127051        2.9959999395953472E-002   2.3415523434890839E-002
  -9.9140090200197123E-002   2.9190300210293230E-002   2.3140220299535219E-002
  -9.6661693529123766E-002   2.8470065710115247E-002   2.2974309815431197E-002
  -9.4183296858050380E-002   2.7799295895419549E-002   2.2917791982578983E-002
  -9.1704900186977009E-002   2.7177990766206223E-002   2.2970666800978465E-002
 -0.10897514958863855        3.1942555772325562E-002   1.5537754950707099E-002
 -0.10637517327365419        3.1596654679484013E-002   1.5332337780002854E-002
 -0.10377519695866980        3.1076841094201731E-002   1.5260687245868810E-002
 -0.10117522064368542        3.0383115016478685E-002   1.5322803348305155E-002
  -9.8575244328701059E-002   2.9515476446315025E-002   1.5518686087311641E-002
 -0.11621188943053533        3.3925112148697596E-002   8.1954731483034945E-003
 -0.11346595948632139        3.4003009148674761E-002   7.8365647643276956E-003
 -0.11072002954210743        3.3683616478288152E-002   7.6357970022404853E-003
 -0.10797409959789349        3.2966934137537873E-002   7.5931698620423189E-003
 -0.10522816965367951        3.1852962126423856E-002   7.7086833437329805E-003
 -0.12332870639696086        3.5907668525069686E-002   1.3886780276802790E-003
 -0.12041244883819874        3.6409363617865606E-002   6.5290125250959397E-004
 -0.11749619127943658        3.6290391862374642E-002   9.9639084546410128E-005
 -0.11457993372067447        3.5550753258597023E-002  -2.7110847620916145E-004
 -0.11166367616191231        3.4190447806532687E-002  -4.5934142975728731E-004
  -8.4617137228507291E-002   2.4840505086097364E-002   3.0064625484733348E-002
  -8.2199546541240009E-002   2.4528086238293764E-002   2.9319668064297227E-002
  -7.9781955853972686E-002   2.4067931208003747E-002   2.8861834645405565E-002
  -7.7364365166705376E-002   2.3460039995227354E-002   2.8691125228058334E-002
  -7.4946774479438066E-002   2.2704412599964446E-002   2.8807539812255450E-002
  -9.1704900186977009E-002   2.7177990766206223E-002   2.2970666800978465E-002
  -8.9027110368505469E-002   2.6559112400381363E-002   2.2320029656352020E-002
  -8.6349320550033970E-002   2.5895622875851412E-002   2.1902666772589639E-002
  -8.3671530731562430E-002   2.5187522192616111E-002   2.1718578149691272E-002
  -8.0993740913090917E-002   2.4434810350675656E-002   2.1767763787656991E-002
  -9.8575244328701059E-002   2.9515476446315025E-002   1.5518686087311641E-002
  -9.5691105119705688E-002   2.8590138562468968E-002   1.5065494242276212E-002
  -9.2806965910710290E-002   2.7723314543698935E-002   1.4791726917424249E-002
  -8.9922826701714934E-002   2.6915004390004809E-002   1.4697384112756154E-002
  -8.7038687492719521E-002   2.6165208101386825E-002   1.4782465828271578E-002
 -0.10522816965367951        3.1852962126423856E-002   7.7086833437329805E-003
 -0.10219153079484058        3.0621164724556570E-002   7.5560618220697137E-003
  -9.9154891936001716E-002   2.9551006211546584E-002   7.5290150799094411E-003
  -9.6118253077162846E-002   2.8642486587393511E-002   7.6275431172526803E-003
  -9.3081614218323935E-002   2.7895605852097986E-002   7.8516459340990091E-003
 -0.11166367616191231        3.4190447806532687E-002  -4.5934142975728731E-004
 -0.10852838739391024        3.2652190886644200E-002  -2.0826760426739810E-004
 -0.10539309862590823        3.1378697879394055E-002   1.1453126004516700E-004
 -0.10225780985790620        3.0369968784782316E-002   5.0905516318104291E-004
  -9.9122521089904159E-002   2.9626003602809259E-002   9.7530410513974042E-004
  -7.4946774479438066E-002   2.2704412599964446E-002   2.8807539812255450E-002
  -7.2720118456807092E-002   2.1894414018451019E-002   2.8625800335369073E-002
  -7.0493462434176202E-002   2.1123409246922846E-002   2.8579491786102848E-002
  -6.8266806411545256E-002   2.0391398285380044E-002   2.8668614164456534E-002
  -6.6040150388914309E-002   1.9698381133822218E-002   2.8893167470430359E-002
  -8.0993740913090917E-002   2.4434810350675656E-002   2.1767763787656991E-002
  -7.8627910676142637E-002   2.3659549896826379E-002   2.1611041323928576E-002
  -7.6262080439194385E-002   2.2883803377864782E-002   2.1597236361214786E-002
  -7.3896250202246133E-002   2.2107570793790637E-002   2.1726348899515489E-002
  -7.1530419965297867E-002   2.1330852144604118E-002   2.1998378938831026E-002
  -8.7038687492719521E-002   2.6165208101386825E-002   1.4782465828271578E-002
  -8.4526196468059395E-002   2.5424685775201780E-002   1.4611280502603276E-002
  -8.2013705443399296E-002   2.4644197508806778E-002   1.4590499251344324E-002
  -7.9501214418739113E-002   2.3823743302201265E-002   1.4720122074494467E-002
  -7.6988723394079014E-002   2.2963323155386045E-002   1.5000148972053873E-002
  -9.3081614218323935E-002   2.7895605852097986E-002   7.8516459340990091E-003
  -9.0414975832557337E-002   2.7189821653577161E-002   7.6265178713936250E-003
  -8.7748337446790822E-002   2.6404591639748440E-002   7.5592804564914703E-003
  -8.5081699061024210E-002   2.5539915810612098E-002   7.6499336893934393E-003
  -8.2415060675257709E-002   2.4595794166167959E-002   7.8984775700989794E-003
  -9.9122521089904159E-002   2.9626003602809259E-002   9.7530410513974042E-004
  -9.6294248769636548E-002   2.8954957531952569E-002   6.5675343029894528E-004
  -9.3465976449368993E-002   2.8164985770690668E-002   5.0357997665653742E-004
  -9.0637704129101410E-002   2.7256088319022698E-002   5.1578374421244050E-004
  -8.7809431808833827E-002   2.6228265176949761E-002   6.9336473296649492E-004
  -6.6040150388914309E-002   1.9698381133822218E-002   2.8893167470430359E-002
  -6.3397541052009496E-002   1.9023911771979291E-002   2.8548254326870914E-002
  -6.0754931715104737E-002   1.8347544179579733E-002   2.8447703437904537E-002
  -5.8112322378199938E-002   1.7669278356624379E-002   2.8591514803531157E-002
  -5.5469713041295138E-002   1.6989114303112784E-002   2.8979688423750705E-002
  -7.1530419965297867E-002   2.1330852144604118E-002   2.1998378938831026E-002
  -6.8656502126106952E-002   2.0560769464097239E-002   2.1678308076524822E-002
  -6.5782584286915996E-002   1.9804444786061609E-002   2.1576491964197850E-002
  -6.2908666447725137E-002   1.9061878110497803E-002   2.1692930601850166E-002
  -6.0034748608534180E-002   1.8333069437405258E-002   2.2027623989481770E-002
  -7.6988723394079014E-002   2.2963323155386045E-002   1.5000148972053873E-002
  -7.3909604557215666E-002   2.2097627156215230E-002   1.4720576624028564E-002
  -7.0830485720352332E-002   2.1261345392543596E-002   1.4633151521368869E-002
  -6.7751366883489011E-002   2.0454477864371060E-002   1.4737873664074613E-002
  -6.4672248046625663E-002   1.9677024571697621E-002   1.5034743052145874E-002
  -8.2415060675257709E-002   2.4595794166167959E-002   7.8984775700989794E-003
  -7.9156848345335651E-002   2.3634484848333533E-002   7.6750599693823571E-003
  -7.5898636015413717E-002   2.2718245999025360E-002   7.6176821094174584E-003
  -7.2640423685491687E-002   2.1847077618244344E-002   7.7263439902043249E-003
  -6.9382211355569740E-002   2.1020979705990067E-002   8.0010456117431093E-003
  -8.7809431808833827E-002   2.6228265176949761E-002   6.9336473296649492E-004
  -8.4398233490466990E-002   2.5171342540451225E-002   5.4175811258616591E-004
  -8.0987035172100041E-002   2.4175146605507264E-002   5.3008372834366380E-004
  -7.7575836853733093E-002   2.3239677372117719E-002   6.5834158023915165E-004
  -7.4164638535366256E-002   2.2364934840282569E-002   9.2653166827283417E-004
  -5.5469713041295138E-002   1.6989114303112784E-002   2.8979688423750705E-002
  -5.3670164806264520E-002   1.6293289883461681E-002   2.8718434184285324E-002
  -5.1870616571233916E-002   1.5568042962087789E-002   2.8495542444094135E-002
  -5.0071068336203305E-002   1.4813373538991283E-002   2.8311013203177984E-002
  -4.8271520101172638E-002   1.4029281614171885E-002   2.8164846461536219E-002
  -6.0034748608534180E-002   1.8333069437405258E-002   2.2027623989481770E-002
  -5.8153885223723473E-002   1.7601491455828067E-002   2.1712498969087474E-002
  -5.6273021838912814E-002   1.6850616854809999E-002   2.1521641748978693E-002
  -5.4392158454102113E-002   1.6080445634351310E-002   2.1455052329155469E-002
  -5.2511295069291447E-002   1.5290977794451766E-002   2.1512730709617789E-002
  -6.4672248046625663E-002   1.9677024571697621E-002   1.5034743052145874E-002
  -6.2624164211024000E-002   1.8909693028194396E-002   1.4675873133104755E-002
  -6.0576080375422281E-002   1.8133190747532384E-002   1.4527176315360039E-002
  -5.8527996539820597E-002   1.7347517729711673E-002   1.4588652598911751E-002
  -5.6479912704218899E-002   1.6552673974731730E-002   1.4860301983760080E-002
  -6.9382211355569740E-002   2.1020979705990067E-002   8.0010456117431093E-003
  -6.7081001768166101E-002   2.0217894600560921E-002   7.6085566763369646E-003
  -6.4779792180762408E-002   1.9415764640254404E-002   7.5121461432382710E-003
  -6.2478582593358756E-002   1.8614589825071644E-002   7.7118140124469254E-003
  -6.0177373005955076E-002   1.7814370155011874E-002   8.2075602839635046E-003
  -7.4164638535366256E-002   2.2364934840282569E-002   9.2653166827283417E-004
  -7.1524397895149638E-002   2.1526096172927223E-002   5.1054959878393813E-004
  -6.8884157254933132E-002   2.0698338532976923E-002   4.7655123261342025E-004
  -6.6243916614716514E-002   1.9881661920432295E-002   8.2453656976121115E-004
  -6.3603675974500007E-002   1.9076066335291797E-002   1.5545056102274080E-003
  -4.8271520101172638E-002   1.4029281614171885E-002   2.8164846461536219E-002
  -4.4972703107623885E-002   1.3357410433442907E-002   2.7687057537377158E-002
  -4.1673886114075132E-002   1.2939403242617706E-002   2.7893246841146385E-002
  -3.8375069120526406E-002   1.2775260041696584E-002   2.8783414372843916E-002
  -3.5076252126977570E-002   1.2864980830679107E-002   3.0357560132469930E-002
  -5.2511295069291447E-002   1.5290977794451766E-002   2.1512730709617789E-002
  -4.8707319319413148E-002   1.4533493616319865E-002   2.1295843613491211E-002
  -4.4903343569534945E-002   1.3859273381164272E-002   2.1405295802095409E-002
  -4.1099367819656632E-002   1.3268317088984752E-002   2.1841087275430215E-002
  -3.7295392069778444E-002   1.2760624739781345E-002   2.2603218033495853E-002
  -5.6479912704218899E-002   1.6552673974731730E-002   1.4860301983760080E-002
  -5.2528417141208747E-002   1.5709576799197295E-002   1.4733716668738434E-002
  -4.8576921578198637E-002   1.4779143519710845E-002   1.4575831695249876E-002
  -4.4625426015188568E-002   1.3761374136272977E-002   1.4386647063294466E-002
  -4.0673930452178389E-002   1.2656268648883695E-002   1.4166162772872026E-002
  -6.0177373005955076E-002   1.7814370155011874E-002   8.2075602839635046E-003
  -5.6435996573010697E-002   1.6885659982074044E-002   8.0006767031187351E-003
  -5.2694620140066192E-002   1.5699013658257082E-002   7.4048545206099065E-003
  -4.8953243707121771E-002   1.4254431183561008E-002   6.4200937364364856E-003
  -4.5211867274177309E-002   1.2551912557986045E-002   5.0463943505983794E-003
  -6.3603675974500007E-002   1.9076066335291797E-002   1.5545056102274080E-003
  -6.0430057614818899E-002   1.8061743164951238E-002   1.0967237166324417E-003
  -5.7256439255137681E-002   1.6618883796803596E-002  -1.0763572182456715E-004
  -5.4082820895456518E-002   1.4747488230849440E-002  -2.0585727051435285E-003
  -5.0909202535775355E-002   1.2447556467088283E-002  -4.7560872333245463E-003
 </DataArray>
 </PointData>
 </Piece>
 <Piece  NumberOfPoints="          1600 "  NumberOfCells="         1024 ">
 <Points>
 <DataArray  type="Float64" NumberOfComponents="3"  format="ascii" >
  0.50000000000000000        0.0000000000000000        0.0000000000000000     
  0.53125000000000000        0.0000000000000000        0.0000000000000000     
  0.56250000000000000        0.0000000000000000        0.0000000000000000     
  0.59375000000000000        0.0000000000000000        0.0000000000000000     
  0.62500000000000000        0.0000000000000000        0.0000000000000000     
  0.50000000000000000        3.1250000000000000E-002   0.0000000000000000     
  0.53125000000000000        3.1250000000000000E-002   0.0000000000000000     
  0.56250000000000000        3.1250000000000000E-002   0.0000000000000000     
  0.59375000000000000        3.1250000000000000E-002   0.0000000000000000     
  0.62500000000000000        3.1250000000000000E-002   0.0000000000000000     
  0.50000000000000000        6.2500000000000000E-002   0.0000000000000000     
  0.53125000000000000        6.2500000000000000E-002   0.0000000000000000     
  0.56250000000000000        6.2500000000000000E-002   0.0000000000000000     
  0.59375000000000000        6.2500000000000000E-002   0.0000000000000000     
  0.62500000000000000        6.2500000000000000E-002   0.0000000000000000     
  0.50000000000000000        9.3750000000000000E-002   0.0000000000000000     
  0.53125000000000000        9.3750000000000000E-002   0.0000000000000000     
  0.56250000000000000        9.3750000000000000E-002   0.0000000000000000     
  0.59375000000000000        9.3750000000000000E-002   0.0000000000000000     
  0.62500000000000000        9.3750000000000000E-002   0.0000000000000000     
  0.50000000000000000       0.12500000000000000        0.0000000000000000     
  0.53125000000000000       0.12500000000000000        0.0000000000000000     
  0.56250000000000000       0.12500000000000000        0.0000000000000000     
  0.59375000000000000       0.12500000000000000        0.0000000000000000     
  0.62500000000000000       0.12500000000000000        0.0000000000000000     
  0.62500000000000000        0.0000000000000000        0.0000000000000000     
  0.65625000000000000        0.0000000000000000        0.0000000000000000     
  0.68750000000000000        0.0000000000000000        0.0000000000000000     
  0.71875000000000000        0.0000000000000000        0.0000000000000000     
  0.75000000000000000        0.0000000000000000        0.0000000000000000     
  0.62500000000000000        3.1250000000000000E-002   0.0000000000000000     
  0.65625000000000000        3.1250000000000000E-002   0.0000000000000000     
  0.68750000000000000        3.1250000000000000E-002   0.0000000000000000     
  0.71875000000000000        3.1250000000000000E-002   0.0000000000000000     
  0.75000000000000000        3.1250000000000000E-002   0.0000000000000000     
  0.62500000000000000        6.2500000000000000E-002   0.0000000000000000     
  0.65625000000000000        6.2500000000000000E-002   0.0000000000000000     
  0.68750000000000000        6.2500000000000000E-002   0.0000000000000000     
  0.71875000000000000        6.2500000000000000E-002   0.0000000000000000     
  0.75000000000000000        6.2500000000000000E-002   0.0000000000000000     
  0.62500000000000000        9.3750000000000000E-002   0.0000000000000000     
  0.65625000000000000        9.3750000000000000E-002   0.0000000000000000     
  0.68750000000000000        9.3750000000000000E-002   0.0000000000000000     
  0.71875000000000000        9.3750000000000000E-002   0.0000000000000000     
  0.75000000000000000        9.3750000000000000E-002   0.0000000000000000     
  0.62500000000000000       0.12500000000000000        0.0000000000000000     
  0.65625000000000000       0.12500000000000000        0.0000000000000000     
  0.68750000000000000       0.12500000000000000        0.0000000000000000     
  0.71875000000000000       0.12500000000000000        0.0000000000000000     
  0.75000000000000000       0.12500000000000000        0.0000000000000000     
  0.75000000000000000        0.0000000000000000        0.0000000000000000     
  0.78125000000000000        0.0000000000000000        0.0000000000000000     
  0.81250000000000000        0.0000000000000000        0.0000000000000000     
  0.84375000000000000        0.0000000000000000        0.0000000000000000     
  0.87500000000000000        0.0000000000000000        0.0000000000000000     
  0.75000000000000000        3.1250000000000000E-002   0.0000000000000000     
  0.78125000000000000        3.1250000000000000E-002   0.0000000000000000     
  0.81250000000000000        3.1250000000000000E-002   0.0000000000000000     
  0.84375000000000000        3.1250000000000000E-002   0.0000000000000000     
  0.87500000000000000        3.1250000000000000E-002   0.0000000000000000     
  0.75000000000000000        6.2500000000000000E-002   0.0000000000000000     
  0.78125000000000000        6.2500000000000000E-002   0.0000000000000000     
  0.81250000000000000        6.2500000000000000E-002   0.0000000000000000     
  0.84375000000000000        6.2500000000000000E-002   0.0000000000000000     
  0.87500000000000000        6.2500000000000000E-002   0.0000000000000000     
  0.75000000000000000        9.3750000000000000E-002   0.0000000000000000     
  0.78125000000000000        9.3750000000000000E-002   0.0000000000000000     
  0.81250000000000000        9.3750000000000000E-002   0.0000000000000000     
  0.84375000000000000        9.3750000000000000E-002   0.0000000000000000     
  0.87500000000000000        9.3750000000000000E-002   0.0000000000000000     
  0.75000000000000000       0.12500000000000000        0.0000000000000000     
  0.78125000000000000       0.12500000000000000        0.0000000000000000     
  0.81250000000000000       0.12500000000000000        0.0000000000000000     
  0.84375000000000000       0.12500000000000000        0.0000000000000000     
  0.87500000000000000       0.12500000000000000        0.0000000000000000     
  0.87500000000000000        0.0000000000000000        0.0000000000000000     
  0.90625000000000000        0.0000000000000000        0.0000000000000000     
  0.93750000000000000        0.0000000000000000        0.0000000000000000     
  0.96875000000000000        0.0000000000000000        0.0000000000000000     
   1.0000000000000000        0.0000000000000000        0.0000000000000000     
  0.87500000000000000        3.1250000000000000E-002   0.0000000000000000     
  0.90625000000000000        3.1250000000000000E-002   0.0000000000000000     
  0.93750000000000000        3.1250000000000000E-002   0.0000000000000000     
  0.96875000000000000        3.1250000000000000E-002   0.0000000000000000     
   1.0000000000000000        3.1250000000000000E-002   0.0000000000000000     
  0.87500000000000000        6.2500000000000000E-002   0.0000000000000000     
  0.90625000000000000        6.2500000000000000E-002   0.0000000000000000     
  0.93750000000000000        6.2500000000000000E-002   0.0000000000000000     
  0.96875000000000000        6.2500000000000000E-002   0.0000000000000000     
   1.0000000000000000        6.2500000000000000E-002   0.0000000000000000     
  0.87500000000000000        9.3750000000000000E-002   0.0000000000000000     
  0.90625000000000000        9.3750000000000000E-002   0.0000000000000000     
  0.93750000000000000        9.3750000000000000E-002   0.0000000000000000     
  0.96875000000000000        9.3750000000000000E-002   0.0000000000000000     
   1.0000000000000000        9.3750000000000000E-002   0.0000000000000000     
  0.87500000000000000       0.12500000000000000        0.0000000000000000     
  0.90625000000000000       0.12500000000000000        0.0000000000000000     
  0.93750000000000000       0.12500000000000000        0.0000000000000000     
  0.96875000000000000       0.12500000000000000        0.0000000000000000     
   1.0000000000000000       0.12500000000000000        0.0000000000000000     
   1.0000000000000000        0.0000000000000000        0.0000000000000000     
   1.0312500000000000        0.0000000000000000        0.0000000000000000     
   1.0625000000000000        0.0000000000000000        0.0000000000000000     
   1.0937500000000000        0.0000000000000000        0.0000000000000000     
   1.1250000000000000        0.0000000000000000        0.0000000000000000     
   1.0000000000000000        3.1250000000000000E-002   0.0000000000000000     
   1.0312500000000000        3.1250000000000000E-002   0.0000000000000000     
   1.0625000000000000        3.1250000000000000E-002   0.0000000000000000     
   1.0937500000000000        3.1250000000000000E-002   0.0000000000000000     
   1.1250000000000000        3.1250000000000000E-002   0.0000000000000000     
   1.0000000000000000        6.2500000000000000E-002   0.0000000000000000     
   1.0312500000000000        6.2500000000000000E-002   0.0000000000000000     
   1.0625000000000000        6.2500000000000000E-002   0.0000000000000000     
   1.0937500000000000        6.2500000000000000E-002   0.0000000000000000     
   1.1250000000000000        6.2500000000000000E-002   0.0000000000000000     
   1.0000000000000000        9.3750000000000000E-002   0.0000000000000000     
   1.0312500000000000        9.3750000000000000E-002   0.0000000000000000     
   1.0625000000000000        9.3750000000000000E-002   0.0000000000000000     
   1.0937500000000000        9.3750000000000000E-002   0.0000000000000000     
   1.1250000000000000        9.3750000000000000E-002   0.0000000000000000     
   1.0000000000000000       0.12500000000000000        0.0000000000000000     
   1.0312500000000000       0.12500000000000000        0.0000000000000000     
   1.0625000000000000       0.12500000000000000        0.0000000000000000     
   1.0937500000000000       0.12500000000000000        0.0000000000000000     
   1.1250000000000000       0.12500000000000000        0.0000000000000000     
   1.1250000000000000        0.0000000000000000        0.0000000000000000     
   1.1562500000000000        0.0000000000000000        0.0000000000000000     
   1.1875000000000000        0.0000000000000000        0.0000000000000000     
   1.2187500000000000        0.0000000000000000        0.0000000000000000     
   1.2500000000000000        0.0000000000000000        0.0000000000000000     
   1.1250000000000000        3.1250000000000000E-002   0.0000000000000000     
   1.1562500000000000        3.1250000000000000E-002   0.0000000000000000     
   1.1875000000000000        3.1250000000000000E-002   0.0000000000000000     
   1.2187500000000000        3.1250000000000000E-002   0.0000000000000000     
   1.2500000000000000        3.1250000000000000E-002   0.0000000000000000     
   1.1250000000000000        6.2500000000000000E-002   0.0000000000000000     
   1.1562500000000000        6.2500000000000000E-002   0.0000000000000000     
   1.1875000000000000        6.2500000000000000E-002   0.0000000000000000     
   1.2187500000000000        6.2500000000000000E-002   0.0000000000000000     
   1.2500000000000000        6.2500000000000000E-002   0.0000000000000000     
   1.1250000000000000        9.3750000000000000E-002   0.0000000000000000     
   1.1562500000000000        9.3750000000000000E-002   0.0000000000000000     
   1.1875000000000000        9.3750000000000000E-002   0.0000000000000000     
   1.2187500000000000        9.3750000000000000E-002   0.0000000000000000     
   1.2500000000000000        9.3750000000000000E-002   0.0000000000000000     
   1.1250000000000000       0.12500000000000000        0.0000000000000000     
   1.1562500000000000       0.12500000000000000        0.0000000000000000     
   1.1875000000000000       0.12500000000000000        0.0000000000000000     
   1.2187500000000000       0.12500000000000000        0.0000000000000000     
   1.2500000000000000       0.12500000000000000        0.0000000000000000     
   1.2500000000000000        0.0000000000000000        0.0000000000000000     
   1.2812500000000000        0.0000000000000000        0.0000000000000000     
   1.3125000000000000        0.0000000000000000        0.0000000000000000     
   1.3437500000000000        0.0000000000000000        0.0000000000000000     
   1.3750000000000000        0.0000000000000000        0.0000000000000000     
   1.2500000000000000        3.1250000000000000E-002   0.0000000000000000     
   1.2812500000000000        3.1250000000000000E-002   0.0000000000000000     
   1.3125000000000000        3.1250000000000000E-002   0.0000000000000000     
   1.3437500000000000        3.1250000000000000E-002   0.0000000000000000     
   1.3750000000000000        3.1250000000000000E-002   0.0000000000000000     
   1.2500000000000000        6.2500000000000000E-002   0.0000000000000000     
   1.2812500000000000        6.2500000000000000E-002   0.0000000000000000     
   1.3125000000000000        6.2500000000000000E-002   0.0000000000000000     
   1.3437500000000000        6.2500000000000000E-002   0.0000000000000000     
   1.3750000000000000        6.2500000000000000E-002   0.0000000000000000     
   1.2500000000000000        9.3750000000000000E-002   0.0000000000000000     
   1.2812500000000000        9.3750000000000000E-002   0.0000000000000000     
   1.3125000000000000        9.3750000000000000E-002   0.0000000000000000     
   1.3437500000000000        9.3750000000000000E-002   0.0000000000000000     
   1.3750000000000000        9.3750000000000000E-002   0.0000000000000000     
   1.2500000000000000       0.12500000000000000        0.0000000000000000     
   1.2812500000000000       0.12500000000000000        0.0000000000000000     
   1.3125000000000000       0.12500000000000000        0.0000000000000000     
   1.3437500000000000       0.12500000000000000        0.0000000000000000     
   1.3750000000000000       0.12500000000000000        0.0000000000000000     
   1.3750000000000000        0.0000000000000000        0.0000000000000000     
   1.4062500000000000        0.0000000000000000        0.0000000000000000     
   1.4375000000000000        0.0000000000000000        0.0000000000000000     
   1.4687500000000000        0.0000000000000000        0.0000000000000000     
   1.5000000000000000        0.0000000000000000        0.0000000000000000     
   1.3750000000000000        3.1250000000000000E-002   0.0000000000000000     
   1.4062500000000000        3.1250000000000000E-002   0.0000000000000000     
   1.4375000000000000        3.1250000000000000E-002   0.0000000000000000     
   1.4687500000000000        3.1250000000000000E-002   0.0000000000000000     
   1.5000000000000000        3.1250000000000000E-002   0.0000000000000000     
   1.3750000000000000        6.2500000000000000E-002   0.0000000000000000     
   1.4062500000000000        6.2500000000000000E-002   0.0000000000000000     
   1.4375000000000000        6.2500000000000000E-002   0.0000000000000000     
   1.4687500000000000        6.2500000000000000E-002   0.0000000000000000     
   1.5000000000000000        6.2500000000000000E-002   0.0000000000000000     
   1.3750000000000000        9.3750000000000000E-002   0.0000000000000000     
   1.4062500000000000        9.3750000000000000E-002   0.0000000000000000     
   1.4375000000000000        9.3750000000000000E-002   0.0000000000000000     
   1.4687500000000000        9.3750000000000000E-002   0.0000000000000000     
   1.5000000000000000        9.3750000000000000E-002   0.0000000000000000     
   1.3750000000000000       0.12500000000000000        0.0000000000000000     
   1.4062500000000000       0.12500000000000000        0.0000000000000000     
   1.4375000000000000       0.12500000000000000        0.0000000000000000     
   1.4687500000000000       0.12500000000000000        0.0000000000000000     
   1.5000000000000000       0.12500000000000000        0.0000000000000000     
  0.50000000000000000       0.12500000000000000        0.0000000000000000     
  0.53125000000000000       0.12500000000000000        0.0000000000000000     
  0.56250000000000000       0.12500000000000000        0.0000000000000000     
  0.59375000000000000       0.12500000000000000        0.0000000000000000     
  0.62500000000000000       0.12500000000000000        0.0000000000000000     
  0.50000000000000000       0.15625000000000000        0.0000000000000000     
  0.53125000000000000       0.15625000000000000        0.0000000000000000     
  0.56250000000000000       0.15625000000000000        0.0000000000000000     
  0.59375000000000000       0.15625000000000000        0.0000000000000000     
  0.62500000000000000       0.15625000000000000        0.0000000000000000     
  0.50000000000000000       0.18750000000000000        0.0000000000000000     
  0.53125000000000000       0.18750000000000000        0.0000000000000000     
  0.56250000000000000       0.18750000000000000        0.0000000000000000     
  0.59375000000000000       0.18750000000000000        0.0000000000000000     
  0.62500000000000000       0.18750000000000000        0.0000000000000000     
  0.50000000000000000       0.21875000000000000        0.0000000000000000     
  0.53125000000000000       0.21875000000000000        0.0000000000000000     
  0.56250000000000000       0.21875000000000000        0.0000000000000000     
  0.59375000000000000       0.21875000000000000        0.0000000000000000     
  0.62500000000000000       0.21875000000000000        0.0000000000000000     
  0.50000000000000000       0.25000000000000000        0.0000000000000000     
  0.53125000000000000       0.25000000000000000        0.0000000000000000     
  0.56250000000000000       0.25000000000000000        0.0000000000000000     
  0.59375000000000000       0.25000000000000000        0.0000000000000000     
  0.62500000000000000       0.25000000000000000        0.0000000000000000     
  0.62500000000000000       0.12500000000000000        0.0000000000000000     
  0.65625000000000000       0.12500000000000000        0.0000000000000000     
  0.68750000000000000       0.12500000000000000        0.0000000000000000     
  0.71875000000000000       0.12500000000000000        0.0000000000000000     
  0.75000000000000000       0.12500000000000000        0.0000000000000000     
  0.62500000000000000       0.15625000000000000        0.0000000000000000     
  0.65625000000000000       0.15625000000000000        0.0000000000000000     
  0.68750000000000000       0.15625000000000000        0.0000000000000000     
  0.71875000000000000       0.15625000000000000        0.0000000000000000     
  0.75000000000000000       0.15625000000000000        0.0000000000000000     
  0.62500000000000000       0.18750000000000000        0.0000000000000000     
  0.65625000000000000       0.18750000000000000        0.0000000000000000     
  0.68750000000000000       0.18750000000000000        0.0000000000000000     
  0.71875000000000000       0.18750000000000000        0.0000000000000000     
  0.75000000000000000       0.18750000000000000        0.0000000000000000     
  0.62500000000000000       0.21875000000000000        0.0000000000000000     
  0.65625000000000000       0.21875000000000000        0.0000000000000000     
  0.68750000000000000       0.21875000000000000        0.0000000000000000     
  0.71875000000000000       0.21875000000000000        0.0000000000000000     
  0.75000000000000000       0.21875000000000000        0.0000000000000000     
  0.62500000000000000       0.25000000000000000        0.0000000000000000     
  0.65625000000000000       0.25000000000000000        0.0000000000000000     
  0.68750000000000000       0.25000000000000000        0.0000000000000000     
  0.71875000000000000       0.25000000000000000        0.0000000000000000     
  0.75000000000000000       0.25000000000000000        0.0000000000000000     
  0.75000000000000000       0.12500000000000000        0.0000000000000000     
  0.78125000000000000       0.12500000000000000        0.0000000000000000     
  0.81250000000000000       0.12500000000000000        0.0000000000000000     
  0.84375000000000000       0.12500000000000000        0.0000000000000000     
  0.87500000000000000       0.12500000000000000        0.0000000000000000     
  0.75000000000000000       0.15625000000000000        0.0000000000000000     
  0.78125000000000000       0.15625000000000000        0.0000000000000000     
  0.81250000000000000       0.15625000000000000        0.0000000000000000     
  0.84375000000000000       0.15625000000000000        0.0000000000000000     
  0.87500000000000000       0.15625000000000000        0.0000000000000000     
  0.75000000000000000       0.18750000000000000        0.0000000000000000     
  0.78125000000000000       0.18750000000000000        0.0000000000000000     
  0.81250000000000000       0.18750000000000000        0.0000000000000000     
  0.84375000000000000       0.18750000000000000        0.0000000000000000     
  0.87500000000000000       0.18750000000000000        0.0000000000000000     
  0.75000000000000000       0.21875000000000000        0.0000000000000000     
  0.78125000000000000       0.21875000000000000        0.0000000000000000     
  0.81250000000000000       0.21875000000000000        0.0000000000000000     
  0.84375000000000000       0.21875000000000000        0.0000000000000000     
  0.87500000000000000       0.21875000000000000        0.0000000000000000     
  0.75000000000000000       0.25000000000000000        0.0000000000000000     
  0.78125000000000000       0.25000000000000000        0.0000000000000000     
  0.81250000000000000       0.25000000000000000        0.0000000000000000     
  0.84375000000000000       0.25000000000000000        0.0000000000000000     
  0.87500000000000000       0.25000000000000000        0.0000000000000000     
  0.87500000000000000       0.12500000000000000        0.0000000000000000     
  0.90625000000000000       0.12500000000000000        0.0000000000000000     
  0.93750000000000000       0.12500000000000000        0.0000000000000000     
  0.96875000000000000       0.12500000000000000        0.0000000000000000     
   1.0000000000000000       0.12500000000000000        0.0000000000000000     
  0.87500000000000000       0.15625000000000000        0.0000000000000000     
  0.90625000000000000       0.15625000000000000        0.0000000000000000     
  0.93750000000000000       0.15625000000000000        0.0000000000000000     
  0.96875000000000000       0.15625000000000000        0.0000000000000000     
   1.0000000000000000       0.15625000000000000        0.0000000000000000     
  0.87500000000000000       0.18750000000000000        0.0000000000000000     
  0.90625000000000000       0.18750000000000000        0.0000000000000000     
  0.93750000000000000       0.18750000000000000        0.0000000000000000     
  0.96875000000000000       0.18750000000000000        0.0000000000000000     
   1.0000000000000000       0.18750000000000000        0.0000000000000000     
  0.87500000000000000       0.21875000000000000        0.0000000000000000     
  0.90625000000000000       0.21875000000000000        0.0000000000000000     
  0.93750000000000000       0.21875000000000000        0.0000000000000000     
  0.96875000000000000       0.21875000000000000        0.0000000000000000     
   1.0000000000000000       0.21875000000000000        0.0000000000000000     
  0.87500000000000000       0.25000000000000000        0.0000000000000000     
  0.90625000000000000       0.25000000000000000        0.0000000000000000     
  0.93750000000000000       0.25000000000000000        0.0000000000000000     
  0.96875000000000000       0.25000000000000000        0.0000000000000000     
   1.0000000000000000       0.25000000000000000        0.0000000000000000     
   1.0000000000000000       0.12500000000000000        0.0000000000000000     
   1.0312500000000000       0.12500000000000000        0.0000000000000000     
   1.0625000000000000       0.12500000000000000        0.0000000000000000     
   1.0937500000000000       0.12500000000000000        0.0000000000000000     
   1.1250000000000000       0.12500000000000000        0.0000000000000000     
   1.0000000000000000       0.15625000000000000        0.0000000000000000     
   1.0312500000000000       0.15625000000000000        0.0000000000000000     
   1.0625000000000000       0.15625000000000000        0.0000000000000000     
   1.0937500000000000       0.15625000000000000        0.0000000000000000     
   1.1250000000000000       0.15625000000000000        0.0000000000000000     
   1.0000000000000000       0.18750000000000000        0.0000000000000000     
   1.0312500000000000       0.18750000000000000        0.0000000000000000     
   1.0625000000000000       0.18750000000000000        0.0000000000000000     
   1.0937500000000000       0.18750000000000000        0.0000000000000000     
   1.1250000000000000       0.18750000000000000        0.0000000000000000     
   1.0000000000000000       0.21875000000000000        0.0000000000000000     
   1.0312500000000000       0.21875000000000000        0.0000000000000000     
   1.0625000000000000       0.21875000000000000        0.0000000000000000     
   1.0937500000000000       0.21875000000000000        0.0000000000000000     
   1.1250000000000000       0.21875000000000000        0.0000000000000000     
   1.0000000000000000       0.25000000000000000        0.0000000000000000     
   1.0312500000000000       0.25000000000000000        0.0000000000000000     
   1.0625000000000000       0.25000000000000000        0.0000000000000000     
   1.0937500000000000       0.25000000000000000        0.0000000000000000     
   1.1250000000000000       0.25000000000000000        0.0000000000000000     
   1.1250000000000000       0.12500000000000000        0.0000000000000000     
   1.1562500000000000       0.12500000000000000        0.0000000000000000     
   1.1875000000000000       0.12500000000000000        0.0000000000000000     
   1.2187500000000000       0.12500000000000000        0.0000000000000000     
   1.2500000000000000       0.12500000000000000        0.0000000000000000     
   1.1250000000000000       0.15625000000000000        0.0000000000000000     
   1.1562500000000000       0.15625000000000000        0.0000000000000000     
   1.1875000000000000       0.15625000000000000        0.0000000000000000     
   1.2187500000000000       0.15625000000000000        0.0000000000000000     
   1.2500000000000000       0.15625000000000000        0.0000000000000000     
   1.1250000000000000       0.18750000000000000        0.0000000000000000     
   1.1562500000000000       0.18750000000000000        0.0000000000000000     
   1.1875000000000000       0.18750000000000000        0.0000000000000000     
   1.2187500000000000       0.18750000000000000        0.0000000000000000     
   1.2500000000000000       0.18750000000000000        0.0000000000000000     
   1.1250000000000000       0.21875000000000000        0.0000000000000000     
   1.1562500000000000       0.21875000000000000        0.0000000000000000     
   1.1875000000000000       0.21875000000000000        0.0000000000000000     
   1.2187500000000000       0.21875000000000000        0.0000000000000000     
   1.2500000000000000       0.21875000000000000        0.0000000000000000     
   1.1250000000000000       0.25000000000000000        0.0000000000000000     
   1.1562500000000000       0.25000000000000000        0.0000000000000000     
   1.1875000000000000       0.25000000000000000        0.0000000000000000     
   1.2187500000000000       0.25000000000000000        0.0000000000000000     
   1.2500000000000000       0.25000000000000000        0.0000000000000000     
   1.2500000000000000       0.12500000000000000        0.0000000000000000     
   1.2812500000000000       0.12500000000000000        0.0000000000000000     
   1.3125000000000000       0.12500000000000000        0.0000000000000000     
   1.3437500000000000       0.12500000000000000        0.0000000000000000     
   1.3750000000000000       0.12500000000000000        0.0000000000000000     
   1.2500000000000000       0.15625000000000000        0.0000000000000000     
   1.2812500000000000       0.15625000000000000        0.0000000000000000     
   1.3125000000000000       0.15625000000000000        0.0000000000000000     
   1.3437500000000000       0.15625000000000000        0.0000000000000000     
   1.3750000000000000       0.15625000000000000        0.0000000000000000     
   1.2500000000000000       0.18750000000000000        0.0000000000000000     
   1.2812500000000000       0.18750000000000000        0.0000000000000000     
   1.3125000000000000       0.18750000000000000        0.0000000000000000     
   1.3437500000000000       0.18750000000000000        0.0000000000000000     
   1.3750000000000000       0.18750000000000000        0.0000000000000000     
   1.2500000000000000       0.21875000000000000        0.0000000000000000     
   1.2812500000000000       0.21875000000000000        0.0000000000000000     
   1.3125000000000000       0.21875000000000000        0.0000000000000000     
   1.3437500000000000       0.21875000000000000        0.0000000000000000     
   1.3750000000000000       0.21875000000000000        0.0000000000000000     
   1.2500000000000000       0.25000000000000000        0.0000000000000000     
   1.2812500000000000       0.25000000000000000        0.0000000000000000     
   1.3125000000000000       0.25000000000000000        0.0000000000000000     
   1.3437500000000000       0.25000000000000000        0.0000000000000000     
   1.3750000000000000       0.25000000000000000        0.0000000000000000     
   1.3750000000000000       0.12500000000000000        0.0000000000000000     
   1.4062500000000000       0.12500000000000000        0.0000000000000000     
   1.4375000000000000       0.12500000000000000        0.0000000000000000     
   1.4687500000000000       0.12500000000000000        0.0000000000000000     
   1.5000000000000000       0.12500000000000000        0.0000000000000000     
   1.3750000000000000       0.15625000000000000        0.0000000000000000     
   1.4062500000000000       0.15625000000000000        0.0000000000000000     
   1.4375000000000000       0.15625000000000000        0.0000000000000000     
   1.4687500000000000       0.15625000000000000        0.0000000000000000     
   1.5000000000000000       0.15625000000000000        0.0000000000000000     
   1.3750000000000000       0.18750000000000000        0.0000000000000000     
   1.4062500000000000       0.18750000000000000        0.0000000000000000     
   1.4375000000000000       0.18750000000000000        0.0000000000000000     
   1.4687500000000000       0.18750000000000000        0.0000000000000000     
   1.5000000000000000       0.18750000000000000        0.0000000000000000     
   1.3750000000000000       0.21875000000000000        0.0000000000000000     
   1.4062500000000000       0.21875000000000000        0.0000000000000000     
   1.4375000000000000       0.21875000000000000        0.0000000000000000     
   1.4687500000000000       0.21875000000000000        0.0000000000000000     
   1.5000000000000000       0.21875000000000000        0.0000000000000000     
   1.3750000000000000       0.25000000000000000        0.0000000000000000     
   1.4062500000000000       0.25000000000000000        0.0000000000000000     
   1.4375000000000000       0.25000000000000000        0.0000000000000000     
   1.4687500000000000       0.25000000000000000        0.0000000000000000     
   1.5000000000000000       0.25000000000000000        0.0000000000000000     
  0.50000000000000000       0.25000000000000000        0.0000000000000000     
  0.53125000000000000       0.25000000000000000        0.0000000000000000     
  0.56250000000000000       0.25000000000000000        0.0000000000000000     
  0.59375000000000000       0.25000000000000000        0.0000000000000000     
  0.62500000000000000       0.25000000000000000        0.0000000000000000     
  0.50000000000000000       0.28125000000000000        0.0000000000000000     
  0.53125000000000000       0.28125000000000000        0.0000000000000000     
  0.56250000000000000       0.28125000000000000        0.0000000000000000     
  0.59375000000000000       0.28125000000000000        0.0000000000000000     
  0.62500000000000000       0.28125000000000000        0.0000000000000000     
  0.50000000000000000       0.31250000000000000        0.0000000000000000     
  0.53125000000000000       0.31250000000000000        0.0000000000000000     
  0.56250000000000000       0.31250000000000000        0.0000000000000000     
  0.59375000000000000       0.31250000000000000        0.0000000000000000     
  0.62500000000000000       0.31250000000000000        0.0000000000000000     
  0.50000000000000000       0.34375000000000000        0.0000000000000000     
  0.53125000000000000       0.34375000000000000        0.0000000000000000     
  0.56250000000000000       0.34375000000000000        0.0000000000000000     
  0.59375000000000000       0.34375000000000000        0.0000000000000000     
  0.62500000000000000       0.34375000000000000        0.0000000000000000     
  0.50000000000000000       0.37500000000000000        0.0000000000000000     
  0.53125000000000000       0.37500000000000000        0.0000000000000000     
  0.56250000000000000       0.37500000000000000        0.0000000000000000     
  0.59375000000000000       0.37500000000000000        0.0000000000000000     
  0.62500000000000000       0.37500000000000000        0.0000000000000000     
  0.62500000000000000       0.25000000000000000        0.0000000000000000     
  0.65625000000000000       0.25000000000000000        0.0000000000000000     
  0.68750000000000000       0.25000000000000000        0.0000000000000000     
  0.71875000000000000       0.25000000000000000        0.0000000000000000     
  0.75000000000000000       0.25000000000000000        0.0000000000000000     
  0.62500000000000000       0.28125000000000000        0.0000000000000000     
  0.65625000000000000       0.28125000000000000        0.0000000000000000     
  0.68750000000000000       0.28125000000000000        0.0000000000000000     
  0.71875000000000000       0.28125000000000000        0.0000000000000000     
  0.75000000000000000       0.28125000000000000        0.0000000000000000     
  0.62500000000000000       0.31250000000000000        0.0000000000000000     
  0.65625000000000000       0.31250000000000000        0.0000000000000000     
  0.68750000000000000       0.31250000000000000        0.0000000000000000     
  0.71875000000000000       0.31250000000000000        0.0000000000000000     
  0.75000000000000000       0.31250000000000000        0.0000000000000000     
  0.62500000000000000       0.34375000000000000        0.0000000000000000     
  0.65625000000000000       0.34375000000000000        0.0000000000000000     
  0.68750000000000000       0.34375000000000000        0.0000000000000000     
  0.71875000000000000       0.34375000000000000        0.0000000000000000     
  0.75000000000000000       0.34375000000000000        0.0000000000000000     
  0.62500000000000000       0.37500000000000000        0.0000000000000000     
  0.65625000000000000       0.37500000000000000        0.0000000000000000     
  0.68750000000000000       0.37500000000000000        0.0000000000000000     
  0.71875000000000000       0.37500000000000000        0.0000000000000000     
  0.75000000000000000       0.37500000000000000        0.0000000000000000     
  0.75000000000000000       0.25000000000000000        0.0000000000000000     
  0.78125000000000000       0.25000000000000000        0.0000000000000000     
  0.81250000000000000       0.25000000000000000        0.0000000000000000     
  0.84375000000000000       0.25000000000000000        0.0000000000000000     
  0.87500000000000000       0.25000000000000000        0.0000000000000000     
  0.75000000000000000       0.28125000000000000        0.0000000000000000     
  0.78125000000000000       0.28125000000000000        0.0000000000000000     
  0.81250000000000000       0.28125000000000000        0.0000000000000000     
  0.84375000000000000       0.28125000000000000        0.0000000000000000     
  0.87500000000000000       0.28125000000000000        0.0000000000000000     
  0.75000000000000000       0.31250000000000000        0.0000000000000000     
  0.78125000000000000       0.31250000000000000        0.0000000000000000     
  0.81250000000000000       0.31250000000000000        0.0000000000000000     
  0.84375000000000000       0.31250000000000000        0.0000000000000000     
  0.87500000000000000       0.31250000000000000        0.0000000000000000     
  0.75000000000000000       0.34375000000000000        0.0000000000000000     
  0.78125000000000000       0.34375000000000000        0.0000000000000000     
  0.81250000000000000       0.34375000000000000        0.0000000000000000     
  0.84375000000000000       0.34375000000000000        0.0000000000000000     
  0.87500000000000000       0.34375000000000000        0.0000000000000000     
  0.75000000000000000       0.37500000000000000        0.0000000000000000     
  0.78125000000000000       0.37500000000000000        0.0000000000000000     
  0.81250000000000000       0.37500000000000000        0.0000000000000000     
  0.84375000000000000       0.37500000000000000        0.0000000000000000     
  0.87500000000000000       0.37500000000000000        0.0000000000000000     
  0.87500000000000000       0.25000000000000000        0.0000000000000000     
  0.90625000000000000       0.25000000000000000        0.0000000000000000     
  0.93750000000000000       0.25000000000000000        0.0000000000000000     
  0.96875000000000000       0.25000000000000000        0.0000000000000000     
   1.0000000000000000       0.25000000000000000        0.0000000000000000     
  0.87500000000000000       0.28125000000000000        0.0000000000000000     
  0.90625000000000000       0.28125000000000000        0.0000000000000000     
  0.93750000000000000       0.28125000000000000        0.0000000000000000     
  0.96875000000000000       0.28125000000000000        0.0000000000000000     
   1.0000000000000000       0.28125000000000000        0.0000000000000000     
  0.87500000000000000       0.31250000000000000        0.0000000000000000     
  0.90625000000000000       0.31250000000000000        0.0000000000000000     
  0.93750000000000000       0.31250000000000000        0.0000000000000000     
  0.96875000000000000       0.31250000000000000        0.0000000000000000     
   1.0000000000000000       0.31250000000000000        0.0000000000000000     
  0.87500000000000000       0.34375000000000000        0.0000000000000000     
  0.90625000000000000       0.34375000000000000        0.0000000000000000     
  0.93750000000000000       0.34375000000000000        0.0000000000000000     
  0.96875000000000000       0.34375000000000000        0.0000000000000000     
   1.0000000000000000       0.34375000000000000        0.0000000000000000     
  0.87500000000000000       0.37500000000000000        0.0000000000000000     
  0.90625000000000000       0.37500000000000000        0.0000000000000000     
  0.93750000000000000       0.37500000000000000        0.0000000000000000     
  0.96875000000000000       0.37500000000000000        0.0000000000000000     
   1.0000000000000000       0.37500000000000000        0.0000000000000000     
   1.0000000000000000       0.25000000000000000        0.0000000000000000     
   1.0312500000000000       0.25000000000000000        0.0000000000000000     
   1.0625000000000000       0.25000000000000000        0.0000000000000000     
   1.0937500000000000       0.25000000000000000        0.0000000000000000     
   1.1250000000000000       0.25000000000000000        0.0000000000000000     
   1.0000000000000000       0.28125000000000000        0.0000000000000000     
   1.0312500000000000       0.28125000000000000        0.0000000000000000     
   1.0625000000000000       0.28125000000000000        0.0000000000000000     
   1.0937500000000000       0.28125000000000000        0.0000000000000000     
   1.1250000000000000       0.28125000000000000        0.0000000000000000     
   1.0000000000000000       0.31250000000000000        0.0000000000000000     
   1.0312500000000000       0.31250000000000000        0.0000000000000000     
   1.0625000000000000       0.31250000000000000        0.0000000000000000     
   1.0937500000000000       0.31250000000000000        0.0000000000000000     
   1.1250000000000000       0.31250000000000000        0.0000000000000000     
   1.0000000000000000       0.34375000000000000        0.0000000000000000     
   1.0312500000000000       0.34375000000000000        0.0000000000000000     
   1.0625000000000000       0.34375000000000000        0.0000000000000000     
   1.0937500000000000       0.34375000000000000        0.0000000000000000     
   1.1250000000000000       0.34375000000000000        0.0000000000000000     
   1.0000000000000000       0.37500000000000000        0.0000000000000000     
   1.0312500000000000       0.37500000000000000        0.0000000000000000     
   1.0625000000000000       0.37500000000000000        0.0000000000000000     
   1.0937500000000000       0.37500000000000000        0.0000000000000000     
   1.1250000000000000       0.37500000000000000        0.0000000000000000     
   1.1250000000000000       0.25000000000000000        0.0000000000000000     
   1.1562500000000000       0.25000000000000000        0.0000000000000000     
   1.1875000000000000       0.25000000000000000        0.0000000000000000     
   1.2187500000000000       0.25000000000000000        0.0000000000000000     
   1.2500000000000000       0.25000000000000000        0.0000000000000000     
   1.1250000000000000       0.28125000000000000        0.0000000000000000     
   1.1562500000000000       0.28125000000000000        0.0000000000000000     
   1.1875000000000000       0.28125000000000000        0.0000000000000000     
   1.2187500000000000       0.28125000000000000        0.0000000000000000     
   1.2500000000000000       0.28125000000000000        0.0000000000000000     
   1.1250000000000000       0.31250000000000000        0.0000000000000000     
   1.1562500000000000       0.31250000000000000        0.0000000000000000     
   1.1875000000000000       0.31250000000000000        0.0000000000000000     
   1.2187500000000000       0.31250000000000000        0.0000000000000000     
   1.2500000000000000       0.31250000000000000        0.0000000000000000     
   1.1250000000000000       0.34375000000000000        0.0000000000000000     
   1.1562500000000000       0.34375000000000000        0.0000000000000000     
   1.1875000000000000       0.34375000000000000        0.0000000000000000     
   1.2187500000000000       0.34375000000000000        0.0000000000000000     
   1.2500000000000000       0.34375000000000000        0.0000000000000000     
   1.1250000000000000       0.37500000000000000        0.0000000000000000     
   1.1562500000000000       0.37500000000000000        0.0000000000000000     
   1.1875000000000000       0.37500000000000000        0.0000000000000000     
   1.2187500000000000       0.37500000000000000        0.0000000000000000     
   1.2500000000000000       0.37500000000000000        0.0000000000000000     
   1.2500000000000000       0.25000000000000000        0.0000000000000000     
   1.2812500000000000       0.25000000000000000        0.0000000000000000     
   1.3125000000000000       0.25000000000000000        0.0000000000000000     
   1.3437500000000000       0.25000000000000000        0.0000000000000000     
   1.3750000000000000       0.25000000000000000        0.0000000000000000     
   1.2500000000000000       0.28125000000000000        0.0000000000000000     
   1.2812500000000000       0.28125000000000000        0.0000000000000000     
   1.3125000000000000       0.28125000000000000        0.0000000000000000     
   1.3437500000000000       0.28125000000000000        0.0000000000000000     
   1.3750000000000000       0.28125000000000000        0.0000000000000000     
   1.2500000000000000       0.31250000000000000        0.0000000000000000     
   1.2812500000000000       0.31250000000000000        0.0000000000000000     
   1.3125000000000000       0.31250000000000000        0.0000000000000000     
   1.3437500000000000       0.31250000000000000        0.0000000000000000     
   1.3750000000000000       0.31250000000000000        0.0000000000000000     
   1.2500000000000000       0.34375000000000000        0.0000000000000000     
   1.2812500000000000       0.34375000000000000        0.0000000000000000     
   1.3125000000000000       0.34375000000000000        0.0000000000000000     
   1.3437500000000000       0.34375000000000000        0.0000000000000000     
   1.3750000000000000       0.34375000000000000        0.0000000000000000     
   1.2500000000000000       0.37500000000000000        0.0000000000000000     
   1.2812500000000000       0.37500000000000000        0.0000000000000000     
   1.3125000000000000       0.37500000000000000        0.0000000000000000     
   1.3437500000000000       0.37500000000000000        0.0000000000000000     
   1.3750000000000000       0.37500000000000000        0.0000000000000000     
   1.3750000000000000       0.25000000000000000        0.0000000000000000     
   1.4062500000000000       0.25000000000000000        0.0000000000000000     
   1.4375000000000000       0.25000000000000000        0.0000000000000000     
   1.4687500000000000       0.25000000000000000        0.0000000000000000     
   1.5000000000000000       0.25000000000000000        0.0000000000000000     
   1.3750000000000000       0.28125000000000000        0.0000000000000000     
   1.4062500000000000       0.28125000000000000        0.0000000000000000     
   1.4375000000000000       0.28125000000000000        0.0000000000000000     
   1.4687500000000000       0.28125000000000000        0.0000000000000000     
   1.5000000000000000       0.28125000000000000        0.0000000000000000     
   1.3750000000000000       0.31250000000000000        0.0000000000000000     
   1.4062500000000000       0.31250000000000000        0.0000000000000000     
   1.4375000000000000       0.31250000000000000        0.0000000000000000     
   1.4687500000000000       0.31250000000000000        0.0000000000000000     
   1.5000000000000000       0.31250000000000000        0.0000000000000000     
   1.3750000000000000       0.34375000000000000        0.0000000000000000     
   1.4062500000000000       0.34375000000000000        0.0000000000000000     
   1.4375000000000000       0.34375000000000000        0.0000000000000000     
   1.4687500000000000       0.34375000000000000        0.0000000000000000     
   1.5000000000000000       0.34375000000000000        0.0000000000000000     
   1.3750000000000000       0.37500000000000000        0.0000000000000000     
   1.4062500000000000       0.37500000000000000        0.0000000000000000     
   1.4375000000000000       0.37500000000000000        0.0000000000000000     
   1.4687500000000000       0.37500000000000000        0.0000000000000000     
   1.5000000000000000       0.37500000000000000        0.0000000000000000     
  0.50000000000000000       0.37500000000000000        0.0000000000000000     
  0.53125000000000000       0.37500000000000000        0.0000000000000000     
  0.56250000000000000       0.37500000000000000        0.0000000000000000     
  0.59375000000000000       0.37500000000000000        0.0000000000000000     
  0.62500000000000000       0.37500000000000000        0.0000000000000000     
  0.50000000000000000       0.40625000000000000        0.0000000000000000     
  0.53125000000000000       0.40625000000000000        0.0000000000000000     
  0.56250000000000000       0.40625000000000000        0.0000000000000000     
  0.59375000000000000       0.40625000000000000        0.0000000000000000     
  0.62500000000000000       0.40625000000000000        0.0000000000000000     
  0.50000000000000000       0.43750000000000000        0.0000000000000000     
  0.53125000000000000       0.43750000000000000        0.0000000000000000     
  0.56250000000000000       0.43750000000000000        0.0000000000000000     
  0.59375000000000000       0.43750000000000000        0.0000000000000000     
  0.62500000000000000       0.43750000000000000        0.0000000000000000     
  0.50000000000000000       0.46875000000000000        0.0000000000000000     
  0.53125000000000000       0.46875000000000000        0.0000000000000000     
  0.56250000000000000       0.46875000000000000        0.0000000000000000     
  0.59375000000000000       0.46875000000000000        0.0000000000000000     
  0.62500000000000000       0.46875000000000000        0.0000000000000000     
  0.50000000000000000       0.50000000000000000        0.0000000000000000     
  0.53125000000000000       0.50000000000000000        0.0000000000000000     
  0.56250000000000000       0.50000000000000000        0.0000000000000000     
  0.59375000000000000       0.50000000000000000        0.0000000000000000     
  0.62500000000000000       0.50000000000000000        0.0000000000000000     
  0.62500000000000000       0.37500000000000000        0.0000000000000000     
  0.65625000000000000       0.37500000000000000        0.0000000000000000     
  0.68750000000000000       0.37500000000000000        0.0000000000000000     
  0.71875000000000000       0.37500000000000000        0.0000000000000000     
  0.75000000000000000       0.37500000000000000        0.0000000000000000     
  0.62500000000000000       0.40625000000000000        0.0000000000000000     
  0.65625000000000000       0.40625000000000000        0.0000000000000000     
  0.68750000000000000       0.40625000000000000        0.0000000000000000     
  0.71875000000000000       0.40625000000000000        0.0000000000000000     
  0.75000000000000000       0.40625000000000000        0.0000000000000000     
  0.62500000000000000       0.43750000000000000        0.0000000000000000     
  0.65625000000000000       0.43750000000000000        0.0000000000000000     
  0.68750000000000000       0.43750000000000000        0.0000000000000000     
  0.71875000000000000       0.43750000000000000        0.0000000000000000     
  0.75000000000000000       0.43750000000000000        0.0000000000000000     
  0.62500000000000000       0.46875000000000000        0.0000000000000000     
  0.65625000000000000       0.46875000000000000        0.0000000000000000     
  0.68750000000000000       0.46875000000000000        0.0000000000000000     
  0.71875000000000000       0.46875000000000000        0.0000000000000000     
  0.75000000000000000       0.46875000000000000        0.0000000000000000     
  0.62500000000000000       0.50000000000000000        0.0000000000000000     
  0.65625000000000000       0.50000000000000000        0.0000000000000000     
  0.68750000000000000       0.50000000000000000        0.0000000000000000     
  0.71875000000000000       0.50000000000000000        0.0000000000000000     
  0.75000000000000000       0.50000000000000000        0.0000000000000000     
  0.75000000000000000       0.37500000000000000        0.0000000000000000     
  0.78125000000000000       0.37500000000000000        0.0000000000000000     
  0.81250000000000000       0.37500000000000000        0.0000000000000000     
  0.84375000000000000       0.37500000000000000        0.0000000000000000     
  0.87500000000000000       0.37500000000000000        0.0000000000000000     
  0.75000000000000000       0.40625000000000000        0.0000000000000000     
  0.78125000000000000       0.40625000000000000        0.0000000000000000     
  0.81250000000000000       0.40625000000000000        0.0000000000000000     
  0.84375000000000000       0.40625000000000000        0.0000000000000000     
  0.87500000000000000       0.40625000000000000        0.0000000000000000     
  0.75000000000000000       0.43750000000000000        0.0000000000000000     
  0.78125000000000000       0.43750000000000000        0.0000000000000000     
  0.81250000000000000       0.43750000000000000        0.0000000000000000     
  0.84375000000000000       0.43750000000000000        0.0000000000000000     
  0.87500000000000000       0.43750000000000000        0.0000000000000000     
  0.75000000000000000       0.46875000000000000        0.0000000000000000     
  0.78125000000000000       0.46875000000000000        0.0000000000000000     
  0.81250000000000000       0.46875000000000000        0.0000000000000000     
  0.84375000000000000       0.46875000000000000        0.0000000000000000     
  0.87500000000000000       0.46875000000000000        0.0000000000000000     
  0.75000000000000000       0.50000000000000000        0.0000000000000000     
  0.78125000000000000       0.50000000000000000        0.0000000000000000     
  0.81250000000000000       0.50000000000000000        0.0000000000000000     
  0.84375000000000000       0.50000000000000000        0.0000000000000000     
  0.87500000000000000       0.50000000000000000        0.0000000000000000     
  0.87500000000000000       0.37500000000000000        0.0000000000000000     
  0.90625000000000000       0.37500000000000000        0.0000000000000000     
  0.93750000000000000       0.37500000000000000        0.0000000000000000     
  0.96875000000000000       0.37500000000000000        0.0000000000000000     
   1.0000000000000000       0.37500000000000000        0.0000000000000000     
  0.87500000000000000       0.40625000000000000        0.0000000000000000     
  0.90625000000000000       0.40625000000000000        0.0000000000000000     
  0.93750000000000000       0.40625000000000000        0.0000000000000000     
  0.96875000000000000       0.40625000000000000        0.0000000000000000     
   1.0000000000000000       0.40625000000000000        0.0000000000000000     
  0.87500000000000000       0.43750000000000000        0.0000000000000000     
  0.90625000000000000       0.43750000000000000        0.0000000000000000     
  0.93750000000000000       0.43750000000000000        0.0000000000000000     
  0.96875000000000000       0.43750000000000000        0.0000000000000000     
   1.0000000000000000       0.43750000000000000        0.0000000000000000     
  0.87500000000000000       0.46875000000000000        0.0000000000000000     
  0.90625000000000000       0.46875000000000000        0.0000000000000000     
  0.93750000000000000       0.46875000000000000        0.0000000000000000     
  0.96875000000000000       0.46875000000000000        0.0000000000000000     
   1.0000000000000000       0.46875000000000000        0.0000000000000000     
  0.87500000000000000       0.50000000000000000        0.0000000000000000     
  0.90625000000000000       0.50000000000000000        0.0000000000000000     
  0.93750000000000000       0.50000000000000000        0.0000000000000000     
  0.96875000000000000       0.50000000000000000        0.0000000000000000     
   1.0000000000000000       0.50000000000000000        0.0000000000000000     
   1.0000000000000000       0.37500000000000000        0.0000000000000000     
   1.0312500000000000       0.37500000000000000        0.0000000000000000     
   1.0625000000000000       0.37500000000000000        0.0000000000000000     
   1.0937500000000000       0.37500000000000000        0.0000000000000000     
   1.1250000000000000       0.37500000000000000        0.0000000000000000     
   1.0000000000000000       0.40625000000000000        0.0000000000000000     
   1.0312500000000000       0.40625000000000000        0.0000000000000000     
   1.0625000000000000       0.40625000000000000        0.0000000000000000     
   1.0937500000000000       0.40625000000000000        0.0000000000000000     
   1.1250000000000000       0.40625000000000000        0.0000000000000000     
   1.0000000000000000       0.43750000000000000        0.0000000000000000     
   1.0312500000000000       0.43750000000000000        0.0000000000000000     
   1.0625000000000000       0.43750000000000000        0.0000000000000000     
   1.0937500000000000       0.43750000000000000        0.0000000000000000     
   1.1250000000000000       0.43750000000000000        0.0000000000000000     
   1.0000000000000000       0.46875000000000000        0.0000000000000000     
   1.0312500000000000       0.46875000000000000        0.0000000000000000     
   1.0625000000000000       0.46875000000000000        0.0000000000000000     
   1.0937500000000000       0.46875000000000000        0.0000000000000000     
   1.1250000000000000       0.46875000000000000        0.0000000000000000     
   1.0000000000000000       0.50000000000000000        0.0000000000000000     
   1.0312500000000000       0.50000000000000000        0.0000000000000000     
   1.0625000000000000       0.50000000000000000        0.0000000000000000     
   1.0937500000000000       0.50000000000000000        0.0000000000000000     
   1.1250000000000000       0.50000000000000000        0.0000000000000000     
   1.1250000000000000       0.37500000000000000        0.0000000000000000     
   1.1562500000000000       0.37500000000000000        0.0000000000000000     
   1.1875000000000000       0.37500000000000000        0.0000000000000000     
   1.2187500000000000       0.37500000000000000        0.0000000000000000     
   1.2500000000000000       0.37500000000000000        0.0000000000000000     
   1.1250000000000000       0.40625000000000000        0.0000000000000000     
   1.1562500000000000       0.40625000000000000        0.0000000000000000     
   1.1875000000000000       0.40625000000000000        0.0000000000000000     
   1.2187500000000000       0.40625000000000000        0.0000000000000000     
   1.2500000000000000       0.40625000000000000        0.0000000000000000     
   1.1250000000000000       0.43750000000000000        0.0000000000000000     
   1.1562500000000000       0.43750000000000000        0.0000000000000000     
   1.1875000000000000       0.43750000000000000        0.0000000000000000     
   1.2187500000000000       0.43750000000000000        0.0000000000000000     
   1.2500000000000000       0.43750000000000000        0.0000000000000000     
   1.1250000000000000       0.46875000000000000        0.0000000000000000     
   1.1562500000000000       0.46875000000000000        0.0000000000000000     
   1.1875000000000000       0.46875000000000000        0.0000000000000000     
   1.2187500000000000       0.46875000000000000        0.0000000000000000     
   1.2500000000000000       0.46875000000000000        0.0000000000000000     
   1.1250000000000000       0.50000000000000000        0.0000000000000000     
   1.1562500000000000       0.50000000000000000        0.0000000000000000     
   1.1875000000000000       0.50000000000000000        0.0000000000000000     
   1.2187500000000000       0.50000000000000000        0.0000000000000000     
   1.2500000000000000       0.50000000000000000        0.0000000000000000     
   1.2500000000000000       0.37500000000000000        0.0000000000000000     
   1.2812500000000000       0.37500000000000000        0.0000000000000000     
   1.3125000000000000       0.37500000000000000        0.0000000000000000     
   1.3437500000000000       0.37500000000000000        0.0000000000000000     
   1.3750000000000000       0.37500000000000000        0.0000000000000000     
   1.2500000000000000       0.40625000000000000        0.0000000000000000     
   1.2812500000000000       0.40625000000000000        0.0000000000000000     
   1.3125000000000000       0.40625000000000000        0.0000000000000000     
   1.3437500000000000       0.40625000000000000        0.0000000000000000     
   1.3750000000000000       0.40625000000000000        0.0000000000000000     
   1.2500000000000000       0.43750000000000000        0.0000000000000000     
   1.2812500000000000       0.43750000000000000        0.0000000000000000     
   1.3125000000000000       0.43750000000000000        0.0000000000000000     
   1.3437500000000000       0.43750000000000000        0.0000000000000000     
   1.3750000000000000       0.43750000000000000        0.0000000000000000     
   1.2500000000000000       0.46875000000000000        0.0000000000000000     
   1.2812500000000000       0.46875000000000000        0.0000000000000000     
   1.3125000000000000       0.46875000000000000        0.0000000000000000     
   1.3437500000000000       0.46875000000000000        0.0000000000000000     
   1.3750000000000000       0.46875000000000000        0.0000000000000000     
   1.2500000000000000       0.50000000000000000        0.0000000000000000     
   1.2812500000000000       0.50000000000000000        0.0000000000000000     
   1.3125000000000000       0.50000000000000000        0.0000000000000000     
   1.3437500000000000       0.50000000000000000        0.0000000000000000     
   1.3750000000000000       0.50000000000000000        0.0000000000000000     
   1.3750000000000000       0.37500000000000000        0.0000000000000000     
   1.4062500000000000       0.37500000000000000        0.0000000000000000     
   1.4375000000000000       0.37500000000000000        0.0000000000000000     
   1.4687500000000000       0.37500000000000000        0.0000000000000000     
   1.5000000000000000       0.37500000000000000        0.0000000000000000     
   1.3750000000000000       0.40625000000000000        0.0000000000000000     
   1.4062500000000000       0.40625000000000000        0.0000000000000000     
   1.4375000000000000       0.40625000000000000        0.0000000000000000     
   1.4687500000000000       0.40625000000000000        0.0000000000000000     
   1.5000000000000000       0.40625000000000000        0.0000000000000000     
   1.3750000000000000       0.43750000000000000        0.0000000000000000     
   1.4062500000000000       0.43750000000000000        0.0000000000000000     
   1.4375000000000000       0.43750000000000000        0.0000000000000000     
   1.4687500000000000       0.43750000000000000        0.0000000000000000     
   1.5000000000000000       0.43750000000000000        0.0000000000000000     
   1.3750000000000000       0.46875000000000000        0.0000000000000000     
   1.4062500000000000       0.46875000000000000        0.0000000000000000     
   1.4375000000000000       0.46875000000000000        0.0000000000000000     
   1.4687500000000000       0.46875000000000000        0.0000000000000000     
   1.5000000000000000       0.46875000000000000        0.0000000000000000     
   1.3750000000000000       0.50000000000000000        0.0000000000000000     
   1.4062500000000000       0.50000000000000000        0.0000000000000000     
   1.4375000000000000       0.50000000000000000        0.0000000000000000     
   1.4687500000000000       0.50000000000000000        0.0000000000000000     
   1.5000000000000000       0.50000000000000000        0.0000000000000000     
  0.50000000000000000       0.50000000000000000        0.0000000000000000     
  0.53125000000000000       0.50000000000000000        0.0000000000000000     
  0.56250000000000000       0.50000000000000000        0.0000000000000000     
  0.59375000000000000       0.50000000000000000        0.0000000000000000     
  0.62500000000000000       0.50000000000000000        0.0000000000000000     
  0.50000000000000000       0.53125000000000000        0.0000000000000000     
  0.53125000000000000       0.53125000000000000        0.0000000000000000     
  0.56250000000000000       0.53125000000000000        0.0000000000000000     
  0.59375000000000000       0.53125000000000000        0.0000000000000000     
  0.62500000000000000       0.53125000000000000        0.0000000000000000     
  0.50000000000000000       0.56250000000000000        0.0000000000000000     
  0.53125000000000000       0.56250000000000000        0.0000000000000000     
  0.56250000000000000       0.56250000000000000        0.0000000000000000     
  0.59375000000000000       0.56250000000000000        0.0000000000000000     
  0.62500000000000000       0.56250000000000000        0.0000000000000000     
  0.50000000000000000       0.59375000000000000        0.0000000000000000     
  0.53125000000000000       0.59375000000000000        0.0000000000000000     
  0.56250000000000000       0.59375000000000000        0.0000000000000000     
  0.59375000000000000       0.59375000000000000        0.0000000000000000     
  0.62500000000000000       0.59375000000000000        0.0000000000000000     
  0.50000000000000000       0.62500000000000000        0.0000000000000000     
  0.53125000000000000       0.62500000000000000        0.0000000000000000     
  0.56250000000000000       0.62500000000000000        0.0000000000000000     
  0.59375000000000000       0.62500000000000000        0.0000000000000000     
  0.62500000000000000       0.62500000000000000        0.0000000000000000     
  0.62500000000000000       0.50000000000000000        0.0000000000000000     
  0.65625000000000000       0.50000000000000000        0.0000000000000000     
  0.68750000000000000       0.50000000000000000        0.0000000000000000     
  0.71875000000000000       0.50000000000000000        0.0000000000000000     
  0.75000000000000000       0.50000000000000000        0.0000000000000000     
  0.62500000000000000       0.53125000000000000        0.0000000000000000     
  0.65625000000000000       0.53125000000000000        0.0000000000000000     
  0.68750000000000000       0.53125000000000000        0.0000000000000000     
  0.71875000000000000       0.53125000000000000        0.0000000000000000     
  0.75000000000000000       0.53125000000000000        0.0000000000000000     
  0.62500000000000000       0.56250000000000000        0.0000000000000000     
  0.65625000000000000       0.56250000000000000        0.0000000000000000     
  0.68750000000000000       0.56250000000000000        0.0000000000000000     
  0.71875000000000000       0.56250000000000000        0.0000000000000000     
  0.75000000000000000       0.56250000000000000        0.0000000000000000     
  0.62500000000000000       0.59375000000000000        0.0000000000000000     
  0.65625000000000000       0.59375000000000000        0.0000000000000000     
  0.68750000000000000       0.59375000000000000        0.0000000000000000     
  0.71875000000000000       0.59375000000000000        0.0000000000000000     
  0.75000000000000000       0.59375000000000000        0.0000000000000000     
  0.62500000000000000       0.62500000000000000        0.0000000000000000     
  0.65625000000000000       0.62500000000000000        0.0000000000000000     
  0.68750000000000000       0.62500000000000000        0.0000000000000000     
  0.71875000000000000       0.62500000000000000        0.0000000000000000     
  0.75000000000000000       0.62500000000000000        0.0000000000000000     
  0.75000000000000000       0.50000000000000000        0.0000000000000000     
  0.78125000000000000       0.50000000000000000        0.0000000000000000     
  0.81250000000000000       0.50000000000000000        0.0000000000000000     
  0.84375000000000000       0.50000000000000000        0.0000000000000000     
  0.87500000000000000       0.50000000000000000        0.0000000000000000     
  0.75000000000000000       0.53125000000000000        0.0000000000000000     
  0.78125000000000000       0.53125000000000000        0.0000000000000000     
  0.81250000000000000       0.53125000000000000        0.0000000000000000     
  0.84375000000000000       0.53125000000000000        0.0000000000000000     
  0.87500000000000000       0.53125000000000000        0.0000000000000000     
  0.75000000000000000       0.56250000000000000        0.0000000000000000     
  0.78125000000000000       0.56250000000000000        0.0000000000000000     
  0.81250000000000000       0.56250000000000000        0.0000000000000000     
  0.84375000000000000       0.56250000000000000        0.0000000000000000     
  0.87500000000000000       0.56250000000000000        0.0000000000000000     
  0.75000000000000000       0.59375000000000000        0.0000000000000000     
  0.78125000000000000       0.59375000000000000        0.0000000000000000     
  0.81250000000000000       0.59375000000000000        0.0000000000000000     
  0.84375000000000000       0.59375000000000000        0.0000000000000000     
  0.87500000000000000       0.59375000000000000        0.0000000000000000     
  0.75000000000000000       0.62500000000000000        0.0000000000000000     
  0.78125000000000000       0.62500000000000000        0.0000000000000000     
  0.81250000000000000       0.62500000000000000        0.0000000000000000     
  0.84375000000000000       0.62500000000000000        0.0000000000000000     
  0.87500000000000000       0.62500000000000000        0.0000000000000000     
  0.87500000000000000       0.50000000000000000        0.0000000000000000     
  0.90625000000000000       0.50000000000000000        0.0000000000000000     
  0.93750000000000000       0.50000000000000000        0.0000000000000000     
  0.96875000000000000       0.50000000000000000        0.0000000000000000     
   1.0000000000000000       0.50000000000000000        0.0000000000000000     
  0.87500000000000000       0.53125000000000000        0.0000000000000000     
  0.90625000000000000       0.53125000000000000        0.0000000000000000     
  0.93750000000000000       0.53125000000000000        0.0000000000000000     
  0.96875000000000000       0.53125000000000000        0.0000000000000000     
   1.0000000000000000       0.53125000000000000        0.0000000000000000     
  0.87500000000000000       0.56250000000000000        0.0000000000000000     
  0.90625000000000000       0.56250000000000000        0.0000000000000000     
  0.93750000000000000       0.56250000000000000        0.0000000000000000     
  0.96875000000000000       0.56250000000000000        0.0000000000000000     
   1.0000000000000000       0.56250000000000000        0.0000000000000000     
  0.87500000000000000       0.59375000000000000        0.0000000000000000     
  0.90625000000000000       0.59375000000000000        0.0000000000000000     
  0.93750000000000000       0.59375000000000000        0.0000000000000000     
  0.96875000000000000       0.59375000000000000        0.0000000000000000     
   1.0000000000000000       0.59375000000000000        0.0000000000000000     
  0.87500000000000000       0.62500000000000000        0.0000000000000000     
  0.90625000000000000       0.62500000000000000        0.0000000000000000     
  0.93750000000000000       0.62500000000000000        0.0000000000000000     
  0.96875000000000000       0.62500000000000000        0.0000000000000000     
   1.0000000000000000       0.62500000000000000        0.0000000000000000     
   1.0000000000000000       0.50000000000000000        0.0000000000000000     
   1.0312500000000000       0.50000000000000000        0.0000000000000000     
   1.0625000000000000       0.50000000000000000        0.0000000000000000     
   1.0937500000000000       0.50000000000000000        0.0000000000000000     
   1.1250000000000000       0.50000000000000000        0.0000000000000000     
   1.0000000000000000       0.53125000000000000        0.0000000000000000     
   1.0312500000000000       0.53125000000000000        0.0000000000000000     
   1.0625000000000000       0.53125000000000000        0.0000000000000000     
   1.0937500000000000       0.53125000000000000        0.0000000000000000     
   1.1250000000000000       0.53125000000000000        0.0000000000000000     
   1.0000000000000000       0.56250000000000000        0.0000000000000000     
   1.0312500000000000       0.56250000000000000        0.0000000000000000     
   1.0625000000000000       0.56250000000000000        0.0000000000000000     
   1.0937500000000000       0.56250000000000000        0.0000000000000000     
   1.1250000000000000       0.56250000000000000        0.0000000000000000     
   1.0000000000000000       0.59375000000000000        0.0000000000000000     
   1.0312500000000000       0.59375000000000000        0.0000000000000000     
   1.0625000000000000       0.59375000000000000        0.0000000000000000     
   1.0937500000000000       0.59375000000000000        0.0000000000000000     
   1.1250000000000000       0.59375000000000000        0.0000000000000000     
   1.0000000000000000       0.62500000000000000        0.0000000000000000     
   1.0312500000000000       0.62500000000000000        0.0000000000000000     
   1.0625000000000000       0.62500000000000000        0.0000000000000000     
   1.0937500000000000       0.62500000000000000        0.0000000000000000     
   1.1250000000000000       0.62500000000000000        0.0000000000000000     
   1.1250000000000000       0.50000000000000000        0.0000000000000000     
   1.1562500000000000       0.50000000000000000        0.0000000000000000     
   1.1875000000000000       0.50000000000000000        0.0000000000000000     
   1.2187500000000000       0.50000000000000000        0.0000000000000000     
   1.2500000000000000       0.50000000000000000        0.0000000000000000     
   1.1250000000000000       0.53125000000000000        0.0000000000000000     
   1.1562500000000000       0.53125000000000000        0.0000000000000000     
   1.1875000000000000       0.53125000000000000        0.0000000000000000     
   1.2187500000000000       0.53125000000000000        0.0000000000000000     
   1.2500000000000000       0.53125000000000000        0.0000000000000000     
   1.1250000000000000       0.56250000000000000        0.0000000000000000     
   1.1562500000000000       0.56250000000000000        0.0000000000000000     
   1.1875000000000000       0.56250000000000000        0.0000000000000000     
   1.2187500000000000       0.56250000000000000        0.0000000000000000     
   1.2500000000000000       0.56250000000000000        0.0000000000000000     
   1.1250000000000000       0.59375000000000000        0.0000000000000000     
   1.1562500000000000       0.59375000000000000        0.0000000000000000     
   1.1875000000000000       0.59375000000000000        0.0000000000000000     
   1.2187500000000000       0.59375000000000000        0.0000000000000000     
   1.2500000000000000       0.59375000000000000        0.0000000000000000     
   1.1250000000000000       0.62500000000000000        0.0000000000000000     
   1.1562500000000000       0.62500000000000000        0.0000000000000000     
   1.1875000000000000       0.62500000000000000        0.0000000000000000     
   1.2187500000000000       0.62500000000000000        0.0000000000000000     
   1.2500000000000000       0.62500000000000000        0.0000000000000000     
   1.2500000000000000       0.50000000000000000        0.0000000000000000     
   1.2812500000000000       0.50000000000000000        0.0000000000000000     
   1.3125000000000000       0.50000000000000000        0.0000000000000000     
   1.3437500000000000       0.50000000000000000        0.0000000000000000     
   1.3750000000000000       0.50000000000000000        0.0000000000000000     
   1.2500000000000000       0.53125000000000000        0.0000000000000000     
   1.2812500000000000       0.53125000000000000        0.0000000000000000     
   1.3125000000000000       0.53125000000000000        0.0000000000000000     
   1.3437500000000000       0.53125000000000000        0.0000000000000000     
   1.3750000000000000       0.53125000000000000        0.0000000000000000     
   1.2500000000000000       0.56250000000000000        0.0000000000000000     
   1.2812500000000000       0.56250000000000000        0.0000000000000000     
   1.3125000000000000       0.56250000000000000        0.0000000000000000     
   1.3437500000000000       0.56250000000000000        0.0000000000000000     
   1.3750000000000000       0.56250000000000000        0.0000000000000000     
   1.2500000000000000       0.59375000000000000        0.0000000000000000     
   1.2812500000000000       0.59375000000000000        0.0000000000000000     
   1.3125000000000000       0.59375000000000000        0.0000000000000000     
   1.3437500000000000       0.59375000000000000        0.0000000000000000     
   1.3750000000000000       0.59375000000000000        0.0000000000000000     
   1.2500000000000000       0.62500000000000000        0.0000000000000000     
   1.2812500000000000       0.62500000000000000        0.0000000000000000     
   1.3125000000000000       0.62500000000000000        0.0000000000000000     
   1.3437500000000000       0.62500000000000000        0.0000000000000000     
   1.3750000000000000       0.62500000000000000        0.0000000000000000     
   1.3750000000000000       0.50000000000000000        0.0000000000000000     
   1.4062500000000000       0.50000000000000000        0.0000000000000000     
   1.4375000000000000       0.50000000000000000        0.0000000000000000     
   1.4687500000000000       0.50000000000000000        0.0000000000000000     
   1.5000000000000000       0.50000000000000000        0.0000000000000000     
   1.3750000000000000       0.53125000000000000        0.0000000000000000     
   1.4062500000000000       0.53125000000000000        0.0000000000000000     
   1.4375000000000000       0.53125000000000000        0.0000000000000000     
   1.4687500000000000       0.53125000000000000        0.0000000000000000     
   1.5000000000000000       0.53125000000000000        0.0000000000000000     
   1.3750000000000000       0.56250000000000000        0.0000000000000000     
   1.4062500000000000       0.56250000000000000        0.0000000000000000     
   1.4375000000000000       0.56250000000000000        0.0000000000000000     
   1.4687500000000000       0.56250000000000000        0.0000000000000000     
   1.5000000000000000       0.56250000000000000        0.0000000000000000     
   1.3750000000000000       0.59375000000000000        0.0000000000000000     
   1.4062500000000000       0.59375000000000000        0.0000000000000000     
   1.4375000000000000       0.59375000000000000        0.0000000000000000     
   1.4687500000000000       0.59375000000000000        0.0000000000000000     
   1.5000000000000000       0.59375000000000000        0.0000000000000000     
   1.3750000000000000       0.62500000000000000        0.0000000000000000     
   1.4062500000000000       0.62500000000000000        0.0000000000000000     
   1.4375000000000000       0.62500000000000000        0.0000000000000000     
   1.4687500000000000       0.62500000000000000        0.0000000000000000     
   1.5000000000000000       0.62500000000000000        0.0000000000000000     
  0.50000000000000000       0.62500000000000000        0.0000000000000000     
  0.53125000000000000       0.62500000000000000        0.0000000000000000     
  0.56250000000000000       0.62500000000000000        0.0000000000000000     
  0.59375000000000000       0.62500000000000000        0.0000000000000000     
  0.62500000000000000       0.62500000000000000        0.0000000000000000     
  0.50000000000000000       0.65625000000000000        0.0000000000000000     
  0.53125000000000000       0.65625000000000000        0.0000000000000000     
  0.56250000000000000       0.65625000000000000        0.0000000000000000     
  0.59375000000000000       0.65625000000000000        0.0000000000000000     
  0.62500000000000000       0.65625000000000000        0.0000000000000000     
  0.50000000000000000       0.68750000000000000        0.0000000000000000     
  0.53125000000000000       0.68750000000000000        0.0000000000000000     
  0.56250000000000000       0.68750000000000000        0.0000000000000000     
  0.59375000000000000       0.68750000000000000        0.0000000000000000     
  0.62500000000000000       0.68750000000000000        0.0000000000000000     
  0.50000000000000000       0.71875000000000000        0.0000000000000000     
  0.53125000000000000       0.71875000000000000        0.0000000000000000     
  0.56250000000000000       0.71875000000000000        0.0000000000000000     
  0.59375000000000000       0.71875000000000000        0.0000000000000000     
  0.62500000000000000       0.71875000000000000        0.0000000000000000     
  0.50000000000000000       0.75000000000000000        0.0000000000000000     
  0.53125000000000000       0.75000000000000000        0.0000000000000000     
  0.56250000000000000       0.75000000000000000        0.0000000000000000     
  0.59375000000000000       0.75000000000000000        0.0000000000000000     
  0.62500000000000000       0.75000000000000000        0.0000000000000000     
  0.62500000000000000       0.62500000000000000        0.0000000000000000     
  0.65625000000000000       0.62500000000000000        0.0000000000000000     
  0.68750000000000000       0.62500000000000000        0.0000000000000000     
  0.71875000000000000       0.62500000000000000        0.0000000000000000     
  0.75000000000000000       0.62500000000000000        0.0000000000000000     
  0.62500000000000000       0.65625000000000000        0.0000000000000000     
  0.65625000000000000       0.65625000000000000        0.0000000000000000     
  0.68750000000000000       0.65625000000000000        0.0000000000000000     
  0.71875000000000000       0.65625000000000000        0.0000000000000000     
  0.75000000000000000       0.65625000000000000        0.0000000000000000     
  0.62500000000000000       0.68750000000000000        0.0000000000000000     
  0.65625000000000000       0.68750000000000000        0.0000000000000000     
  0.68750000000000000       0.68750000000000000        0.0000000000000000     
  0.71875000000000000       0.68750000000000000        0.0000000000000000     
  0.75000000000000000       0.68750000000000000        0.0000000000000000     
  0.62500000000000000       0.71875000000000000        0.0000000000000000     
  0.65625000000000000       0.71875000000000000        0.0000000000000000     
  0.68750000000000000       0.71875000000000000        0.0000000000000000     
  0.71875000000000000       0.71875000000000000        0.0000000000000000     
  0.75000000000000000       0.71875000000000000        0.0000000000000000     
  0.62500000000000000       0.75000000000000000        0.0000000000000000     
  0.65625000000000000       0.75000000000000000        0.0000000000000000     
  0.68750000000000000       0.75000000000000000        0.0000000000000000     
  0.71875000000000000       0.75000000000000000        0.0000000000000000     
  0.75000000000000000       0.75000000000000000        0.0000000000000000     
  0.75000000000000000       0.62500000000000000        0.0000000000000000     
  0.78125000000000000       0.62500000000000000        0.0000000000000000     
  0.81250000000000000       0.62500000000000000        0.0000000000000000     
  0.84375000000000000       0.62500000000000000        0.0000000000000000     
  0.87500000000000000       0.62500000000000000        0.0000000000000000     
  0.75000000000000000       0.65625000000000000        0.0000000000000000     
  0.78125000000000000       0.65625000000000000        0.0000000000000000     
  0.81250000000000000       0.65625000000000000        0.0000000000000000     
  0.84375000000000000       0.65625000000000000        0.0000000000000000     
  0.87500000000000000       0.65625000000000000        0.0000000000000000     
  0.75000000000000000       0.68750000000000000        0.0000000000000000     
  0.78125000000000000       0.68750000000000000        0.0000000000000000     
  0.81250000000000000       0.68750000000000000        0.0000000000000000     
  0.84375000000000000       0.68750000000000000        0.0000000000000000     
  0.87500000000000000       0.68750000000000000        0.0000000000000000     
  0.75000000000000000       0.71875000000000000        0.0000000000000000     
  0.78125000000000000       0.71875000000000000        0.0000000000000000     
  0.81250000000000000       0.71875000000000000        0.0000000000000000     
  0.84375000000000000       0.71875000000000000        0.0000000000000000     
  0.87500000000000000       0.71875000000000000        0.0000000000000000     
  0.75000000000000000       0.75000000000000000        0.0000000000000000     
  0.78125000000000000       0.75000000000000000        0.0000000000000000     
  0.81250000000000000       0.75000000000000000        0.0000000000000000     
  0.84375000000000000       0.75000000000000000        0.0000000000000000     
  0.87500000000000000       0.75000000000000000        0.0000000000000000     
  0.87500000000000000       0.62500000000000000        0.0000000000000000     
  0.90625000000000000       0.62500000000000000        0.0000000000000000     
  0.93750000000000000       0.62500000000000000        0.0000000000000000     
  0.96875000000000000       0.62500000000000000        0.0000000000000000     
   1.0000000000000000       0.62500000000000000        0.0000000000000000     
  0.87500000000000000       0.65625000000000000        0.0000000000000000     
  0.90625000000000000       0.65625000000000000        0.0000000000000000     
  0.93750000000000000       0.65625000000000000        0.0000000000000000     
  0.96875000000000000       0.65625000000000000        0.0000000000000000     
   1.0000000000000000       0.65625000000000000        0.0000000000000000     
  0.87500000000000000       0.68750000000000000        0.0000000000000000     
  0.90625000000000000       0.68750000000000000        0.0000000000000000     
  0.93750000000000000       0.68750000000000000        0.0000000000000000     
  0.96875000000000000       0.68750000000000000        0.0000000000000000     
   1.0000000000000000       0.68750000000000000        0.0000000000000000     
  0.87500000000000000       0.71875000000000000        0.0000000000000000     
  0.90625000000000000       0.71875000000000000        0.0000000000000000     
  0.93750000000000000       0.71875000000000000        0.0000000000000000     
  0.96875000000000000       0.71875000000000000        0.0000000000000000     
   1.0000000000000000       0.71875000000000000        0.0000000000000000     
  0.87500000000000000       0.75000000000000000        0.0000000000000000     
  0.90625000000000000       0.75000000000000000        0.0000000000000000     
  0.93750000000000000       0.75000000000000000        0.0000000000000000     
  0.96875000000000000       0.75000000000000000        0.0000000000000000     
   1.0000000000000000       0.75000000000000000        0.0000000000000000     
   1.0000000000000000       0.62500000000000000        0.0000000000000000     
   1.0312500000000000       0.62500000000000000        0.0000000000000000     
   1.0625000000000000       0.62500000000000000        0.0000000000000000     
   1.0937500000000000       0.62500000000000000        0.0000000000000000     
   1.1250000000000000       0.62500000000000000        0.0000000000000000     
   1.0000000000000000       0.65625000000000000        0.0000000000000000     
   1.0312500000000000       0.65625000000000000        0.0000000000000000     
   1.0625000000000000       0.65625000000000000        0.0000000000000000     
   1.0937500000000000       0.65625000000000000        0.0000000000000000     
   1.1250000000000000       0.65625000000000000        0.0000000000000000     
   1.0000000000000000       0.68750000000000000        0.0000000000000000     
   1.0312500000000000       0.68750000000000000        0.0000000000000000     
   1.0625000000000000       0.68750000000000000        0.0000000000000000     
   1.0937500000000000       0.68750000000000000        0.0000000000000000     
   1.1250000000000000       0.68750000000000000        0.0000000000000000     
   1.0000000000000000       0.71875000000000000        0.0000000000000000     
   1.0312500000000000       0.71875000000000000        0.0000000000000000     
   1.0625000000000000       0.71875000000000000        0.0000000000000000     
   1.0937500000000000       0.71875000000000000        0.0000000000000000     
   1.1250000000000000       0.71875000000000000        0.0000000000000000     
   1.0000000000000000       0.75000000000000000        0.0000000000000000     
   1.0312500000000000       0.75000000000000000        0.0000000000000000     
   1.0625000000000000       0.75000000000000000        0.0000000000000000     
   1.0937500000000000       0.75000000000000000        0.0000000000000000     
   1.1250000000000000       0.75000000000000000        0.0000000000000000     
   1.1250000000000000       0.62500000000000000        0.0000000000000000     
   1.1562500000000000       0.62500000000000000        0.0000000000000000     
   1.1875000000000000       0.62500000000000000        0.0000000000000000     
   1.2187500000000000       0.62500000000000000        0.0000000000000000     
   1.2500000000000000       0.62500000000000000        0.0000000000000000     
   1.1250000000000000       0.65625000000000000        0.0000000000000000     
   1.1562500000000000       0.65625000000000000        0.0000000000000000     
   1.1875000000000000       0.65625000000000000        0.0000000000000000     
   1.2187500000000000       0.65625000000000000        0.0000000000000000     
   1.2500000000000000       0.65625000000000000        0.0000000000000000     
   1.1250000000000000       0.68750000000000000        0.0000000000000000     
   1.1562500000000000       0.68750000000000000        0.0000000000000000     
   1.1875000000000000       0.68750000000000000        0.0000000000000000     
   1.2187500000000000       0.68750000000000000        0.0000000000000000     
   1.2500000000000000       0.68750000000000000        0.0000000000000000     
   1.1250000000000000       0.71875000000000000        0.0000000000000000     
   1.1562500000000000       0.71875000000000000        0.0000000000000000     
   1.1875000000000000       0.71875000000000000        0.0000000000000000     
   1.2187500000000000       0.71875000000000000        0.0000000000000000     
   1.2500000000000000       0.71875000000000000        0.0000000000000000     
   1.1250000000000000       0.75000000000000000        0.0000000000000000     
   1.1562500000000000       0.75000000000000000        0.0000000000000000     
   1.1875000000000000       0.75000000000000000        0.0000000000000000     
   1.2187500000000000       0.75000000000000000        0.0000000000000000     
   1.2500000000000000       0.75000000000000000        0.0000000000000000     
   1.2500000000000000       0.62500000000000000        0.0000000000000000     
   1.2812500000000000       0.62500000000000000        0.0000000000000000     
   1.3125000000000000       0.62500000000000000        0.0000000000000000     
   1.3437500000000000       0.62500000000000000        0.0000000000000000     
   1.3750000000000000       0.62500000000000000        0.0000000000000000     
   1.2500000000000000       0.65625000000000000        0.0000000000000000     
   1.2812500000000000       0.65625000000000000        0.0000000000000000     
   1.3125000000000000       0.65625000000000000        0.0000000000000000     
   1.3437500000000000       0.65625000000000000        0.0000000000000000     
   1.3750000000000000       0.65625000000000000        0.0000000000000000     
   1.2500000000000000       0.68750000000000000        0.0000000000000000     
   1.2812500000000000       0.68750000000000000        0.0000000000000000     
   1.3125000000000000       0.68750000000000000        0.0000000000000000     
   1.3437500000000000       0.68750000000000000        0.0000000000000000     
   1.3750000000000000       0.68750000000000000        0.0000000000000000     
   1.2500000000000000       0.71875000000000000        0.0000000000000000     
   1.2812500000000000       0.71875000000000000        0.0000000000000000     
   1.3125000000000000       0.71875000000000000        0.0000000000000000     
   1.3437500000000000       0.71875000000000000        0.0000000000000000     
   1.3750000000000000       0.71875000000000000        0.0000000000000000     
   1.2500000000000000       0.75000000000000000        0.0000000000000000     
   1.2812500000000000       0.75000000000000000        0.0000000000000000     
   1.3125000000000000       0.75000000000000000        0.0000000000000000     
   1.3437500000000000       0.75000000000000000        0.0000000000000000     
   1.3750000000000000       0.75000000000000000        0.0000000000000000     
   1.3750000000000000       0.62500000000000000        0.0000000000000000     
   1.4062500000000000       0.62500000000000000        0.0000000000000000     
   1.4375000000000000       0.62500000000000000        0.0000000000000000     
   1.4687500000000000       0.62500000000000000        0.0000000000000000     
   1.5000000000000000       0.62500000000000000        0.0000000000000000     
   1.3750000000000000       0.65625000000000000        0.0000000000000000     
   1.4062500000000000       0.65625000000000000        0.0000000000000000     
   1.4375000000000000       0.65625000000000000        0.0000000000000000     
   1.4687500000000000       0.65625000000000000        0.0000000000000000     
   1.5000000000000000       0.65625000000000000        0.0000000000000000     
   1.3750000000000000       0.68750000000000000        0.0000000000000000     
   1.4062500000000000       0.68750000000000000        0.0000000000000000     
   1.4375000000000000       0.68750000000000000        0.0000000000000000     
   1.4687500000000000       0.68750000000000000        0.0000000000000000     
   1.5000000000000000       0.68750000000000000        0.0000000000000000     
   1.3750000000000000       0.71875000000000000        0.0000000000000000     
   1.4062500000000000       0.71875000000000000        0.0000000000000000     
   1.4375000000000000       0.71875000000000000        0.0000000000000000     
   1.4687500000000000       0.71875000000000000        0.0000000000000000     
   1.5000000000000000       0.71875000000000000        0.0000000000000000     
   1.3750000000000000       0.75000000000000000        0.0000000000000000     
   1.4062500000000000       0.75000000000000000        0.0000000000000000     
   1.4375000000000000       0.75000000000000000        0.0000000000000000     
   1.4687500000000000       0.75000000000000000        0.0000000000000000     
   1.5000000000000000       0.75000000000000000        0.0000000000000000     
  0.50000000000000000       0.75000000000000000        0.0000000000000000     
  0.53125000000000000       0.75000000000000000        0.0000000000000000     
  0.56250000000000000       0.75000000000000000        0.0000000000000000     
  0.59375000000000000       0.75000000000000000        0.0000000000000000     
  0.62500000000000000       0.75000000000000000        0.0000000000000000     
  0.50000000000000000       0.78125000000000000        0.0000000000000000     
  0.53125000000000000       0.78125000000000000        0.0000000000000000     
  0.56250000000000000       0.78125000000000000        0.0000000000000000     
  0.59375000000000000       0.78125000000000000        0.0000000000000000     
  0.62500000000000000       0.78125000000000000        0.0000000000000000     
  0.50000000000000000       0.81250000000000000        0.0000000000000000     
  0.53125000000000000       0.81250000000000000        0.0000000000000000     
  0.56250000000000000       0.81250000000000000        0.0000000000000000     
  0.59375000000000000       0.81250000000000000        0.0000000000000000     
  0.62500000000000000       0.81250000000000000        0.0000000000000000     
  0.50000000000000000       0.84375000000000000        0.0000000000000000     
  0.53125000000000000       0.84375000000000000        0.0000000000000000     
  0.56250000000000000       0.84375000000000000        0.0000000000000000     
  0.59375000000000000       0.84375000000000000        0.0000000000000000     
  0.62500000000000000       0.84375000000000000        0.0000000000000000     
  0.50000000000000000       0.87500000000000000        0.0000000000000000     
  0.53125000000000000       0.87500000000000000        0.0000000000000000     
  0.56250000000000000       0.87500000000000000        0.0000000000000000     
  0.59375000000000000       0.87500000000000000        0.0000000000000000     
  0.62500000000000000       0.87500000000000000        0.0000000000000000     
  0.62500000000000000       0.75000000000000000        0.0000000000000000     
  0.65625000000000000       0.75000000000000000        0.0000000000000000     
  0.68750000000000000       0.75000000000000000        0.0000000000000000     
  0.71875000000000000       0.75000000000000000        0.0000000000000000     
  0.75000000000000000       0.75000000000000000        0.0000000000000000     
  0.62500000000000000       0.78125000000000000        0.0000000000000000     
  0.65625000000000000       0.78125000000000000        0.0000000000000000     
  0.68750000000000000       0.78125000000000000        0.0000000000000000     
  0.71875000000000000       0.78125000000000000        0.0000000000000000     
  0.75000000000000000       0.78125000000000000        0.0000000000000000     
  0.62500000000000000       0.81250000000000000        0.0000000000000000     
  0.65625000000000000       0.81250000000000000        0.0000000000000000     
  0.68750000000000000       0.81250000000000000        0.0000000000000000     
  0.71875000000000000       0.81250000000000000        0.0000000000000000     
  0.75000000000000000       0.81250000000000000        0.0000000000000000     
  0.62500000000000000       0.84375000000000000        0.0000000000000000     
  0.65625000000000000       0.84375000000000000        0.0000000000000000     
  0.68750000000000000       0.84375000000000000        0.0000000000000000     
  0.71875000000000000       0.84375000000000000        0.0000000000000000     
  0.75000000000000000       0.84375000000000000        0.0000000000000000     
  0.62500000000000000       0.87500000000000000        0.0000000000000000     
  0.65625000000000000       0.87500000000000000        0.0000000000000000     
  0.68750000000000000       0.87500000000000000        0.0000000000000000     
  0.71875000000000000       0.87500000000000000        0.0000000000000000     
  0.75000000000000000       0.87500000000000000        0.0000000000000000     
  0.75000000000000000       0.75000000000000000        0.0000000000000000     
  0.78125000000000000       0.75000000000000000        0.0000000000000000     
  0.81250000000000000       0.75000000000000000        0.0000000000000000     
  0.84375000000000000       0.75000000000000000        0.0000000000000000     
  0.87500000000000000       0.75000000000000000        0.0000000000000000     
  0.75000000000000000       0.78125000000000000        0.0000000000000000     
  0.78125000000000000       0.78125000000000000        0.0000000000000000     
  0.81250000000000000       0.78125000000000000        0.0000000000000000     
  0.84375000000000000       0.78125000000000000        0.0000000000000000     
  0.87500000000000000       0.78125000000000000        0.0000000000000000     
  0.75000000000000000       0.81250000000000000        0.0000000000000000     
  0.78125000000000000       0.81250000000000000        0.0000000000000000     
  0.81250000000000000       0.81250000000000000        0.0000000000000000     
  0.84375000000000000       0.81250000000000000        0.0000000000000000     
  0.87500000000000000       0.81250000000000000        0.0000000000000000     
  0.75000000000000000       0.84375000000000000        0.0000000000000000     
  0.78125000000000000       0.84375000000000000        0.0000000000000000     
  0.81250000000000000       0.84375000000000000        0.0000000000000000     
  0.84375000000000000       0.84375000000000000        0.0000000000000000     
  0.87500000000000000       0.84375000000000000        0.0000000000000000     
  0.75000000000000000       0.87500000000000000        0.0000000000000000     
  0.78125000000000000       0.87500000000000000        0.0000000000000000     
  0.81250000000000000       0.87500000000000000        0.0000000000000000     
  0.84375000000000000       0.87500000000000000        0.0000000000000000     
  0.87500000000000000       0.87500000000000000        0.0000000000000000     
  0.87500000000000000       0.75000000000000000        0.0000000000000000     
  0.90625000000000000       0.75000000000000000        0.0000000000000000     
  0.93750000000000000       0.75000000000000000        0.0000000000000000     
  0.96875000000000000       0.75000000000000000        0.0000000000000000     
   1.0000000000000000       0.75000000000000000        0.0000000000000000     
  0.87500000000000000       0.78125000000000000        0.0000000000000000     
  0.90625000000000000       0.78125000000000000        0.0000000000000000     
  0.93750000000000000       0.78125000000000000        0.0000000000000000     
  0.96875000000000000       0.78125000000000000        0.0000000000000000     
   1.0000000000000000       0.78125000000000000        0.0000000000000000     
  0.87500000000000000       0.81250000000000000        0.0000000000000000     
  0.90625000000000000       0.81250000000000000        0.0000000000000000     
  0.93750000000000000       0.81250000000000000        0.0000000000000000     
  0.96875000000000000       0.81250000000000000        0.0000000000000000     
   1.0000000000000000       0.81250000000000000        0.0000000000000000     
  0.87500000000000000       0.84375000000000000        0.0000000000000000     
  0.90625000000000000       0.84375000000000000        0.0000000000000000     
  0.93750000000000000       0.84375000000000000        0.0000000000000000     
  0.96875000000000000       0.84375000000000000        0.0000000000000000     
   1.0000000000000000       0.84375000000000000        0.0000000000000000     
  0.87500000000000000       0.87500000000000000        0.0000000000000000     
  0.90625000000000000       0.87500000000000000        0.0000000000000000     
  0.93750000000000000       0.87500000000000000        0.0000000000000000     
  0.96875000000000000       0.87500000000000000        0.0000000000000000     
   1.0000000000000000       0.87500000000000000        0.0000000000000000     
   1.0000000000000000       0.75000000000000000        0.0000000000000000     
   1.0312500000000000       0.75000000000000000        0.0000000000000000     
   1.0625000000000000       0.75000000000000000        0.0000000000000000     
   1.0937500000000000       0.75000000000000000        0.0000000000000000     
   1.1250000000000000       0.75000000000000000        0.0000000000000000     
   1.0000000000000000       0.78125000000000000        0.0000000000000000     
   1.0312500000000000       0.78125000000000000        0.0000000000000000     
   1.0625000000000000       0.78125000000000000        0.0000000000000000     
   1.0937500000000000       0.78125000000000000        0.0000000000000000     
   1.1250000000000000       0.78125000000000000        0.0000000000000000     
   1.0000000000000000       0.81250000000000000        0.0000000000000000     
   1.0312500000000000       0.81250000000000000        0.0000000000000000     
   1.0625000000000000       0.81250000000000000        0.0000000000000000     
   1.0937500000000000       0.81250000000000000        0.0000000000000000     
   1.1250000000000000       0.81250000000000000        0.0000000000000000     
   1.0000000000000000       0.84375000000000000        0.0000000000000000     
   1.0312500000000000       0.84375000000000000        0.0000000000000000     
   1.0625000000000000       0.84375000000000000        0.0000000000000000     
   1.0937500000000000       0.84375000000000000        0.0000000000000000     
   1.1250000000000000       0.84375000000000000        0.0000000000000000     
   1.0000000000000000       0.87500000000000000        0.0000000000000000     
   1.0312500000000000       0.87500000000000000        0.0000000000000000     
   1.0625000000000000       0.87500000000000000        0.0000000000000000     
   1.0937500000000000       0.87500000000000000        0.0000000000000000     
   1.1250000000000000       0.87500000000000000        0.0000000000000000     
   1.1250000000000000       0.75000000000000000        0.0000000000000000     
   1.1562500000000000       0.75000000000000000        0.0000000000000000     
   1.1875000000000000       0.75000000000000000        0.0000000000000000     
   1.2187500000000000       0.75000000000000000        0.0000000000000000     
   1.2500000000000000       0.75000000000000000        0.0000000000000000     
   1.1250000000000000       0.78125000000000000        0.0000000000000000     
   1.1562500000000000       0.78125000000000000        0.0000000000000000     
   1.1875000000000000       0.78125000000000000        0.0000000000000000     
   1.2187500000000000       0.78125000000000000        0.0000000000000000     
   1.2500000000000000       0.78125000000000000        0.0000000000000000     
   1.1250000000000000       0.81250000000000000        0.0000000000000000     
   1.1562500000000000       0.81250000000000000        0.0000000000000000     
   1.1875000000000000       0.81250000000000000        0.0000000000000000     
   1.2187500000000000       0.81250000000000000        0.0000000000000000     
   1.2500000000000000       0.81250000000000000        0.0000000000000000     
   1.1250000000000000       0.84375000000000000        0.0000000000000000     
   1.1562500000000000       0.84375000000000000        0.0000000000000000     
   1.1875000000000000       0.84375000000000000        0.0000000000000000     
   1.2187500000000000       0.84375000000000000        0.0000000000000000     
   1.2500000000000000       0.84375000000000000        0.0000000000000000     
   1.1250000000000000       0.87500000000000000        0.0000000000000000     
   1.1562500000000000       0.87500000000000000        0.0000000000000000     
   1.1875000000000000       0.87500000000000000        0.0000000000000000     
   1.2187500000000000       0.87500000000000000        0.0000000000000000     
   1.2500000000000000       0.87500000000000000        0.0000000000000000     
   1.2500000000000000       0.75000000000000000        0.0000000000000000     
   1.2812500000000000       0.75000000000000000        0.0000000000000000     
   1.3125000000000000       0.75000000000000000        0.0000000000000000     
   1.3437500000000000       0.75000000000000000        0.0000000000000000     
   1.3750000000000000       0.75000000000000000        0.0000000000000000     
   1.2500000000000000       0.78125000000000000        0.0000000000000000     
   1.2812500000000000       0.78125000000000000        0.0000000000000000     
   1.3125000000000000       0.78125000000000000        0.0000000000000000     
   1.3437500000000000       0.78125000000000000        0.0000000000000000     
   1.3750000000000000       0.78125000000000000        0.0000000000000000     
   1.2500000000000000       0.81250000000000000        0.0000000000000000     
   1.2812500000000000       0.81250000000000000        0.0000000000000000     
   1.3125000000000000       0.81250000000000000        0.0000000000000000     
   1.3437500000000000       0.81250000000000000        0.0000000000000000     
   1.3750000000000000       0.81250000000000000        0.0000000000000000     
   1.2500000000000000       0.84375000000000000        0.0000000000000000     
   1.2812500000000000       0.84375000000000000        0.0000000000000000     
   1.3125000000000000       0.84375000000000000        0.0000000000000000     
   1.3437500000000000       0.84375000000000000        0.0000000000000000     
   1.3750000000000000       0.84375000000000000        0.0000000000000000     
   1.2500000000000000       0.87500000000000000        0.0000000000000000     
   1.2812500000000000       0.87500000000000000        0.0000000000000000     
   1.3125000000000000       0.87500000000000000        0.0000000000000000     
   1.3437500000000000       0.87500000000000000        0.0000000000000000     
   1.3750000000000000       0.87500000000000000        0.0000000000000000     
   1.3750000000000000       0.75000000000000000        0.0000000000000000     
   1.4062500000000000       0.75000000000000000        0.0000000000000000     
   1.4375000000000000       0.75000000000000000        0.0000000000000000     
   1.4687500000000000       0.75000000000000000        0.0000000000000000     
   1.5000000000000000       0.75000000000000000        0.0000000000000000     
   1.3750000000000000       0.78125000000000000        0.0000000000000000     
   1.4062500000000000       0.78125000000000000        0.0000000000000000     
   1.4375000000000000       0.78125000000000000        0.0000000000000000     
   1.4687500000000000       0.78125000000000000        0.0000000000000000     
   1.5000000000000000       0.78125000000000000        0.0000000000000000     
   1.3750000000000000       0.81250000000000000        0.0000000000000000     
   1.4062500000000000       0.81250000000000000        0.0000000000000000     
   1.4375000000000000       0.81250000000000000        0.0000000000000000     
   1.4687500000000000       0.81250000000000000        0.0000000000000000     
   1.5000000000000000       0.81250000000000000        0.0000000000000000     
   1.3750000000000000       0.84375000000000000        0.0000000000000000     
   1.4062500000000000       0.84375000000000000        0.0000000000000000     
   1.4375000000000000       0.84375000000000000        0.0000000000000000     
   1.4687500000000000       0.84375000000000000        0.0000000000000000     
   1.5000000000000000       0.84375000000000000        0.0000000000000000     
   1.3750000000000000       0.87500000000000000        0.0000000000000000     
   1.4062500000000000       0.87500000000000000        0.0000000000000000     
   1.4375000000000000       0.87500000000000000        0.0000000000000000     
   1.4687500000000000       0.87500000000000000        0.0000000000000000     
   1.5000000000000000       0.87500000000000000        0.0000000000000000     
  0.50000000000000000       0.87500000000000000        0.0000000000000000     
  0.53125000000000000       0.87500000000000000        0.0000000000000000     
  0.56250000000000000       0.87500000000000000        0.0000000000000000     
  0.59375000000000000       0.87500000000000000        0.0000000000000000     
  0.62500000000000000       0.87500000000000000        0.0000000000000000     
  0.50000000000000000       0.90625000000000000        0.0000000000000000     
  0.53125000000000000       0.90625000000000000        0.0000000000000000     
  0.56250000000000000       0.90625000000000000        0.0000000000000000     
  0.59375000000000000       0.90625000000000000        0.0000000000000000     
  0.62500000000000000       0.90625000000000000        0.0000000000000000     
  0.50000000000000000       0.93750000000000000        0.0000000000000000     
  0.53125000000000000       0.93750000000000000        0.0000000000000000     
  0.56250000000000000       0.93750000000000000        0.0000000000000000     
  0.59375000000000000       0.93750000000000000        0.0000000000000000     
  0.62500000000000000       0.93750000000000000        0.0000000000000000     
  0.50000000000000000       0.96875000000000000        0.0000000000000000     
  0.53125000000000000       0.96875000000000000        0.0000000000000000     
  0.56250000000000000       0.96875000000000000        0.0000000000000000     
  0.59375000000000000       0.96875000000000000        0.0000000000000000     
  0.62500000000000000       0.96875000000000000        0.0000000000000000     
  0.50000000000000000        1.0000000000000000        0.0000000000000000     
  0.53125000000000000        1.0000000000000000        0.0000000000000000     
  0.56250000000000000        1.0000000000000000        0.0000000000000000     
  0.59375000000000000        1.0000000000000000        0.0000000000000000     
  0.62500000000000000        1.0000000000000000        0.0000000000000000     
  0.62500000000000000       0.87500000000000000        0.0000000000000000     
  0.65625000000000000       0.87500000000000000        0.0000000000000000     
  0.68750000000000000       0.87500000000000000        0.0000000000000000     
  0.71875000000000000       0.87500000000000000        0.0000000000000000     
  0.75000000000000000       0.87500000000000000        0.0000000000000000     
  0.62500000000000000       0.90625000000000000        0.0000000000000000     
  0.65625000000000000       0.90625000000000000        0.0000000000000000     
  0.68750000000000000       0.90625000000000000        0.0000000000000000     
  0.71875000000000000       0.90625000000000000        0.0000000000000000     
  0.75000000000000000       0.90625000000000000        0.0000000000000000     
  0.62500000000000000       0.93750000000000000        0.0000000000000000     
  0.65625000000000000       0.93750000000000000        0.0000000000000000     
  0.68750000000000000       0.93750000000000000        0.0000000000000000     
  0.71875000000000000       0.93750000000000000        0.0000000000000000     
  0.75000000000000000       0.93750000000000000        0.0000000000000000     
  0.62500000000000000       0.96875000000000000        0.0000000000000000     
  0.65625000000000000       0.96875000000000000        0.0000000000000000     
  0.68750000000000000       0.96875000000000000        0.0000000000000000     
  0.71875000000000000       0.96875000000000000        0.0000000000000000     
  0.75000000000000000       0.96875000000000000        0.0000000000000000     
  0.62500000000000000        1.0000000000000000        0.0000000000000000     
  0.65625000000000000        1.0000000000000000        0.0000000000000000     
  0.68750000000000000        1.0000000000000000        0.0000000000000000     
  0.71875000000000000        1.0000000000000000        0.0000000000000000     
  0.75000000000000000        1.0000000000000000        0.0000000000000000     
  0.75000000000000000       0.87500000000000000        0.0000000000000000     
  0.78125000000000000       0.87500000000000000        0.0000000000000000     
  0.81250000000000000       0.87500000000000000        0.0000000000000000     
  0.84375000000000000       0.87500000000000000        0.0000000000000000     
  0.87500000000000000       0.87500000000000000        0.0000000000000000     
  0.75000000000000000       0.90625000000000000        0.0000000000000000     
  0.78125000000000000       0.90625000000000000        0.0000000000000000     
  0.81250000000000000       0.90625000000000000        0.0000000000000000     
  0.84375000000000000       0.90625000000000000        0.0000000000000000     
  0.87500000000000000       0.90625000000000000        0.0000000000000000     
  0.75000000000000000       0.93750000000000000        0.0000000000000000     
  0.78125000000000000       0.93750000000000000        0.0000000000000000     
  0.81250000000000000       0.93750000000000000        0.0000000000000000     
  0.84375000000000000       0.93750000000000000        0.0000000000000000     
  0.87500000000000000       0.93750000000000000        0.0000000000000000     
  0.75000000000000000       0.96875000000000000        0.0000000000000000     
  0.78125000000000000       0.96875000000000000        0.0000000000000000     
  0.81250000000000000       0.96875000000000000        0.0000000000000000     
  0.84375000000000000       0.96875000000000000        0.0000000000000000     
  0.87500000000000000       0.96875000000000000        0.0000000000000000     
  0.75000000000000000        1.0000000000000000        0.0000000000000000     
  0.78125000000000000        1.0000000000000000        0.0000000000000000     
  0.81250000000000000        1.0000000000000000        0.0000000000000000     
  0.84375000000000000        1.0000000000000000        0.0000000000000000     
  0.87500000000000000        1.0000000000000000        0.0000000000000000     
  0.87500000000000000       0.87500000000000000        0.0000000000000000     
  0.90625000000000000       0.87500000000000000        0.0000000000000000     
  0.93750000000000000       0.87500000000000000        0.0000000000000000     
  0.96875000000000000       0.87500000000000000        0.0000000000000000     
   1.0000000000000000       0.87500000000000000        0.0000000000000000     
  0.87500000000000000       0.90625000000000000        0.0000000000000000     
  0.90625000000000000       0.90625000000000000        0.0000000000000000     
  0.93750000000000000       0.90625000000000000        0.0000000000000000     
  0.96875000000000000       0.90625000000000000        0.0000000000000000     
   1.0000000000000000       0.90625000000000000        0.0000000000000000     
  0.87500000000000000       0.93750000000000000        0.0000000000000000     
  0.90625000000000000       0.93750000000000000        0.0000000000000000     
  0.93750000000000000       0.93750000000000000        0.0000000000000000     
  0.96875000000000000       0.93750000000000000        0.0000000000000000     
   1.0000000000000000       0.93750000000000000        0.0000000000000000     
  0.87500000000000000       0.96875000000000000        0.0000000000000000     
  0.90625000000000000       0.96875000000000000        0.0000000000000000     
  0.93750000000000000       0.96875000000000000        0.0000000000000000     
  0.96875000000000000       0.96875000000000000        0.0000000000000000     
   1.0000000000000000       0.96875000000000000        0.0000000000000000     
  0.87500000000000000        1.0000000000000000        0.0000000000000000     
  0.90625000000000000        1.0000000000000000        0.0000000000000000     
  0.93750000000000000        1.0000000000000000        0.0000000000000000     
  0.96875000000000000        1.0000000000000000        0.0000000000000000     
   1.0000000000000000        1.0000000000000000        0.0000000000000000     
   1.0000000000000000       0.87500000000000000        0.0000000000000000     
   1.0312500000000000       0.87500000000000000        0.0000000000000000     
   1.0625000000000000       0.87500000000000000        0.0000000000000000     
   1.0937500000000000       0.87500000000000000        0.0000000000000000     
   1.1250000000000000       0.87500000000000000        0.0000000000000000     
   1.0000000000000000       0.90625000000000000        0.0000000000000000     
   1.0312500000000000       0.90625000000000000        0.0000000000000000     
   1.0625000000000000       0.90625000000000000        0.0000000000000000     
   1.0937500000000000       0.90625000000000000        0.0000000000000000     
   1.1250000000000000       0.90625000000000000        0.0000000000000000     
   1.0000000000000000       0.93750000000000000        0.0000000000000000     
   1.0312500000000000       0.93750000000000000        0.0000000000000000     
   1.0625000000000000       0.93750000000000000        0.0000000000000000     
   1.0937500000000000       0.93750000000000000        0.0000000000000000     
   1.1250000000000000       0.93750000000000000        0.0000000000000000     
   1.0000000000000000       0.96875000000000000        0.0000000000000000     
   1.0312500000000000       0.96875000000000000        0.0000000000000000     
   1.0625000000000000       0.96875000000000000        0.0000000000000000     
   1.0937500000000000       0.96875000000000000        0.0000000000000000     
   1.1250000000000000       0.96875000000000000        0.0000000000000000     
   1.0000000000000000        1.0000000000000000        0.0000000000000000     
   1.0312500000000000        1.0000000000000000        0.0000000000000000     
   1.0625000000000000        1.0000000000000000        0.0000000000000000     
   1.0937500000000000        1.0000000000000000        0.0000000000000000     
   1.1250000000000000        1.0000000000000000        0.0000000000000000     
   1.1250000000000000       0.87500000000000000        0.0000000000000000     
   1.1562500000000000       0.87500000000000000        0.0000000000000000     
   1.1875000000000000       0.87500000000000000        0.0000000000000000     
   1.2187500000000000       0.87500000000000000        0.0000000000000000     
   1.2500000000000000       0.87500000000000000        0.0000000000000000     
   1.1250000000000000       0.90625000000000000        0.0000000000000000     
   1.1562500000000000       0.90625000000000000        0.0000000000000000     
   1.1875000000000000       0.90625000000000000        0.0000000000000000     
   1.2187500000000000       0.90625000000000000        0.0000000000000000     
   1.2500000000000000       0.90625000000000000        0.0000000000000000     
   1.1250000000000000       0.93750000000000000        0.0000000000000000     
   1.1562500000000000       0.93750000000000000        0.0000000000000000     
   1.1875000000000000       0.93750000000000000        0.0000000000000000     
   1.2187500000000000       0.93750000000000000        0.0000000000000000     
   1.2500000000000000       0.93750000000000000        0.0000000000000000     
   1.1250000000000000       0.96875000000000000        0.0000000000000000     
   1.1562500000000000       0.96875000000000000        0.0000000000000000     
   1.1875000000000000       0.96875000000000000        0.0000000000000000     
   1.2187500000000000       0.96875000000000000        0.0000000000000000     
   1.2500000000000000       0.96875000000000000        0.0000000000000000     
   1.1250000000000000        1.0000000000000000        0.0000000000000000     
   1.1562500000000000        1.0000000000000000        0.0000000000000000     
   1.1875000000000000        1.0000000000000000        0.0000000000000000     
   1.2187500000000000        1.0000000000000000        0.0000000000000000     
   1.2500000000000000        1.0000000000000000        0.0000000000000000     
   1.2500000000000000       0.87500000000000000        0.0000000000000000     
   1.2812500000000000       0.87500000000000000        0.0000000000000000     
   1.3125000000000000       0.87500000000000000        0.0000000000000000     
   1.3437500000000000       0.87500000000000000        0.0000000000000000     
   1.3750000000000000       0.87500000000000000        0.0000000000000000     
   1.2500000000000000       0.90625000000000000        0.0000000000000000     
   1.2812500000000000       0.90625000000000000        0.0000000000000000     
   1.3125000000000000       0.90625000000000000        0.0000000000000000     
   1.3437500000000000       0.90625000000000000        0.0000000000000000     
   1.3750000000000000       0.90625000000000000        0.0000000000000000     
   1.2500000000000000       0.93750000000000000        0.0000000000000000     
   1.2812500000000000       0.93750000000000000        0.0000000000000000     
   1.3125000000000000       0.93750000000000000        0.0000000000000000     
   1.3437500000000000       0.93750000000000000        0.0000000000000000     
   1.3750000000000000       0.93750000000000000        0.0000000000000000     
   1.2500000000000000       0.96875000000000000        0.0000000000000000     
   1.2812500000000000       0.96875000000000000        0.0000000000000000     
   1.3125000000000000       0.96875000000000000        0.0000000000000000     
   1.3437500000000000       0.96875000000000000        0.0000000000000000     
   1.3750000000000000       0.96875000000000000        0.0000000000000000     
   1.2500000000000000        1.0000000000000000        0.0000000000000000     
   1.2812500000000000        1.0000000000000000        0.0000000000000000     
   1.3125000000000000        1.0000000000000000        0.0000000000000000     
   1.3437500000000000        1.0000000000000000        0.0000000000000000     
   1.3750000000000000        1.0000000000000000        0.0000000000000000     
   1.3750000000000000       0.87500000000000000        0.0000000000000000     
   1.4062500000000000       0.87500000000000000        0.0000000000000000     
   1.4375000000000000       0.87500000000000000        0.0000000000000000     
   1.4687500000000000       0.87500000000000000        0.0000000000000000     
   1.5000000000000000       0.87500000000000000        0.0000000000000000     
   1.3750000000000000       0.90625000000000000        0.0000000000000000     
   1.4062500000000000       0.90625000000000000        0.0000000000000000     
   1.4375000000000000       0.90625000000000000        0.0000000000000000     
   1.4687500000000000       0.90625000000000000        0.0000000000000000     
   1.5000000000000000       0.90625000000000000        0.0000000000000000     
   1.3750000000000000       0.93750000000000000        0.0000000000000000     
   1.4062500000000000       0.93750000000000000        0.0000000000000000     
   1.4375000000000000       0.93750000000000000        0.0000000000000000     
   1.4687500000000000       0.93750000000000000        0.0000000000000000     
   1.5000000000000000       0.93750000000000000        0.0000000000000000     
   1.3750000000000000       0.96875000000000000        0.0000000000000000     
   1.4062500000000000       0.96875000000000000        0.0000000000000000     
   1.4375000000000000       0.96875000000000000        0.0000000000000000     
   1.4687500000000000       0.96875000000000000        0.0000000000000000     
   1.5000000000000000       0.96875000000000000        0.0000000000000000     
   1.3750000000000000        1.0000000000000000        0.0000000000000000     
   1.4062500000000000        1.0000000000000000        0.0000000000000000     
   1.4375000000000000        1.0000000000000000        0.0000000000000000     
   1.4687500000000000        1.0000000000000000        0.0000000000000000     
   1.5000000000000000        1.0000000000000000        0.0000000000000000     
 </DataArray>
 </Points>
 <Cells>
 <DataArray  type="Int32"  Name="connectivity"  format="ascii">
           0           1           6           5
           1           2           7           6
           2           3           8           7
           3           4           9           8
           5           6          11          10
           6           7          12          11
           7           8          13          12
           8           9          14          13
          10          11          16          15
          11          12          17          16
          12          13          18          17
          13          14          19          18
          15          16          21          20
          16          17          22          21
          17          18          23          22
          18          19          24          23
          25          26          31          30
          26          27          32          31
          27          28          33          32
          28          29          34          33
          30          31          36          35
          31          32          37          36
          32          33          38          37
          33          34          39          38
          35          36          41          40
          36          37          42          41
          37          38          43          42
          38          39          44          43
          40          41          46          45
          41          42          47          46
          42          43          48          47
          43          44          49          48
          50          51          56          55
          51          52          57          56
          52          53          58          57
          53          54          59          58
          55          56          61          60
          56          57          62          61
          57          58          63          62
          58          59          64          63
          60          61          66          65
          61          62          67          66
          62          63          68          67
          63          64          69          68
          65          66          71          70
          66          67          72          71
          67          68          73          72
          68          69          74          73
          75          76          81          80
          76          77          82          81
          77          78          83          82
          78          79          84          83
          80          81          86          85
          81          82          87          86
          82          83          88          87
          83          84          89          88
          85          86          91          90
          86          87          92          91
          87          88          93          92
          88          89          94          93
          90          91          96          95
          91          92          97          96
          92          93          98          97
          93          94          99          98
         100         101         106         105
         101         102         107         106
         102         103         108         107
         103         104         109         108
         105         106         111         110
         106         107         112         111
         107         108         113         112
         108         109         114         113
         110         111         116         115
         111         112         117         116
         112         113         118         117
         113         114         119         118
         115         116         121         120
         116         117         122         121
         117         118         123         122
         118         119         124         123
         125         126         131         130
         126         127         132         131
         127         128         133         132
         128         129         134         133
         130         131         136         135
         131         132         137         136
         132         133         138         137
         133         134         139         138
         135         136         141         140
         136         137         142         141
         137         138         143         142
         138         139         144         143
         140         141         146         145
         141         142         147         146
         142         143         148         147
         143         144         149         148
         150         151         156         155
         151         152         157         156
         152         153         158         157
         153         154         159         158
         155         156         161         160
         156         157         162         161
         157         158         163         162
         158         159         164         163
         160         161         166         165
         161         162         167         166
         162         163         168         167
         163         164         169         168
         165         166         171         170
         166         167         172         171
         167         168         173         172
         168         169         174         173
         175         176         181         180
         176         177         182         181
         177         178         183         182
         178         179         184         183
         180         181         186         185
         181         182         187         186
         182         183         188         187
         183         184         189         188
         185         186         191         190
         186         187         192         191
         187         188         193         192
         188         189         194         193
         190         191         196         195
         191         192         197         196
         192         193         198         197
         193         194         199         198
         200         201         206         205
         201         202         207         206
         202         203         208         207
         203         204         209         208
         205         206         211         210
         206         207         212         211
         207         208         213         212
         208         209         214         213
         210         211         216         215
         211         212         217         216
         212         213         218         217
         213         214         219         218
         215         216         221         220
         216         217         222         221
         217         218         223         222
         218         219         224         223
         225         226         231         230
         226         227         232         231
         227         228         233         232
         228         229         234         233
         230         231         236         235
         231         232         237         236
         232         233         238         237
         233         234         239         238
         235         236         241         240
         236         237         242         241
         237         238         243         242
         238         239         244         243
         240         241         246         245
         241         242         247         246
         242         243         248         247
         243         244         249         248
         250         251         256         255
         251         252         257         256
         252         253         258         257
         253         254         259         258
         255         256         261         260
         256         257         262         261
         257         258         263         262
         258         259         264         263
         260         261         266         265
         261         262         267         266
         262         263         268         267
         263         264         269         268
         265         266         271         270
         266         267         272         271
         267         268         273         272
         268         269         274         273
         275         276         281         280
         276         277         282         281
         277         278         283         282
         278         279         284         283
         280         281         286         285
         281         282         287         286
         282         283         288         287
         283         284         289         288
         285         286         291         290
         286         287         292         291
         287         288         293         292
         288         289         294         293
         290         291         296         295
         291         292         297         296
         292         293         298         297
         293         294         299         298
         300         301         306         305
         301         302         307         306
         302         303         308         307
         303         304         309         308
         305         306         311         310
         306         307         312         311
         307         308         313         312
         308         309         314         313
         310         311         316         315
         311         312         317         316
         312         313         318         317
         313         314         319         318
         315         316         321         320
         316         317         322         321
         317         318         323         322
         318         319         324         323
         325         326         331         330
         326         327         332         331
         327         328         333         332
         328         329         334         333
         330         331         336         335
         331         332         337         336
         332         333         338         337
         333         334         339         338
         335         336         341         340
         336         337         342         341
         337         338         343         342
         338         339         344         343
         340         341         346         345
         341         342         347         346
         342         343         348         347
         343         344         349         348
         350         351         356         355
         351         352         357         356
         352         353         358         357
         353         354         359         358
         355         356         361         360
         356         357         362         361
         357         358         363         362
         358         359         364         363
         360         361         366         365
         361         362         367         366
         362         363         368         367
         363         364         369         368
         365         366         371         370
         366         367         372         371
         367         368         373         372
         368         369         374         373
         375         376         381         380
         376         377         382         381
         377         378         383         382
         378         379         384         383
         380         381         386         385
         381         382         387         386
         382         383         388         387
         383         384         389         388
         385         386         391         390
         386         387         392         391
         387         388         393         392
         388         389         394         393
         390         391         396         395
         391         392         397         396
         392         393         398         397
         393         394         399         398
         400         401         406         405
         401         402         407         406
         402         403         408         407
         403         404         409         408
         405         406         411         410
         406         407         412         411
         407         408         413         412
         408         409         414         413
         410         411         416         415
         411         412         417         416
         412         413         418         417
         413         414         419         418
         415         416         421         420
         416         417         422         421
         417         418         423         422
         418         419         424         423
         425         426         431         430
         426         427         432         431
         427         428         433         432
         428         429         434         433
         430         431         436         435
         431         432         437         436
         432         433         438         437
         433         434         439         438
         435         436         441         440
         436         437         442         441
         437         438         443         442
         438         439         444         443
         440         441         446         445
         441         442         447         446
         442         443         448         447
         443         444         449         448
         450         451         456         455
         451         452         457         456
         452         453         458         457
         453         454         459         458
         455         456         461         460
         456         457         462         461
         457         458         463         462
         458         459         464         463
         460         461         466         465
         461         462         467         466
         462         463         468         467
         463         464         469         468
         465         466         471         470
         466         467         472         471
         467         468         473         472
         468         469         474         473
         475         476         481         480
         476         477         482         481
         477         478         483         482
         478         479         484         483
         480         481         486         485
         481         482         487         486
         482         483         488         487
         483         484         489         488
         485         486         491         490
         486         487         492         491
         487         488         493         492
         488         489         494         493
         490         491         496         495
         491         492         497         496
         492         493         498         497
         493         494         499         498
         500         501         506         505
         501         502         507         506
         502         503         508         507
         503         504         509         508
         505         506         511         510
         506         507         512         511
         507         508         513         512
         508         509         514         513
         510         511         516         515
         511         512         517         516
         512         513         518         517
         513         514         519         518
         515         516         521         520
         516         517         522         521
         517         518         523         522
         518         519         524         523
         525         526         531         530
         526         527         532         531
         527         528         533         532
         528         529         534         533
         530         531         536         535
         531         532         537         536
         532         533         538         537
         533         534         539         538
         535         536         541         540
         536         537         542         541
         537         538         543         542
         538         539         544         543
         540         541         546         545
         541         542         547         546
         542         543         548         547
         543         544         549         548
         550         551         556         555
         551         552         557         556
         552         553         558         557
         553         554         559         558
         555         556         561         560
         556         557         562         561
         557         558         563         562
         558         559         564         563
         560         561         566         565
         561         562         567         566
         562         563         568         567
         563         564         569         568
         565         566         571         570
         566         567         572         571
         567         568         573         572
         568         569         574         573
         575         576         581         580
         576         577         582         581
         577         578         583         582
         578         579         584         583
         580         581         586         585
         581         582         587         586
         582         583         588         587
         583         584         589         588
         585         586         591         590
         586         587         592         591
         587         588         593         592
         588         589         594         593
         590         591         596         595
         591         592         597         596
         592         593         598         597
         593         594         599         598
         600         601         606         605
         601         602         607         606
         602         603         608         607
         603         604         609         608
         605         606         611         610
         606         607         612         611
         607         608         613         612
         608         609         614         613
         610         611         616         615
         611         612         617         616
         612         613         618         617
         613         614         619         618
         615         616         621         620
         616         617         622         621
         617         618         623         622
         618         619         624         623
         625         626         631         630
         626         627         632         631
         627         628         633         632
         628         629         634         633
         630         631         636         635
         631         632         637         636
         632         633         638         637
         633         634         639         638
         635         636         641         640
         636         637         642         641
         637         638         643         642
         638         639         644         643
         640         641         646         645
         641         642         647         646
         642         643         648         647
         643         644         649         648
         650         651         656         655
         651         652         657         656
         652         653         658         657
         653         654         659         658
         655         656         661         660
         656         657         662         661
         657         658         663         662
         658         659         664         663
         660         661         666         665
         661         662         667         666
         662         663         668         667
         663         664         669         668
         665         666         671         670
         666         667         672         671
         667         668         673         672
         668         669         674         673
         675         676         681         680
         676         677         682         681
         677         678         683         682
         678         679         684         683
         680         681         686         685
         681         682         687         686
         682         683         688         687
         683         684         689         688
         685         686         691         690
         686         687         692         691
         687         688         693         692
         688         689         694         693
         690         691         696         695
         691         692         697         696
         692         693         698         697
         693         694         699         698
         700         701         706         705
         701         702         707         706
         702         703         708         707
         703         704         709         708
         705         706         711         710
         706         707         712         711
         707         708         713         712
         708         709         714         713
         710         711         716         715
         711         712         717         716
         712         713         718         717
         713         714         719         718
         715         716         721         720
         716         717         722         721
         717         718         723         722
         718         719         724         723
         725         726         731         730
         726         727         732         731
         727         728         733         732
         728         729         734         733
         730         731         736         735
         731         732         737         736
         732         733         738         737
         733         734         739         738
         735         736         741         740
         736         737         742         741
         737         738         743         742
         738         739         744         743
         740         741         746         745
         741         742         747         746
         742         743         748         747
         743         744         749         748
         750         751         756         755
         751         752         757         756
         752         753         758         757
         753         754         759         758
         755         756         761         760
         756         757         762         761
         757         758         763         762
         758         759         764         763
         760         761         766         765
         761         762         767         766
         762         763         768         767
         763         764         769         768
         765         766         771         770
         766         767         772         771
         767         768         773         772
         768         769         774         773
         775         776         781         780
         776         777         782         781
         777         778         783         782
         778         779         784         783
         780         781         786         785
         781         782         787         786
         782         783         788         787
         783         784         789         788
         785         786         791         790
         786         787         792         791
         787         788         793         792
         788         789         794         793
         790         791         796         795
         791         792         797         796
         792         793         798         797
         793         794         799         798
         800         801         806         805
         801         802         807         806
         802         803         808         807
         803         804         809         808
         805         806         811         810
         806         807         812         811
         807         808         813         812
         808         809         814         813
         810         811         816         815
         811         812         817         816
         812         813         818         817
         813         814         819         818
         815         816         821         820
         816         817         822         821
         817         818         823         822
         818         819         824         823
         825         826         831         830
         826         827         832         831
         827         828         833         832
         828         829         834         833
         830         831         836         835
         831         832         837         836
         832         833         838         837
         833         834         839         838
         835         836         841         840
         836         837         842         841
         837         838         843         842
         838         839         844         843
         840         841         846         845
         841         842         847         846
         842         843         848         847
         843         844         849         848
         850         851         856         855
         851         852         857         856
         852         853         858         857
         853         854         859         858
         855         856         861         860
         856         857         862         861
         857         858         863         862
         858         859         864         863
         860         861         866         865
         861         862         867         866
         862         863         868         867
         863         864         869         868
         865         866         871         870
         866         867         872         871
         867         868         873         872
         868         869         874         873
         875         876         881         880
         876         877         882         881
         877         878         883         882
         878         879         884         883
         880         881         886         885
         881         882         887         886
         882         883         888         887
         883         884         889         888
         885         886         891         890
         886         887         892         891
         887         888         893         892
         888         889         894         893
         890         891         896         895
         891         892         897         896
         892         893         898         897
         893         894         899         898
         900         901         906         905
         901         902         907         906
         902         903         908         907
         903         904         909         908
         905         906         911         910
         906         907         912         911
         907         908         913         912
         908         909         914         913
         910         911         916         915
         911         912         917         916
         912         913         918         917
         913         914         919         918
         915         916         921         920
         916         917         922         921
         917         918         923         922
         918         919         924         923
         925         926         931         930
         926         927         932         931
         927         928         933         932
         928         929         934         933
         930         931         936         935
         931         932         937         936
         932         933         938         937
         933         934         939         938
         935         936         941         940
         936         937         942         941
         937         938         943         942
         938         939         944         943
         940         941         946         945
         941         942         947         946
         942         943         948         947
         943         944         949         948
         950         951         956         955
         951         952         957         956
         952         953         958         957
         953         954         959         958
         955         956         961         960
         956         957         962         961
         957         958         963         962
         958         959         964         963
         960         961         966         965
         961         962         967         966
         962         963         968         967
         963         964         969         968
         965         966         971         970
         966         967         972         971
         967         968         973         972
         968         969         974         973
         975         976         981         980
         976         977         982         981
         977         978         983         982
         978         979         984         983
         980         981         986         985
         981         982         987         986
         982         983         988         987
         983         984         989         988
         985         986         991         990
         986         987         992         991
         987         988         993         992
         988         989         994         993
         990         991         996         995
         991         992         997         996
         992         993         998         997
         993         994         999         998
        1000        1001        1006        1005
        1001        1002        1007        1006
        1002        1003        1008        1007
        1003        1004        1009        1008
        1005        1006        1011        1010
        1006        1007        1012        1011
        1007        1008        1013        1012
        1008        1009        1014        1013
        1010        1011        1016        1015
        1011        1012        1017        1016
        1012        1013        1018        1017
        1013        1014        1019        1018
        1015        1016        1021        1020
        1016        1017        1022        1021
        1017        1018        1023        1022
        1018        1019        1024        1023
        1025        1026        1031        1030
        1026        1027        1032        1031
        1027        1028        1033        1032
        1028        1029        1034        1033
        1030        1031        1036        1035
        1031        1032        1037        1036
        1032        1033        1038        1037
        1033        1034        1039        1038
        1035        1036        1041        1040
        1036        1037        1042        1041
        1037        1038        1043        1042
        1038        1039        1044        1043
        1040        1041        1046        1045
        1041        1042        1047        1046
        1042        1043        1048        1047
        1043        1044        1049        1048
        1050        1051        1056        1055
        1051        1052        1057        1056
        1052        1053        1058        1057
        1053        1054        1059        1058
        1055        1056        1061        1060
        1056        1057        1062        1061
        1057        1058        1063        1062
        1058        1059        1064        1063
        1060        1061        1066        1065
        1061        1062        1067        1066
        1062        1063        1068        1067
        1063        1064        1069        1068
        1065        1066        1071        1070
        1066        1067        1072        1071
        1067        1068        1073        1072
        1068        1069        1074        1073
        1075        1076        1081        1080
        1076        1077        1082        1081
        1077        1078        1083        1082
        1078        1079        1084        1083
        1080        1081        1086        1085
        1081        1082        1087        1086
        1082        1083        1088        1087
        1083        1084        1089        1088
        1085        1086        1091        1090
        1086        1087        1092        1091
        1087        1088        1093        1092
        1088        1089        1094        1093
        1090        1091        1096        1095
        1091        1092        1097        1096
        1092        1093        1098        1097
        1093        1094        1099        1098
        1100        1101        1106        1105
        1101        1102        1107        1106
        1102        1103        1108        1107
        1103        1104        1109        1108
        1105        1106        1111        1110
        1106        1107        1112        1111
        1107        1108        1113        1112
        1108        1109        1114        1113
        1110        1111        1116        1115
        1111        1112        1117        1116
        1112        1113        1118        1117
        1113        1114        1119        1118
        1115        1116        1121        1120
        1116        1117        1122        1121
        1117        1118        1123        1122
        1118        1119        1124        1123
        1125        1126        1131        1130
        1126        1127        1132        1131
        1127        1128        1133        1132
        1128        1129        1134        1133
        1130        1131        1136        1135
        1131        1132        1137        1136
        1132        1133        1138        1137
        1133        1134        1139        1138
        1135        1136        1141        1140
        1136        1137        1142        1141
        1137        1138        1143        1142
        1138        1139        1144        1143
        1140        1141        1146        1145
        1141        1142        1147        1146
        1142        1143        1148        1147
        1143        1144        1149        1148
        1150        1151        1156        1155
        1151        1152        1157        1156
        1152        1153        1158        1157
        1153        1154        1159        1158
        1155        1156        1161        1160
        1156        1157        1162        1161
        1157        1158        1163        1162
        1158        1159        1164        1163
        1160        1161        1166        1165
        1161        1162        1167        1166
        1162        1163        1168        1167
        1163        1164        1169        1168
        1165        1166        1171        1170
        1166        1167        1172        1171
        1167        1168        1173        1172
        1168        1169        1174        1173
        1175        1176        1181        1180
        1176        1177        1182        1181
        1177        1178        1183        1182
        1178        1179        1184        1183
        1180        1181        1186        1185
        1181        1182        1187        1186
        1182        1183        1188        1187
        1183        1184        1189        1188
        1185        1186        1191        1190
        1186        1187        1192        1191
        1187        1188        1193        1192
        1188        1189        1194        1193
        1190        1191        1196        1195
        1191        1192        1197        1196
        1192        1193        1198        1197
        1193        1194        1199        1198
        1200        1201        1206        1205
        1201        1202        1207        1206
        1202        1203        1208        1207
        1203        1204        1209        1208
        1205        1206        1211        1210
        1206        1207        1212        1211
        1207        1208        1213        1212
        1208        1209        1214        1213
        1210        1211        1216        1215
        1211        1212        1217        1216
        1212        1213        1218        1217
        1213        1214        1219        1218
        1215        1216        1221        1220
        1216        1217        1222        1221
        1217        1218        1223        1222
        1218        1219        1224        1223
        1225        1226        1231        1230
        1226        1227        1232        1231
        1227        1228        1233        1232
        1228        1229        1234        1233
        1230        1231        1236        1235
        1231        1232        1237        1236
        1232        1233        1238        1237
        1233        1234        1239        1238
        1235        1236        1241        1240
        1236        1237        1242        1241
        1237        1238        1243        1242
        1238        1239        1244        1243
        1240        1241        1246        1245
        1241        1242        1247        1246
        1242        1243        1248        1247
        1243        1244        1249        1248
        1250        1251        1256        1255
        1251        1252        1257        1256
        1252        1253        1258        1257
        1253        1254        1259        1258
        1255        1256        1261        1260
        1256        1257        1262        1261
        1257        1258        1263        1262
        1258        1259        1264        1263
        1260        1261        1266        1265
        1261        1262        1267        1266
        1262        1263        1268        1267
        1263        1264        1269        1268
        1265        1266        1271        1270
        1266        1267        1272        1271
        1267        1268        1273        1272
        1268        1269        1274        1273
        1275        1276        1281        1280
        1276        1277        1282        1281
        1277        1278        1283        1282
        1278        1279        1284        1283
        1280        1281        1286        1285
        1281        1282        1287        1286
        1282        1283        1288        1287
        1283        1284        1289        1288
        1285        1286        1291        1290
        1286        1287        1292        1291
        1287        1288        1293        1292
        1288        1289        1294        1293
        1290        1291        1296        1295
        1291        1292        1297        1296
        1292        1293        1298        1297
        1293        1294        1299        1298
        1300        1301        1306        1305
        1301        1302        1307        1306
        1302        1303        1308        1307
        1303        1304        1309        1308
        1305        1306        1311        1310
        1306        1307        1312        1311
        1307        1308        1313        1312
        1308        1309        1314        1313
        1310        1311        1316        1315
        1311        1312        1317        1316
        1312        1313        1318        1317
        1313        1314        1319        1318
        1315        1316        1321        1320
        1316        1317        1322        1321
        1317        1318        1323        1322
        1318        1319        1324        1323
        1325        1326        1331        1330
        1326        1327        1332        1331
        1327        1328        1333        1332
        1328        1329        1334        1333
        1330        1331        1336        1335
        1331        1332        1337        1336
        1332        1333        1338        1337
        1333        1334        1339        1338
        1335        1336        1341        1340
        1336        1337        1342        1341
        1337        1338        1343        1342
        1338        1339        1344        1343
        1340        1341        1346        1345
        1341        1342        1347        1346
        1342        1343        1348        1347
        1343        1344        1349        1348
        1350        1351        1356        1355
        1351        1352        1357        1356
        1352        1353        1358        1357
        1353        1354        1359        1358
        1355        1356        1361        1360
        1356        1357        1362        1361
        1357        1358        1363        1362
        1358        1359        1364        1363
        1360        1361        1366        1365
        1361        1362        1367        1366
        1362        1363        1368        1367
        1363        1364        1369        1368
        1365        1366        1371        1370
        1366        1367        1372        1371
        1367        1368        1373        1372
        1368        1369        1374        1373
        1375        1376        1381        1380
        1376        1377        1382        1381
        1377        1378        1383        1382
        1378        1379        1384        1383
        1380        1381        1386        1385
        1381        1382        1387        1386
        1382        1383        1388        1387
        1383        1384        1389        1388
        1385        1386        1391        1390
        1386        1387        1392        1391
        1387        1388        1393        1392
        1388        1389        1394        1393
        1390        1391        1396        1395
        1391        1392        1397        1396
        1392        1393        1398        1397
        1393        1394        1399        1398
        1400        1401        1406        1405
        1401        1402        1407        1406
        1402        1403        1408        1407
        1403        1404        1409        1408
        1405        1406        1411        1410
        1406        1407        1412        1411
        1407        1408        1413        1412
        1408        1409        1414        1413
        1410        1411        1416        1415
        1411        1412        1417        1416
        1412        1413        1418        1417
        1413        1414        1419        1418
        1415        1416        1421        1420
        1416        1417        1422        1421
        1417        1418        1423        1422
        1418        1419        1424        1423
        1425        1426        1431        1430
        1426        1427        1432        1431
        1427        1428        1433        1432
        1428        1429        1434        1433
        1430        1431        1436        1435
        1431        1432        1437        1436
        1432        1433        1438        1437
        1433        1434        1439        1438
        1435        1436        1441        1440
        1436        1437        1442        1441
        1437        1438        1443        1442
        1438        1439        1444        1443
        1440        1441        1446        1445
        1441        1442        1447        1446
        1442        1443        1448        1447
        1443        1444        1449        1448
        1450        1451        1456        1455
        1451        1452        1457        1456
        1452        1453        1458        1457
        1453        1454        1459        1458
        1455        1456        1461        1460
        1456        1457        1462        1461
        1457        1458        1463        1462
        1458        1459        1464        1463
        1460        1461        1466        1465
        1461        1462        1467        1466
        1462        1463        1468        1467
        1463        1464        1469        1468
        1465        1466        1471        1470
        1466        1467        1472        1471
        1467        1468        1473        1472
        1468        1469        1474        1473
        1475        1476        1481        1480
        1476        1477        1482        1481
        1477        1478        1483        1482
        1478        1479        1484        1483
        1480        1481        1486        1485
        1481        1482        1487        1486
        1482        1483        1488        1487
        1483        1484        1489        1488
        1485        1486        1491        1490
        1486        1487        1492        1491
        1487        1488        1493        1492
        1488        1489        1494        1493
        1490        1491        1496        1495
        1491        1492        1497        1496
        1492        1493        1498        1497
        1493        1494        1499        1498
        1500        1501        1506        1505
        1501        1502        1507        1506
        1502        1503        1508        1507
        1503        1504        1509        1508
        1505        1506        1511        1510
        1506        1507        1512        1511
        1507        1508        1513        1512
        1508        1509        1514        1513
        1510        1511        1516        1515
        1511        1512        1517        1516
        1512        1513        1518        1517
        1513        1514        1519        1518
        1515        1516        1521        1520
        1516        1517        1522        1521
        1517        1518        1523        1522
        1518        1519        1524        1523
        1525        1526        1531        1530
        1526        1527        1532        1531
        1527        1528        1533        1532
        1528        1529        1534        1533
        1530        1531        1536        1535
        1531        1532        1537        1536
        1532        1533        1538        1537
        1533        1534        1539        1538
        1535        1536        1541        1540
        1536        1537        1542        1541
        1537        1538        1543        1542
        1538        1539        1544        1543
        1540        1541        1546        1545
        1541        1542        1547        1546
        1542        1543        1548        1547
        1543        1544        1549        1548
        1550        1551        1556        1555
        1551        1552        1557        1556
        1552        1553        1558        1557
        1553        1554        1559        1558
        1555        1556        1561        1560
        1556        1557        1562        1561
        1557        1558        1563        1562
        1558        1559        1564        1563
        1560        1561        1566        1565
        1561        1562        1567        1566
        1562        1563        1568        1567
        1563        1564        1569        1568
        1565        1566        1571        1570
        1566        1567        1572        1571
        1567        1568        1573        1572
        1568        1569        1574        1573
        1575        1576        1581        1580
        1576        1577        1582        1581
        1577        1578        1583        1582
        1578        1579        1584        1583
        1580        1581        1586        1585
        1581        1582        1587        1586
        1582        1583        1588        1587
        1583        1584        1589        1588
        1585        1586        1591        1590
        1586        1587        1592        1591
        1587        1588        1593        1592
        1588        1589        1594        1593
        1590        1591        1596        1595
        1591        1592        1597        1596
        1592        1593        1598        1597
        1593        1594        1599        1598
 </DataArray>
 <DataArray  type="Int32"  Name="offsets"  format="ascii"> 
           4
           8
          12
          16
          20
          24
          28
          32
          36
          40
          44
          48
          52
          56
          60
          64
          68
          72
          76
          80
          84
          88
          92
          96
         100
         104
         108
         112
         116
         120
         124
         128
         132
         136
         140
         144
         148
         152
         156
         160
         164
         168
         172
         176
         180
         184
         188
         192
         196
         200
         204
         208
         212
         216
         220
         224
         228
         232
         236
         240
         244
         248
         252
         256
         260
         264
         268
         272
         276
         280
         284
         288
         292
         296
         300
         304
         308
         312
         316
         320
         324
         328
         332
         336
         340
         344
         348
         352
         356
         360
         364
         368
         372
         376
         380
         384
         388
         392
         396
         400
         404
         408
         412
         416
         420
         424
         428
         432
         436
         440
         444
         448
         452
         456
         460
         464
         468
         472
         476
         480
         484
         488
         492
         496
         500
         504
         508
         512
         516
         520
         524
         528
         532
         536
         540
         544
         548
         552
         556
         560
         564
         568
         572
         576
         580
         584
         588
         592
         596
         600
         604
         608
         612
         616
         620
         624
         628
         632
         636
         640
         644
         648
         652
         656
         660
         664
         668
         672
         676
         680
         684
         688
         692
         696
         700
         704
         708
         712
         716
         720
         724
         728
         732
         736
         740
         744
         748
         752
         756
         760
         764
         768
         772
         776
         780
         784
         788
         792
         796
         800
         804
         808
         812
         816
         820
         824
         828
         832
         836
         840
         844
         848
         852
         856
         860
         864
         868
         872
         876
         880
         884
         888
         892
         896
         900
         904
         908
         912
         916
         920
         924
         928
         932
         936
         940
         944
         948
         952
         956
         960
         964
         968
         972
         976
         980
         984
         988
         992
         996
        1000
        1004
        1008
        1012
        1016
        1020
        1024
        1028
        1032
        1036
        1040
        1044
        1048
        1052
        1056
        1060
        1064
        1068
        1072
        1076
        1080
        1084
        1088
        1092
        1096
        1100
        1104
        1108
        1112
        1116
        1120
        1124
        1128
        1132
        1136
        1140
        1144
        1148
        1152
        1156
        1160
        1164
        1168
        1172
        1176
        1180
        1184
        1188
        1192
        1196
        1200
        1204
        1208
        1212
        1216
        1220
        1224
        1228
        1232
        1236
        1240
        1244
        1248
        1252
        1256
        1260
        1264
        1268
        1272
        1276
        1280
        1284
        1288
        1292
        1296
        1300
        1304
        1308
        1312
        1316
        1320
        1324
        1328
        1332
        1336
        1340
        1344
        1348
        1352
        1356
        1360
        1364
        1368
        1372
        1376
        1380
        1384
        1388
        1392
        1396
        1400
        1404
        1408
        1412
        1416
        1420
        1424
        1428
        1432
        1436
        1440
        1444
        1448
        1452
        1456
        1460
        1464
        1468
        1472
        1476
        1480
        1484
        1488
        1492
        1496
        1500
        1504
        1508
        1512
        1516
        1520
        1524
        1528
        1532
        1536
        1540
        1544
        1548
        1552
        1556
        1560
        1564
        1568
        1572
        1576
        1580
        1584
        1588
        1592
        1596
        1600
        1604
        1608
        1612
        1616
        1620
        1624
        1628
        1632
        1636
        1640
        1644
        1648
        1652
        1656
        1660
        1664
        1668
        1672
        1676
        1680
        1684
        1688
        1692
        1696
        1700
        1704
        1708
        1712
        1716
        1720
        1724
        1728
        1732
        1736
        1740
        1744
        1748
        1752
        1756
        1760
        1764
        1768
        1772
        1776
        1780
        1784
        1788
        1792
        1796
        1800
        1804
        1808
        1812
        1816
        1820
        1824
        1828
        1832
        1836
        1840
        1844
        1848
        1852
        1856
        1860
        1864
        1868
        1872
        1876
        1880
        1884
        1888
        1892
        1896
        1900
        1904
        1908
        1912
        1916
        1920
        1924
        1928
        1932
        1936
        1940
        1944
        1948
        1952
        1956
        1960
        1964
        1968
        1972
        1976
        1980
        1984
        1988
        1992
        1996
        2000
        2004
        2008
        2012
        2016
        2020
        2024
        2028
        2032
        2036
        2040
        2044
        2048
        2052
        2056
        2060
        2064
        2068
        2072
        2076
        2080
        2084
        2088
        2092
        2096
        2100
        2104
        2108
        2112
        2116
        2120
        2124
        2128
        2132
        2136
        2140
        2144
        2148
        2152
        2156
        2160
        2164
        2168
        2172
        2176
        2180
        2184
        2188
        2192
        2196
        2200
        2204
        2208
        2212
        2216
        2220
        2224
        2228
        2232
        2236
        2240
        2244
        2248
        2252
        2256
        2260
        2264
        2268
        2272
        2276
        2280
        2284
        2288
        2292
        2296
        2300
        2304
        2308
        2312
        2316
        2320
        2324
        2328
        2332
        2336
        2340
        2344
        2348
        2352
        2356
        2360
        2364
        2368
        2372
        2376
        2380
        2384
        2388
        2392
        2396
        2400
        2404
        2408
        2412
        2416
        2420
        2424
        2428
        2432
        2436
        2440
        2444
        2448
        2452
        2456
        2460
        2464
        2468
        2472
        2476
        2480
        2484
        2488
        2492
        2496
        2500
        2504
        2508
        2512
        2516
        2520
        2524
        2528
        2532
        2536
        2540
        2544
        2548
        2552
        2556
        2560
        2564
        2568
        2572
        2576
        2580
        2584
        2588
        2592
        2596
        2600
        2604
        2608
        2612
        2616
        2620
        2624
        2628
        2632
        2636
        2640
        2644
        2648
        2652
        2656
        2660
        2664
        2668
        2672
        2676
        2680
        2684
        2688
        2692
        2696
        2700
        2704
        2708
        2712
        2716
        2720
        2724
        2728
        2732
        2736
        2740
        2744
        2748
        2752
        2756
        2760
        2764
        2768
        2772
        2776
        2780
        2784
        2788
        2792
        2796
        2800
        2804
        2808
        2812
        2816
        2820
        2824
        2828
        2832
        2836
        2840
        2844
        2848
        2852
        2856
        2860
        2864
        2868
        2872
        2876
        2880
        2884
        2888
        2892
        2896
        2900
        2904
        2908
        2912
        2916
        2920
        2924
        2928
        2932
        2936
        2940
        2944
        2948
        2952
        2956
        2960
        2964
        2968
        2972
        2976
        2980
        2984
        2988
        2992
        2996
        3000
        3004
        3008
        3012
        3016
        3020
        3024
        3028
        3032
        3036
        3040
        3044
        3048
        3052
        3056
        3060
        3064
        3068
        3072
        3076
        3080
        3084
        3088
        3092
        3096
        3100
        3104
        3108
        3112
        3116
        3120
        3124
        3128
        3132
        3136
        3140
        3144
        3148
        3152
        3156
        3160
        3164
        3168
        3172
        3176
        3180
        3184
        3188
        3192
        3196
        3200
        3204
        3208
        3212
        3216
        3220
        3224
        3228
        3232
        3236
        3240
        3244
        3248
        3252
        3256
        3260
        3264
        3268
        3272
        3276
        3280
        3284
        3288
        3292
        3296
        3300
        3304
        3308
        3312
        3316
        3320
        3324
        3328
        3332
        3336
        3340
        3344
        3348
        3352
        3356
        3360
        3364
        3368
        3372
        3376
        3380
        3384
        3388
        3392
        3396
        3400
        3404
        3408
        3412
        3416
        3420
        3424
        3428
        3432
        3436
        3440
        3444
        3448
        3452
        3456
        3460
        3464
        3468
        3472
        3476
        3480
        3484
        3488
        3492
        3496
        3500
        3504
        3508
        3512
        3516
        3520
        3524
        3528
        3532
        3536
        3540
        3544
        3548
        3552
        3556
        3560
        3564
        3568
        3572
        3576
        3580
        3584
        3588
        3592
        3596
        3600
        3604
        3608
        3612
        3616
        3620
        3624
        3628
        3632
        3636
        3640
        3644
        3648
        3652
        3656
        3660
        3664
        3668
        3672
        3676
        3680
        3684
        3688
        3692
        3696
        3700
        3704
        3708
        3712
        3716
        3720
        3724
        3728
        3732
        3736
        3740
        3744
        3748
        3752
        3756
        3760
        3764
        3768
        3772
        3776
        3780
        3784
        3788
        3792
        3796
        3800
        3804
        3808
        3812
        3816
        3820
        3824
        3828
        3832
        3836
        3840
        3844
        3848
        3852
        3856
        3860
        3864
        3868
        3872
        3876
        3880
        3884
        3888
        3892
        3896
        3900
        3904
        3908
        3912
        3916
        3920
        3924
        3928
        3932
        3936
        3940
        3944
        3948
        3952
        3956
        3960
        3964
        3968
        3972
        3976
        3980
        3984
        3988
        3992
        3996
        4000
        4004
        4008
        4012
        4016
        4020
        4024
        4028
        4032
        4036
        4040
        4044
        4048
        4052
        4056
        4060
        4064
        4068
        4072
        4076
        4080
        4084
        4088
        4092
        4096
 </DataArray>
 <DataArray  type="UInt8"  Name="types"  format="ascii">
 9
 9
 9
 9
 9
 9
 9
 9
 9
 9
 9
 9
 9
 9
 9
 9
 9
 9
 9
 9
 9
 9
 9
 9
 9
 9
 9
 9
 9
 9
 9
 9
 9
 9
 9
 9
 9
 9
 9
 9
 9
 9
 9
 9
 9
 9
 9
 9
 9
 9
 9
 9
 9
 9
 9
 9
 9
 9
 9
 9
 9
 9
 9
 9
 9
 9
 9
 9
 9
 9
 9
 9
 9
 9
 9
 9
 9
 9
 9
 9
 9
 9
 9
 9
 9
 9
 9
 9
 9
 9
 9
 9
 9
 9
 9
 9
 9
 9
 9
 9
 9
 9
 9
 9
 9
 9
 9
 9
 9
 9
 9
 9
 9
 9
 9
 9
 9
 9
 9
 9
 9
 9
 9
 9
 9
 9
 9
 9
 9
 9
 9
 9
 9
 9
 9
 9
 9
 9
 9
 9
 9
 9
 9
 9
 9
 9
 9
 9
 9
 9
 9
 9
 9
 9
 9
 9
 9
 9
 9
 9
 9
 9
 9
 9
 9
 9
 9
 9
 9
 9
 9
 9
 9
 9
 9
 9
 9
 9
 9
 9
 9
 9
 9
 9
 9
 9
 9
 9
 9
 9
 9
 9
 9
 9
 9
 9
 9
 9
 9
 9
 9
 9
 9
 9
 9
 9
 9
 9
 9
 9
 9
 9
 9
 9
 9
 9
 9
 9
 9
 9
 9
 9
 9
 9
 9
 9
 9
 9
 9
 9
 9
 9
 9
 9
 9
 9
 9
 9
 9
 9
 9
 9
 9
 9
 9
 9
 9
 9
 9
 9
 9
 9
 9
 9
 9
 9
 9
 9
 9
 9
 9
 9
 9
 9
 9
 9
 9
 9
 9
 9
 9
 9
 9
 9
 9
 9
 9
 9
 9
 9
 9
 9
 9
 9
 9
 9
 9
 9
 9
 9
 9
 9
 9
 9
 9
 9
 9
 9
 9
 9
 9
 9
 9
 9
 9
 9
 9
 9
 9
 9
 9
 9
 9
 9
 9
 9
 9
 9
 9
 9
 9
 9
 9
 9
 9
 9
 9
 9
 9
 9
 9
 9
 9
 9
 9
 9
 9
 9
 9
 9
 9
 9
 9
 9
 9
 9
 9
 9
 9
 9
 9
 9
 9
 9
 9
 9
 9
 9
 9
 9
 9
 9
 9
 9
 9
 9
 9
 9
 9
 9
 9
 9
 9
 9
 9
 9
 9
 9
 9
 9
 9
 9
 9
 9
 9
 9
 9
 9
 9
 9
 9
 9
 9
 9
 9
 9
 9
 9
 9
 9
 9
 9
 9
 9
 9
 9
 9
 9
 9
 9
 9
 9
 9
 9
 9
 9
 9
 9
 9
 9
 9
 9
 9
 9
 9
 9
 9
 9
 9
 9
 9
 9
 9
 9
 9
 9
 9
 9
 9
 9
 9
 9
 9
 9
 9
 9
 9
 9
 9
 9
 9
 9
 9
 9
 9
 9
 9
 9
 9
 9
 9
 9
 9
 9
 9
 9
 9
 9
 9
 9
 9
 9
 9
 9
 9
 9
 9
 9
 9
 9
 9
 9
 9
 9
 9
 9
 9
 9
 9
 9
 9
 9
 9
 9
 9
 9
 9
 9
 9
 9
 9
 9
 9
 9
 9
 9
 9
 9
 9
 9
 9
 9
 9
 9
 9
 9
 9
 9
 9
 9
 9
 9
 9
 9
 9
 9
 9
 9
 9
 9
 9
 9
 9
 9
 9
 9
 9
 9
 9
 9
 9
 9
 9
 9
 9
 9
 9
 9
 9
 9
 9
 9
 9
 9
 9
 9
 9
 9
 9
 9
 9
 9
 9
 9
 9
 9
 9
 9
 9
 9
 9
 9
 9
 9
 9
 9
 9
 9
 9
 9
 9
 9
 9
 9
 9
 9
 9
 9
 9
 9
 9
 9
 9
 9
 9
 9
 9
 9
 9
 9
 9
 9
 9
 9
 9
 9
 9
 9
 9
 9
 9
 9
 9
 9
 9
 9
 9
 9
 9
 9
 9
 9
 9
 9
 9
 9
 9
 9
 9
 9
 9
 9
 9
 9
 9
 9
 9
 9
 9
 9
 9
 9
 9
 9
 9
 9
 9
 9
 9
 9
 9
 9
 9
 9
 9
 9
 9
 9
 9
 9
 9
 9
 9
 9
 9
 9
 9
 9
 9
 9
 9
 9
 9
 9
 9
 9
 9
 9
 9
 9
 9
 9
 9
 9
 9
 9
 9
 9
 9
 9
 9
 9
 9
 9
 9
 9
 9
 9
 9
 9
 9
 9
 9
 9
 9
 9
 9
 9
 9
 9
 9
 9
 9
 9
 9
 9
 9
 9
 9
 9
 9
 9
 9
 9
 9
 9
 9
 9
 9
 9
 9
 9
 9
 9
 9
 9
 9
 9
 9
 9
 9
 9
 9
 9
 9
 9
 9
 9
 9
 9
 9
 9
 9
 9
 9
 9
 9
 9
 9
 9
 9
 9
 9
 9
 9
 9
 9
 9
 9
 9
 9
 9
 9
 9
 9
 9
 9
 9
 9
 9
 9
 9
 9
 9
 9
 9
 9
 9
 9
 9
 9
 9
 9
 9
 9
 9
 9
 9
 9
 9
 9
 9
 9
 9
 9
 9
 9
 9
 9
 9
 9
 9
 9
 9
 9
 9
 9
 9
 9
 9
 9
 9
 9
 9
 9
 9
 9
 9
 9
 9
 9
 9
 9
 9
 9
 9
 9
 9
 9
 9
 9
 9
 9
 9
 9
 9
 9
 9
 9
 9
 9
 9
 9
 9
 9
 9
 9
 9
 9
 9
 9
 9
 9
 9
 9
 9
 9
 9
 9
 9
 9
 9
 9
 9
 9
 9
 9
 9
 9
 9
 9
 9
 9
 9
 9
 9
 9
 9
 9
 9
 9
 9
 9
 9
 9
 9
 9
 9
 9
 9
 9
 9
 9
 9
 9
 9
 9
 9
 9
 9
 9
 9
 9
 9
 9
 9
 9
 9
 9
 9
 9
 9
 9
 9
 9
 9
 9
 9
 9
 9
 9
 9
 9
 9
 9
 9
 9
 9
 9
 9
 9
 9
 9
 9
 9
 9
 9
 9
 9
 9
 9
 9
 9
 9
 9
 9
 9
 9
 9
 9
 9
 9
 9
 9
 9
 9
 9
 9
 9
 9
 9
 9
 9
 9
 9
 9
 9
 9
 9
 9
 9
 9
 9
 9
 9
 9
 9
 9
 9
 9
 9
 9
 9
 9
 9
 9
 9
 9
 9
 9
 9
 9
 9
 9
 9
 9
 9
 9
 9
 9
 9
 9
 9
 9
 9
 9
 9
 9
 9
 9
 9
 9
 9
 9
 </DataArray>
 </Cells> 
 <PointData>
 <DataArray  type="Float64" Name="disp" NumberOfComponents="3" format="ascii">
   6.5214974343082099E-002   6.2748665338666423E-002   0.0000000000000000     
   6.8368444642546808E-002   6.8163021917031774E-002   0.0000000000000000     
   7.1386491812850172E-002   7.3747041340362626E-002   0.0000000000000000     
   7.4269115853992179E-002   7.9500723608658994E-002   0.0000000000000000     
   7.7016316765972842E-002   8.5424068721920848E-002   0.0000000000000000     
   6.0084270659631303E-002   6.1889549578099091E-002   0.0000000000000000     
   6.3022220017275032E-002   6.7302134336420516E-002   0.0000000000000000     
   6.5839146315998243E-002   7.2895095081717931E-002   0.0000000000000000     
   6.8535049555800948E-002   7.8668431813991316E-002   0.0000000000000000     
   7.1109929736683120E-002   8.4622144533240670E-002   0.0000000000000000     
   5.5126697362500809E-002   6.1064634323743400E-002   0.0000000000000000     
   5.7861547167455091E-002   6.6488173660188929E-002   0.0000000000000000     
   6.0485895092795477E-002   7.2097721064433573E-002   0.0000000000000000     
   6.2999741138521970E-002   7.7893276536477332E-002   0.0000000000000000     
   6.5403085304634595E-002   8.3874840076320206E-002   0.0000000000000000     
   5.0342254451690605E-002   6.0273919575599355E-002   0.0000000000000000     
   5.2886426093086948E-002   6.5721139888337013E-002   0.0000000000000000     
   5.5326738143241835E-002   7.1354919288509580E-002   0.0000000000000000     
   5.7663190602155280E-002   7.7175257776117084E-002   0.0000000000000000     
   5.9895783469827255E-002   8.3182155351159498E-002   0.0000000000000000     
   4.5730941927200702E-002   5.9517405333666944E-002   0.0000000000000000     
   4.8096856794170639E-002   6.5001033020864740E-002   0.0000000000000000     
   5.0361675467337344E-002   7.0666689753945938E-002   0.0000000000000000     
   5.2525397946700830E-002   7.6514375532910517E-002   0.0000000000000000     
   5.4588024232261091E-002   8.2544090357758476E-002   0.0000000000000000     
   7.7016316765972842E-002   8.5424068721920848E-002   0.0000000000000000     
   7.9656921418041621E-002   9.1512543296273147E-002   0.0000000000000000     
   8.2219756679447947E-002   9.7761613947840817E-002   0.0000000000000000     
   8.4704822550191836E-002  0.10417128067662386        0.0000000000000000     
   8.7112119030273286E-002  0.11074154348262225        0.0000000000000000     
   7.1109929736683120E-002   8.4622144533240670E-002   0.0000000000000000     
   7.3588072700688040E-002   9.0745056098868099E-002   0.0000000000000000     
   7.5993764289858948E-002   9.7025989370275678E-002   0.0000000000000000     
   7.8327004504195843E-002  0.10346494434746338        0.0000000000000000     
   8.0587793343698755E-002  0.11006192103043123        0.0000000000000000     
   6.5403085304634595E-002   8.3874840076320206E-002   0.0000000000000000     
   6.7717554186502715E-002   9.0027681964749154E-002   0.0000000000000000     
   6.9964774379495720E-002   9.6337072482551037E-002   0.0000000000000000     
   7.2144745883613665E-002  0.10280301162972590        0.0000000000000000     
   7.4257468698856480E-002  0.10942549940627370        0.0000000000000000     
   5.9895783469827255E-002   8.3182155351159498E-002   0.0000000000000000     
   6.2045365875485634E-002   8.9360420893916312E-002   0.0000000000000000     
   6.4132786948358306E-002   9.5694863284666920E-002   0.0000000000000000     
   6.6158046688445230E-002  0.10218548252341139        0.0000000000000000     
   6.8121145095746460E-002  0.10883227861014967        0.0000000000000000     
   5.4588024232261091E-002   8.2544090357758476E-002   0.0000000000000000     
   5.6571507767636808E-002   8.8743272886369531E-002   0.0000000000000000     
   5.8497801996446643E-002   9.5099361776623328E-002   0.0000000000000000     
   6.0366906918690587E-002  0.10161235702851985        0.0000000000000000     
   6.2178822534368669E-002  0.10828225864205912        0.0000000000000000     
   8.7112119030273286E-002  0.11074154348262225        0.0000000000000000     
   8.9427888868299443E-002  0.11745811063310296        0.0000000000000000     
   9.1638374812877427E-002  0.12430669039533300        0.0000000000000000     
   9.3743576864007250E-002  0.13128728276931229        0.0000000000000000     
   9.5743495021688899E-002  0.13839988775504092        0.0000000000000000     
   8.0587793343698755E-002  0.11006192103043123        0.0000000000000000     
   8.2762168132799227E-002  0.11680435608081195        0.0000000000000000     
   8.4836166195928847E-002  0.12367968616023828        0.0000000000000000     
   8.6809787533087587E-002  0.13068791126871018        0.0000000000000000     
   8.8683032144275475E-002  0.13782903140622776        0.0000000000000000     
   7.4257468698856480E-002  0.10942549940627370        0.0000000000000000     
   7.6289074230398324E-002  0.11619300524761374        0.0000000000000000     
   7.8225693883413300E-002  0.12309399858916516        0.0000000000000000     
   8.0067327657901408E-002  0.13012847943092803        0.0000000000000000     
   8.1813975553862633E-002  0.13729644777290234        0.0000000000000000     
   6.8121145095746460E-002  0.10883227861014967        0.0000000000000000     
   7.0008607161096720E-002  0.11562405813350828        0.0000000000000000     
   7.1806957875330771E-002  0.12254962768211362        0.0000000000000000     
   7.3516197238448697E-002  0.12960898725596579        0.0000000000000000     
   7.5136325250450414E-002  0.13680213685506468        0.0000000000000000     
   6.2178822534368669E-002  0.10828225864205912        0.0000000000000000     
   6.3920766924894387E-002  0.11509751473849560        0.0000000000000000     
   6.5579958171681316E-002  0.12204657343908371        0.0000000000000000     
   6.7156396274729427E-002  0.12912943474382341        0.0000000000000000     
   6.8650081234038762E-002  0.13634609865271480        0.0000000000000000     
   9.5743495021688899E-002  0.13839988775504092        0.0000000000000000     
   9.7646224752335420E-002  0.14563389823438527        0.0000000000000000     
   9.9459861522359846E-002  0.15297870708921185        0.0000000000000000     
  0.10118440533176218       0.16043431431952063        0.0000000000000000     
  0.10281985618054237       0.16800071992531163        0.0000000000000000     
   8.8683032144275475E-002  0.13782903140622776        0.0000000000000000     
   9.0464764095628966E-002  0.14509146197660017        0.0000000000000000     
   9.2163847453284514E-002  0.15246361838363687        0.0000000000000000     
   9.3780282217242189E-002  0.15994550062733770        0.0000000000000000     
   9.5314068387501921E-002  0.16753710870770280        0.0000000000000000     
   8.1813975553862633E-002  0.13729644777290234        0.0000000000000000     
   8.3474597895618369E-002  0.14458570179740540        0.0000000000000000     
   8.5058155007489963E-002  0.15198403968675447        0.0000000000000000     
   8.6564646889477403E-002  0.15949146144094964        0.0000000000000000     
   8.7994073541580745E-002  0.16710796705999084        0.0000000000000000     
   7.5136325250450414E-002  0.13680213685506468        0.0000000000000000     
   7.6675726152303655E-002  0.14411661769680087        0.0000000000000000     
   7.8142784184976125E-002  0.15153997099856478        0.0000000000000000     
   7.9537499348467877E-002  0.15907219676035636        0.0000000000000000     
   8.0859871642778858E-002  0.16671329498217574        0.0000000000000000     
   6.8650081234038762E-002  0.13634609865271480        0.0000000000000000     
   7.0068148865684798E-002  0.14368420967478662        0.0000000000000000     
   7.1417734985743053E-002  0.15113141231906765        0.0000000000000000     
   7.2698839594213555E-002  0.15868770658555795        0.0000000000000000     
   7.3911462691096289E-002  0.16635309247425753        0.0000000000000000     
  0.10281985618054237       0.16800071992531163        0.0000000000000000     
  0.10436760260289107       0.17566703715182952        0.0000000000000000     
  0.10582903313299884       0.18342237924431909        0.0000000000000000     
  0.10720414777086565       0.19126674620278031        0.0000000000000000     
  0.10849294651649151       0.19920013802721315        0.0000000000000000     
   9.5314068387501921E-002  0.16753710870770280        0.0000000000000000     
   9.6764106804061986E-002  0.17522848996882856        0.0000000000000000     
   9.8129298306920645E-002  0.18300969175481152        0.0000000000000000     
   9.9409642896077927E-002  0.19088071406565166        0.0000000000000000     
  0.10060514057153377       0.19884155690134900        0.0000000000000000     
   8.7994073541580745E-002  0.16710796705999084        0.0000000000000000     
   8.9343681461632060E-002  0.17482411091070804        0.0000000000000000     
   9.0610717147463549E-002  0.18263044735993111        0.0000000000000000     
   9.1795180599075210E-002  0.19052697640766006        0.0000000000000000     
   9.2897071816467017E-002  0.19851369805389493        0.0000000000000000     
   8.0859871642778858E-002  0.16671329498217574        0.0000000000000000     
   8.2106326575601365E-002  0.17445389997746794        0.0000000000000000     
   8.3273289654627561E-002  0.18228464605967784        0.0000000000000000     
   8.4360760879857513E-002  0.19020553322880554        0.0000000000000000     
   8.5368740251291181E-002  0.19821656148485103        0.0000000000000000     
   7.3911462691096289E-002  0.16635309247425753        0.0000000000000000     
   7.5052042145969805E-002  0.17411785716910816        0.0000000000000000     
   7.6117015828412640E-002  0.18197228785405167        0.0000000000000000     
   7.7106383738424822E-002  0.18991638452908804        0.0000000000000000     
   7.8020145876006350E-002  0.19795014719421727        0.0000000000000000     
  0.10849294651649151       0.19920013802721315        0.0000000000000000     
  0.10970092457097652       0.20721903068158121        0.0000000000000000     
  0.11083357713542082       0.21531990012984800        0.0000000000000000     
  0.11189090420982432       0.22350274637201348        0.0000000000000000     
  0.11287290579418710       0.23176756940807772        0.0000000000000000     
  0.10060514057153377       0.19884155690134900        0.0000000000000000     
  0.10172172495369027       0.20688616443639993        0.0000000000000000     
  0.10276532966294941       0.21500848084530103        0.0000000000000000     
  0.10373595469931121       0.22320850612805218        0.0000000000000000     
  0.10463360006277567       0.23148624028465348        0.0000000000000000     
   9.2897071816467017E-002  0.19851369805389493        0.0000000000000000     
   9.3921767953765140E-002  0.20658310205188340        0.0000000000000000     
   9.4874646165095819E-002  0.21472767815487320        0.0000000000000000     
   9.5755706450458999E-002  0.22294742636286421        0.0000000000000000     
   9.6564948809854737E-002  0.23124234667585661        0.0000000000000000     
   8.5368740251291181E-002  0.19821656148485103        0.0000000000000000     
   8.6301053571201186E-002  0.20630984352803158        0.0000000000000000     
   8.7161526641860027E-002  0.21447749205856445        0.0000000000000000     
   8.7950159463267744E-002  0.22271950707644961        0.0000000000000000     
   8.8666952035424323E-002  0.23103588858168700        0.0000000000000000     
   7.8020145876006350E-002  0.19795014719421727        0.0000000000000000     
   7.8859581805998363E-002  0.20606638886484452        0.0000000000000000     
   7.9625971093242043E-002  0.21425792255637485        0.0000000000000000     
   8.0319313737737388E-002  0.22252474826880822        0.0000000000000000     
   8.0939609739484428E-002  0.23086686600214473        0.0000000000000000     
  0.11287290579418710       0.23176756940807772        0.0000000000000000     
  0.11380771163735182       0.24013075638587750        0.0000000000000000     
  0.11472345148816120       0.24860869445324965        0.0000000000000000     
  0.11562012534661519       0.25720138361019418        0.0000000000000000     
  0.11649773321271384       0.26590882385671100        0.0000000000000000     
  0.10463360006277567       0.23148624028465348        0.0000000000000000     
  0.10546315788073279       0.23986504167139372        0.0000000000000000     
  0.10622952028057267       0.24836826864456171        0.0000000000000000     
  0.10693268726229525       0.25699592120415754        0.0000000000000000     
  0.10757265882590056       0.26574799935018112        0.0000000000000000     
   9.6564948809854737E-002  0.23124234667585661        0.0000000000000000     
   9.7293043073240895E-002  0.23963882761488106        0.0000000000000000     
   9.7930659070575410E-002  0.24816325770096861        0.0000000000000000     
   9.8477796801858308E-002  0.25681563693411907        0.0000000000000000     
   9.8934456267089577E-002  0.26559596531433266        0.0000000000000000     
   8.8666952035424323E-002  0.23103588858168700        0.0000000000000000     
   8.9297367214876119E-002  0.23945211421633961        0.0000000000000000     
   8.9826867858169457E-002  0.24799366162247022        0.0000000000000000     
   9.0255453965304419E-002  0.25666053080007895        0.0000000000000000     
   9.0583125536280881E-002  0.26545272174916568        0.0000000000000000     
   8.0939609739484428E-002  0.23086686600214473        0.0000000000000000     
   8.1476130305638453E-002  0.23930490147576927        0.0000000000000000     
   8.1918146643354797E-002  0.24785948040906661        0.0000000000000000     
   8.2265658752633475E-002  0.25653060280203688        0.0000000000000000     
   8.2518666633474472E-002  0.26531826865468017        0.0000000000000000     
  0.11649773321271384       0.26590882385671100        0.0000000000000000     
  0.11729665760575446       0.27489569877287168        0.0000000000000000     
  0.11795728104503439       0.28432669193874754        0.0000000000000000     
  0.11847960353055366       0.29420180335433860        0.0000000000000000     
  0.11886362506231224       0.30452103301964489        0.0000000000000000     
  0.10757265882590056       0.26574799935018112        0.0000000000000000     
  0.10813050013247384       0.27475669631168248        0.0000000000000000     
  0.10858727634310036       0.28415420531771152        0.0000000000000000     
  0.10894298745778012       0.29394052636826845        0.0000000000000000     
  0.10919763347651312       0.30411565946335306        0.0000000000000000     
   9.8934456267089577E-002  0.26559596531433266        0.0000000000000000     
   9.9311699874562329E-002  0.27460255714687032        0.0000000000000000     
   9.9620590032569734E-002  0.28393372673699324        0.0000000000000000     
   9.9861126741111764E-002  0.29358947408470148        0.0000000000000000     
  0.10003331000018845       0.30356979918999483        0.0000000000000000     
   9.0583125536280881E-002  0.26545272174916568        0.0000000000000000     
   9.0840256832019906E-002  0.27443328127843530        0.0000000000000000     
   9.1057222113442485E-002  0.28366525619659261        0.0000000000000000     
   9.1234021380548563E-002  0.29314864650363759        0.0000000000000000     
   9.1370654633338225E-002  0.30288345219957025        0.0000000000000000     
   8.2518666633474472E-002  0.26531826865468017        0.0000000000000000     
   8.2716171004846586E-002  0.27424886870637738        0.0000000000000000     
   8.2897172585718631E-002  0.28334879369650967        0.0000000000000000     
   8.3061671376090579E-002  0.29261804362507693        0.0000000000000000     
   8.3209667375962443E-002  0.30205661849207927        0.0000000000000000     
   4.5730941927200702E-002   5.9517405333666944E-002   0.0000000000000000     
   4.8096856794170639E-002   6.5001033020864740E-002   0.0000000000000000     
   5.0361675467337344E-002   7.0666689753945938E-002   0.0000000000000000     
   5.2525397946700830E-002   7.6514375532910517E-002   0.0000000000000000     
   5.4588024232261091E-002   8.2544090357758476E-002   0.0000000000000000     
   4.1288097774544029E-002   5.8816601939340317E-002   0.0000000000000000     
   4.3476006316602270E-002   6.4336883844939560E-002   0.0000000000000000     
   4.5565509662771099E-002   7.0033876352302973E-002   0.0000000000000000     
   4.7556607813050530E-002   7.5907579461430549E-002   0.0000000000000000     
   4.9449300767440571E-002   8.1957993172322302E-002   0.0000000000000000     
   3.7009059979233525E-002   5.8193019734013612E-002   0.0000000000000000     
   3.9007041706277994E-002   6.3737723147728881E-002   0.0000000000000000     
   4.0913043327232251E-002   6.9457322975141039E-002   0.0000000000000000     
   4.2727064842096291E-002   7.5351819216250074E-002   0.0000000000000000     
   4.4449106250870118E-002   8.1421211871056012E-002   0.0000000000000000     
   3.2893828541269189E-002   5.7646658717686823E-002   0.0000000000000000     
   3.4689962963197818E-002   6.3203550929232660E-002   0.0000000000000000     
   3.6404276460720773E-002   6.8937029622460080E-002   0.0000000000000000     
   3.8036769033838083E-002   7.4847094797369063E-002   0.0000000000000000     
   3.9587440682549734E-002   8.0933746453959607E-002   0.0000000000000000     
   2.8942403460651026E-002   5.7177518890359949E-002   0.0000000000000000     
   3.0524770087361722E-002   6.2734367189450940E-002   0.0000000000000000     
   3.2039209063236686E-002   6.8472996294260138E-002   0.0000000000000000     
   3.3485720388275922E-002   7.4393406204787529E-002   0.0000000000000000     
   3.4864304062479423E-002   8.0495596921033086E-002   0.0000000000000000     
   5.4588024232261091E-002   8.2544090357758476E-002   0.0000000000000000     
   5.6571507767636808E-002   8.8743272886369531E-002   0.0000000000000000     
   5.8497801996446643E-002   9.5099361776623328E-002   0.0000000000000000     
   6.0366906918690587E-002  0.10161235702851985        0.0000000000000000     
   6.2178822534368669E-002  0.10828225864205912        0.0000000000000000     
   4.9449300767440571E-002   8.1957993172322302E-002   0.0000000000000000     
   5.1266596179493577E-002   8.8175728663536776E-002   0.0000000000000000     
   5.3031501702761955E-002   9.4551397113632585E-002   0.0000000000000000     
   5.4744017337245696E-002  0.10108499852260970        0.0000000000000000     
   5.6404143082944787E-002  0.10777653289046815        0.0000000000000000     
   4.4449106250870118E-002   8.1421211871056012E-002   0.0000000000000000     
   4.6101247427593292E-002   8.7657278946845968E-002   0.0000000000000000     
   4.7705568246305424E-002   9.4051798450907095E-002   0.0000000000000000     
   4.9262068707006487E-002  0.10060477038323939        0.0000000000000000     
   5.0770748809696488E-002  0.10731619474384288        0.0000000000000000     
   3.9587440682549734E-002   8.0933746453959607E-002   0.0000000000000000     
   4.1075461511935980E-002   8.7187923736297065E-002   0.0000000000000000     
   4.2520001627077066E-002   9.3600565788446846E-002   0.0000000000000000     
   4.3921061027972989E-002  0.10017167261040888        0.0000000000000000     
   4.5278639714623745E-002  0.10690124420218323        0.0000000000000000     
   3.4864304062479423E-002   8.0495596921033086E-002   0.0000000000000000     
   3.6189238432521607E-002   8.6767663031890124E-002   0.0000000000000000     
   3.7474801845076858E-002   9.3197699126251823E-002   0.0000000000000000     
   3.8720994300145181E-002   9.9785705204118225E-002   0.0000000000000000     
   3.9927815797726585E-002  0.10653168126548931        0.0000000000000000     
   6.2178822534368669E-002  0.10828225864205912        0.0000000000000000     
   6.3920766924894387E-002  0.11509751473849560        0.0000000000000000     
   6.5579958171681316E-002  0.12204657343908371        0.0000000000000000     
   6.7156396274729427E-002  0.12912943474382341        0.0000000000000000     
   6.8650081234038762E-002  0.13634609865271480        0.0000000000000000     
   5.6404143082944787E-002  0.10777653289046815        0.0000000000000000     
   5.7999976838617441E-002  0.11461391745415078        0.0000000000000000     
   5.9519616503021830E-002  0.12158506945060038        0.0000000000000000     
   6.0963062076157967E-002  0.12868998887981697        0.0000000000000000     
   6.2330313558025853E-002  0.13592867574180062        0.0000000000000000     
   5.0770748809696488E-002  0.10731619474384288        0.0000000000000000     
   5.2220660219091906E-002  0.11417380867204885        0.0000000000000000     
   5.3600854599909271E-002  0.12116534930718874        0.0000000000000000     
   5.4911331952148569E-002  0.12829081664926251        0.0000000000000000     
   5.6152092275809806E-002  0.13555021069827014        0.0000000000000000     
   4.5278639714623745E-002  0.10690124420218323        0.0000000000000000     
   4.6582817066317811E-002  0.11377718839218989        0.0000000000000000     
   4.7823672462343647E-002  0.12078741300884879        0.0000000000000000     
   4.9001205902701253E-002  0.12793191805215995        0.0000000000000000     
   5.0115417387390629E-002  0.13521070352212339        0.0000000000000000     
   3.9927815797726585E-002  0.10653168126548931        0.0000000000000000     
   4.1086447380295148E-002  0.11342405661457380        0.0000000000000000     
   4.2188070090324957E-002  0.12045126055558047        0.0000000000000000     
   4.3232683927816005E-002  0.12761329308850933        0.0000000000000000     
   4.4220288892768314E-002  0.13491015421336033        0.0000000000000000     
   6.8650081234038762E-002  0.13634609865271480        0.0000000000000000     
   7.0068148865684798E-002  0.14368420967478662        0.0000000000000000     
   7.1417734985743053E-002  0.15113141231906765        0.0000000000000000     
   7.2698839594213555E-002  0.15868770658555795        0.0000000000000000     
   7.3911462691096289E-002  0.16635309247425753        0.0000000000000000     
   6.2330313558025853E-002  0.13592867574180062        0.0000000000000000     
   6.3627087237474247E-002  0.14328899235792106        0.0000000000000000     
   6.4859099403351980E-002  0.15075880104954803        0.0000000000000000     
   6.6026350055658989E-002  0.15833810181668162        0.0000000000000000     
   6.7128839194395343E-002  0.16602689465932174        0.0000000000000000     
   5.6152092275809806E-002  0.13555021069827014        0.0000000000000000     
   5.7327762469384487E-002  0.14293148037276257        0.0000000000000000     
   5.8442969431364150E-002  0.15042257459129066        0.0000000000000000     
   5.9497713161748761E-002  0.15802349335385449        0.0000000000000000     
   6.0491993660538354E-002  0.16573423666045400        0.0000000000000000     
   5.0115417387390629E-002  0.13521070352212339        0.0000000000000000     
   5.1170174561415489E-002  0.14261167371931124        0.0000000000000000     
   5.2169345069779549E-002  0.15012273294429568        0.0000000000000000     
   5.3112928912482822E-002  0.15774388119707672        0.0000000000000000     
   5.4000926089525322E-002  0.16547511847765431        0.0000000000000000     
   4.4220288892768314E-002  0.13491015421336033        0.0000000000000000     
   4.5154323513567254E-002  0.14232957239756702        0.0000000000000000     
   4.6038226318598233E-002  0.14985927610856298        0.0000000000000000     
   4.6871997307861221E-002  0.15749926534634817        0.0000000000000000     
   4.7655636481356248E-002  0.16524954011092260        0.0000000000000000     
   7.3911462691096289E-002  0.16635309247425753        0.0000000000000000     
   7.5052042145969805E-002  0.17411785716910816        0.0000000000000000     
   7.6117015828412640E-002  0.18197228785405167        0.0000000000000000     
   7.7106383738424822E-002  0.18991638452908804        0.0000000000000000     
   7.8020145876006350E-002  0.19795014719421727        0.0000000000000000     
   6.7128839194395343E-002  0.16602689465932174        0.0000000000000000     
   6.8163348523264375E-002  0.17381498253777272        0.0000000000000000     
   6.9126659745969543E-002  0.18169216841233876        0.0000000000000000     
   7.0018772862510806E-002  0.18965845228301983        0.0000000000000000     
   7.0839687872888163E-002  0.19771383414981594        0.0000000000000000     
   6.0491993660538354E-002  0.16573423666045400        0.0000000000000000     
   6.1422766058012043E-002  0.17354427613560547        0.0000000000000000     
   6.2286985484448915E-002  0.18144308340382520        0.0000000000000000     
   6.3084651939849051E-002  0.18943065846511312        0.0000000000000000     
   6.3815765424212370E-002  0.19750700131946930        0.0000000000000000     
   5.4000926089525322E-002  0.16547511847765431        0.0000000000000000     
   5.4830294750212727E-002  0.17330573796260640        0.0000000000000000     
   5.5597993043850824E-002  0.18122503282851093        0.0000000000000000     
   5.6304020970439551E-002  0.18923300307536792        0.0000000000000000     
   5.6948378529978951E-002  0.19732964870317732        0.0000000000000000     
   4.7655636481356248E-002  0.16524954011092260        0.0000000000000000     
   4.8385934599866502E-002  0.17309936801877548        0.0000000000000000     
   4.9059682424175202E-002  0.18103801668639605        0.0000000000000000     
   4.9676879954282341E-002  0.18906548611378421        0.0000000000000000     
   5.0237527190187918E-002  0.19718177630094005        0.0000000000000000     
   7.8020145876006350E-002  0.19795014719421727        0.0000000000000000     
   7.8859581805998363E-002  0.20606638886484452        0.0000000000000000     
   7.9625971093242043E-002  0.21425792255637485        0.0000000000000000     
   8.0319313737737388E-002  0.22252474826880822        0.0000000000000000     
   8.0939609739484428E-002  0.23086686600214473        0.0000000000000000     
   7.0839687872888163E-002  0.19771383414981594        0.0000000000000000     
   7.1588198990088073E-002  0.20585196581376694        0.0000000000000000     
   7.2263100427096952E-002  0.21406649907591255        0.0000000000000000     
   7.2864392183914800E-002  0.22235743393625279        0.0000000000000000     
   7.3392074260541618E-002  0.23072477039478773        0.0000000000000000     
   6.3815765424212370E-002  0.19750700131946930        0.0000000000000000     
   6.4477751455401702E-002  0.20566580212624355        0.0000000000000000     
   6.5068035551279838E-002  0.21390075104478579        0.0000000000000000     
   6.5586617711846748E-002  0.22221184807509586        0.0000000000000000     
   6.6033497937102462E-002  0.23059909321717392        0.0000000000000000     
   5.6948378529978951E-002  0.19732964870317732        0.0000000000000000     
   5.7528239201939252E-002  0.20550789780227446        0.0000000000000000     
   5.8040776465790686E-002  0.21376067846299443        0.0000000000000000     
   5.8485990321533260E-002  0.22208799068533744        0.0000000000000000     
   5.8863880769166980E-002  0.23048983446930335        0.0000000000000000     
   5.0237527190187918E-002  0.19718177630094005        0.0000000000000000     
   5.0739662229700715E-002  0.20537825284185954        0.0000000000000000     
   5.1181323170629518E-002  0.21364628133053870        0.0000000000000000     
   5.1562510012974329E-002  0.22198586176697752        0.0000000000000000     
   5.1883222756735146E-002  0.23039699415117598        0.0000000000000000     
   8.0939609739484428E-002  0.23086686600214473        0.0000000000000000     
   8.1476130305638453E-002  0.23930490147576927        0.0000000000000000     
   8.1918146643354797E-002  0.24785948040906661        0.0000000000000000     
   8.2265658752633475E-002  0.25653060280203688        0.0000000000000000     
   8.2518666633474472E-002  0.26531826865468017        0.0000000000000000     
   7.3392074260541618E-002  0.23072477039478773        0.0000000000000000     
   7.3842825421261651E-002  0.23918220892479830        0.0000000000000000     
   7.4213324430359190E-002  0.24774344999956560        0.0000000000000000     
   7.4503571287834192E-002  0.25640849361908952        0.0000000000000000     
   7.4713565993686684E-002  0.26517733978337021        0.0000000000000000     
   6.6033497937102462E-002  0.23059909321717392        0.0000000000000000     
   6.6410945637479513E-002  0.23906905609505524        0.0000000000000000     
   6.6721230223410422E-002  0.24762830633277497        0.0000000000000000     
   6.6964351694895188E-002  0.25627684393033323        0.0000000000000000     
   6.7140310051933827E-002  0.26501466888773001        0.0000000000000000     
   5.8863880769166980E-002  0.23048983446930335        0.0000000000000000     
   5.9180490954291988E-002  0.23896544298653988        0.0000000000000000     
   5.9441864022508499E-002  0.24751404940869476        0.0000000000000000     
   5.9647999973816451E-002  0.25613565373576797        0.0000000000000000     
   5.9798898808215886E-002  0.26483025596775944        0.0000000000000000     
   5.1883222756735146E-002  0.23039699415117598        0.0000000000000000     
   5.2151461371699126E-002  0.23887136959925237        0.0000000000000000     
   5.2375225827653409E-002  0.24740067922732498        0.0000000000000000     
   5.2554516124597994E-002  0.25598492303539372        0.0000000000000000     
   5.2689332262532890E-002  0.26462410102345868        0.0000000000000000     
   8.2518666633474472E-002  0.26531826865468017        0.0000000000000000     
   8.2716171004846586E-002  0.27424886870637738        0.0000000000000000     
   8.2897172585718631E-002  0.28334879369650967        0.0000000000000000     
   8.3061671376090579E-002  0.29261804362507693        0.0000000000000000     
   8.3209667375962443E-002  0.30205661849207927        0.0000000000000000     
   7.4713565993686684E-002  0.26517733978337021        0.0000000000000000     
   7.4884263292494466E-002  0.27404363909735652        0.0000000000000000     
   7.5056617928835390E-002  0.28300104216599731        0.0000000000000000     
   7.5230629902709442E-002  0.29204954898929275        0.0000000000000000     
   7.5406299214116637E-002  0.30118915956724268        0.0000000000000000     
   6.7140310051933827E-002  0.26501466888773001        0.0000000000000000     
   6.7289354594415637E-002  0.27381191211803269        0.0000000000000000     
   6.7451734622229975E-002  0.28263870453430878        0.0000000000000000     
   6.7627450135376868E-002  0.29149504613655836        0.0000000000000000     
   6.7816501133856247E-002  0.30038093692478124        0.0000000000000000     
   5.9798898808215886E-002  0.26483025596775944        0.0000000000000000     
   5.9931444910610109E-002  0.27355368776840594        0.0000000000000000     
   6.0082522665902416E-002  0.28226178080144415        0.0000000000000000     
   6.0252132074092829E-002  0.29095453506687380        0.0000000000000000     
   6.0440273135181327E-002  0.29963195056469505        0.0000000000000000     
   5.2689332262532890E-002  0.26462410102345868        0.0000000000000000     
   5.2810534241077858E-002  0.27326896604847634        0.0000000000000000     
   5.2948982059852684E-002  0.28187027096740314        0.0000000000000000     
   5.3104675718857353E-002  0.29042801578023897        0.0000000000000000     
   5.3277615218091851E-002  0.29894220048698400        0.0000000000000000     
   2.8942403460651026E-002   5.7177518890359949E-002   0.0000000000000000     
   3.0524770087361722E-002   6.2734367189450940E-002   0.0000000000000000     
   3.2039209063236686E-002   6.8472996294260138E-002   0.0000000000000000     
   3.3485720388275922E-002   7.4393406204787529E-002   0.0000000000000000     
   3.4864304062479423E-002   8.0495596921033086E-002   0.0000000000000000     
   2.5105438614532020E-002   5.6765875539735097E-002   0.0000000000000000     
   2.6473919293064245E-002   6.2320414341245786E-002   0.0000000000000000     
   2.7788355118320889E-002   6.8062206115816842E-002   0.0000000000000000     
   2.9048746090301950E-002   7.3991250863448266E-002   0.0000000000000000     
   3.0255092209007420E-002   8.0107548584140043E-002   0.0000000000000000     
   2.1333587880065161E-002   5.6392003953514347E-002   0.0000000000000000     
   2.2499866794599907E-002   6.1951934797479270E-002   0.0000000000000000     
   2.3622228609514285E-002   6.7701642212405863E-002   0.0000000000000000     
   2.4700673324808305E-002   7.3641126198294105E-002   0.0000000000000000     
   2.5735200940481959E-002   7.9770386755144002E-002   0.0000000000000000     
   1.7626851257250449E-002   5.6055904131697698E-002   0.0000000000000000     
   1.8602612591968701E-002   6.1628928558151407E-002   0.0000000000000000     
   1.9540829536816882E-002   6.7391304584027173E-002   0.0000000000000000     
   2.0441502091794995E-002   7.3343032209325060E-002   0.0000000000000000     
   2.1304630256903032E-002   7.9484111434044991E-002   0.0000000000000000     
   1.3985228746087887E-002   5.5757576074285164E-002   0.0000000000000000     
   1.4782156685170633E-002   6.1351395623262167E-002   0.0000000000000000     
   1.5544157900228676E-002   6.7131193230680813E-002   0.0000000000000000     
   1.6271232391262016E-002   7.3096968896541090E-002   0.0000000000000000     
   1.6963380158270650E-002   7.9248722620842982E-002   0.0000000000000000     
   3.4864304062479423E-002   8.0495596921033086E-002   0.0000000000000000     
   3.6189238432521607E-002   8.6767663031890124E-002   0.0000000000000000     
   3.7474801845076858E-002   9.3197699126251823E-002   0.0000000000000000     
   3.8720994300145181E-002   9.9785705204118225E-002   0.0000000000000000     
   3.9927815797726585E-002  0.10653168126548931        0.0000000000000000     
   3.0255092209007420E-002   8.0107548584140043E-002   0.0000000000000000     
   3.1416820035320800E-002   8.6396150898370411E-002   0.0000000000000000     
   3.2543356130125566E-002   9.2842109426617622E-002   0.0000000000000000     
   3.3634700493421710E-002   9.9445424168881635E-002   0.0000000000000000     
   3.4690853125209233E-002  0.10620609512516246        0.0000000000000000     
   2.5735200940481959E-002   7.9770386755144002E-002   0.0000000000000000     
   2.6732448166304188E-002   8.6073041400483316E-002   0.0000000000000000     
   2.7699051712043930E-002   9.2532707651839782E-002   0.0000000000000000     
   2.8635011577701177E-002   9.9149385509213400E-002   0.0000000000000000     
   2.9540327763275934E-002  0.10592307497260420        0.0000000000000000     
   2.1304630256903032E-002   7.9484111434044991E-002   0.0000000000000000     
   2.2136122825471768E-002   8.5798334538228799E-002   0.0000000000000000     
   2.2941888590831957E-002   9.2269493801918331E-002   0.0000000000000000     
   2.3721927552983593E-002   9.8897589225113547E-002   0.0000000000000000     
   2.4476239711926692E-002  0.10568262080781447        0.0000000000000000     
   1.6963380158270650E-002   7.9248722620842982E-002   0.0000000000000000     
   1.7627844012823541E-002   8.5572030311606914E-002   0.0000000000000000     
   1.8271866766489644E-002   9.2052467876853269E-002   0.0000000000000000     
   1.8895448419268965E-002   9.8690035316582075E-002   0.0000000000000000     
   1.9498588971161503E-002  0.10548473263079332        0.0000000000000000     
   3.9927815797726585E-002  0.10653168126548931        0.0000000000000000     
   4.1086447380295148E-002  0.11342405661457380        0.0000000000000000     
   4.2188070090324957E-002  0.12045126055558047        0.0000000000000000     
   4.3232683927816005E-002  0.12761329308850933        0.0000000000000000     
   4.4220288892768314E-002  0.13491015421336033        0.0000000000000000     
   3.4690853125209233E-002  0.10620609512516246        0.0000000000000000     
   3.5704106636607259E-002  0.11311315221017301        0.0000000000000000     
   3.6666753638734909E-002  0.12015562533862612        0.0000000000000000     
   3.7578794131592166E-002  0.12733351451052174        0.0000000000000000     
   3.8440228115179040E-002  0.13464681972585998        0.0000000000000000     
   2.9540327763275934E-002  0.10592307497260420        0.0000000000000000     
   3.0408350310837509E-002  0.11284321404995980        0.0000000000000000     
   3.1232429262455206E-002  0.11989924074922786        0.0000000000000000     
   3.2012564618129034E-002  0.12709115507040841        0.0000000000000000     
   3.2748756377858970E-002  0.13441895701350143        0.0000000000000000     
   2.4476239711926692E-002  0.10568262080781447        0.0000000000000000     
   2.5199178402985901E-002  0.11261424213393417        0.0000000000000000     
   2.5885096961485870E-002  0.11968210678738578        0.0000000000000000     
   2.6533995387426613E-002  0.12688621476816922        0.0000000000000000     
   2.7145873680808123E-002  0.13422656607628458        0.0000000000000000     
   1.9498588971161503E-002  0.10548473263079332        0.0000000000000000     
   2.0076590913052424E-002  0.11242623646209618        0.0000000000000000     
   2.0624756735826890E-002  0.11950422345309984        0.0000000000000000     
   2.1143086439484905E-002  0.12671869360380428        0.0000000000000000     
   2.1631580024026476E-002  0.13406964691420956        0.0000000000000000     
   4.4220288892768314E-002  0.13491015421336033        0.0000000000000000     
   4.5154323513567254E-002  0.14232957239756702        0.0000000000000000     
   4.6038226318598233E-002  0.14985927610856298        0.0000000000000000     
   4.6871997307861221E-002  0.15749926534634817        0.0000000000000000     
   4.7655636481356248E-002  0.16524954011092260        0.0000000000000000     
   3.8440228115179040E-002  0.13464681972585998        0.0000000000000000     
   3.9254199329785931E-002  0.14208306673505816        0.0000000000000000     
   4.0023851515703243E-002  0.14962978128853369        0.0000000000000000     
   4.0749184672930983E-002  0.15728696338628650        0.0000000000000000     
   4.1430198801469122E-002  0.16505461302831667        0.0000000000000000     
   3.2748756377858970E-002  0.13441895701350143        0.0000000000000000     
   3.3443792014017662E-002  0.14187004705931291        0.0000000000000000     
   3.4100458998977720E-002  0.14943182568864888        0.0000000000000000     
   3.4718757332739138E-002  0.15710429290150929        0.0000000000000000     
   3.5298687015301936E-002  0.16488744869789418        0.0000000000000000     
   2.7145873680808123E-002  0.13422656607628458        0.0000000000000000     
   2.7723101566262450E-002  0.14169051337033123        0.0000000000000000     
   2.8268048768421653E-002  0.14926540930890855        0.0000000000000000     
   2.8780715287285728E-002  0.15695125389201656        0.0000000000000000     
   2.9261101122854676E-002  0.16474804711965524        0.0000000000000000     
   2.1631580024026476E-002  0.13406964691420956        0.0000000000000000     
   2.2092127986520289E-002  0.14154446566811318        0.0000000000000000     
   2.2526620824035039E-002  0.14913053214931279        0.0000000000000000     
   2.2935058536570727E-002  0.15682784635780828        0.0000000000000000     
   2.3317441124127359E-002  0.16463640829359974        0.0000000000000000     
   4.7655636481356248E-002  0.16524954011092260        0.0000000000000000     
   4.8385934599866502E-002  0.17309936801877548        0.0000000000000000     
   4.9059682424175202E-002  0.18103801668639605        0.0000000000000000     
   4.9676879954282341E-002  0.18906548611378421        0.0000000000000000     
   5.0237527190187918E-002  0.19718177630094005        0.0000000000000000     
   4.1430198801469122E-002  0.16505461302831667        0.0000000000000000     
   4.2063549426410440E-002  0.17292197993733194        0.0000000000000000     
   4.2645892072847684E-002  0.18087831383604003        0.0000000000000000     
   4.3177226740780845E-002  0.18892361472444094        0.0000000000000000     
   4.3657553430209925E-002  0.19705788260253468        0.0000000000000000     
   3.5298687015301936E-002  0.16488744869789418        0.0000000000000000     
   3.5837003049281647E-002  0.17277038735149486        0.0000000000000000     
   3.6330460437293835E-002  0.18074220313600245        0.0000000000000000     
   3.6779059179338498E-002  0.18880289605141695        0.0000000000000000     
   3.7182799275415644E-002  0.19695246609773845        0.0000000000000000     
   2.9261101122854676E-002  0.16474804711965524        0.0000000000000000     
   2.9706295468480116E-002  0.17264459026126427        0.0000000000000000     
   3.0113387517513666E-002  0.18062968458628331        0.0000000000000000     
   3.0482377269955310E-002  0.18870333009471235        0.0000000000000000     
   3.0813264725805065E-002  0.19686552678655136        0.0000000000000000     
   2.3317441124127359E-002  0.16463640829359974        0.0000000000000000     
   2.3671426684005858E-002  0.17254458866664019        0.0000000000000000     
   2.3994673313507166E-002  0.18054075818688264        0.0000000000000000     
   2.4287181012631276E-002  0.18862491685432706        0.0000000000000000     
   2.4548949781378199E-002  0.19679706466897348        0.0000000000000000     
   5.0237527190187918E-002  0.19718177630094005        0.0000000000000000     
   5.0739662229700715E-002  0.20537825284185954        0.0000000000000000     
   5.1181323170629518E-002  0.21364628133053870        0.0000000000000000     
   5.1562510012974329E-002  0.22198586176697752        0.0000000000000000     
   5.1883222756735146E-002  0.23039699415117598        0.0000000000000000     
   4.3657553430209925E-002  0.19705788260253468        0.0000000000000000     
   4.4086151728913302E-002  0.20527059415256682        0.0000000000000000     
   4.4462301224669327E-002  0.21355122605678287        0.0000000000000000     
   4.4786001917478023E-002  0.22189977831518282        0.0000000000000000     
   4.5057253807339381E-002  0.23031625092776667        0.0000000000000000     
   3.7182799275415644E-002  0.19695246609773845        0.0000000000000000     
   3.7541838889804204E-002  0.20517864864196420        0.0000000000000000     
   3.7856336186783128E-002  0.21346917905109142        0.0000000000000000     
   3.8126291166352425E-002  0.22182405732512012        0.0000000000000000     
   3.8351703828512072E-002  0.23024328346405032        0.0000000000000000     
   3.0813264725805065E-002  0.19686552678655136        0.0000000000000000     
   3.1106723712373434E-002  0.20510241631005166        0.0000000000000000     
   3.1363428056970913E-002  0.21340014031346433        0.0000000000000000     
   3.1583377759597513E-002  0.22175869879678939        0.0000000000000000     
   3.1766572820253226E-002  0.23017809176002688        0.0000000000000000     
   2.4548949781378199E-002  0.19679706466897348        0.0000000000000000     
   2.4780806196620982E-002  0.20504189715682924        0.0000000000000000     
   2.4983576835232682E-002  0.21334410984390162        0.0000000000000000     
   2.5157261697213301E-002  0.22170370273019069        0.0000000000000000     
   2.5301860782562840E-002  0.23012067581569634        0.0000000000000000     
   5.1883222756735146E-002  0.23039699415117598        0.0000000000000000     
   5.2151461371699126E-002  0.23887136959925237        0.0000000000000000     
   5.2375225827653409E-002  0.24740067922732498        0.0000000000000000     
   5.2554516124597994E-002  0.25598492303539372        0.0000000000000000     
   5.2689332262532890E-002  0.26462410102345868        0.0000000000000000     
   4.5057253807339381E-002  0.23031625092776667        0.0000000000000000     
   4.5284733165324081E-002  0.23878540398618112        0.0000000000000000     
   4.5477116262502823E-002  0.24729199758207268        0.0000000000000000     
   4.5634403098875592E-002  0.25583603171544150        0.0000000000000000     
   4.5756593674442403E-002  0.26441750638628747        0.0000000000000000     
   3.8351703828512072E-002  0.23024328346405032        0.0000000000000000     
   3.8541182610790065E-002  0.23870611420031446        0.0000000000000000     
   3.8703335950714381E-002  0.24719180626634507        0.0000000000000000     
   3.8838163848285021E-002  0.25570035966214211        0.0000000000000000     
   3.8945666303501991E-002  0.26423177438770562        0.0000000000000000     
   3.1766572820253226E-002  0.23017809176002688        0.0000000000000000     
   3.1920809708097075E-002  0.23863350024165253        0.0000000000000000     
   3.2053884892288102E-002  0.24710010528014209        0.0000000000000000     
   3.2165798372826286E-002  0.25557790687549570        0.0000000000000000     
   3.2256550149711641E-002  0.26406690502771313        0.0000000000000000     
   2.5301860782562840E-002  0.23012067581569634        0.0000000000000000     
   2.5423614457245121E-002  0.23856756211019522        0.0000000000000000     
   2.5528763087223967E-002  0.24701689462346380        0.0000000000000000     
   2.5617306672499389E-002  0.25546867335550211        0.0000000000000000     
   2.5689245213071369E-002  0.26392289830631011        0.0000000000000000     
   5.2689332262532890E-002  0.26462410102345868        0.0000000000000000     
   5.2810534241077858E-002  0.27326896604847634        0.0000000000000000     
   5.2948982059852684E-002  0.28187027096740314        0.0000000000000000     
   5.3104675718857353E-002  0.29042801578023897        0.0000000000000000     
   5.3277615218091851E-002  0.29894220048698400        0.0000000000000000     
   4.5756593674442403E-002  0.26441750638628747        0.0000000000000000     
   4.5867866726180470E-002  0.27298645390534770        0.0000000000000000     
   4.5992400991067016E-002  0.28149290658335929        0.0000000000000000     
   4.6130196469102026E-002  0.28993686442032218        0.0000000000000000     
   4.6281253160285529E-002  0.29831832741623637        0.0000000000000000     
   3.8945666303501991E-002  0.26423177438770562        0.0000000000000000     
   3.9044686506279458E-002  0.27273485828612409        0.0000000000000000     
   3.9154067646531621E-002  0.28115841920048601        0.0000000000000000     
   3.9273809724258486E-002  0.28950245713079148        0.0000000000000000     
   3.9403912739460041E-002  0.29776697207704045        0.0000000000000000     
   3.2256550149711641E-002  0.26406690502771313        0.0000000000000000     
   3.2340993581374822E-002  0.27251417919080551        0.0000000000000000     
   3.2433982026246519E-002  0.28086680881878340        0.0000000000000000     
   3.2535515484326719E-002  0.28912479391164697        0.0000000000000000     
   3.2645593955615414E-002  0.29728813446939623        0.0000000000000000     
   2.5689245213071369E-002  0.26392289830631011        0.0000000000000000     
   2.5756787951466582E-002  0.27232441661939183        0.0000000000000000     
   2.5832144130211700E-002  0.28061807543825129        0.0000000000000000     
   2.5915313749306720E-002  0.28880387476288855        0.0000000000000000     
   2.6006296808751633E-002  0.29688181459330365        0.0000000000000000     
   1.3985228746087887E-002   5.5757576074285164E-002   0.0000000000000000     
   1.4782156685170633E-002   6.1351395623262167E-002   0.0000000000000000     
   1.5544157900228676E-002   6.7131193230680813E-002   0.0000000000000000     
   1.6271232391262016E-002   7.3096968896541090E-002   0.0000000000000000     
   1.6963380158270650E-002   7.9248722620842982E-002   0.0000000000000000     
   1.0405547110840949E-002   5.5522576542333751E-002   0.0000000000000000     
   1.1022579181473683E-002   6.1135150139418733E-002   0.0000000000000000     
   1.1607479014202483E-002   6.6930115203534771E-002   0.0000000000000000     
   1.2160246609027347E-002   7.2907471734681858E-002   0.0000000000000000     
   1.2680881965948283E-002   7.9067219732860003E-002   0.0000000000000000     
   6.8846331157731127E-003   5.5376462296900512E-002   0.0000000000000000     
   7.3079601881458310E-003   6.0996006253228249E-002   0.0000000000000000     
   7.7060581931911228E-003   6.6796877553757072E-002   0.0000000000000000     
   8.0789271309089847E-003   7.2779076198486989E-002   0.0000000000000000     
   8.4265670012994166E-003   7.8942602187418040E-002   0.0000000000000000     
   3.4224867608843804E-003   5.5319233337985434E-002   0.0000000000000000     
   3.6382997051870813E-003   6.0933963964690689E-002   0.0000000000000000     
   3.8398954371945937E-003   6.6731480281347719E-002   0.0000000000000000     
   4.0272739569069170E-003   7.2711782287956522E-002   0.0000000000000000     
   4.2004352643240529E-003   7.8874869984517121E-002   0.0000000000000000     
   1.9108046174750107E-005   5.5350889665588515E-002   0.0000000000000000     
   1.3597732597430160E-005   6.0949023273806073E-002   0.0000000000000000     
   8.9907462128969821E-006   6.6733923386306709E-002   0.0000000000000000     
   5.2870870211495962E-006   7.2705590003090431E-002   0.0000000000000000     
   2.4867550221883278E-006   7.8864023124157231E-002   0.0000000000000000     
   1.6963380158270650E-002   7.9248722620842982E-002   0.0000000000000000     
   1.7627844012823541E-002   8.5572030311606914E-002   0.0000000000000000     
   1.8271866766489644E-002   9.2052467876853269E-002   0.0000000000000000     
   1.8895448419268965E-002   9.8690035316582075E-002   0.0000000000000000     
   1.9498588971161503E-002  0.10548473263079332        0.0000000000000000     
   1.2680881965948283E-002   7.9067219732860003E-002   0.0000000000000000     
   1.3177941165301889E-002   8.5396926357760042E-002   0.0000000000000000     
   1.3659980287424774E-002   9.1884158769072841E-002   0.0000000000000000     
   1.4126999332316934E-002   9.8528916966798372E-002   0.0000000000000000     
   1.4578998299978373E-002  0.10533120095093668        0.0000000000000000     
   8.4265670012994166E-003   7.8942602187418040E-002   0.0000000000000000     
   8.7567437198492002E-003   8.5275820313830644E-002   0.0000000000000000     
   9.0772232020451104E-003   9.1767095371005233E-002   0.0000000000000000     
   9.3880054478871489E-003   9.8416427358941849E-002   0.0000000000000000     
   9.6890904573753121E-003  0.10522381627764046        0.0000000000000000     
   4.2004352643240529E-003   7.8874869984517121E-002   0.0000000000000000     
   4.3642516764654752E-003   8.5208712179818721E-002   0.0000000000000000     
   4.5235955103506585E-003   9.1701277682650503E-002   0.0000000000000000     
   4.6784667659796079E-003   9.8352566493012508E-002   0.0000000000000000     
   4.8288654433523183E-003  0.10516257861090469        0.0000000000000000     
   2.4867550221883278E-006   7.8864023124157231E-002   0.0000000000000000     
   4.6503515071225944E-007   8.5195601955724246E-002   0.0000000000000000     
  -9.0278765857952636E-007   9.1686705704008609E-002   0.0000000000000000     
  -1.6167134056852949E-006   9.8337334369010335E-002   0.0000000000000000     
  -1.6767420906085156E-006  0.10514748795072940        0.0000000000000000     
   1.9498588971161503E-002  0.10548473263079332        0.0000000000000000     
   2.0076590913052424E-002  0.11242623646209618        0.0000000000000000     
   2.0624756735826890E-002  0.11950422345309984        0.0000000000000000     
   2.1143086439484905E-002  0.12671869360380428        0.0000000000000000     
   2.1631580024026476E-002  0.13406964691420956        0.0000000000000000     
   1.4578998299978373E-002  0.10533120095093668        0.0000000000000000     
   1.5012246683061791E-002  0.11228057356573408        0.0000000000000000     
   1.5423013974219886E-002  0.11936659765543703        0.0000000000000000     
   1.5811300173452655E-002  0.12658927322004548        0.0000000000000000     
   1.6177105280760107E-002  0.13394860025955949        0.0000000000000000     
   9.6890904573753121E-003  0.10522381627764046        0.0000000000000000     
   9.9778045550387180E-003  0.11217862997613623        0.0000000000000000     
   1.0251474065406481E-002  0.11927023630346437        0.0000000000000000     
   1.0510098988478598E-002  0.12649863525962485        0.0000000000000000     
   1.0753679324255071E-002  0.13386382684461767        0.0000000000000000     
   4.8288654433523183E-003  0.10516257861090469        0.0000000000000000     
   4.9732645289832043E-003  0.11212040569330263        0.0000000000000000     
   5.1101370093866727E-003  0.11921513939718185        0.0000000000000000     
   5.2394828845627314E-003  0.12644677972254234        0.0000000000000000     
   5.3613021545113725E-003  0.13381532666938412        0.0000000000000000     
  -1.6767420906085156E-006  0.10514748795072940        0.0000000000000000     
  -1.3733951047562466E-006  0.11210590071723329        0.0000000000000000     
  -9.9719383953467827E-007  0.11920130693658949        0.0000000000000000     
  -5.4813829494597920E-007  0.12643370660879799        0.0000000000000000     
  -2.6228470989281966E-008  0.13380309973385873        0.0000000000000000     
   2.1631580024026476E-002  0.13406964691420956        0.0000000000000000     
   2.2092127986520289E-002  0.14154446566811318        0.0000000000000000     
   2.2526620824035039E-002  0.14913053214931279        0.0000000000000000     
   2.2935058536570727E-002  0.15682784635780828        0.0000000000000000     
   2.3317441124127359E-002  0.16463640829359974        0.0000000000000000     
   1.6177105280760107E-002  0.13394860025955949        0.0000000000000000     
   1.6521810750041652E-002  0.14143199869526177        0.0000000000000000     
   1.6846798035196706E-002  0.14902688844843512        0.0000000000000000     
   1.7152067136225285E-002  0.15673326951907948        0.0000000000000000     
   1.7437618053127373E-002  0.16455114190719494        0.0000000000000000     
   1.0753679324255071E-002  0.13386382684461767        0.0000000000000000     
   1.0983089332076999E-002  0.14135320719438008        0.0000000000000000     
   1.1199203271285485E-002  0.14895417244484926        0.0000000000000000     
   1.1402021141880525E-002  0.15666672259602521        0.0000000000000000     
   1.1591542943862124E-002  0.16449085764790800        0.0000000000000000     
   5.3613021545113725E-003  0.13381532666938412        0.0000000000000000     
   5.4759637326263393E-003  0.14130809116546805        0.0000000000000000     
   5.5838365323013679E-003  0.14891238413855515        0.0000000000000000     
   5.6849205535364567E-003  0.15662820558864546        0.0000000000000000     
   5.7792157963316082E-003  0.16445555551573884        0.0000000000000000     
  -2.6228470989281966E-008  0.13380309973385873        0.0000000000000000     
   4.3395168966716378E-007  0.14129665060852575        0.0000000000000000     
   6.9781824435510842E-007  0.14890152352955288        0.0000000000000000     
   7.6537119307585298E-007  0.15661771849694014        0.0000000000000000     
   6.3661053582939747E-007  0.16444523551068760        0.0000000000000000     
   2.3317441124127359E-002  0.16463640829359974        0.0000000000000000     
   2.3671426684005858E-002  0.17254458866664019        0.0000000000000000     
   2.3994673313507166E-002  0.18054075818688264        0.0000000000000000     
   2.4287181012631276E-002  0.18862491685432706        0.0000000000000000     
   2.4548949781378199E-002  0.19679706466897348        0.0000000000000000     
   1.7437618053127373E-002  0.16455114190719494        0.0000000000000000     
   1.7701778091082594E-002  0.17246848490236133        0.0000000000000000     
   1.7942874555270574E-002  0.18047327779415853        0.0000000000000000     
   1.8160907445691304E-002  0.18856552058258660        0.0000000000000000     
   1.8355876762344788E-002  0.19674521326764549        0.0000000000000000     
   1.1591542943862124E-002  0.16449085764790800        0.0000000000000000     
   1.1766731084934055E-002  0.17241438130316636        0.0000000000000000     
   1.1926547972800112E-002  0.18042509726446920        0.0000000000000000     
   1.2070993607460292E-002  0.18852300553181653        0.0000000000000000     
   1.2200067988914593E-002  0.19670810610520831        0.0000000000000000     
   5.7792157963316082E-003  0.16445555551573884        0.0000000000000000     
   5.8662856655602438E-003  0.17238227786905527        0.0000000000000000     
   5.9456935660957885E-003  0.18039621659781463        0.0000000000000000     
   6.0174394979382448E-003  0.18849737170201683        0.0000000000000000     
   6.0815234610876083E-003  0.19668574318166190        0.0000000000000000     
   6.3661053582939747E-007  0.16444523551068760        0.0000000000000000     
   4.4183296115654289E-007  0.17237217460002816        0.0000000000000000     
   3.1133515760080072E-007  0.18038663579419476        0.0000000000000000     
   2.4511712516078863E-007  0.18848861909318745        0.0000000000000000     
   2.4317886383696738E-007  0.19667812449700625        0.0000000000000000     
   2.4548949781378199E-002  0.19679706466897348        0.0000000000000000     
   2.4780806196620982E-002  0.20504189715682924        0.0000000000000000     
   2.4983576835232682E-002  0.21334410984390162        0.0000000000000000     
   2.5157261697213301E-002  0.22170370273019069        0.0000000000000000     
   2.5301860782562840E-002  0.23012067581569634        0.0000000000000000     
   1.8355876762344788E-002  0.19674521326764549        0.0000000000000000     
   1.8528533243738092E-002  0.20499581649716642        0.0000000000000000     
   1.8679627628378288E-002  0.21330079091898058        0.0000000000000000     
   1.8809159916265368E-002  0.22166013653308789        0.0000000000000000     
   1.8917130107399337E-002  0.23007385333948840        0.0000000000000000     
   1.2200067988914593E-002  0.19670810610520831        0.0000000000000000     
   1.2314351754916021E-002  0.20496289964593287        0.0000000000000000     
   1.2414425543217585E-002  0.21326988681527842        0.0000000000000000     
   1.2500289353819286E-002  0.22162906761324497        0.0000000000000000     
   1.2571943186721123E-002  0.23004044203983251        0.0000000000000000     
   6.0815234610876083E-003  0.19668574318166190        0.0000000000000000     
   6.1382617301547595E-003  0.20494314660312846        0.0000000000000000     
   6.1879705797505775E-003  0.21325139753279518        0.0000000000000000     
   6.2306500098750573E-003  0.22161049597066193        0.0000000000000000     
   6.2663000205282040E-003  0.23002044191672882        0.0000000000000000     
   2.4317886383696738E-007  0.19667812449700625        0.0000000000000000     
   2.6316945430878737E-007  0.20493655736875330        0.0000000000000000     
   2.6273797725840948E-007  0.21324532307153082        0.0000000000000000     
   2.4188443268054823E-007  0.22160442160533883        0.0000000000000000     
   2.0060882058000121E-007  0.23001385297017723        0.0000000000000000     
   2.5301860782562840E-002  0.23012067581569634        0.0000000000000000     
   2.5423614457245121E-002  0.23856756211019522        0.0000000000000000     
   2.5528763087223967E-002  0.24701689462346380        0.0000000000000000     
   2.5617306672499389E-002  0.25546867335550211        0.0000000000000000     
   2.5689245213071369E-002  0.26392289830631011        0.0000000000000000     
   1.8917130107399337E-002  0.23007385333948840        0.0000000000000000     
   1.9007943546985137E-002  0.23851279039975248        0.0000000000000000     
   1.9086005580227727E-002  0.24694779677545070        0.0000000000000000     
   1.9151316207127105E-002  0.25537887246658292        0.0000000000000000     
   1.9203875427683266E-002  0.26380601747314930        0.0000000000000000     
   1.2571943186721123E-002  0.23004044203983251        0.0000000000000000     
   1.2632143666068071E-002  0.23847367570413427        0.0000000000000000     
   1.2683647416005103E-002  0.24689843421524338        0.0000000000000000     
   1.2726454436532223E-002  0.25531471757315988        0.0000000000000000     
   1.2760564727649429E-002  0.26372252577788369        0.0000000000000000     
   6.2663000205282040E-003  0.23002044191672882        0.0000000000000000     
   6.2962148144939155E-003  0.23845021802334052        0.0000000000000000     
   6.3216885945560960E-003  0.24686880694284188        0.0000000000000000     
   6.3427213607147419E-003  0.25527620867523276        0.0000000000000000     
   6.3593131129698549E-003  0.26367242322051326        0.0000000000000000     
   2.0060882058000121E-007  0.23001385297017723        0.0000000000000000     
   1.5699226268051265E-007  0.23844241735737129        0.0000000000000000     
   1.2911588070691100E-007  0.24685891495824611        0.0000000000000000     
   1.1697967466206939E-007  0.25526334577280169        0.0000000000000000     
   1.2058364454387363E-007  0.26365570980103803        0.0000000000000000     
   2.5689245213071369E-002  0.26392289830631011        0.0000000000000000     
   2.5756787951466582E-002  0.27232441661939183        0.0000000000000000     
   2.5832144130211700E-002  0.28061807543825129        0.0000000000000000     
   2.5915313749306720E-002  0.28880387476288855        0.0000000000000000     
   2.6006296808751633E-002  0.29688181459330365        0.0000000000000000     
   1.9203875427683266E-002  0.26380601747314930        0.0000000000000000     
   1.9253650256696606E-002  0.27217190189075152        0.0000000000000000     
   1.9310607708967500E-002  0.28041919581499153        0.0000000000000000     
   1.9374747784495959E-002  0.28854789924586932        0.0000000000000000     
   1.9446070483281973E-002  0.29655801218338496        0.0000000000000000     
   1.2760564727649429E-002  0.26372252577788369        0.0000000000000000     
   1.2793161137206761E-002  0.27206296632375299        0.0000000000000000     
   1.2831426513054250E-002  0.28027714670510590        0.0000000000000000     
   1.2875360855191902E-002  0.28836506692194236        0.0000000000000000     
   1.2924964163619716E-002  0.29632672697426254        0.0000000000000000     
   6.3593131129698549E-003  0.26367242322051326        0.0000000000000000     
   6.3753205929970528E-003  0.27199760991839622        0.0000000000000000     
   6.3946005424719513E-003  0.28019192810859422        0.0000000000000000     
   6.4171529613945514E-003  0.28825537779110766        0.0000000000000000     
   6.4429778497648521E-003  0.29618795896593630        0.0000000000000000     
   1.2058364454387363E-007  0.26365570980103803        0.0000000000000000     
   1.2862406748069891E-007  0.27197583267468112        0.0000000000000000     
   1.2979722060081200E-007  0.28016354002545679        0.0000000000000000     
   1.2410310390169213E-007  0.28821883185336516        0.0000000000000000     
   1.1154171738678165E-007  0.29614170815840618        0.0000000000000000     
   1.9108046174750107E-005   5.5350889665588515E-002   0.0000000000000000     
   1.3597732597430160E-005   6.0949023273806073E-002   0.0000000000000000     
   8.9907462128969821E-006   6.6733923386306709E-002   0.0000000000000000     
   5.2870870211495962E-006   7.2705590003090431E-002   0.0000000000000000     
   2.4867550221883278E-006   7.8864023124157231E-002   0.0000000000000000     
  -3.3875257488740511E-003   5.5435458051777742E-002   0.0000000000000000     
  -3.6132943150253821E-003   6.1016328504985749E-002   0.0000000000000000     
  -3.8232508307886048E-003   6.6787782550467231E-002   0.0000000000000000     
  -4.0173952961637185E-003   7.2749820188222195E-002   0.0000000000000000     
  -4.1957277111507240E-003   7.8902441418250646E-002   0.0000000000000000     
  -6.8594373447802975E-003   5.5536965268621077E-002   0.0000000000000000     
  -7.2895250230836190E-003   6.1111023982641052E-002   0.0000000000000000     
  -7.6934242448445482E-003   6.6876633455662485E-002   0.0000000000000000     
  -8.0711350100630859E-003   7.2833793687685361E-002   0.0000000000000000     
  -8.4226573187392330E-003   7.8982504678709681E-002   0.0000000000000000     
  -1.0396626741543990E-002   5.5655411316118536E-002   0.0000000000000000     
  -1.1015094391577281E-002   6.1233109706771982E-002   0.0000000000000000     
  -1.1601529495954934E-002   6.7000476101892442E-002   0.0000000000000000     
  -1.2155932054676952E-002   7.2957510501479902E-002   0.0000000000000000     
  -1.2678302067743334E-002   7.9104212905534335E-002   0.0000000000000000     
  -1.3999093939165127E-002   5.5790796194270097E-002   0.0000000000000000     
  -1.4790002420506362E-002   6.1382585677378539E-002   0.0000000000000000     
  -1.5547566584119762E-002   6.7159310489157104E-002   0.0000000000000000     
  -1.6271786430005319E-002   7.3120970629605792E-002   0.0000000000000000     
  -1.6962661958163035E-002   7.9267566098724582E-002   0.0000000000000000     
   2.4867550221883278E-006   7.8864023124157231E-002   0.0000000000000000     
   4.6503515071225944E-007   8.5195601955724246E-002   0.0000000000000000     
  -9.0278765857952636E-007   9.1686705704008609E-002   0.0000000000000000     
  -1.6167134056852949E-006   9.8337334369010335E-002   0.0000000000000000     
  -1.6767420906085156E-006  0.10514748795072940        0.0000000000000000     
  -4.1957277111507240E-003   7.8902441418250646E-002   0.0000000000000000     
  -4.3633099091419754E-003   8.5230409623504394E-002   0.0000000000000000     
  -4.5252037235298257E-003   9.1718488186935260E-002   0.0000000000000000     
  -4.6814091543142793E-003   9.8366677108543257E-002   0.0000000000000000     
  -4.8319262014953294E-003  0.10517497638832836        0.0000000000000000     
  -8.4226573187392330E-003   7.8982504678709681E-002   0.0000000000000000     
  -8.7557668614594748E-003   8.5307055165116330E-002   0.0000000000000000     
  -9.0782393288102985E-003   9.1791733883286181E-002   0.0000000000000000     
  -9.3900747207917093E-003   9.8436540833219177E-002   0.0000000000000000     
  -9.6912730374037054E-003  0.10524147601491539        0.0000000000000000     
  -1.2678302067743334E-002   7.9104212905534335E-002   0.0000000000000000     
  -1.3176905821801786E-002   8.5425538580560054E-002   0.0000000000000000     
  -1.3660009603500001E-002   9.1906442793061316E-002   0.0000000000000000     
  -1.4127613412837983E-002   9.8546925543038108E-002   0.0000000000000000     
  -1.4579717249815733E-002  0.10534698683049044        0.0000000000000000     
  -1.6962661958163035E-002   7.9267566098724582E-002   0.0000000000000000     
  -1.7626726790168905E-002   8.5585859869835565E-002   0.0000000000000000     
  -1.8270514547598926E-002   9.2062614916260707E-002   0.0000000000000000     
  -1.8894025230453096E-002   9.8697831238000050E-002   0.0000000000000000     
  -1.9497258838731414E-002  0.10549150883505359        0.0000000000000000     
  -1.6767420906085156E-006  0.10514748795072940        0.0000000000000000     
  -1.3733951047562466E-006  0.11210590071723329        0.0000000000000000     
  -9.9719383953467827E-007  0.11920130693658949        0.0000000000000000     
  -5.4813829494597920E-007  0.12643370660879799        0.0000000000000000     
  -2.6228470989281966E-008  0.13380309973385873        0.0000000000000000     
  -4.8319262014953294E-003  0.10517497638832836        0.0000000000000000     
  -4.9757669456928933E-003  0.11213183830652672        0.0000000000000000     
  -5.1119434675268799E-003  0.11922571514337445        0.0000000000000000     
  -5.2404557669972918E-003  0.12645660689887153        0.0000000000000000     
  -5.3613038441041273E-003  0.13382451357301800        0.0000000000000000     
  -9.6912730374037054E-003  0.10524147601491539        0.0000000000000000     
  -9.9795738512489449E-003  0.11219494171978141        0.0000000000000000     
  -1.0252716734930101E-002  0.11928534023922387        0.0000000000000000     
  -1.0510701688447170E-002  0.12651267157324284        0.0000000000000000     
  -1.0753528711800152E-002  0.13387693572183820        0.0000000000000000     
  -1.4579717249815733E-002  0.10534698683049044        0.0000000000000000     
  -1.5012794111772913E-002  0.11229521095699735        0.0000000000000000     
  -1.5423316996049196E-002  0.11938018222413781        0.0000000000000000     
  -1.5811285902644578E-002  0.12660190063191182        0.0000000000000000     
  -1.6176700831559060E-002  0.13396036618031940        0.0000000000000000     
  -1.9497258838731414E-002  0.10549150883505359        0.0000000000000000     
  -2.0075427727264800E-002  0.11243264601817457        0.0000000000000000     
  -2.0623744250884167E-002  0.11951024109811624        0.0000000000000000     
  -2.1142208409589521E-002  0.12672429407487856        0.0000000000000000     
  -2.1630820203380856E-002  0.13407480494846155        0.0000000000000000     
  -2.6228470989281966E-008  0.13380309973385873        0.0000000000000000     
   4.3395168966716378E-007  0.14129665060852575        0.0000000000000000     
   6.9781824435510842E-007  0.14890152352955288        0.0000000000000000     
   7.6537119307585298E-007  0.15661771849694014        0.0000000000000000     
   6.3661053582939747E-007  0.16444523551068760        0.0000000000000000     
  -5.3613038441041273E-003  0.13382451357301800        0.0000000000000000     
  -5.4751085555475075E-003  0.14131647510659398        0.0000000000000000     
  -5.5824907580275512E-003  0.14891953144037967        0.0000000000000000     
  -5.6834504515442651E-003  0.15663368257437496        0.0000000000000000     
  -5.7779876360976468E-003  0.16445892850857999        0.0000000000000000     
  -1.0753528711800152E-002  0.13387693572183820        0.0000000000000000     
  -1.0982272333899670E-002  0.14136515424271368        0.0000000000000000     
  -1.1198007083656364E-002  0.14896434869357275        0.0000000000000000     
  -1.1400732961070220E-002  0.15667451907441546        0.0000000000000000     
  -1.1590449966141251E-002  0.16449566538524177        0.0000000000000000     
  -1.6176700831559060E-002  0.13396036618031940        0.0000000000000000     
  -1.6521057383366823E-002  0.14144268801688481        0.0000000000000000     
  -1.6845851158642070E-002  0.14903597528913218        0.0000000000000000     
  -1.7151082157384791E-002  0.15674022799706161        0.0000000000000000     
  -1.7436750379594985E-002  0.16455544614067300        0.0000000000000000     
  -2.1630820203380856E-002  0.13407480494846155        0.0000000000000000     
  -2.2091463703948974E-002  0.14154907642910730        0.0000000000000000     
  -2.2526022982984686E-002  0.14913441122705792        0.0000000000000000     
  -2.2934498040487975E-002  0.15683080934231336        0.0000000000000000     
  -2.3316888876458854E-002  0.16463827077487364        0.0000000000000000     
   6.3661053582939747E-007  0.16444523551068760        0.0000000000000000     
   4.4183296115654289E-007  0.17237217460002816        0.0000000000000000     
   3.1133515760080072E-007  0.18038663579419476        0.0000000000000000     
   2.4511712516078863E-007  0.18848861909318745        0.0000000000000000     
   2.4317886383696738E-007  0.19667812449700625        0.0000000000000000     
  -5.7779876360976468E-003  0.16445892850857999        0.0000000000000000     
  -5.8654231024975511E-003  0.17238367605719382        0.0000000000000000     
  -5.9450776415538370E-003  0.18039633203441560        0.0000000000000000     
  -6.0169512532665106E-003  0.18849689644024539        0.0000000000000000     
  -6.0810439376355642E-003  0.19668536927468314        0.0000000000000000     
  -1.1590449966141251E-002  0.16449566538524177        0.0000000000000000     
  -1.1765931830450223E-002  0.17241638680166119        0.0000000000000000     
  -1.1925952285577912E-002  0.18042528249928305        0.0000000000000000     
  -1.2070511331524317E-002  0.18852235247810745        0.0000000000000000     
  -1.2199608968289437E-002  0.19670759673813437        0.0000000000000000     
  -1.7436750379594985E-002  0.16455544614067300        0.0000000000000000     
  -1.7701084350896863E-002  0.17247030683343026        0.0000000000000000     
  -1.7942312596914620E-002  0.18047348718879716        0.0000000000000000     
  -1.8160435117648262E-002  0.18856498720677370        0.0000000000000000     
  -1.8355451913097783E-002  0.19674480688735985        0.0000000000000000     
  -2.3316888876458854E-002  0.16463827077487364        0.0000000000000000     
  -2.3670880663837462E-002  0.17254543615250106        0.0000000000000000     
  -2.3994158575563956E-002  0.18054094610295787        0.0000000000000000     
  -2.4286722611638341E-002  0.18862480062624409        0.0000000000000000     
  -2.4548572772060608E-002  0.19679699972235970        0.0000000000000000     
   2.4317886383696738E-007  0.19667812449700625        0.0000000000000000     
   2.6316945430878737E-007  0.20493655736875330        0.0000000000000000     
   2.6273797725840948E-007  0.21324532307153082        0.0000000000000000     
   2.4188443268054823E-007  0.22160442160533883        0.0000000000000000     
   2.0060882058000121E-007  0.23001385297017723        0.0000000000000000     
  -6.0810439376355642E-003  0.19668536927468314        0.0000000000000000     
  -6.1377496843145526E-003  0.20494314330583482        0.0000000000000000     
  -6.1874624829570297E-003  0.21325161130180628        0.0000000000000000     
  -6.2301823335629922E-003  0.22161077326259757        0.0000000000000000     
  -6.2659092361324427E-003  0.23002062918820865        0.0000000000000000     
  -1.2199608968289437E-002  0.19670759673813437        0.0000000000000000     
  -1.2313882588281054E-002  0.20496291577740045        0.0000000000000000     
  -1.2413969583906944E-002  0.21327021009394237        0.0000000000000000     
  -1.2499869955167109E-002  0.22162947968776023        0.0000000000000000     
  -1.2571583702061545E-002  0.23004072455885394        0.0000000000000000     
  -1.8355451913097783E-002  0.19674480688735985        0.0000000000000000     
  -1.8528135542445194E-002  0.20499587478345022        0.0000000000000000     
  -1.8679258564872490E-002  0.21330111944793922        0.0000000000000000     
  -1.8808820980379670E-002  0.22166054088082682        0.0000000000000000     
  -1.8916822788966732E-002  0.23007413908211310        0.0000000000000000     
  -2.4548572772060608E-002  0.19679699972235970        0.0000000000000000     
  -2.4780508546806974E-002  0.20504202032398405        0.0000000000000000     
  -2.4983329425853660E-002  0.21334433936379665        0.0000000000000000     
  -2.5157035409200678E-002  0.22170395684179731        0.0000000000000000     
  -2.5301626496848008E-002  0.23012087275798618        0.0000000000000000     
   2.0060882058000121E-007  0.23001385297017723        0.0000000000000000     
   1.5699226268051265E-007  0.23844241735737129        0.0000000000000000     
   1.2911588070691100E-007  0.24685891495824611        0.0000000000000000     
   1.1697967466206939E-007  0.25526334577280169        0.0000000000000000     
   1.2058364454387363E-007  0.26365570980103803        0.0000000000000000     
  -6.2659092361324427E-003  0.23002062918820865        0.0000000000000000     
  -6.2959047903152539E-003  0.23845026693371374        0.0000000000000000     
  -6.3214305957613156E-003  0.24686877435418708        0.0000000000000000     
  -6.3424866524706179E-003  0.25527615144962862        0.0000000000000000     
  -6.3590729604431715E-003  0.26367239822003841        0.0000000000000000     
  -1.2571583702061545E-002  0.23004072455885394        0.0000000000000000     
  -1.2631845522929501E-002  0.23847375997985523        0.0000000000000000     
  -1.2683390116110221E-002  0.24689840122339585        0.0000000000000000     
  -1.2726217481603705E-002  0.25531464828947559        0.0000000000000000     
  -1.2760327619409957E-002  0.26372250117809481        0.0000000000000000     
  -1.8916822788966732E-002  0.23007413908211310        0.0000000000000000     
  -1.9007665205580056E-002  0.23851289649579571        0.0000000000000000     
  -1.9085749445166011E-002  0.24694779556587229        0.0000000000000000     
  -1.9151075507724599E-002  0.25537883629234276        0.0000000000000000     
  -1.9203643393255816E-002  0.26380601867520714        0.0000000000000000     
  -2.5301626496848008E-002  0.23012087275798618        0.0000000000000000     
  -2.5423363838266926E-002  0.23856767648153521        0.0000000000000000     
  -2.5528508582928683E-002  0.24701695738161647        0.0000000000000000     
  -2.5617060730833294E-002  0.25546871545822991        0.0000000000000000     
  -2.5689020281980741E-002  0.26392295071137556        0.0000000000000000     
   1.2058364454387363E-007  0.26365570980103803        0.0000000000000000     
   1.2862406748069891E-007  0.27197583267468112        0.0000000000000000     
   1.2979722060081200E-007  0.28016354002545679        0.0000000000000000     
   1.2410310390169213E-007  0.28821883185336516        0.0000000000000000     
   1.1154171738678165E-007  0.29614170815840618        0.0000000000000000     
  -6.3590729604431715E-003  0.26367239822003841        0.0000000000000000     
  -6.3750667735027536E-003  0.27199763313124081        0.0000000000000000     
  -6.3943453454731536E-003  0.28019197464906020        0.0000000000000000     
  -6.4169086763543708E-003  0.28825542277349653        0.0000000000000000     
  -6.4427567661463998E-003  0.29618797750454995        0.0000000000000000     
  -1.2760327619409957E-002  0.26372250117809481        0.0000000000000000     
  -1.2792917603634449E-002  0.27206300982670828        0.0000000000000000     
  -1.2831184508382660E-002  0.28027722417277107        0.0000000000000000     
  -1.2875128333654584E-002  0.28836514421628340        0.0000000000000000     
  -1.2924749079450230E-002  0.29632676995724511        0.0000000000000000     
  -1.9203643393255816E-002  0.26380601867520714        0.0000000000000000     
  -1.9253423866327609E-002  0.27217196276108341        0.0000000000000000     
  -1.9310387691507919E-002  0.28041928859658966        0.0000000000000000     
  -1.9374534868796752E-002  0.28854799618172577        0.0000000000000000     
  -1.9445865398194099E-002  0.29655808551649160        0.0000000000000000     
  -2.5689020281980741E-002  0.26392295071137556        0.0000000000000000     
  -2.5756585561582227E-002  0.27232449193436653        0.0000000000000000     
  -2.5831954894848935E-002  0.28061816792051580        0.0000000000000000     
  -2.5915128281780862E-002  0.28880397866982355        0.0000000000000000     
  -2.6006105722378013E-002  0.29688192418228965        0.0000000000000000     
  -1.3999093939165127E-002   5.5790796194270097E-002   0.0000000000000000     
  -1.4790002420506362E-002   6.1382585677378539E-002   0.0000000000000000     
  -1.5547566584119762E-002   6.7159310489157104E-002   0.0000000000000000     
  -1.6271786430005319E-002   7.3120970629605792E-002   0.0000000000000000     
  -1.6962661958163035E-002   7.9267566098724582E-002   0.0000000000000000     
  -1.7659772655490180E-002   5.5983727278559423E-002   0.0000000000000000     
  -1.8623559324619416E-002   6.1587842723416469E-002   0.0000000000000000     
  -1.9552491712592105E-002   6.7372174427596465E-002   0.0000000000000000     
  -2.0446569819408247E-002   7.3336722391099410E-002   0.0000000000000000     
  -2.1305793645067846E-002   7.9481486613925359E-002   0.0000000000000000     
  -2.1371596608365621E-002   5.6274811944470163E-002   0.0000000000000000     
  -2.2525075318664971E-002   6.1877271673841459E-002   0.0000000000000000     
  -2.3637261084625036E-002   6.7658105727350440E-002   0.0000000000000000     
  -2.4708153906245808E-002   7.3617314104997139E-002   0.0000000000000000     
  -2.5737753783527280E-002   7.9754896806781481E-002   0.0000000000000000     
  -2.5134565797791445E-002   5.6664050192002283E-002   0.0000000000000000     
  -2.6494550402643043E-002   6.2250872528653536E-002   0.0000000000000000     
  -2.7801874700218561E-002   6.8017104388419070E-002   0.0000000000000000     
  -2.9056538690517993E-002   7.3962745771298896E-002   0.0000000000000000     
  -3.0258542373541343E-002   8.0087796677293002E-002   0.0000000000000000     
  -2.8948680223767662E-002   5.7151442021155824E-002   0.0000000000000000     
  -3.0531984576553629E-002   6.2708645287852693E-002   0.0000000000000000     
  -3.2046332559372677E-002   6.8449170410802326E-002   0.0000000000000000     
  -3.3491724172224811E-002   7.4373017390004723E-002   0.0000000000000000     
  -3.4868159415110039E-002   8.0480186225459882E-002   0.0000000000000000     
  -1.6962661958163035E-002   7.9267566098724582E-002   0.0000000000000000     
  -1.7626726790168905E-002   8.5585859869835565E-002   0.0000000000000000     
  -1.8270514547598926E-002   9.2062614916260707E-002   0.0000000000000000     
  -1.8894025230453096E-002   9.8697831238000050E-002   0.0000000000000000     
  -1.9497258838731414E-002  0.10549150883505359        0.0000000000000000     
  -2.1305793645067846E-002   7.9481486613925359E-002   0.0000000000000000     
  -2.2135102368234981E-002   8.5795001532857684E-002   0.0000000000000000     
  -2.2939435167573723E-002   9.2265801584679868E-002   0.0000000000000000     
  -2.3718792043084087E-002   9.8893886769391912E-002   0.0000000000000000     
  -2.4473172994766063E-002  0.10567925708699380        0.0000000000000000     
  -2.5737753783527280E-002   7.9754896806781481E-002   0.0000000000000000     
  -2.6731905157674138E-002   8.6059946069541288E-002   0.0000000000000000     
  -2.7696452469891032E-002   9.2521554130114328E-002   0.0000000000000000     
  -2.8631395720177977E-002   9.9139720988500574E-002   0.0000000000000000     
  -2.9536734908534975E-002  0.10591444664470005        0.0000000000000000     
  -3.0258542373541343E-002   8.0087796677293002E-002   0.0000000000000000     
  -3.1417135158486383E-002   8.6380693479886389E-002   0.0000000000000000     
  -3.2541566454550863E-002   9.2829872552564086E-002   0.0000000000000000     
  -3.3631836261734785E-002   9.9435333895326078E-002   0.0000000000000000     
  -3.4687944580038155E-002  0.10619707750817239        0.0000000000000000     
  -3.4868159415110039E-002   8.0480186225459882E-002   0.0000000000000000     
  -3.6190792370671708E-002   8.6757243763892961E-002   0.0000000000000000     
  -3.7474777121553199E-002   9.3190756852029141E-002   0.0000000000000000     
  -3.8720113667754505E-002   9.9780725489868410E-002   0.0000000000000000     
  -3.9926802009275619E-002  0.10652714967741075        0.0000000000000000     
  -1.9497258838731414E-002  0.10549150883505359        0.0000000000000000     
  -2.0075427727264800E-002  0.11243264601817457        0.0000000000000000     
  -2.0623744250884167E-002  0.11951024109811624        0.0000000000000000     
  -2.1142208409589521E-002  0.12672429407487856        0.0000000000000000     
  -2.1630820203380856E-002  0.13407480494846155        0.0000000000000000     
  -2.4473172994766063E-002  0.10567925708699380        0.0000000000000000     
  -2.5196574178740272E-002  0.11261132518985395        0.0000000000000000     
  -2.5882991751127377E-002  0.11967950373034084        0.0000000000000000     
  -2.6532425711927345E-002  0.12688379270845443        0.0000000000000000     
  -2.7144876061140192E-002  0.13422419212419470        0.0000000000000000     
  -2.9536734908534975E-002  0.10591444664470005        0.0000000000000000     
  -3.0405332947215036E-002  0.11283532675857642        0.0000000000000000     
  -3.1230052748471182E-002  0.11989195698999336        0.0000000000000000     
  -3.2010894312303410E-002  0.12708433733895083        0.0000000000000000     
  -3.2747857638711728E-002  0.13441246780544891        0.0000000000000000     
  -3.4687944580038155E-002  0.10619707750817239        0.0000000000000000     
  -3.5701704032689068E-002  0.11310465072434195        0.0000000000000000     
  -3.6664927242915583E-002  0.12014760087707375        0.0000000000000000     
  -3.7577614210717716E-002  0.12732592796636785        0.0000000000000000     
  -3.8439764936095452E-002  0.13463963199222412        0.0000000000000000     
  -3.9926802009275619E-002  0.10652714967741075        0.0000000000000000     
  -4.1085687435162374E-002  0.11341929708715054        0.0000000000000000     
  -4.2187615234460581E-002  0.12044643539158208        0.0000000000000000     
  -4.3232585407170246E-002  0.12760856459070535        0.0000000000000000     
  -4.4220597953291384E-002  0.13490568468452041        0.0000000000000000     
  -2.1630820203380856E-002  0.13407480494846155        0.0000000000000000     
  -2.2091463703948974E-002  0.14154907642910730        0.0000000000000000     
  -2.2526022982984686E-002  0.14913441122705792        0.0000000000000000     
  -2.2934498040487975E-002  0.15683080934231336        0.0000000000000000     
  -2.3316888876458854E-002  0.16463827077487364        0.0000000000000000     
  -2.7144876061140192E-002  0.13422419212419470        0.0000000000000000     
  -2.7722595858938884E-002  0.14168821798208428        0.0000000000000000     
  -2.8267838165496398E-002  0.14926338628664573        0.0000000000000000     
  -2.8780602980812718E-002  0.15694969703787909        0.0000000000000000     
  -2.9260890304887845E-002  0.16474715023578429        0.0000000000000000     
  -3.2747857638711728E-002  0.13441246780544891        0.0000000000000000     
  -3.3443558411629326E-002  0.14186401117851868        0.0000000000000000     
  -3.4100612314989398E-002  0.14942663024719133        0.0000000000000000     
  -3.4719019348791944E-002  0.15710032501146692        0.0000000000000000     
  -3.5298779513036962E-002  0.16488509547134536        0.0000000000000000     
  -3.8439764936095452E-002  0.13463963199222412        0.0000000000000000     
  -3.9254351362020282E-002  0.14207645601841054        0.0000000000000000     
  -4.0024345431463687E-002  0.14962414310869476        0.0000000000000000     
  -4.0749747144425669E-002  0.15728269326307695        0.0000000000000000     
  -4.1430556500906206E-002  0.16505210648155696        0.0000000000000000     
  -4.4220597953291384E-002  0.13490568468452041        0.0000000000000000     
  -4.5154974710111789E-002  0.14232555250175977        0.0000000000000000     
  -4.6039037514919286E-002  0.14985592487115598        0.0000000000000000     
  -4.6872786367713873E-002  0.15749680179270908        0.0000000000000000     
  -4.7656221268495572E-002  0.16524818326641905        0.0000000000000000     
  -2.3316888876458854E-002  0.16463827077487364        0.0000000000000000     
  -2.3670880663837462E-002  0.17254543615250106        0.0000000000000000     
  -2.3994158575563956E-002  0.18054094610295787        0.0000000000000000     
  -2.4286722611638341E-002  0.18862480062624409        0.0000000000000000     
  -2.4548572772060608E-002  0.19679699972235970        0.0000000000000000     
  -2.9260890304887845E-002  0.16474715023578429        0.0000000000000000     
  -2.9705930636844496E-002  0.17264433666101528        0.0000000000000000     
  -3.0112954475805379E-002  0.18062984709422605        0.0000000000000000     
  -3.0481961821770476E-002  0.18870368153541656        0.0000000000000000     
  -3.0812952674739810E-002  0.19686583998458684        0.0000000000000000     
  -3.5298779513036962E-002  0.16488509547134536        0.0000000000000000     
  -3.5836844137490428E-002  0.17276957026111459        0.0000000000000000     
  -3.6330164551918308E-002  0.18074237801506243        0.0000000000000000     
  -3.6778740756320608E-002  0.18880351873318904        0.0000000000000000     
  -3.7182572750697307E-002  0.19695299241549424        0.0000000000000000     
  -4.1430556500906206E-002  0.16505210648155696        0.0000000000000000     
  -4.2063621165775243E-002  0.17292113695279901        0.0000000000000000     
  -4.2645788803902754E-002  0.18087853886546720        0.0000000000000000     
  -4.3177059415288703E-002  0.18892431221956149        0.0000000000000000     
  -4.3657432999933111E-002  0.19705845701508190        0.0000000000000000     
  -4.7656221268495572E-002  0.16524818326641905        0.0000000000000000     
  -4.8386261721698978E-002  0.17309903673606852        0.0000000000000000     
  -4.9059827231758724E-002  0.18103832964544014        0.0000000000000000     
  -4.9676917798674787E-002  0.18906606199453396        0.0000000000000000     
  -5.0237533422447203E-002  0.19718223378334990        0.0000000000000000     
  -2.4548572772060608E-002  0.19679699972235970        0.0000000000000000     
  -2.4780508546806974E-002  0.20504202032398405        0.0000000000000000     
  -2.4983329425853660E-002  0.21334433936379665        0.0000000000000000     
  -2.5157035409200678E-002  0.22170395684179731        0.0000000000000000     
  -2.5301626496848008E-002  0.23012087275798618        0.0000000000000000     
  -3.0812952674739810E-002  0.19686583998458684        0.0000000000000000     
  -3.1106530926108326E-002  0.20510260136664329        0.0000000000000000     
  -3.1363300467270976E-002  0.21340024460649235        0.0000000000000000     
  -3.1583261298227777E-002  0.22175876970413402        0.0000000000000000     
  -3.1766413418978706E-002  0.23017817665956833        0.0000000000000000     
  -3.7182572750697307E-002  0.19695299241549424        0.0000000000000000     
  -3.7541732005091172E-002  0.20517886687906892        0.0000000000000000     
  -3.7856289989544940E-002  0.21346920994100393        0.0000000000000000     
  -3.8126246704058599E-002  0.22182402160129921        0.0000000000000000     
  -3.8351602148632161E-002  0.23024330185995484        0.0000000000000000     
  -4.3657432999933111E-002  0.19705845701508190        0.0000000000000000     
  -4.4086111783755537E-002  0.20527081686126103        0.0000000000000000     
  -4.4462297992675558E-002  0.21355123536733134        0.0000000000000000     
  -4.4785991626693160E-002  0.22189971253329294        0.0000000000000000     
  -4.5057192685808371E-002  0.23031624835914569        0.0000000000000000     
  -5.0237533422447203E-002  0.19718223378334990        0.0000000000000000     
  -5.0739670262101397E-002  0.20537845131321961        0.0000000000000000     
  -5.1181324476662821E-002  0.21364632088547467        0.0000000000000000     
  -5.1562496066131468E-002  0.22198584250011513        0.0000000000000000     
  -5.1883185030507359E-002  0.23039701615714089        0.0000000000000000     
  -2.5301626496848008E-002  0.23012087275798618        0.0000000000000000     
  -2.5423363838266926E-002  0.23856767648153521        0.0000000000000000     
  -2.5528508582928683E-002  0.24701695738161647        0.0000000000000000     
  -2.5617060730833294E-002  0.25546871545822991        0.0000000000000000     
  -2.5689020281980741E-002  0.26392295071137556        0.0000000000000000     
  -3.1766413418978706E-002  0.23017817665956833        0.0000000000000000     
  -3.1920594629258260E-002  0.23863361472166025        0.0000000000000000     
  -3.2053642728800909E-002  0.24710023313927459        0.0000000000000000     
  -3.2165557717606659E-002  0.25557803191241146        0.0000000000000000     
  -3.2256339595675504E-002  0.26406701104107078        0.0000000000000000     
  -3.8351602148632161E-002  0.23024330185995484        0.0000000000000000     
  -3.8541010786822212E-002  0.23870622600075725        0.0000000000000000     
  -3.8703127082185339E-002  0.24719196930749279        0.0000000000000000     
  -3.8837951034721568E-002  0.25570053178016161        0.0000000000000000     
  -3.8945482644430859E-002  0.26423191341876362        0.0000000000000000     
  -4.5057192685808371E-002  0.23031624835914569        0.0000000000000000     
  -4.5284612310958788E-002  0.23878551031882625        0.0000000000000000     
  -4.5476961643082001E-002  0.24729216588627118        0.0000000000000000     
  -4.5634240682178001E-002  0.25583621506148041        0.0000000000000000     
  -4.5756449428246804E-002  0.26441765784445403        0.0000000000000000     
  -5.1883185030507359E-002  0.23039701615714089        0.0000000000000000     
  -5.2151399201667961E-002  0.23887146767586728        0.0000000000000000     
  -5.2375146411490853E-002  0.24740082287560963        0.0000000000000000     
  -5.2554426659975978E-002  0.25598508175636786        0.0000000000000000     
  -5.2689239947123372E-002  0.26462424431814208        0.0000000000000000     
  -2.5689020281980741E-002  0.26392295071137556        0.0000000000000000     
  -2.5756585561582227E-002  0.27232449193436653        0.0000000000000000     
  -2.5831954894848935E-002  0.28061816792051580        0.0000000000000000     
  -2.5915128281780862E-002  0.28880397866982355        0.0000000000000000     
  -2.6006105722378013E-002  0.29688192418228965        0.0000000000000000     
  -3.2256339595675504E-002  0.26406701104107078        0.0000000000000000     
  -3.2340818736925313E-002  0.27251426720088634        0.0000000000000000     
  -3.2433825515273962E-002  0.28086689706749168        0.0000000000000000     
  -3.2535359930721430E-002  0.28912490064088692        0.0000000000000000     
  -3.2645421983267739E-002  0.29728827792107204        0.0000000000000000     
  -3.8945482644430859E-002  0.26423191341876362        0.0000000000000000     
  -3.9044539439883882E-002  0.27273495841497186        0.0000000000000000     
  -3.9153938949651260E-002  0.28115851096045930        0.0000000000000000     
  -3.9273681173732970E-002  0.28950257105522598        0.0000000000000000     
  -3.9403766112129056E-002  0.29776713869927196        0.0000000000000000     
  -4.5756449428246804E-002  0.26441765784445403        0.0000000000000000     
  -4.5867747670457919E-002  0.27298656557662310        0.0000000000000000     
  -4.5992295197980815E-002  0.28149300959941864        0.0000000000000000     
  -4.6130092010815492E-002  0.28993698991284067        0.0000000000000000     
  -4.6281138108961957E-002  0.29831850651688929        0.0000000000000000     
  -5.2689239947123372E-002  0.26462424431814208        0.0000000000000000     
  -5.2810443428647436E-002  0.27326908868583999        0.0000000000000000     
  -5.2948894260262655E-002  0.28187039298436967        0.0000000000000000     
  -5.3104592441968974E-002  0.29042815721373105        0.0000000000000000     
  -5.3277537973766449E-002  0.29894238137392404        0.0000000000000000     
  -2.8948680223767662E-002   5.7151442021155824E-002   0.0000000000000000     
  -3.0531984576553629E-002   6.2708645287852693E-002   0.0000000000000000     
  -3.2046332559372677E-002   6.8449170410802326E-002   0.0000000000000000     
  -3.3491724172224811E-002   7.4373017390004723E-002   0.0000000000000000     
  -3.4868159415110039E-002   8.0480186225459882E-002   0.0000000000000000     
  -3.2877366491079293E-002   5.7701917474484221E-002   0.0000000000000000     
  -3.4683230297422624E-002   6.3227339427171611E-002   0.0000000000000000     
  -3.6404132796496284E-002   6.8939871022698537E-002   0.0000000000000000     
  -3.8040073988300289E-002   7.4839512261064972E-002   0.0000000000000000     
  -3.9591053872834618E-002   8.0926263142270929E-002   0.0000000000000000     
  -3.6984051204511363E-002   5.8280406594540937E-002   0.0000000000000000     
  -3.8994140022275962E-002   6.3783704422343004E-002   0.0000000000000000     
  -4.0908773545998325E-002   6.9474773452306002E-002   0.0000000000000000     
  -4.2727951775678466E-002   7.5353613684429971E-002   0.0000000000000000     
  -4.4451674711316370E-002   8.1420225118714912E-002   0.0000000000000000     
  -4.1268734364063885E-002   5.8886909381325986E-002   0.0000000000000000     
  -4.3464713751113632E-002   6.4377740273366818E-002   0.0000000000000000     
  -4.5560254807878786E-002   7.0053877699624761E-002   0.0000000000000000     
  -4.7555357534359334E-002   7.5915321660099733E-002   0.0000000000000000     
  -4.9450021930555289E-002   8.1962072154791801E-002   0.0000000000000000     
  -4.5731415969736837E-002   5.9521425834839353E-002   0.0000000000000000     
  -4.8094951483935638E-002   6.5009446980243107E-002   0.0000000000000000     
  -5.0358576582137674E-002   7.0677183764654733E-002   0.0000000000000000     
  -5.2522291264342921E-002   7.6524636188074244E-002   0.0000000000000000     
  -5.4586095530551382E-002   8.2551804250501640E-002   0.0000000000000000     
  -3.4868159415110039E-002   8.0480186225459882E-002   0.0000000000000000     
  -3.6190792370671708E-002   8.6757243763892961E-002   0.0000000000000000     
  -3.7474777121553199E-002   9.3190756852029141E-002   0.0000000000000000     
  -3.8720113667754505E-002   9.9780725489868410E-002   0.0000000000000000     
  -3.9926802009275619E-002  0.10652714967741075        0.0000000000000000     
  -3.9591053872834618E-002   8.0926263142270929E-002   0.0000000000000000     
  -4.1077964212689784E-002   8.7184990781605340E-002   0.0000000000000000     
  -4.2521696770456273E-002   9.3600562294357148E-002   0.0000000000000000     
  -4.3922251546134099E-002  0.10017297768052631        0.0000000000000000     
  -4.5279628539723255E-002  0.10690223694011289        0.0000000000000000     
  -4.4451674711316370E-002   8.1420225118714912E-002   0.0000000000000000     
  -4.6103738103000252E-002   8.7659328393067809E-002   0.0000000000000000     
  -4.7707937700818319E-002   9.4055644145395689E-002   0.0000000000000000     
  -4.9264273504770556E-002  0.10060917237569855        0.0000000000000000     
  -5.0772745514856991E-002  0.10731991308397641        0.0000000000000000     
  -4.9450021930555289E-002   8.1962072154791801E-002   0.0000000000000000     
  -5.1268114041603127E-002   8.8180256598280368E-002   0.0000000000000000     
  -5.3033499912639330E-002   9.4556002405144807E-002   0.0000000000000000     
  -5.4746179543663891E-002  0.10108930957538513        0.0000000000000000     
  -5.6406152934676816E-002  0.10778017810900137        0.0000000000000000     
  -5.4586095530551382E-002   8.2551804250501640E-002   0.0000000000000000     
  -5.6571092028498401E-002   8.8747775397243031E-002   0.0000000000000000     
  -5.8498383405919292E-002   9.5101637073604514E-002   0.0000000000000000     
  -6.0367969662814082E-002  0.10161338927958605        0.0000000000000000     
  -6.2179850799182743E-002  0.10828303201518773        0.0000000000000000     
  -3.9926802009275619E-002  0.10652714967741075        0.0000000000000000     
  -4.1085687435162374E-002  0.11341929708715054        0.0000000000000000     
  -4.2187615234460581E-002  0.12044643539158208        0.0000000000000000     
  -4.3232585407170246E-002  0.12760856459070535        0.0000000000000000     
  -4.4220597953291384E-002  0.13490568468452041        0.0000000000000000     
  -4.5279628539723255E-002  0.10690223694011289        0.0000000000000000     
  -4.6583769097014269E-002  0.11377722881092577        0.0000000000000000     
  -4.7824614563797649E-002  0.12078684203077396        0.0000000000000000     
  -4.9002164940073409E-002  0.12793107659965744        0.0000000000000000     
  -5.0116420225841535E-002  0.13520993251757615        0.0000000000000000     
  -5.0772745514856991E-002  0.10731991308397641        0.0000000000000000     
  -5.2222434960624065E-002  0.11417640885959127        0.0000000000000000     
  -5.3602423071618249E-002  0.12116720229190510        0.0000000000000000     
  -5.4912709847839559E-002  0.12829229338091794        0.0000000000000000     
  -5.6153295289287974E-002  0.13555168212662977        0.0000000000000000     
  -5.6406152934676816E-002  0.10778017810900137        0.0000000000000000     
  -5.8001685025991782E-002  0.11461683723314697        0.0000000000000000     
  -5.9521040757922403E-002  0.12158751617497551        0.0000000000000000     
  -6.0964220130468705E-002  0.12869221493448696        0.0000000000000000     
  -6.2331223143630696E-002  0.13593093351168128        0.0000000000000000     
  -6.2179850799182743E-002  0.10828303201518773        0.0000000000000000     
  -6.3921519293117374E-002  0.11509851393159293        0.0000000000000000     
  -6.5580467622710081E-002  0.12204778367998516        0.0000000000000000     
  -6.7156695787960852E-002  0.12913084126036442        0.0000000000000000     
  -6.8650203788869671E-002  0.13634768667273064        0.0000000000000000     
  -4.4220597953291384E-002  0.13490568468452041        0.0000000000000000     
  -4.5154974710111789E-002  0.14232555250175977        0.0000000000000000     
  -4.6039037514919286E-002  0.14985592487115598        0.0000000000000000     
  -4.6872786367713873E-002  0.15749680179270908        0.0000000000000000     
  -4.7656221268495572E-002  0.16524818326641905        0.0000000000000000     
  -5.0116420225841535E-002  0.13520993251757615        0.0000000000000000     
  -5.1171202192307801E-002  0.14261113947170964        0.0000000000000000     
  -5.2170332610677959E-002  0.15012242714923732        0.0000000000000000     
  -5.3113811480952004E-002  0.15774379555015924        0.0000000000000000     
  -5.4001638803129942E-002  0.16547524467447533        0.0000000000000000     
  -5.6153295289287974E-002  0.13555168212662977        0.0000000000000000     
  -5.7328807545012336E-002  0.14293305577140328        0.0000000000000000     
  -5.8443874764061501E-002  0.15042410155760103        0.0000000000000000     
  -5.9498496946435449E-002  0.15802481948522309        0.0000000000000000     
  -6.0492674092134192E-002  0.16573520955426943        0.0000000000000000     
  -6.2331223143630696E-002  0.13593093351168128        0.0000000000000000     
  -6.3627790768225403E-002  0.14329130140084065        0.0000000000000000     
  -6.4859663975069926E-002  0.15076094809624707        0.0000000000000000     
  -6.6026842764164220E-002  0.15833987359790069        0.0000000000000000     
  -6.7129327135508315E-002  0.16602807790580143        0.0000000000000000     
  -6.8650203788869671E-002  0.13634768667273064        0.0000000000000000     
  -7.0068151861946995E-002  0.14368587636002175        0.0000000000000000     
  -7.1417700243703211E-002  0.15113296676517551        0.0000000000000000     
  -7.2698848934138319E-002  0.15868895788819207        0.0000000000000000     
  -7.3911597933252346E-002  0.16635384972907122        0.0000000000000000     
  -4.7656221268495572E-002  0.16524818326641905        0.0000000000000000     
  -4.8386261721698978E-002  0.17309903673606852        0.0000000000000000     
  -4.9059827231758724E-002  0.18103832964544014        0.0000000000000000     
  -4.9676917798674787E-002  0.18906606199453396        0.0000000000000000     
  -5.0237533422447203E-002  0.19718223378334990        0.0000000000000000     
  -5.4001638803129942E-002  0.16547524467447533        0.0000000000000000     
  -5.4830818915807274E-002  0.17330602911851042        0.0000000000000000     
  -5.5598356157579486E-002  0.18122540347858940        0.0000000000000000     
  -5.6304250528446606E-002  0.18923336775471220        0.0000000000000000     
  -5.6948502028408628E-002  0.19732992194687887        0.0000000000000000     
  -6.0492674092134192E-002  0.16573520955426943        0.0000000000000000     
  -6.1423345858645804E-002  0.17354487360771204        0.0000000000000000     
  -6.2287451903458378E-002  0.18144341348852294        0.0000000000000000     
  -6.3084992226571920E-002  0.18943082919670209        0.0000000000000000     
  -6.3815966827986417E-002  0.19750712073224952        0.0000000000000000     
  -6.7129327135508315E-002  0.16602807790580143        0.0000000000000000     
  -6.8163842550214571E-002  0.17381557020367339        0.0000000000000000     
  -6.9127114469395373E-002  0.18169235967524078        0.0000000000000000     
  -7.0019142893050695E-002  0.18965844632050363        0.0000000000000000     
  -7.0839927821180579E-002  0.19771383013946192        0.0000000000000000     
  -7.3911597933252346E-002  0.16635384972907122        0.0000000000000000     
  -7.5052308990513600E-002  0.17411811890639442        0.0000000000000000     
  -7.6117343855390485E-002  0.18197224203874296        0.0000000000000000     
  -7.7106702527882973E-002  0.18991621912611681        0.0000000000000000     
  -7.8020385007991105E-002  0.19795005016851597        0.0000000000000000     
  -5.0237533422447203E-002  0.19718223378334990        0.0000000000000000     
  -5.0739670262101397E-002  0.20537845131321961        0.0000000000000000     
  -5.1181324476662821E-002  0.21364632088547467        0.0000000000000000     
  -5.1562496066131468E-002  0.22198584250011513        0.0000000000000000     
  -5.1883185030507359E-002  0.23039701615714089        0.0000000000000000     
  -5.6948502028408628E-002  0.19732992194687887        0.0000000000000000     
  -5.7528284318043382E-002  0.20550805732130820        0.0000000000000000     
  -5.8040771057928715E-002  0.21376076514421904        0.0000000000000000     
  -5.8485962248064606E-002  0.22208804541561139        0.0000000000000000     
  -5.8863857888451068E-002  0.23048989813548526        0.0000000000000000     
  -6.3815966827986417E-002  0.19750712073224952        0.0000000000000000     
  -6.4477830829496111E-002  0.20566592197189035        0.0000000000000000     
  -6.5068039352895179E-002  0.21390086679234965        0.0000000000000000     
  -6.5586592398183652E-002  0.22221195519362744        0.0000000000000000     
  -6.6033489965361528E-002  0.23059918717572370        0.0000000000000000     
  -7.0839927821180579E-002  0.19771383013946192        0.0000000000000000     
  -7.1588309796459568E-002  0.20585204526496600        0.0000000000000000     
  -7.2263129361562248E-002  0.21406662582986646        0.0000000000000000     
  -7.2864386516488633E-002  0.22235757183416321        0.0000000000000000     
  -7.3392081261238709E-002  0.23072488327785626        0.0000000000000000     
  -7.8020385007991105E-002  0.19795005016851597        0.0000000000000000     
  -7.8859721218933768E-002  0.20606642720053531        0.0000000000000000     
  -7.9626041083929913E-002  0.21425804225676950        0.0000000000000000     
  -8.0319344602979528E-002  0.22252489533721870        0.0000000000000000     
  -8.0939631776082641E-002  0.23086698644188280        0.0000000000000000     
  -5.1883185030507359E-002  0.23039701615714089        0.0000000000000000     
  -5.2151399201667961E-002  0.23887146767586728        0.0000000000000000     
  -5.2375146411490853E-002  0.24740082287560963        0.0000000000000000     
  -5.2554426659975978E-002  0.25598508175636786        0.0000000000000000     
  -5.2689239947123372E-002  0.26462424431814208        0.0000000000000000     
  -5.8863857888451068E-002  0.23048989813548526        0.0000000000000000     
  -5.9180481253859323E-002  0.23896553263156547        0.0000000000000000     
  -5.9441855619060568E-002  0.24751415823157683        0.0000000000000000     
  -5.9647980984054799E-002  0.25613577493551931        0.0000000000000000     
  -5.9798857348842015E-002  0.26483038274339299        0.0000000000000000     
  -6.6033489965361528E-002  0.23059918717572370        0.0000000000000000     
  -6.6410968262442388E-002  0.23906913974560590        0.0000000000000000     
  -6.6721263497439801E-002  0.24762838991024139        0.0000000000000000     
  -6.6964375670353765E-002  0.25627693766963011        0.0000000000000000     
  -6.7140304781184296E-002  0.26501478302377213        0.0000000000000000     
  -7.3392081261238709E-002  0.23072488327785626        0.0000000000000000     
  -7.3842860227417151E-002  0.23918228901798860        0.0000000000000000     
  -7.4213370046628521E-002  0.24774351791160323        0.0000000000000000     
  -7.4503610718872890E-002  0.25640856995870021        0.0000000000000000     
  -7.4713582244150201E-002  0.26517744515927955        0.0000000000000000     
  -8.0939631776082641E-002  0.23086698644188280        0.0000000000000000     
  -8.1476157148783604E-002  0.23930498044871351        0.0000000000000000     
  -8.1918175266626772E-002  0.24785954223566245        0.0000000000000000     
  -8.2265686129612159E-002  0.25653067180272965        0.0000000000000000     
  -8.2518689737739750E-002  0.26531836914991502        0.0000000000000000     
  -5.2689239947123372E-002  0.26462424431814208        0.0000000000000000     
  -5.2810443428647436E-002  0.27326908868583999        0.0000000000000000     
  -5.2948894260262655E-002  0.28187039298436967        0.0000000000000000     
  -5.3104592441968974E-002  0.29042815721373105        0.0000000000000000     
  -5.3277537973766449E-002  0.29894238137392404        0.0000000000000000     
  -5.9798857348842015E-002  0.26483038274339299        0.0000000000000000     
  -5.9931382138579556E-002  0.27355381935106099        0.0000000000000000     
  -6.0082452778424708E-002  0.28226192245438647        0.0000000000000000     
  -6.0252069268377499E-002  0.29095469205336955        0.0000000000000000     
  -6.0440231608437894E-002  0.29963212814801010        0.0000000000000000     
  -6.7140304781184296E-002  0.26501478302377213        0.0000000000000000     
  -6.7289319224381375E-002  0.27381204918072422        0.0000000000000000     
  -6.7451687394394971E-002  0.28263885934854310        0.0000000000000000     
  -6.7627409291225057E-002  0.29149521352722874        0.0000000000000000     
  -6.7816484914871689E-002  0.30038111171678117        0.0000000000000000     
  -7.4713582244150201E-002  0.26517744515927955        0.0000000000000000     
  -7.4884254686052920E-002  0.27404377817482972        0.0000000000000000     
  -7.5056598108173403E-002  0.28300120366683940        0.0000000000000000     
  -7.5230612510511718E-002  0.29204972163530857        0.0000000000000000     
  -7.5406297893067811E-002  0.30118933208023729        0.0000000000000000     
  -8.2518689737739750E-002  0.26531836914991502        0.0000000000000000     
  -8.2716188523594192E-002  0.27424900633337745        0.0000000000000000     
  -8.2897184919760086E-002  0.28334895540927552        0.0000000000000000     
  -8.3061678926237448E-002  0.29261821637760915        0.0000000000000000     
  -8.3209670543026276E-002  0.30205678923837848        0.0000000000000000     
  -4.5731415969736837E-002   5.9521425834839353E-002   0.0000000000000000     
  -4.8094951483935638E-002   6.5009446980243107E-002   0.0000000000000000     
  -5.0358576582137674E-002   7.0677183764654733E-002   0.0000000000000000     
  -5.2522291264342921E-002   7.6524636188074244E-002   0.0000000000000000     
  -5.4586095530551382E-002   8.2551804250501640E-002   0.0000000000000000     
  -5.0359973641721192E-002   6.0217618345428277E-002   0.0000000000000000     
  -5.2893706613122544E-002   6.5697294565287834E-002   0.0000000000000000     
  -5.5327015604532695E-002   7.1352581354700184E-002   0.0000000000000000     
  -5.7659900615951651E-002   7.7183478713665307E-002   0.0000000000000000     
  -5.9892361647379405E-002   8.3189986642183203E-002   0.0000000000000000     
  -5.5142285000207875E-002   6.1009149303439973E-002   0.0000000000000000     
  -5.7869832531054870E-002   6.6459753050817000E-002   0.0000000000000000     
  -6.0488848610821579E-002   7.2087960177065244E-002   0.0000000000000000     
  -6.2999333239508001E-002   7.7893770682184671E-002   0.0000000000000000     
  -6.5401286417114166E-002   8.3877184566175322E-002   0.0000000000000000     
  -6.0078350045196918E-002   6.1896018708874442E-002   0.0000000000000000     
  -6.3023329237732642E-002   6.7296822436830619E-002   0.0000000000000000     
  -6.5844075601004318E-002   7.2883320231749912E-002   0.0000000000000000     
  -6.8540589135011987E-002   7.8655512093632377E-002   0.0000000000000000     
  -7.1112869839755607E-002   8.4613398022477943E-002   0.0000000000000000     
  -6.5168168776688296E-002   6.2878226561731684E-002   0.0000000000000000     
  -6.8354196733155834E-002   6.8208502723328679E-002   0.0000000000000000     
  -7.1392696575080933E-002   7.3738661518754259E-002   0.0000000000000000     
  -7.4283668302463593E-002   7.9468702948008396E-002   0.0000000000000000     
  -7.7027111915303800E-002   8.5398627011091133E-002   0.0000000000000000     
  -5.4586095530551382E-002   8.2551804250501640E-002   0.0000000000000000     
  -5.6571092028498401E-002   8.8747775397243031E-002   0.0000000000000000     
  -5.8498383405919292E-002   9.5101637073604514E-002   0.0000000000000000     
  -6.0367969662814082E-002  0.10161338927958605        0.0000000000000000     
  -6.2179850799182743E-002  0.10828303201518773        0.0000000000000000     
  -5.9892361647379405E-002   8.3189986642183203E-002   0.0000000000000000     
  -6.2043330588484172E-002   8.9363232162889772E-002   0.0000000000000000     
  -6.4131739328934109E-002   9.5694342298420873E-002   0.0000000000000000     
  -6.6157587868729245E-002  0.10218331704877649        0.0000000000000000     
  -6.8120876207869593E-002  0.10883015641395663        0.0000000000000000     
  -6.5401286417114166E-002   8.3877184566175322E-002   0.0000000000000000     
  -6.7715488246358535E-002   9.0027974268154620E-002   0.0000000000000000     
  -6.9962718829959664E-002   9.6335912227240014E-002   0.0000000000000000     
  -7.2142978167917579E-002  0.10280099844343155        0.0000000000000000     
  -7.4256266260232212E-002  0.10942323291672920        0.0000000000000000     
  -7.1112869839755607E-002   8.4613398022477943E-002   0.0000000000000000     
  -7.3587565002121533E-002   9.0742001713037521E-002   0.0000000000000000     
  -7.5991321908995976E-002   9.7026346860061966E-002   0.0000000000000000     
  -7.8324140560379049E-002  0.10346643346355126        0.0000000000000000     
  -8.0586020956270613E-002  0.11006226152350541        0.0000000000000000     
  -7.7027111915303800E-002   8.5398627011091133E-002   0.0000000000000000     
  -7.9659560855773109E-002   9.1505314497538529E-002   0.0000000000000000     
  -8.2217548566043047E-002   9.7765646196886699E-002   0.0000000000000000     
  -8.4701075046113614E-002  0.10417962210913562        0.0000000000000000     
  -8.7110140295984795E-002  0.11074724223428534        0.0000000000000000     
  -6.2179850799182743E-002  0.10828303201518773        0.0000000000000000     
  -6.3921519293117374E-002  0.11509851393159293        0.0000000000000000     
  -6.5580467622710081E-002  0.12204778367998516        0.0000000000000000     
  -6.7156695787960852E-002  0.12913084126036442        0.0000000000000000     
  -6.8650203788869671E-002  0.13634768667273064        0.0000000000000000     
  -6.8120876207869593E-002  0.10883015641395663        0.0000000000000000     
  -7.0008318246798165E-002  0.11562274546658081        0.0000000000000000     
  -7.1806627885957972E-002  0.12254896927926848        0.0000000000000000     
  -7.3515805125349054E-002  0.12960882785201969        0.0000000000000000     
  -7.5135849964971371E-002  0.13680232118483443        0.0000000000000000     
  -7.4256266260232212E-002  0.10942323291672920        0.0000000000000000     
  -7.6288462371831359E-002  0.11619083834976224        0.0000000000000000     
  -7.8225445767642746E-002  0.12309203744515990        0.0000000000000000     
  -8.0067216447666359E-002  0.13012683020292221        0.0000000000000000     
  -8.1813774411902199E-002  0.13729521662304919        0.0000000000000000     
  -8.0586020956270613E-002  0.11006226152350541        0.0000000000000000     
  -8.2761951668217024E-002  0.11680279258113722        0.0000000000000000     
  -8.4836921267764404E-002  0.12367698817765939        0.0000000000000000     
  -8.6810929754912780E-002  0.13068484831307198        0.0000000000000000     
  -8.8683977129662181E-002  0.13782637298737493        0.0000000000000000     
  -8.7110140295984795E-002  0.11074724223428534        0.0000000000000000     
  -8.9428786135955077E-002  0.11745860816070579        0.0000000000000000     
  -9.1641054386322918E-002  0.12430382147676700        0.0000000000000000     
  -9.3746945047088318E-002  0.13128288218246895        0.0000000000000000     
  -9.5746458118251276E-002  0.13839579027781165        0.0000000000000000     
  -6.8650203788869671E-002  0.13634768667273064        0.0000000000000000     
  -7.0068151861946995E-002  0.14368587636002175        0.0000000000000000     
  -7.1417700243703211E-002  0.15113296676517551        0.0000000000000000     
  -7.2698848934138319E-002  0.15868895788819207        0.0000000000000000     
  -7.3911597933252346E-002  0.16635384972907122        0.0000000000000000     
  -7.5135849964971371E-002  0.13680232118483443        0.0000000000000000     
  -7.6675198343297765E-002  0.14411700000233912        0.0000000000000000     
  -7.8142286198800967E-002  0.15154041502916024        0.0000000000000000     
  -7.9537113531481032E-002  0.15907256626529770        0.0000000000000000     
  -8.0859680341337892E-002  0.16671345371075158        0.0000000000000000     
  -8.1813774411902199E-002  0.13729521662304919        0.0000000000000000     
  -8.3474237729398326E-002  0.14458489168118530        0.0000000000000000     
  -8.5057724469202775E-002  0.15198355035297501        0.0000000000000000     
  -8.6564234631315559E-002  0.15949119263841832        0.0000000000000000     
  -8.7993768215736665E-002  0.16710781853751519        0.0000000000000000     
  -8.8683977129662181E-002  0.13782637298737493        0.0000000000000000     
  -9.0465270020248775E-002  0.14508955139656024        0.0000000000000000     
  -9.2164015054908677E-002  0.15246237273661989        0.0000000000000000     
  -9.3780212233641969E-002  0.15994483700755380        0.0000000000000000     
  -9.5313861556448623E-002  0.16753694420936208        0.0000000000000000     
  -9.5746458118251276E-002  0.13839579027781165        0.0000000000000000     
  -9.7648295215849001E-002  0.14563097914846398        0.0000000000000000     
  -9.9461157955918658E-002  0.15297688218009484        0.0000000000000000     
 -0.10118504633846026       0.16043349937270426        0.0000000000000000     
 -0.10281996036347381       0.16800083072629218        0.0000000000000000     
  -7.3911597933252346E-002  0.16635384972907122        0.0000000000000000     
  -7.5052308990513600E-002  0.17411811890639442        0.0000000000000000     
  -7.6117343855390485E-002  0.18197224203874296        0.0000000000000000     
  -7.7106702527882973E-002  0.18991621912611681        0.0000000000000000     
  -7.8020385007991105E-002  0.19795005016851597        0.0000000000000000     
  -8.0859680341337892E-002  0.16671345371075158        0.0000000000000000     
  -8.2106336035349448E-002  0.17445383235097059        0.0000000000000000     
  -8.3273430020493491E-002  0.18228445717140351        0.0000000000000000     
  -8.4360962296770078E-002  0.19020532817205024        0.0000000000000000     
  -8.5368932864179140E-002  0.19821644535291091        0.0000000000000000     
  -8.7993768215736665E-002  0.16710781853751519        0.0000000000000000     
  -8.9343514540528690E-002  0.17482402317249740        0.0000000000000000     
  -9.0610662923754220E-002  0.18263040166559658        0.0000000000000000     
  -9.1795213365413283E-002  0.19052695401681272        0.0000000000000000     
  -9.2897165865505879E-002  0.19851368022614582        0.0000000000000000     
  -9.5313861556448623E-002  0.16753694420936208        0.0000000000000000     
  -9.6763844506051300E-002  0.17522869137097480        0.0000000000000000     
  -9.8129042565172644E-002  0.18301007552132217        0.0000000000000000     
  -9.9409455733812616E-002  0.19088109666040412        0.0000000000000000     
 -0.10060508401197127       0.19884175478822075        0.0000000000000000     
 -0.10281996036347381       0.16800083072629218        0.0000000000000000     
 -0.10436732593191730       0.17566783694640281        0.0000000000000000     
 -0.10582856894474872       0.18342347873858025        0.0000000000000000     
 -0.10720368940196809       0.19126775610282454        0.0000000000000000     
 -0.10849268730357538       0.19920066903913569        0.0000000000000000     
  -7.8020385007991105E-002  0.19795005016851597        0.0000000000000000     
  -7.8859721218933768E-002  0.20606642720053531        0.0000000000000000     
  -7.9626041083929913E-002  0.21425804225676950        0.0000000000000000     
  -8.0319344602979528E-002  0.22252489533721870        0.0000000000000000     
  -8.0939631776082641E-002  0.23086698644188280        0.0000000000000000     
  -8.5368932864179140E-002  0.19821644535291091        0.0000000000000000     
  -8.6301204044536603E-002  0.20630984714420861        0.0000000000000000     
  -8.7161638159658328E-002  0.21447757197616663        0.0000000000000000     
  -8.7950235209544328E-002  0.22271961984878497        0.0000000000000000     
  -8.8666995194194603E-002  0.23103599076206360        0.0000000000000000     
  -9.2897165865505879E-002  0.19851368022614582        0.0000000000000000     
  -9.3921897220886008E-002  0.20658308446159657        0.0000000000000000     
  -9.4874784228407727E-002  0.21472767089116571        0.0000000000000000     
  -9.5755826888071008E-002  0.22294743951485310        0.0000000000000000     
  -9.6565025199875906E-002  0.23124239033265886        0.0000000000000000     
 -0.10060508401197127       0.19884175478822075        0.0000000000000000     
 -0.10172180074798198       0.20688613915269918        0.0000000000000000     
 -0.10276547929017808       0.21500833900176661        0.0000000000000000     
 -0.10373611963855961       0.22320835433542305        0.0000000000000000     
 -0.10463372179312655       0.23148618515366851        0.0000000000000000     
 -0.10849268730357538       0.19920066903913569        0.0000000000000000     
 -0.10970091462582451       0.20721901121751643        0.0000000000000000     
 -0.11083372334496942       0.21531957630796944        0.0000000000000000     
 -0.11189111346101009       0.22350236431049489        0.0000000000000000     
 -0.11287308497394652       0.23176737522509261        0.0000000000000000     
  -8.0939631776082641E-002  0.23086698644188280        0.0000000000000000     
  -8.1476157148783604E-002  0.23930498044871351        0.0000000000000000     
  -8.1918175266626772E-002  0.24785954223566245        0.0000000000000000     
  -8.2265686129612159E-002  0.25653067180272965        0.0000000000000000     
  -8.2518689737739750E-002  0.26531836914991502        0.0000000000000000     
  -8.8666995194194603E-002  0.23103599076206360        0.0000000000000000     
  -8.9297385973269389E-002  0.23945219229809450        0.0000000000000000     
  -8.9826875406428919E-002  0.24799373203896966        0.0000000000000000     
  -9.0255463493673221E-002  0.25666060998468909        0.0000000000000000     
  -9.0583150235002297E-002  0.26545282613525267        0.0000000000000000     
  -9.6565025199875906E-002  0.23124239033265886        0.0000000000000000     
  -9.7293073647602091E-002  0.23963890282644548        0.0000000000000000     
  -9.7930666715029396E-002  0.24816335647807564        0.0000000000000000     
  -9.8477804402157740E-002  0.25681575128754924        0.0000000000000000     
  -9.8934486708987190E-002  0.26559608725486639        0.0000000000000000     
 -0.10463372179312655       0.23148618515366851        0.0000000000000000     
 -0.10546322017178175       0.23986511203376645        0.0000000000000000     
 -0.10622954919242815       0.24836841555298034        0.0000000000000000     
 -0.10693270885506570       0.25699609571131021        0.0000000000000000     
 -0.10757269915969447       0.26574815250875605        0.0000000000000000     
 -0.11287308497394652       0.23176737522509261        0.0000000000000000     
 -0.11380782554580834       0.24013081992005736        0.0000000000000000     
 -0.11472352283862522       0.24860890926368381        0.0000000000000000     
 -0.11562017685239716       0.25720164325597189        0.0000000000000000     
 -0.11649778758712413       0.26590902189692167        0.0000000000000000     
  -8.2518689737739750E-002  0.26531836914991502        0.0000000000000000     
  -8.2716188523594192E-002  0.27424900633337745        0.0000000000000000     
  -8.2897184919760086E-002  0.28334895540927552        0.0000000000000000     
  -8.3061678926237448E-002  0.29261821637760915        0.0000000000000000     
  -8.3209670543026276E-002  0.30205678923837848        0.0000000000000000     
  -9.0583150235002297E-002  0.26545282613525267        0.0000000000000000     
  -9.0840296942312507E-002  0.27443341504543384        0.0000000000000000     
  -9.1057264927500284E-002  0.28366541127000555        0.0000000000000000     
  -9.1234054190565655E-002  0.29314881480896804        0.0000000000000000     
  -9.1370664731508539E-002  0.30288362566232113        0.0000000000000000     
  -9.8934486708987190E-002  0.26559608725486639        0.0000000000000000     
  -9.9311756147515251E-002  0.27460268570006519        0.0000000000000000     
  -9.9620655229739410E-002  0.28393386794318409        0.0000000000000000     
  -9.9861183955659724E-002  0.29358963398422283        0.0000000000000000     
 -0.10003334232527614       0.30356998382318168        0.0000000000000000     
 -0.10757269915969447       0.26574815250875605        0.0000000000000000     
 -0.10813056613920238       0.27475681829727167        0.0000000000000000     
 -0.10858735582647748       0.28415432542881092        0.0000000000000000     
 -0.10894306822151967       0.29394067390337375        0.0000000000000000     
 -0.10919770332432902       0.30411586372096022        0.0000000000000000     
 -0.11649778758712413       0.26590902189692167        0.0000000000000000     
 -0.11729672691737396       0.27489581283705311        0.0000000000000000     
 -0.11795736671771440       0.28432678372688608        0.0000000000000000     
 -0.11847970698814550       0.29420193456642063        0.0000000000000000     
 -0.11886374772866722       0.30452126535565666        0.0000000000000000     
 </DataArray>
 <DataArray  type="Float64" Name="stress" NumberOfComponents="3" format="ascii">
   6241723906.6938400        190182425.75570035        82896944.692917734     
   5950846786.9053974        87300053.093512535        44446144.874163643     
   5668358804.9411182        12381473.178540468        18061448.962797694     
   5394259960.8010073       -34573313.989206314        3742856.9588314155     
   5128550254.4850502       -53564308.409772158        1490368.8622532799     
   5793454913.1229000        121366699.61076069        205483033.50852278     
   5541015749.6060724        54450398.312690258        184116195.14846960     
   5293749579.6893454        4777409.0149025917        171951048.92902461     
   5051656403.3726997       -27652268.282586098        168987594.85017312     
   4814736220.6561470       -42838633.579772472        175225832.91192469     
   5375485702.4413481        61640908.332654476        339343162.02506864     
   5153300461.5767326        28235468.312840223        331308116.86230725     
   4933072070.0881462        1352859.5464320183        329610352.07335174     
   4714800527.9755707       -19006917.966594458        334249867.65821069     
   4498485835.2390137       -32843864.226237774        345226663.61686528     
   4987816274.6491957        11005051.921360970        484477330.24255759     
   4787700922.8173857        8655263.0940036774        486021910.01566929     
   4586326276.1375322        2107824.7731361389        491039358.39578944     
   4383692334.6096182       -8637263.0412592888        499529675.38292569     
   4179799098.2336469       -23580000.349168301        511492860.97708029     
   4630446629.7464294       -30540869.623119831        640885538.16099572     
   4444217133.3280239       -4290217.3438386917        648257574.60855341     
   4253512197.8374910        7042304.6950085163        656238067.89633596     
   4058331823.2748337        3456696.4934294224        664827018.02434146     
   3858676009.6400466       -15047041.948575735        674024424.99257064     
   5128550254.4850502       -53564308.409772158        1490368.8622532799     
   4987689152.7520742       -25377213.946731806        560340.20106719388     
   4844850017.0468311       -3783566.0579392910        3600045.0265565994     
   4700032847.3693218        11216635.256635904        10609483.338716371     
   4553237643.7195311        19623389.996960878        21588655.137546513     
   4814736220.6561470       -42838633.579772472        175225832.91192469     
   4682242975.3515148       -20793985.657595396        171499423.56779042     
   4548468779.5209312       -3019172.8219130039        171657581.03744194     
   4413413633.1644011        10485804.927286625        175700305.32088023     
   4277077536.2819242        19720947.589978218        183627596.41811007     
   4498485835.2390137       -32843864.226237774        345226663.61686528     
   4374117113.0116234       -17014662.850250006        339517137.61049122     
   4249164523.7046008       -3131685.0730166435        337607011.74501938     
   4123628067.3179584        8805069.1054673195        339496286.02044737     
   3997507743.8516932        18795599.685207844        345184960.43678617     
   4179799098.2336469       -23580000.349168301        511492860.97708029     
   4063311565.7323918       -14039245.524717331        504613482.32917833     
   3946937249.5978374       -4121102.8112630844        501448337.14929098     
   3830676149.8299804        6174427.7911846638        501997425.43742675     
   3714528266.4288297        16847346.282648325        506260747.19357830     
   3858676009.6400466       -15047041.948575735        674024424.99257064     
   3749826333.5138335       -11867733.680974960        666788457.72384751     
   3641786957.2006454       -5987426.0366265774        663181557.25025964     
   3534557880.7004757        2593880.9844548702        663203723.57180882     
   3428139104.0133357        13876187.382295847        666854956.68848741     
   4553237643.7195311        19623389.996960878        21588655.137546513     
   4347725997.8918943        8401488.6397535801        15167486.256382713     
   4142864656.2931032       -652731.95463562012        12191482.293830372     
   3938653618.9231629       -7539271.7861888409        12660643.249901015     
   3735092885.7820725       -12258130.854907274        16574969.124575431     
   4277077536.2819242        19720947.589978218        183627596.41811007     
   4081414930.9010682        9923309.2006430626        176843258.54988751     
   3886219103.4071236        1681597.1010148525        173861264.65260682     
   3691490053.8000998       -5004188.7088727951        174681614.72626382     
   3497227782.0799966       -10134048.229034424        179304308.77085823     
   3997507743.8516932        18795599.685207844        345184960.43678617     
   3812714690.4956932        10728377.737169981        337823339.51591700     
   3628204888.6846738        3605327.6057391167        334621241.61831439     
   3443978338.4186411       -2573550.7090816498        335578666.74397665     
   3260035039.6975994       -7808257.2072579861        340695614.89290738     
   3714528266.4288297        16847346.282648325        506260747.19357830     
   3541625276.6757588        10816694.249324799        498107729.15447569     
   3368822012.1257443        5118459.5595054626        494471413.19096500     
   3196118472.7787805       -247357.78680109978        495351799.30304974     
   3023514658.6348758       -5280757.7895925045        500748887.49072117     
   3428139104.0133357        13876187.382295847        666854956.68848741     
   3268146689.4412813        10188258.737123132        657696427.46556282     
   3108070473.7303438        6220992.9623370171        653411779.37055731     
   2947910456.8805299        1974390.0579622984        654001012.40347457     
   2787666638.8918357       -2551549.9760119915        659464126.56430578     
   3735092885.7820725       -12258130.854907274        16574969.124575431     
   3565610819.2592216       -7003404.6162722111        9084392.8844832946     
   3395313603.6648369       -4465841.9494490623        6670642.5983878225     
   3224201238.9988704       -4645442.8545533419        9333718.2663043831     
   3052273725.2613449       -7542207.3315089941        17073619.888230417     
   3497227782.0799966       -10134048.229034424        179304308.77085823     
   3340332003.0752740       -4168978.5780999660        170939121.48628587     
   3182893609.7153554       -12623.444462656975        167014942.47420803     
   3024912602.0002599        2335017.1719197035        167531771.73459014     
   2866388979.9300027        2873943.2710615396        172489609.26746684     
   3260035039.6975994       -7808257.2072579861        340695614.89290738     
   3113908926.2637663       -1677830.7282288074        331773773.73298299     
   2967512733.1911306        3552330.2881292105        326657123.16400617     
   2820846460.4796953        7882225.8418202400        325345663.18599272     
   2673910108.1294727        11311855.932882786        327839393.79892623     
   3023514658.6348758       -5280757.7895925045        500748887.49072117     
   2886341588.8247209        470038.93337070942        491588349.62455159     
   2749170974.0921535        6229019.2482945919        485597184.66780299     
   2612002814.4371648        11996183.155151010        482775392.62048703     
   2474837109.8597679        17771530.653961182        483122973.48260248     
   2787666638.8918357       -2551549.9760119915        659464126.56430578     
   2657629990.7581477        2274630.4067288637        650382849.16099560     
   2527868332.4184237        8017443.4360265732        643835126.98558962     
   2398381663.8726649        14676889.111868858        639820960.03807807     
   2269169985.1208696        22252967.434268355        638340348.31848049     
   3052273725.2613449       -7542207.3315089941        17073619.888230417     
   2886116787.8946018       -8976954.8786302805        11666682.443120737     
   2720597534.1171608       -8286090.4614009857        7047039.5716914190     
   2555715963.9290199       -5469614.0798511505        3214691.2739463062     
   2391472077.3302016       -527525.73387932777        169637.54988411712     
   2866388979.9300027        2873943.2710615396        172489609.26746684     
   2703140621.0978107        1732994.8527314663        165659780.62144190     
   2540261830.3643541        1823940.0968600512        160212225.70627052     
   2377752607.7296433        3146779.0034699440        156146944.52197513     
   2215612953.1936941        5701511.5726087093        153463937.06854481     
   2673910108.1294727        11311855.932882786        327839393.79892623     
   2515270268.2809114        10974688.778020382        319273872.54633033     
   2356731881.0405493        10975696.983806729        312685604.18176824     
   2198294946.4083757        11314880.550223470        308074588.70527422     
   2039959464.3843958        11992239.477293015        305440826.11681342     
   2474837109.8597679        17771530.653961182        483122973.48260248     
   2322505729.4439497        18748126.897337556        472508958.21776837     
   2170007686.1457610        19169180.199479222        464467174.99818021     
   2017342979.9652085        19034690.560394049        458997623.82382160     
   1864511610.9023066        18344657.980149865        456100304.69470334     
   2269169985.1208696        22252967.434268355        638340348.31848049     
   2124847004.5868869        25053309.210597634        625365037.63578331     
   1980089245.6799865        26404389.743862391        615556938.15550029     
   1834896708.4001603        26306209.034038424        608916049.87764108     
   1689269392.7474098        24758767.081144631        605442372.80220234     
   2391472077.3302016       -527525.73387932777        169637.54988411712     
   2249110906.6772203        7018375.0169970989       -6601753.5872653350     
   2103500402.5148666        3733164.0699305534       -11203653.831996037     
   1954640564.8431187       -10383158.575098515       -13636063.184283650     
   1802531393.6619649       -35330592.918147087       -13898981.644149950     
   2215612953.1936941        5701511.5726087093        153463937.06854481     
   2077619870.7758691        12794476.722864509        143175628.33501017     
   1937473216.4872084        12708868.970355272        134182420.18236902     
   1795172990.3277020        5444688.3150117397        126484312.61063226     
   1650719192.2973721       -8998065.2430663109        120081305.61980818     
   2039959464.3843958        11992239.477293015        305440826.11681342     
   1903836212.1687660        17882791.617019534        292913988.36521548     
   1766655149.7208509        20247309.649143457        280807860.88299096     
   1628416277.0406621        19085793.573675036        269122443.67013240     
   1489119594.1281958        14398243.390626192        257857736.72664529     
   1864511610.9023066        18344657.980149865        456100304.69470334     
   1727759930.8559163        22283319.699450612        442613326.50336540     
   1591046202.2158029        26348486.106351137        428672668.26986146     
   1454370424.9819736        30540157.200843632        414278329.99419057     
   1317732599.1544178        34858332.982938230        399430311.67636687     
   1689269392.7474098        24758767.081144631        605442372.80220234     
   1549391026.8373137        25996060.970139265        592273642.74942851     
   1410646373.9720552        31012398.341925621        577776842.34297478     
   1273035434.1516414        39807779.196523368        561951971.58281898     
   1136558207.3760583        52382203.533889115        544799030.46896935     
   1802531393.6619649       -35330592.918147087       -13898981.644149950     
   1771534067.2272437       -16632663.292915583       -8278677.1175014097     
   1748607048.2871604        28966291.314442635       -41466531.120624661     
   1733750336.8417184        101466270.90394425       -113462543.65348384     
   1726963932.8909540        200867275.47569263       -224266714.71608406     
   1650719192.2973721       -8998065.2430663109        120081305.61980818     
   1527920794.5474238       -13875381.792331398        135640539.98670334     
   1409299364.4428771       -4829472.8569019437        124832165.60419738     
   1294854901.9837003        18139661.563076794        87656182.472312748     
   1184587407.1699252        55032021.467761755        24112590.591028284     
   1489119594.1281958        14398243.390626192        257857736.72664529     
   1310064553.0069053       -3390990.9498701096        278813671.10966355     
   1131293139.6817262       -20234799.303331614        285842546.52363664     
   952805354.15267539       -36133181.669692159        278944362.96856654     
   774601196.41977715       -51086138.048871487        258119120.44444996     
   1317732599.1544178        34858332.982938230        399430311.67636687     
   1117965342.6056287        14820509.234280527        421240716.25136930     
   914588374.00370979       -17249688.024795234        441564611.63767886     
   707601693.34866083       -61352258.794304997        460401997.83529949     
   497005300.64047331       -117487203.07426816        477752874.84423184     
   1136558207.3760583        52382203.533889115        544799030.46896935     
   951623163.34363556        40759118.760269403        562921675.41181958     
   759185067.40882444        4125860.9786721766        591998360.94633734     
   559243919.57162035       -57517569.810887575        632029087.07250190     
   351799719.83203429       -144171173.60839874        683013853.79034424     
   1726963932.8909540        200867275.47569263       -224266714.71608406     
   1456549309.9188426        184611302.97033352       -96666121.806953371     
   1153953273.0538702        61083950.822115541        60102197.979884960     
   819175822.29603434       -169714780.96900290        246038244.64435533     
   452216957.64533293       -507784892.40297323        461142018.18650001     
   1184587407.1699252        55032021.467761755        24112590.591028284     
   977591239.80597138        11861410.980513752        155537810.34029362     
   732762477.13054287       -157417850.54496115        312789800.90633404     
   450101119.14366210       -452805763.10858810        495868562.28909194     
   129607165.84532595       -874302326.71046615        704774094.48858142     
   774601196.41977715       -51086138.048871487        258119120.44444996     
   621477895.91843069       -124035063.14173347        386775922.04553038     
   424870818.68703794       -341929910.66806287        537918538.40242589     
   184779964.72559056       -704770680.62793601        711546969.51509440     
  -98794665.965907037       -1212557373.0212736        907661215.38358760     
   497005300.64047331       -117487203.07426816        477752874.84423184     
   388209278.25622183       -223078119.39639446        597048213.30875254     
   230278297.72333142       -492452229.54730582        735488410.46812642     
   23212359.041816890       -925609533.52699482        893073466.32238460     
  -232988537.78834766       -1522550031.3354700        1069803380.8715175     
   351799719.83203429       -144171173.60839874        683013853.79034424     
   277785386.81935626       -285267757.78344578        786354684.12993491     
   148984914.23947147       -608984807.18252647        905499417.10347891     
  -34601697.907660723       -1115322321.8057208        1040448052.7109612     
  -272974449.62200439       -1804280301.6530313        1191200590.9523647     
   4630446629.7464294       -30540869.623119831        640885538.16099572     
   4444217133.3280239       -4290217.3438386917        648257574.60855341     
   4253512197.8374910        7042304.6950085163        656238067.89633596     
   4058331823.2748337        3456696.4934294224        664827018.02434146     
   3858676009.6400466       -15047041.948575735        674024424.99257064     
   4300912457.2587757        18863561.510431290        790881696.54171932     
   4112617768.3899574        21007852.306550503        785523443.10278022     
   3922065719.0049753        15627608.048780203        783531129.74248481     
   3729256309.1038227        2722828.7371191978        784904756.46084034     
   3534189538.6865025       -17706485.628439665        789644323.25784469     
   3942288098.8305268        59540936.861800432        930550589.70786405     
   3759806741.0496550        39942423.236272812        915049804.69770777     
   3577286101.3085833        20212969.743392706        905672443.00462735     
   3394726179.6073003        352576.38315057755        902418504.62862206     
   3212126975.9458098       -19638756.844447732        905287989.56969476     
   3554573554.4616809        91491256.430994272        1059892217.6594312     
   3385784051.3071194        52513495.445326209        1036836659.3933487     
   3219173344.7483120        20798389.778837800        1022662007.6827672     
   3054741434.7852592       -3654060.5684726238        1017368262.5276858     
   2892488321.4179592       -20843855.596605062        1020955423.9281075     
   3137768824.1522355        114714520.21800447        1178906580.3964207     
   2990549699.1623464        58721068.933705449        1150884007.1896975     
   2847727449.3241701        17383868.155126810        1134499823.7769034     
   2709302074.6377058       -9297082.1177483797        1129754030.1580362     
   2575273575.1029582       -21321781.884907603        1136646626.3330958     
   3858676009.6400466       -15047041.948575735        674024424.99257064     
   3749826333.5138335       -11867733.680974960        666788457.72384751     
   3641786957.2006454       -5987426.0366265774        663181557.25025964     
   3534557880.7004757        2593880.9844548702        663203723.57180882     
   3428139104.0133357        13876187.382295847        666854956.68848741     
   3534189538.6865025       -17706485.628439665        789644323.25784469     
   3435325981.6766396       -11956387.439631462        783929945.08311665     
   3336951729.2700586       -4575273.9065525532        781674870.99017334     
   3239066781.4667563        4436854.9707896709        782879100.97900546     
   3141671138.2667360        15079999.192406535        787542635.04961419     
   3212126975.9458098       -19638756.844447732        905287989.56969476     
   3122764501.7284241       -11463379.631587386        900720706.07759917     
   3033570336.9045701       -2726971.1069455147        899442963.95392299     
   2944544481.4742613        6570468.7294988632        901454763.19867122     
   2855686935.4374866        16428939.877730727        906756103.81184137     
   2892488321.4179592       -20843855.596605062        1020955423.9281075     
   2812141893.6691751       -10388710.256858587        1017160740.7072754     
   2731642780.1041803       -442517.63781070709        1016485836.1415077     
   2650990980.7229853        8994722.2605643272        1018930710.2308075     
   2570186495.5255857        17923009.438255072        1024495362.9751776     
   2575273575.1029582       -21321781.884907603        1136646626.3330958     
   2503458157.4989018       -8732379.3154320717        1133250048.9721615     
   2431169058.8688903        2278086.5008550882        1132803487.5529323     
   2358406279.2129388        11709615.564003944        1135306942.0754139     
   2285169818.5310340        19562207.873981237        1140760412.5396097     
   3428139104.0133357        13876187.382295847        666854956.68848741     
   3268146689.4412813        10188258.737123132        657696427.46556282     
   3108070473.7303438        6220992.9623370171        653411779.37055731     
   2947910456.8805299        1974390.0579622984        654001012.40347457     
   2787666638.8918357       -2551549.9760119915        659464126.56430578     
   3141671138.2667360        15079999.192406535        787542635.04961419     
   2994315534.2168155        11536836.476180673        778497176.98328698     
   2846999206.6518283        8124595.3763934374        774265053.74554312     
   2699722155.5717754        4843275.8930552006        774846265.33637965     
   2552484380.9766502        1692878.0261472464        780240811.75579894     
   2855686935.4374866        16428939.877730727        906756103.81184137     
   2720795152.4830170        12978646.262451410        897967307.46323168     
   2586065723.6372914        10069533.009646773        893931299.64386010     
   2451498648.9003119        7701600.1193288565        894648080.35373509     
   2317093928.2720695        5874847.5914764404        900117649.59284019     
   2570186495.5255857        17923009.438255072        1024495362.9751776     
   2447585544.2398806        14513688.095916033        1016106818.9053955     
   2325270024.6867294        12055805.862089396        1012410517.0655096     
   2203239936.8661375        10549362.736789227        1013406457.4555267     
   2081495280.7780955        9994358.7199867964        1019094640.0754415     
   2285169818.5310340        19562207.873981237        1140760412.5396097     
   2174686709.4874096        16141961.976580262        1132915711.3097639     
   2064612109.8001494        14083413.933728099        1129702706.0104799     
   1954946019.4692578        13386563.745437384        1131121396.6417563     
   1845688438.4947290        14051411.411689281        1137171783.2035947     
   2787666638.8918357       -2551549.9760119915        659464126.56430578     
   2657629990.7581477        2274630.4067288637        650382849.16099560     
   2527868332.4184237        8017443.4360265732        643835126.98558962     
   2398381663.8726649        14676889.111868858        639820960.03807807     
   2269169985.1208696        22252967.434268355        638340348.31848049     
   2552484380.9766502        1692878.0261472464        780240811.75579894     
   2429503706.0771031        6230981.8800758123        771595905.76508784     
   2306754988.8544970        11542277.990474582        765911595.46399915     
   2184238229.3088279        17626766.357328176        763187880.85253274     
   2061953427.4400978        24484446.980651021        763424761.93069649     
   2317093928.2720695        5874847.5914764404        900117649.59284019     
   2202389342.2115893        10490909.598083735        891858910.87819886     
   2087873681.7110181        15736723.471057177        886987808.31490076     
   1973546946.7703569        21612289.210397363        885504341.90294743     
   1859409137.3896060        28117606.816110969        887408511.64234638     
   2081495280.7780955        9994358.7199867964        1019094640.0754415     
   1976286899.1616001        15054413.560748100        1011171864.5003326     
   1871224410.9879844        20600779.877773046        1007063765.5382897     
   1766307816.2572534        26633457.671073318        1006770343.1893160     
   1661537114.9694047        33152446.940664828        1010291597.4534167     
   1845688438.4947290        14051411.411689281        1137171783.2035947     
   1751196376.9271371        19921493.768073678        1129534766.6314881     
   1656807176.6853950        26134447.210623205        1126139467.1341734     
   1562520837.7695084        32690271.739357054        1126985884.7116513     
   1468337360.1794829        39588967.354295731        1132074019.3639138     
   2269169985.1208696        22252967.434268355        638340348.31848049     
   2124847004.5868869        25053309.210597634        625365037.63578331     
   1980089245.6799865        26404389.743862391        615556938.15550029     
   1834896708.4001603        26306209.034038424        608916049.87764108     
   1689269392.7474098        24758767.081144631        605442372.80220234     
   2061953427.4400978        24484446.980651021        763424761.93069649     
   1926061969.0796251        27180798.561314821        751752984.02186608     
   1789886246.1662960        28929601.632463455        743423778.93539679     
   1653426258.7001188        29730856.194109857        738437146.67128265     
   1516682006.6810844        29584562.246243238        736793087.22952878     
   1859409137.3896060        28117606.816110969        887408511.64234638     
   1732450234.4024663        30860278.161049604        877215865.96412885     
   1605357580.6825440        33157113.730052769        870541154.72821724     
   1478131176.2298384        35008113.523102880        867384377.93459809     
   1350771021.0443513        36413277.540222883        867745535.58327222     
   1661537114.9694047        33152446.940664828        1010291597.4534167     
   1544011800.5554194        36091748.009821236        1001753683.4625659     
   1426503249.2287304        39086926.036620259        996909065.53395426     
   1309011460.9893246        42137981.021029294        995757743.66757953     
   1191536435.8372025        45244912.963063002        998299717.86343884     
   1468337360.1794829        39588967.354295731        1132074019.3639138     
   1360746667.5384896        42875208.107644618        1125366436.5171826     
   1253323251.8048527        46719038.552170157        1122527511.3526158     
   1146067112.9785731        51120458.687891364        1123557243.8702300     
   1038978251.0596517        56079468.514802277        1128455634.0700204     
   1689269392.7474098        24758767.081144631        605442372.80220234     
   1549391026.8373137        25996060.970139265        592273642.74942851     
   1410646373.9720552        31012398.341925621        577776842.34297478     
   1273035434.1516414        39807779.196523368        561951971.58281898     
   1136558207.3760583        52382203.533889115        544799030.46896935     
   1516682006.6810844        29584562.246243238        736793087.22952878     
   1374842935.5201681        27889611.599119306        727692766.33843446     
   1233274803.0065942        27097789.776461482        719088952.80873942     
   1091977609.1403484        27209096.778235614        710981646.64045036     
   950951353.92144263        28223532.604475200        703370847.83355355     
   1350771021.0443513        36413277.540222883        867745535.58327222     
   1212184323.8186038        33350006.112788618        861707053.72343040     
   1073005790.8426852        28313948.851454616        857989656.94008291     
   933235422.11660111        21305105.756224394        856593345.23322427     
   792873217.64034438        12323476.827103108        857518118.60286260     
   1191536435.8372025        45244912.963063002        998299717.86343884     
   1061415191.7326025        42377244.511122823        994316504.90442407     
   929839337.48033035        34660875.566921353        994478954.73699653     
   796808873.08038068        22095806.130478084        998787067.36115658     
   662323798.53275955        4682036.2017850280        1007240842.7768961     
   1038978251.0596517        56079468.514802277        1128455634.0700204     
   922535539.26217604        54971326.794115990        1125521119.8814127     
   803775442.91952598        46138569.922851652        1128556846.1994851     
   682697962.03169489        29581197.900976807        1137562813.0242360     
   559303096.59869397        5299210.7285360694        1152539020.3556695     
   1136558207.3760583        52382203.533889115        544799030.46896935     
   951623163.34363556        40759118.760269403        562921675.41181958     
   759185067.40882444        4125860.9786721766        591998360.94633734     
   559243919.57162035       -57517569.810887575        632029087.07250190     
   351799719.83203429       -144171173.60839874        683013853.79034424     
   950951353.92144263        28223532.604475200        703370847.83355355     
   791732630.08706295        11108223.540661812        721290438.13622475     
   623887799.93146932       -34760773.260533959        749305208.98961163     
   447416863.45464522       -109383457.79915041        787415160.39371777     
   262319820.65660650       -212759830.07516283        835620292.34855747     
   792873217.64034438        12323476.827103108        857518118.60286260     
   656916928.17275119       -11020222.276267409        873924424.11004758     
   511211477.96510923       -66861123.846460640        899567050.12701762     
   355756867.01740891       -155199227.88351130        934445996.65377235     
   190553095.32965809       -276034534.38739979        978561263.69029975     
   662323798.53275955        4682036.2017850280        1007240842.7768961     
   547176057.60069406       -25626218.690506995        1020823633.3333024     
   421156101.50974953       -92175190.779084384        1042783884.3585480     
   284263930.25992262       -194964880.06393069        1073121595.8526331     
   136499543.85120726       -333995286.54507250        1111836767.8155544     
   559303096.59869397        5299210.7285360694        1152539020.3556695     
   462510018.37089854       -32709765.702088058        1161988065.8059831     
   353721670.56539696       -110702974.05839926        1178955711.6841974     
   232938053.18217447       -228680414.34044698        1203441957.9903190     
   100159166.22123596       -386642086.54821467        1235446804.7243314     
   351799719.83203429       -144171173.60839874        683013853.79034424     
   277785386.81935626       -285267757.78344578        786354684.12993491     
   148984914.23947147       -608984807.18252647        905499417.10347891     
  -34601697.907660723       -1115322321.8057208        1040448052.7109612     
  -272974449.62200439       -1804280301.6530313        1191200590.9523647     
   262319820.65660650       -212759830.07516283        835620292.34855747     
   223611384.94451559       -352394909.32750559        885004051.27242768     
   140666227.57423237       -639485727.44049180        945405019.73448622     
   13484348.545758486       -1074032284.4140999        1016823197.7347519     
  -157934252.14090008       -1656034580.2483487        1099258585.2732046     
   190553095.32965809       -276034534.38739979        978561263.69029975     
   173474290.93030083       -418310988.51340747        986295605.42564702     
   122708182.78179330       -672878455.13659132        1000260463.6034440     
   38254770.884122133       -1039736934.2569760        1020455838.2236930     
  -79885944.762701333       -1518886425.8745377        1046881729.2863778     
   136499543.85120726       -333995286.54507250        1111836767.8155544     
   127374104.77674147       -483015995.34110445        1090229346.5895855     
   95110779.862162828       -709162990.27084112        1070065748.7103245     
   39709569.107441962       -1012436271.3343618        1051345974.1777607     
  -38829527.487378836       -1392835838.5315895        1034070022.9919124     
   100159166.22123596       -386642086.54821467        1235446804.7243314     
   85310826.483824074       -546509929.81058896        1196805274.7642608     
   57874018.815316439       -748339332.84328234        1154820875.0551419     
   17848743.215716362       -992130295.64626765        1109493605.5969813     
  -34765000.314954638       -1277882818.2195110        1060823466.3897700     
   3137768824.1522355        114714520.21800447        1178906580.3964207     
   2990549699.1623464        58721068.933705449        1150884007.1896975     
   2847727449.3241701        17383868.155126810        1134499823.7769034     
   2709302074.6377058       -9297082.1177483797        1129754030.1580362     
   2575273575.1029582       -21321781.884907603        1136646626.3330958     
   2695755670.4559288        54632361.764994144        1223264879.7692907     
   2582702543.6807389        23675666.811421871        1207911612.3027449     
   2472179944.8067718        1154064.8619307280        1201423779.1311059     
   2364187873.8340359       -12932444.083463669        1203801380.2543681     
   2258726330.7625265       -18583860.024762750        1215044415.6725373     
   2282356226.4038320        3134316.2052513361        1274399172.8073721     
   2195546367.8461294       -5162441.4167706966        1269537805.9554369     
   2109400689.9391677       -11245263.536321521        1270768917.8993800     
   2023919192.6829467       -15114150.153401494        1278092508.6392097     
   1939101876.0774677       -16769101.268011332        1291508578.1749172     
   1897570491.9959393       -39779616.461231709        1332309459.5106652     
   1829081171.6585159       -27793255.750860095        1335762588.1477711     
   1759389684.7213497       -19814117.039637327        1342535240.0817351     
   1688496031.1844363       -15842200.327568889        1352627415.3125577     
   1616400211.0477788       -15877505.614649475        1366039113.8402417     
   1541398467.2322514       -74109436.234454870        1396995739.8791673     
   1483306955.1179018       -44216776.190853179        1406585958.8797498     
   1422146929.1533191       -24552495.648021996        1416722745.6781638     
   1357918389.3385081       -15116594.605957091        1427406100.2744150     
   1290621335.6734624       -15909073.064672649        1438636022.6685011     
   2575273575.1029582       -21321781.884907603        1136646626.3330958     
   2503458157.4989018       -8732379.3154320717        1133250048.9721615     
   2431169058.8688903        2278086.5008550882        1132803487.5529323     
   2358406279.2129388        11709615.564003944        1135306942.0754139     
   2285169818.5310340        19562207.873981237        1140760412.5396097     
   2258726330.7625265       -18583860.024762750        1215044415.6725373     
   2194156411.4596224       -8589842.7126308680        1210253751.2345169     
   2129283181.4793420        393139.00824403763        1208685466.1458290     
   2064106640.8216915        8365085.1378928423        1210339560.4064703     
   1998626789.4866710        15325995.676299453        1215216034.0164380     
   1939101876.0774677       -16769101.268011332        1291508578.1749172     
   1882555636.2403386       -9137014.8638317585        1285522592.0664904     
   1825876456.0744147       -1948062.8889777660        1283031348.7150128     
   1769064335.5796964        4797754.6565673351        1284034848.1204824     
   1712119274.7561798        11100437.772780776        1288533090.2829034     
   1616400211.0477788       -15877505.614649475        1366039113.8402417     
   1568655831.8410537       -10373895.769035935        1359056571.4680758     
   1520948882.6541135       -4745519.1908080578        1355841135.2604778     
   1473279363.4869478        1007624.1200075746        1356392805.2174501     
   1425647274.3395665        6885534.1634263992        1360711581.3389876     
   1290621335.6734624       -15909073.064672649        1438636022.6685011     
   1252456998.2617676       -12300485.428232193        1430855689.4392726     
   1214500461.2184312       -7999229.8972610235        1427114825.7822309     
   1176751724.5434484       -3005306.4717786908        1427413431.6973760     
   1139210788.2368238        2681284.8482299447        1431751507.1847091     
   2285169818.5310340        19562207.873981237        1140760412.5396097     
   2174686709.4874096        16141961.976580262        1132915711.3097639     
   2064612109.8001494        14083413.933728099        1129702706.0104799     
   1954946019.4692578        13386563.745437384        1131121396.6417563     
   1845688438.4947290        14051411.411689281        1137171783.2035947     
   1998626789.4866710        15325995.676299453        1215216034.0164380     
   1900639378.4349506        12582951.501022458        1207913776.2483687     
   1802987132.9186325        10957125.777082086        1205435620.6076341     
   1705670052.9376972        10448518.504423738        1207781567.0942440     
   1608688138.4921632        11057129.683095932        1214951615.7081866     
   1712119274.7561798        11100437.772780776        1288533090.2829034     
   1627177293.6871665        9199514.9168819785        1281687708.1854682     
   1542497134.3325756        8171331.1090546846        1279858834.4121528     
   1458078796.6924064        8015886.3493011594        1283046468.9629557     
   1373922280.7666593        8733180.6376227736        1291250611.8378723     
   1425647274.3395665        6885534.1634263992        1360711581.3389876     
   1354300455.2440512        5991652.2241330147        1354237507.1210604     
   1283142114.0419903        5726029.9296818376        1352972347.4240267     
   1212172250.7333760        6088667.2800583243        1356916102.2478905     
   1141390865.3182137        7079564.2752696872        1366068771.5926497     
   1139210788.2368238        2681284.8482299447        1431751507.1847091     
   1082008863.1056077        2959363.4227890968        1425563173.0551486     
   1024922072.0468690        3621222.2389390469        1424776159.6432652     
   967950415.06061018        4666861.2966858149        1429390466.9490550     
   911093892.14682710        6096280.5960242152        1439406094.9725237     
   1845688438.4947290        14051411.411689281        1137171783.2035947     
   1751196376.9271371        19921493.768073678        1129534766.6314881     
   1656807176.6853950        26134447.210623205        1126139467.1341734     
   1562520837.7695084        32690271.739357054        1126985884.7116513     
   1468337360.1794829        39588967.354295731        1132074019.3639138     
   1608688138.4921632        11057129.683095932        1214951615.7081866     
   1525203480.3143404        16416719.370342195        1208281869.4611969     
   1441846382.9494252        22201511.767286301        1205955445.5167389     
   1358616846.3974154        28411506.873907030        1207972343.8748014     
   1275514870.6583138        35046704.690231979        1214332564.5353863     
   1373922280.7666593        8733180.6376227736        1291250611.8378723     
   1301735326.6292791        13669367.850936353        1285576951.9842339     
   1229700632.7918587        19113089.397456765        1284348219.6608496     
   1157818199.2543964        25064345.277172387        1287564414.8677309     
   1086088026.0168993        31523135.490094602        1295225537.6048672     
   1141390865.3182137        7079564.2752696872        1366068771.5926497     
   1080791915.8719454        11679439.209849596        1361420014.2005813     
   1020369926.2126948        16869180.101158142        1361317789.5665107     
   960124896.34045482        22648786.949164391        1365762097.6904368     
   900056826.25522745        29018259.753886610        1374752938.5723546     
   911093892.14682710        6096280.5960242152        1439406094.9725237     
   862373248.04234672        10446933.447083414        1435811056.1102555     
   813854263.21193266        15469783.878365964        1436864155.2337236     
   765536937.65558672        21164831.889873147        1442565392.3429184     
   717421271.37330282        27532077.481589556        1452914767.4378467     
   1468337360.1794829        39588967.354295731        1132074019.3639138     
   1360746667.5384896        42875208.107644618        1125366436.5171826     
   1253323251.8048527        46719038.552170157        1122527511.3526158     
   1146067112.9785731        51120458.687891364        1123557243.8702300     
   1038978251.0596517        56079468.514802277        1128455634.0700204     
   1275514870.6583138        35046704.690231979        1214332564.5353863     
   1178372646.5347080        37690353.370974660        1209145571.8665123     
   1081248262.9475055        40393470.506399512        1208275495.4686670     
   984141719.89668608        43156056.096439242        1211722335.3418512     
   887053017.38227570        45978110.141162127        1219486091.4860628     
   1086088026.0168993        31523135.490094602        1295225537.6048672     
   1000675009.2359788        33908413.745848835        1291384792.6810617     
   915130396.62049532        35855039.219715834        1292309222.6171460     
   829454188.17044306        37363011.911690205        1297998827.4131107     
   743646383.88582945        38432331.821790844        1308453607.0689547     
   900056826.25522745        29018259.753886610        1374752938.5723546     
   827653755.64229441        31529389.232232094        1372084098.9608345     
   754969652.82382691        33103744.692135125        1374628692.7980587     
   682004517.79983330        33741326.133619517        1382386720.0840170     
   608758350.57032335        33442133.556706637        1395358180.8187118     
   717421271.37330282        27532077.481589556        1452914767.4378467     
   659308885.75364637        30553279.830106407        1451243490.7058268     
   600766031.55750239        32139586.923664182        1455233906.0113981     
   541792708.78487420        32290998.762272328        1464886013.3545601     
   482388917.43575090        31007515.345902517        1480199812.7353175     
   1038978251.0596517        56079468.514802277        1128455634.0700204     
   922535539.26217604        54971326.794115990        1125521119.8814127     
   803775442.91952598        46138569.922851652        1128556846.1994851     
   682697962.03169489        29581197.900976807        1137562813.0242360     
   559303096.59869397        5299210.7285360694        1152539020.3556695     
   887053017.38227570        45978110.141162127        1219486091.4860628     
   785793267.15513074        44117948.247000545        1216807426.8375385     
   682253543.45199847        34657874.766201049        1220011266.0072427     
   576433846.27287030        17597889.698759347        1229097608.9951603     
   468334175.61775422       -7062006.9553171396        1244066455.8013129     
   743646383.88582945        38432331.821790844        1308453607.0689547     
   657318918.97628868        35744946.878329366        1306074438.2078989     
   568748891.65993953        25582353.912185162        1309490036.4766169     
   477936301.93678606        7944552.9233508706        1318700401.8750982     
   384881149.80682766       -17168456.088166401        1333705534.4033539     
   608758350.57032335        33442133.556706637        1395358180.8187118     
   537112494.72565043        29852322.688127667        1393322153.9925041     
   463261487.54336208        18912007.360819951        1396993157.6076131     
   387205329.02344692        621187.57476578653        1406371191.6640353     
   308944019.16591537       -25020136.670018017        1421456256.1617682     
   482388917.43575090        31007515.345902517        1480199812.7353175     
   425173994.40322047        26440075.676388457        1478550574.1913438     
   365791331.10225755        14646835.112096623        1482520629.4002361     
   304240927.53285819       -4372206.3469791561        1492109978.3619771     
   240522783.69502211       -30617048.700843960        1507318621.0765777     
   559303096.59869397        5299210.7285360694        1152539020.3556695     
   462510018.37089854       -32709765.702088058        1161988065.8059831     
   353721670.56539696       -110702974.05839926        1178955711.6841974     
   232938053.18217447       -228680414.34044698        1203441957.9903190     
   100159166.22123596       -386642086.54821467        1235446804.7243314     
   468334175.61775422       -7062006.9553171396        1244066455.8013129     
   390631211.05800480       -41455819.662988871        1242634299.1004241     
   302777718.07389122       -109684727.11853033        1247533976.2417414     
   204773696.66542318       -211748729.32192409        1258765487.2252853     
   96619146.832597598       -347647826.27318466        1276328832.0510495     
   384881149.80682766       -17168456.088166401        1333705534.4033539     
   322877537.24174607       -48964333.574902534        1323544373.5634902     
   252568137.40565997       -108446168.63165909        1318528279.9801650     
   173952950.29857069       -195613961.25841820        1318657253.6533842     
   87031975.920478165       -310467711.45519900        1323931294.5831389     
   308944019.16591537       -25020136.670018017        1421456256.1617682     
   259248996.92213076       -55235307.437834799        1404718289.1951895     
   203092928.56069124       -106987298.59782574        1391938622.8994703     
   140475814.08161020       -180276110.14995804        1383117257.2746093     
   71397653.484881848       -275101742.09425640        1378254192.3206148     
   240522783.69502211       -30617048.700843960        1507318621.0765777     
   199745590.09915948       -60268741.251750559        1486156045.9955347     
   154352091.53899586       -105308117.01699370        1467765004.9996634     
   104342288.01454937       -165735175.99651051        1452145498.0889752     
   49716179.525801331       -241549918.19036576        1439297525.2634687     
   100159166.22123596       -386642086.54821467        1235446804.7243314     
   85310826.483824074       -546509929.81058896        1196805274.7642608     
   57874018.815316439       -748339332.84328234        1154820875.0551419     
   17848743.215716362       -992130295.64626765        1109493605.5969813     
  -34765000.314954638       -1277882818.2195110        1060823466.3897700     
   96619146.832597598       -347647826.27318466        1276328832.0510495     
   79727459.782620758       -488825213.92335349        1221988601.4547966     
   51454114.651196212       -667941461.84500921        1165106252.9181726     
   11799111.438345850       -884996570.03808713        1105681786.4411988     
  -39237549.855931759       -1139990538.5025892        1043715202.0238478     
   87031975.920478165       -310467711.45519900        1323931294.5831389     
   70384803.868437648       -432268284.80005533        1255300308.1753075     
   43562783.584626466       -587985018.91747773        1184927955.6357841     
   6565915.0690358877       -777617913.80749524        1112814236.9645798     
  -40605801.678321660       -1001166969.4700776        1038959152.1617002     
   71397653.484881848       -275101742.09425640        1378254192.3206148     
   57282858.741301849       -376839142.44060796        1296740394.9257996     
   34200025.615608245       -508470004.06067723        1214285983.2079735     
   2149154.1078003943       -669994326.95447099        1130890957.1671567     
  -38869755.782133818       -861412111.12199306        1046555316.8033307     
   49716179.525801331       -241549918.19036576        1439297525.2634687     
   40421624.401204199       -322537786.84504914        1346308861.7062640     
   23365840.744140893       -429396417.27461988        1253180335.6347365     
  -1451171.4453821182       -562125809.47905636        1159911947.0488987     
  -34029412.167361170       -720725963.45834613        1066503695.9487395     
   1541398467.2322514       -74109436.234454870        1396995739.8791673     
   1483306955.1179018       -44216776.190853179        1406585958.8797498     
   1422146929.1533191       -24552495.648021996        1416722745.6781638     
   1357918389.3385081       -15116594.605957091        1427406100.2744150     
   1290621335.6734624       -15909073.064672649        1438636022.6685011     
   1215151380.3470843       -1323812.1851339936        1455566804.9812205     
   1155497240.2827475        5475376.8522531986        1452310952.9266000     
   1094371225.8214104        7368317.8996317387        1452635774.1140563     
   1031773336.9630724        4355010.9570123553        1456541268.5435815     
   967703573.70773089       -3564543.9756198525        1464027436.2151792     
   855434110.70069778        61420757.035820991        1504504696.0607185     
   802886215.38418758        47727136.876326114        1490265518.9796779     
   750463085.12390614        34449400.237599373        1482641120.5849392     
   698164719.91985583        21587547.119641334        1481631500.8765082     
   645991119.77203441        9141577.5224451721        1487236659.8543847     
   462246658.29308945        114124271.42840950        1543809413.1176760     
   425473880.42221940        82538503.881380767        1520449657.0389736     
   390422507.06081110        56690751.365895182        1506738785.0908122     
   357092538.20886272        36581013.881940469        1502676797.2731953     
   325483973.86637574        22209291.429524049        1508263693.5861166     
   35589023.124261267        156786730.99263206        1573480956.1520782     
   23260235.396846160        109909477.86741720        1542863367.1044893     
   14249491.632123014        74092371.284508884        1524928767.6316762     
   8556791.8300923090        49335411.243908726        1519677157.7336407     
   6182135.9907509526        35638597.745606385        1527108537.4103787     
   1290621335.6734624       -15909073.064672649        1438636022.6685011     
   1252456998.2617676       -12300485.428232193        1430855689.4392726     
   1214500461.2184312       -7999229.8972610235        1427114825.7822309     
   1176751724.5434484       -3005306.4717786908        1427413431.6973760     
   1139210788.2368238        2681284.8482299447        1431751507.1847091     
   967703573.70773089       -3564543.9756198525        1464027436.2151792     
   939149350.83281827       -2616792.6153720617        1456925074.4265206     
   910888525.98924053       -691047.81734287739        1453789678.0038617     
   882921099.17700112        2212690.4184789658        1454621246.9472008     
   855247070.39609444        6094422.0920783877        1459419781.2565391     
   645991119.77203441        9141577.5224451721        1487236659.8543847     
   626839856.55907595        7366346.1440360546        1480912133.4464417     
   608067589.04043591        6854433.7466877401        1478482068.1983101     
   589674317.21610987        7605840.3303868175        1479946464.1099889     
   571660041.08610225        9620565.8951480091        1485305321.1814766     
   325483973.86637574        22209291.429524049        1508263693.5861166     
   315528515.44054687        17648930.850013450        1502816866.4990349     
   306037650.37201756        14637214.794834271        1501191996.3655746     
   297011378.66078359        13174143.263972461        1503389083.1857357     
   288449700.30684721        13259716.257437050        1509408126.9595194     
   6182135.9907509526        35638597.745606385        1527108537.4103787     
   5215327.4772310201        28230961.502559841        1522639273.5843012     
   4798709.9839866627        22657295.327097856        1521919462.5056572     
   4932283.5110191396        18917599.219226003        1524949104.1744435     
   5616048.0583308954        17011873.178951066        1531728198.5906637     
   1139210788.2368238        2681284.8482299447        1431751507.1847091     
   1082008863.1056077        2959363.4227890968        1425563173.0551486     
   1024922072.0468690        3621222.2389390469        1424776159.6432652     
   967950415.06061018        4666861.2966858149        1429390466.9490550     
   911093892.14682710        6096280.5960242152        1439406094.9725237     
   855247070.39609444        6094422.0920783877        1459419781.2565391     
   812026790.45647359        5905810.6154081225        1453517666.3950772     
   768904452.39584446        6043672.0687100589        1453077040.2059097     
   725880056.21421289        6508006.4520025551        1458097902.6890426     
   682953601.91157198        7298813.7652669847        1468580253.8444724     
   571660041.08610225        9620565.8951480091        1485305321.1814766     
   542593314.77985454        9016836.8997784257        1479669368.0290415     
   513607338.15911502        8682273.5227692425        1479555071.5035307     
   484702111.22388887        8616875.7641379237        1484962431.6049383     
   455877633.97417146        8820643.6238678098        1495891448.3332675     
   288449700.30684721        13259716.257437050        1509408126.9595194     
   273708436.07574964        12292442.275894582        1504018277.9570510     
   259030729.33668101        11537026.601115555        1504210253.5361276     
   244416580.08963746        10993469.233086765        1509984053.6967471     
   229865988.33462369        10661770.171823643        1521339678.4389079     
   5616048.0583308954        17011873.178951066        1531728198.5906637     
   5372154.3441674914        15732626.743785916        1526564396.1790988     
   5174625.9285445325        14607931.303756973        1527042586.3037009     
   5023462.8114651516        13637786.858873295        1533162768.9644682     
   4918664.9929289166        12822193.409132043        1544924944.1613970     
   911093892.14682710        6096280.5960242152        1439406094.9725237     
   862373248.04234672        10446933.447083414        1435811056.1102555     
   813854263.21193266        15469783.878365964        1436864155.2337236     
   765536937.65558672        21164831.889873147        1442565392.3429184     
   717421271.37330282        27532077.481589556        1452914767.4378467     
   682953601.91157198        7298813.7652669847        1468580253.8444724     
   645958905.30109954        10179536.806534529        1465569058.8673234     
   609070918.51735711        13415959.270229042        1467268900.0867059     
   572289641.56034076        17008081.156351298        1473679777.5026283     
   535615074.43005365        20955902.464901567        1484801691.1150882     
   455877633.97417146        8820643.6238678098        1495891448.3332675     
   430788594.03143597        10285349.607460767        1493353322.8860049     
   405711314.46809191        11789256.855692312        1495589131.8460827     
   380645795.28413343        13332365.368541121        1502598875.2135005     
   355592036.47957027        14914675.146043301        1514382552.9882555     
   229865988.33462369        10661770.171823643        1521339678.4389079     
   216862314.23335153        10764371.849857375        1519163848.1663051     
   203775451.06413621        10589676.634744890        1521824850.5118463     
   190605398.82696700        10137684.526453167        1529322685.4755311     
   177352157.52185228        9408395.5250113308        1541657353.0573628     
   4918664.9929289166        12822193.409132043        1544924944.1613970     
   4180065.9068523152        11616603.533736227        1543000634.7082257     
   3263328.3054870460        9817218.6073802672        1545976056.0840023     
   2168452.1888329014        7424038.6300593074        1553851208.2887294     
   895437.55689928448        4437063.6018088553        1566626091.3224027     
   717421271.37330282        27532077.481589556        1452914767.4378467     
   659308885.75364637        30553279.830106407        1451243490.7058268     
   600766031.55750239        32139586.923664182        1455233906.0113981     
   541792708.78487420        32290998.762272328        1464886013.3545601     
   482388917.43575090        31007515.345902517        1480199812.7353175     
   535615074.43005365        20955902.464901567        1484801691.1150882     
   491809364.15055478        22543740.310275227        1483362567.8369701     
   447751466.77944446        23290954.516948447        1487597663.8221200     
   403441382.31671989        23197545.084903315        1497506979.0705185     
   358879110.76238745        22263512.014169648        1513090513.5821724     
   355592036.47957027        14914675.146043301        1514382552.9882555     
   326128793.61355805        15079886.110285833        1513383578.2297411     
   296591645.14080769        14998745.052072361        1518071349.9601460     
   266980591.06131962        14671251.971400499        1528445868.1794682     
   237295631.37509310        14097406.868264169        1544507132.8877108     
   177352157.52185228        9408395.5250113308        1541657353.0573628     
   162267174.14264715        8161717.2301088795        1541306521.8841314     
   147286566.64158538        7262958.5290172771        1546654964.4254818     
   132410335.01865867        6712119.4217094555        1557702680.6814146     
   117638479.27386615        6509199.9081822447        1574449670.6519282     
   895437.55689928448        4437063.6018088553        1566626091.3224027     
   224505.73783050239        1789233.6697668647        1567131398.8001428     
  -163768.71822075028        83594.947785387136        1573348507.2181244     
  -269385.81126277754       -679852.56416846113        1585277416.5763521     
  -92345.541297569434       -501108.86609402840        1602918126.8748279     
   482388917.43575090        31007515.345902517        1480199812.7353175     
   425173994.40322047        26440075.676388457        1478550574.1913438     
   365791331.10225755        14646835.112096623        1482520629.4002361     
   304240927.53285819       -4372206.3469791561        1492109978.3619771     
   240522783.69502211       -30617048.700843960        1507318621.0765777     
   358879110.76238745        22263512.014169648        1513090513.5821724     
   316537965.11428928        19123779.073767155        1509830108.1711106     
   272555355.36559534        10512499.131378964        1512062305.4423392     
   226931281.51631176       -3570327.8129768670        1519787105.3958719     
   179665743.56642586       -23124701.759336211        1533004508.0316899     
   237295631.37509310        14097406.868264169        1544507132.8877108     
   209466288.62411356        12276788.310799174        1540249549.4720304     
   180521757.94037628        6738876.6441408917        1541357877.6680832     
   150462039.32387853       -2516328.1317206323        1547832117.4758704     
   119287132.77461539       -15488826.016796060        1559672268.8953900     
   117638479.27386615        6509199.9081822447        1574449670.6519282     
   103958964.93268658        5899103.3874591179        1569808898.0941143     
   89690538.826580927        3325967.6503165998        1570407346.0774648     
   74833200.955551475       -1210207.3032392226        1576245014.6019869     
   59386951.319595277       -7709421.4732171297        1587321903.6676853     
  -92345.541297569434       -501108.86609402840        1602918126.8748279     
   15994.039994064477       -9275.6962972228503        1598508154.0373464     
   61698.024205982292        273772.14989844739        1599210710.6704776     
   44766.411328599206        348034.67246346158        1605025796.7742167     
  -34800.798636231906        213511.87140503683        1615953412.3485637     
   240522783.69502211       -30617048.700843960        1507318621.0765777     
   199745590.09915948       -60268741.251750559        1486156045.9955347     
   154352091.53899586       -105308117.01699370        1467765004.9996634     
   104342288.01454937       -165735175.99651051        1452145498.0889752     
   49716179.525801331       -241549918.19036576        1439297525.2634687     
   179665743.56642586       -23124701.759336211        1533004508.0316899     
   148440845.02165732       -45598696.311998256        1507374514.9976344     
   113759512.27341905       -79594138.209560886        1484664515.3027363     
   75621745.321712539       -125111027.45202032        1464874508.9469807     
   34027544.166531339       -182149364.03938848        1448004495.9303627     
   119287132.77461539       -15488826.016796060        1559672268.8953900     
   98038698.577991217       -30657871.782100134        1530928040.4626398     
   74493700.938723922       -53482129.022878543        1505252264.6229935     
   48652139.856806777       -83961597.739157885        1482644941.3764668     
   20514015.332247123       -122096277.93091223        1463106070.7230451     
   59386951.319595277       -7709421.4732171297        1587321903.6676853     
   48539150.768162660       -15446267.662044920        1556816622.3905137     
   36554657.534917645       -26972089.456915401        1529528252.9604249     
   23433471.619835325       -42286886.857911609        1505456795.3774171     
   9175593.0229408443       -61390659.864944197        1484602249.6414874     
  -34800.798636231906        213511.87140503683        1615953412.3485637     
  -57798.407829603653        36116.048161182567        1585040260.7812803     
  -57617.938007504432       -64019.511701237869        1557492480.3150434     
  -34259.389200084101       -86894.808277866861        1533310070.9498477     
   12277.238621434675       -32509.841473473782        1512493032.6857064     
   49716179.525801331       -241549918.19036576        1439297525.2634687     
   40421624.401204199       -322537786.84504914        1346308861.7062640     
   23365840.744140893       -429396417.27461988        1253180335.6347365     
  -1451171.4453821182       -562125809.47905636        1159911947.0488987     
  -34029412.167361170       -720725963.45834613        1066503695.9487395     
   34027544.166531339       -182149364.03938848        1448004495.9303627     
   29851983.394374266       -242036688.79496717        1347526717.8765945     
   19852913.781862289       -321335709.68505794        1246257134.0161514     
   4030335.3290043175       -420046426.70963740        1144195744.3490264     
  -17615751.964200199       -538168839.86870825        1041342548.8752441     
   20514015.332247123       -122096277.93091223        1463106070.7230451     
   19594753.791522920       -161441867.32368487        1357399851.1468251     
   14789703.102558374       -213740087.21059614        1250249882.4715874     
   6098863.2653590739       -278990937.59162122        1141656164.6973293     
  -6477765.7200856656       -357194418.46679777        1031618697.8240378     
   9175593.0229408443       -61390659.864944197        1484602249.6414874     
   9649935.5926498547       -80753322.431205779        1375928261.5169535     
   8176208.7062293887       -106609549.85123226        1265158581.0010540     
   4754412.3636717647       -138959342.12504774        1152293208.0937657     
  -615453.43500079215       -177802699.25258273        1037332142.7951152     
   12277.238621434675       -32509.841473473782        1512493032.6857064     
   17528.797751668008        28945.882459119210        1403111948.9869895     
   12430.592863239970        55902.392995480404        1290983229.6045549     
  -3017.3760408985090        48359.690148568741        1176106874.5383816     
  -28815.108962829094        6317.7739048533931        1058482883.7884765     
   35589023.124261267        156786730.99263206        1573480956.1520782     
   23260235.396846160        109909477.86741720        1542863367.1044893     
   14249491.632123014        74092371.284508884        1524928767.6316762     
   8556791.8300923090        49335411.243908726        1519677157.7336407     
   6182135.9907509526        35638597.745606385        1527108537.4103787     
  -434137848.03270757        48391224.501440793        1511118248.5615327     
  -408395466.47637343        33002040.538661391        1495089874.3415792     
  -381138947.16301620        22659982.432622820        1488397547.8814800     
  -352368290.09263331        17365050.183337510        1491041269.1812339     
  -322083495.26522905        17117243.790789202        1503021038.2408440     
  -865453539.00321472       -48480927.933806986        1457525788.1976202     
  -811202679.06290758       -35250850.004088819        1453982071.5653551     
  -757241587.57124376       -22986666.903184325        1456427460.8780217     
  -703570264.52822471       -11688378.631093293        1464861956.1356211     
  -650188709.93385065       -1355985.1878204346        1479285557.3381541     
  -1258358049.7872627       -133829726.31311780        1412703575.0603356     
  -1185161402.3627558       -94849193.760829866        1419539958.7758133     
  -1114058429.5925634       -62847576.722923517        1429018506.6212993     
  -1045049131.4766803       -37824875.199381828        1441139218.5967987     
  -978133508.01511252       -19781089.190223813        1455902094.7023098     
  -1612851380.3848498       -207655170.63649374        1376651609.1496825     
  -1530271636.3759208       -145792990.73157263        1391763535.9729533     
  -1451589473.2269721       -96922747.026586056        1406170685.1113169     
  -1376804890.9380045       -61044439.521534979        1419873056.5647709     
  -1305917889.5090156       -38158068.216416240        1432870650.3333139     
   6182135.9907509526        35638597.745606385        1527108537.4103787     
   5215327.4772310201        28230961.502559841        1522639273.5843012     
   4798709.9839866627        22657295.327097856        1521919462.5056572     
   4932283.5110191396        18917599.219226003        1524949104.1744435     
   5616048.0583308954        17011873.178951066        1531728198.5906637     
  -322083495.26522905        17117243.790789202        1503021038.2408440     
  -312305986.35056567        13303285.111242220        1499008568.1505578     
  -302337538.16865414        10125790.655854568        1498682194.6660190     
  -292178150.71948576        7584760.4246576130        1502041917.7872269     
  -281827824.00307220        5680194.4176116586        1509087737.5141802     
  -650188709.93385065       -1355985.1878204346        1479285557.3381541     
  -629847901.13867605       -1630571.5681686997        1475310753.9384627     
  -609675404.82928014       -2466199.5677780211        1474958691.0028324     
  -589671221.00565445       -3862869.1866233051        1478229368.5312624     
  -569835349.66780663       -5820580.4247271419        1485122786.5237556     
  -978133508.01511252       -19781089.190223813        1455902094.7023098     
  -947410416.88710093       -16570608.535674334        1451545830.9480162     
  -917214889.99789178       -15118675.343806088        1450748951.5160999     
  -887546927.34748542       -15425289.614611149        1453511456.4065564     
  -858406528.93587542       -17490451.348067909        1459833345.6193933     
  -1305917889.5090156       -38158068.216416240        1432870650.3333139     
  -1264993533.5958390       -31516825.791275620        1427713799.1792200     
  -1224955993.6744943       -27831636.672242224        1426052976.2058158     
  -1185805269.7449658       -27102500.859263301        1427888181.4131033     
  -1147541361.8072746       -29329418.352407813        1433219414.8010812     
   5616048.0583308954        17011873.178951066        1531728198.5906637     
   5372154.3441674914        15732626.743785916        1526564396.1790988     
   5174625.9285445325        14607931.303756973        1527042586.3037009     
   5023462.8114651516        13637786.858873295        1533162768.9644682     
   4918664.9929289166        12822193.409132043        1544924944.1613970     
  -281827824.00307220        5680194.4176116586        1509087737.5141802     
  -267222820.50157908        5312516.2957009822        1503706448.8253150     
  -252637008.01485601        4880868.1245564073        1503895034.3092661     
  -238070386.54289910        4385249.9041894823        1509653493.9660337     
  -223522956.08571497        3825661.6345836818        1520981827.7956247     
  -569835349.66780663       -5820580.4247271419        1485122786.5237556     
  -540587501.41736054       -5338505.9733968973        1479447529.1920550     
  -511424400.49499267       -5138922.6156612635        1479270027.6698256     
  -482346046.90070730       -5221830.3515340686        1484590281.9570706     
  -453352440.63450170       -5587229.1810058653        1495408292.0537882     
  -858406528.93587542       -17490451.348067909        1459833345.6193933     
  -814721888.40317535       -16220440.063498557        1453787637.2793238     
  -771187551.51186860       -15451440.916904241        1453167566.3853827     
  -727803518.26195574       -15183453.908289731        1457973132.9375710     
  -684569788.65342999       -15416479.037632048        1468204336.9358850     
  -1147541361.8072746       -29329418.352407813        1433219414.8010812     
  -1089625981.4590271       -27333285.974619567        1426726773.0871203     
  -1031926461.0654831       -26056686.779169619        1425587650.4559388     
  -974442800.62664235       -25499620.766066253        1429802046.9075403     
  -917175000.14250696       -25662087.935316145        1439369962.4419217     
   4918664.9929289166        12822193.409132043        1544924944.1613970     
   4180065.9068523152        11616603.533736227        1543000634.7082257     
   3263328.3054870460        9817218.6073802672        1545976056.0840023     
   2168452.1888329014        7424038.6300593074        1553851208.2887294     
   895437.55689928448        4437063.6018088553        1566626091.3224027     
  -223522956.08571497        3825661.6345836818        1520981827.7956247     
  -211659770.02237675        2265557.8137103617        1518391968.6543937     
  -199906124.08699903        340320.23296842724        1520677870.4788680     
  -188262018.27956852       -1950051.1075980887        1527839533.2690551     
  -176727452.60009032       -4605556.2080041021        1539876957.0249510     
  -453352440.63450170       -5587229.1810058653        1495408292.0537882     
  -428955954.74529403       -7522392.5444319993        1492232914.6763849     
  -404600410.59670770       -9594028.3765972555        1493909328.4014499     
  -380285808.18873775       -11802136.677482605        1500437533.2289860     
  -356012147.52138901       -14146717.447106436        1511817529.1589956     
  -684569788.65342999       -15416479.037632048        1468204336.9358850     
  -647708488.26189756       -17747247.540681839        1464523472.7741983     
  -610819531.22364771       -19985827.221342146        1465670429.8517447     
  -573902917.53868163       -22132218.079614490        1471645208.1685224     
  -536958647.20700109       -24186420.115504473        1482447807.7245300     
  -917175000.14250696       -25662087.935316145        1439369962.4419217     
  -867917370.57218277       -28409007.175026208        1435263642.9478431     
  -818563485.96781170       -30835076.301244229        1435961174.8297594     
  -769113346.32938957       -32940295.313959658        1441462558.0876639     
  -719566951.65692115       -34724664.213188261        1451767792.7215631     
   895437.55689928448        4437063.6018088553        1566626091.3224027     
   224505.73783050239        1789233.6697668647        1567131398.8001428     
  -163768.71822075028        83594.947785387136        1573348507.2181244     
  -269385.81126277754       -679852.56416846113        1585277416.5763521     
  -92345.541297569434       -501108.86609402840        1602918126.8748279     
  -176727452.60009032       -4605556.2080041021        1539876957.0249510     
  -162278341.94245094       -6239789.0150183663        1540072564.5874128     
  -147622828.21183234       -7186011.5787716508        1545953266.0859330     
  -132760911.40824236       -7444223.8992862999        1557519061.5205193     
  -117692591.53166817       -7014425.9765184931        1574769950.8911691     
  -356012147.52138901       -14146717.447106436        1511817529.1589956     
  -326519300.11328495       -14790244.846972689        1511614473.4678054     
  -296896303.92224348       -14999942.970381036        1517069804.7084944     
  -267143158.94825739       -14775811.817304567        1528183522.8810608     
  -237259865.19132474       -14117851.387742087        1544955627.9855030     
  -536958647.20700109       -24186420.115504473        1482447807.7245300     
  -492498368.77467835       -23862133.826106489        1481757125.4413216     
  -447984195.84945029       -23358199.227022886        1486698123.0858033     
  -403416128.43131000       -22674616.318232566        1497270800.6579781     
  -358794166.52026320       -21811385.099753559        1513475158.1578414     
  -719566951.65692115       -34724664.213188261        1451767792.7215631     
  -660215547.92661977       -33455455.952391356        1450500520.5079584     
  -600886503.99345577       -32260780.348714352        1454838221.2178600     
  -541579819.85740292       -31140637.402078450        1464780894.8512681     
  -482295495.51847887       -30095027.112534881        1480328541.4081850     
  -92345.541297569434       -501108.86609402840        1602918126.8748279     
   15994.039994064477       -9275.6962972228503        1598508154.0373464     
   61698.024205982292        273772.14989844739        1599210710.6704776     
   44766.411328599206        348034.67246346158        1605025796.7742167     
  -34800.798636231906        213511.87140503683        1615953412.3485637     
  -117692591.53166817       -7014425.9765184931        1574769950.8911691     
  -103923716.28378361       -5873042.5839229599        1570004776.3893290     
  -89635033.872490168       -2998968.6466328576        1570485280.5705414     
  -74826544.297824755        1607795.8352316506        1576211463.4347966     
  -59498247.559771121        7947250.8617229126        1587183324.9821024     
  -237259865.19132474       -14117851.387742087        1544955627.9855030     
  -209450027.95557973       -12212789.875912599        1540514768.3731937     
  -180537940.79597533       -6633561.9512142017        1541452736.6563711     
  -150523603.71251142        2619832.3863465115        1547769532.8350291     
  -119407016.70519917        15547393.136736192        1559465156.9091711     
  -358794166.52026320       -21811385.099753559        1513475158.1578414     
  -316562940.97541696       -19028517.572335392        1510038129.9889424     
  -272647022.74623883       -10630007.763812378        1512113078.9279644     
  -227046411.83273774        3384144.3257894814        1519700004.9749100     
  -179761108.23491362        23013938.696465217        1532798908.1297715     
  -482295495.51847887       -30095027.112534881        1480328541.4081850     
  -425262455.34328556       -26320225.673167586        1478574861.2365777     
  -365962279.72329408       -14988306.084469736        1482466307.3853295     
  -304394968.65849304        3900731.6535899937        1492002879.8544402     
  -240560522.14891335        30346887.540915310        1507184578.6439035     
  -34800.798636231906        213511.87140503683        1615953412.3485637     
  -57798.407829603653        36116.048161182567        1585040260.7812803     
  -57617.938007504432       -64019.511701237869        1557492480.3150434     
  -34259.389200084101       -86894.808277866861        1533310070.9498477     
   12277.238621434675       -32509.841473473782        1512493032.6857064     
  -59498247.559771121        7947250.8617229126        1587183324.9821024     
  -48652560.404766873        15493149.463175241        1556729594.1364617     
  -36644553.083546311        26913448.618680559        1529488720.2180722     
  -23474225.596133139        42208148.328163475        1505460703.2269299     
  -9141577.9424932003        61377248.591732502        1484645543.1630495     
  -119407016.70519917        15547393.136736192        1559465156.9091711     
  -98128399.568267599        30685859.728203602        1530799845.8869126     
  -74548320.177916139        53495867.164406374        1505194877.6181121     
  -48666778.534156144        83977415.445304483        1482650252.1027694     
  -20483774.636978947        122130504.57092381        1463165969.3408775     
  -179761108.23491362        23013938.696465217        1532798908.1297715     
  -148485315.89831752        45614246.843295522        1507251016.0326316     
  -113768919.22111249        79683236.125487581        1484610952.5151601     
  -75611918.203276232        125220906.54311635        1464878717.5773480     
  -34014312.844828017        182227258.09612110        1448054311.2191997     
  -240560522.14891335        30346887.540915310        1507184578.6439035     
  -199723309.39493802        60278310.808376297        1486083104.5736270     
  -154306350.21313012        105475555.50194240        1467736944.9092162     
  -104309644.60350385        165938621.62157100        1452146099.6506782     
  -49733192.566056281        241667509.16727132        1439310568.7979980     
   12277.238621434675       -32509.841473473782        1512493032.6857064     
   17528.797751668008        28945.882459119210        1403111948.9869895     
   12430.592863239970        55902.392995480404        1290983229.6045549     
  -3017.3760408985090        48359.690148568741        1176106874.5383816     
  -28815.108962829094        6317.7739048533931        1058482883.7884765     
  -9141577.9424932003        61377248.591732502        1484645543.1630495     
  -9620296.5329250395        80803976.986188471        1375949612.7950158     
  -8161749.7923369929        106688256.48404089        1265160124.3024600     
  -4765937.7207349017        139030087.08527592        1152277077.6853967     
   567139.68187809736        177829468.78987890        1037300472.9438123     
  -20483774.636978947        122130504.57092381        1463165969.3408775     
  -19577670.350652315        161483143.54380599        1357427409.9143939     
  -14786685.638273567        213785383.93685791        1250249369.9225988     
  -6110820.4998507798        279037225.75005651        1141631849.3655076     
   6449925.0646266192        357238668.98343861        1031574848.2430946     
  -34014312.844828017        182227258.09612110        1448054311.2191997     
  -29854592.655428529        242066445.55530715        1347545340.3451281     
  -19862376.944938570        321347284.75146019        1246250966.4649744     
  -4037665.7133727074        420069775.68453211        1144171189.5786998     
   17619541.039280027        538233918.35456300        1041306009.6863606     
  -49733192.566056281        241667509.16727132        1439310568.7979980     
  -40451063.447258562        322553883.02068549        1346303404.0872226     
  -23388823.712339520        429373958.92783326        1253164913.9295621     
   1453526.6386876106        562127736.88867354        1159895098.3250263     
   34075987.605836213        720815216.90325844        1066493957.2736014     
  -1612851380.3848498       -207655170.63649374        1376651609.1496825     
  -1530271636.3759208       -145792990.73157263        1391763535.9729533     
  -1451589473.2269721       -96922747.026586056        1406170685.1113169     
  -1376804890.9380045       -61044439.521534979        1419873056.5647709     
  -1305917889.5090156       -38158068.216416240        1432870650.3333139     
  -1917070306.1327460       -110465971.64777029        1349727493.3626919     
  -1840154645.9742029       -77147837.187858582        1348938184.9397273     
  -1765315435.6017551       -50751202.014916062        1351083754.0348408     
  -1692552675.0153933       -31276066.128938317        1356164200.6480246     
  -1621866364.2151217       -18722429.529920220        1364179524.7792881     
  -2261964122.2735553       -25479239.776919246        1311416120.2351923     
  -2180313531.0997381       -17585446.302327156        1296850229.4855385     
  -2098918258.6381171       -10542715.201728225        1288858871.4569378     
  -2017778304.8886919       -4351046.4751178026        1287442046.1493998     
  -1936893669.8514650        989559.87750136852        1292599753.5629196     
  -2647532828.8072872        47305024.976055145        1261717489.7672017     
  -2550748291.7525148        32894181.925033569        1235499669.6103892     
  -2452397942.3360543        23702713.412991285        1219496037.3776217     
  -2352481780.5578942        19730619.439933300        1213706593.0688946     
  -2250999806.4180417        20977900.005856276        1218131336.6842132     
  -3073776425.7339339        107886822.61115324        1200631601.9587092     
  -2951458927.9325423        74291047.494219065        1164886505.3142810     
  -2825754486.6955671        51985083.829233170        1142995251.7968812     
  -2696663102.0230041        40968931.616211653        1134957841.4065099     
  -2564184773.9148560        41242590.855133176        1140774274.1431684     
  -1305917889.5090156       -38158068.216416240        1432870650.3333139     
  -1264993533.5958390       -31516825.791275620        1427713799.1792200     
  -1224955993.6744943       -27831636.672242224        1426052976.2058158     
  -1185805269.7449658       -27102500.859263301        1427888181.4131033     
  -1147541361.8072746       -29329418.352407813        1433219414.8010812     
  -1621866364.2151217       -18722429.529920220        1364179524.7792881     
  -1573361578.1213045       -16885721.718870044        1358450438.1228147     
  -1525458894.7970324       -17056023.139635384        1356165162.1817040     
  -1478158314.2422931       -19233333.792171478        1357323696.9559526     
  -1431459836.4570928       -23417653.676517010        1361926042.4455652     
  -1936893669.8514650        989559.87750136852        1292599753.5629196     
  -1880957646.3350928       -2023024.7529687881        1286630596.8300719     
  -1825339012.3659718       -6093574.5409351587        1284053033.3472567     
  -1770037767.9441040       -11222089.486414552        1284867063.1144714     
  -1715053913.0694900       -17408569.589404941        1289072686.1317196     
  -2250999806.4180417        20977900.005856276        1218131336.6842132     
  -2187781738.2372022        13071265.106444955        1212254275.3009932     
  -2124596346.3813233        5055709.1238276958        1209716589.7024732     
  -2061443630.8504133       -3068767.9420155287        1210518279.8886538     
  -1998323591.6444638       -11302166.091063380        1214659345.8595366     
  -2564184773.9148560        41242590.855133176        1140774274.1431684     
  -2493833853.8276320        28397147.859355688        1135321473.5355742     
  -2423230896.8430767        16391827.854677677        1133155831.2473531     
  -2352375902.9612060        5226630.8410536051        1134277347.2785034     
  -2281268872.1820111       -5098443.1814904213        1138686021.6290240     
  -1147541361.8072746       -29329418.352407813        1433219414.8010812     
  -1089625981.4590271       -27333285.974619567        1426726773.0871203     
  -1031926461.0654831       -26056686.779169619        1425587650.4559388     
  -974442800.62664235       -25499620.766066253        1429802046.9075403     
  -917175000.14250696       -25662087.935316145        1439369962.4419217     
  -1431459836.4570928       -23417653.676517010        1361926042.4455652     
  -1359839508.6495936       -21378341.809105396        1355202987.1003604     
  -1288443181.3175526       -20085698.193227053        1353658715.4511178     
  -1217270854.4609787       -19539722.828899741        1357293227.4978359     
  -1146322528.0798659       -19740415.716115594        1366106523.2405217     
  -1715053913.0694900       -17408569.589404941        1289072686.1317196     
  -1630227881.7650735       -15475851.421059489        1282109719.8810480     
  -1545633991.4568775       -14316936.573457241        1280150801.9395249     
  -1461272242.1449075       -13931825.046604156        1283195932.3071406     
  -1377142633.8291607       -14320516.840495765        1291245110.9839041     
  -1998323591.6444638       -11302166.091063380        1214659345.8595366     
  -1900791100.8054700       -9625814.8104864359        1207446971.4291863     
  -1803498891.4834616       -8750401.9198671579        1205063909.9211581     
  -1706446963.6784356       -8675927.4191851616        1207510161.3354566     
  -1609635317.3903952       -9402391.3084578514        1214785725.6720750     
  -2281268872.1820111       -5098443.1814904213        1138686021.6290240     
  -2171529165.7707839       -3828231.9773986340        1131214741.7447708     
  -2062037881.3973007       -3386094.2324519157        1128398039.3960211     
  -1952795019.0615625       -3772029.9466553926        1130235914.5827758     
  -1843800578.7635670       -4986039.1200044155        1136728367.3050394     
  -917175000.14250696       -25662087.935316145        1439369962.4419217     
  -867917370.57218277       -28409007.175026208        1435263642.9478431     
  -818563485.96781170       -30835076.301244229        1435961174.8297594     
  -769113346.32938957       -32940295.313959658        1441462558.0876639     
  -719566951.65692115       -34724664.213188261        1451767792.7215631     
  -1146322528.0798659       -19740415.716115594        1366106523.2405217     
  -1084991661.9247005       -23160139.142497540        1361390567.9153295     
  -1023656878.2422504       -26566804.144591987        1361313128.7840264     
  -962318177.03249884       -29960410.722344816        1365874205.8466125     
  -900975558.29545510       -33340958.875801742        1375073799.1030807     
  -1377142633.8291607       -14320516.840495765        1291245110.9839041     
  -1304210917.3237462       -18554760.323942065        1285811792.7363863     
  -1231367620.7977927       -23083737.072260797        1284851655.5006528     
  -1158612744.2512953       -27907447.085439444        1288364699.2767019     
  -1085946287.6842630       -33025890.363494158        1296350924.0645325     
  -1609635317.3903952       -9402391.3084578514        1214785725.6720750     
  -1525575136.7693107       -14592870.719344854        1208527317.4110212     
  -1441695713.6344380       -20385875.084265709        1206576754.9796407     
  -1357997047.9857807       -26781404.403232336        1208934038.3779385     
  -1274479139.8233376       -33779458.676261544        1215599167.6059163     
  -1843800578.7635670       -4986039.1200044155        1136728367.3050394     
  -1749084320.2613921       -11274470.328679323        1129537141.9392271     
  -1654641156.7521915       -18473218.180603743        1126488427.2209859     
  -1560471088.2359569       -26582282.675746083        1127582223.1503253     
  -1466574114.7126935       -35601663.814126670        1132818529.7272301     
  -719566951.65692115       -34724664.213188261        1451767792.7215631     
  -660215547.92661977       -33455455.952391356        1450500520.5079584     
  -600886503.99345577       -32260780.348714352        1454838221.2178600     
  -541579819.85740292       -31140637.402078450        1464780894.8512681     
  -482295495.51847887       -30095027.112534881        1480328541.4081850     
  -900975558.29545510       -33340958.875801742        1375073799.1030807     
  -827946132.74740100       -33215095.555239379        1372332326.6912560     
  -754920381.14595270       -33101478.723365277        1374771285.4327114     
  -681898303.49111652       -33000108.380196601        1382390675.3274534     
  -608879899.78288686       -32910984.525717676        1395190496.3754702     
  -1085946287.6842630       -33025890.363494158        1296350924.0645325     
  -1000451816.8048124       -34407264.929069817        1292157051.6134257     
  -914942334.02145243       -35738599.814950407        1292719068.5453730     
  -829417839.33418167       -37019895.021126837        1298036974.8603761     
  -743878332.74300253       -38251150.547609448        1308110770.5584342     
  -1274479139.8233376       -33779458.676261544        1215599167.6059163     
  -1177732600.0988514       -37031964.073881924        1209974695.2744632     
  -1080952362.6199408       -40172143.623422146        1208681570.5558422     
  -984138427.38659811       -43199997.324852526        1211719793.4500453     
  -887290794.39883482       -46115525.178217858        1219089363.9570847     
  -1466574114.7126935       -35601663.814126670        1132818529.7272301     
  -1359788482.6295300       -41089192.989705741        1125785257.6743739     
  -1252950466.9414203       -46402110.148784518        1122658791.4641168     
  -1146060067.6483684       -51540415.291399360        1123439131.0964627     
  -1039117284.7503737       -56504108.417531550        1128126276.5714104     
  -482295495.51847887       -30095027.112534881        1480328541.4081850     
  -425262455.34328556       -26320225.673167586        1478574861.2365777     
  -365962279.72329408       -14988306.084469736        1482466307.3853295     
  -304394968.65849304        3900731.6535899937        1492002879.8544402     
  -240560522.14891335        30346887.540915310        1507184578.6439035     
  -608879899.78288686       -32910984.525717676        1395190496.3754702     
  -537277003.25877821       -29810408.096194983        1393174583.4909444     
  -463404869.22964144       -19145706.649907559        1396876716.4798117     
  -387263497.69546282       -916880.18681424856        1406296895.3420641     
  -308852888.65625268        24876071.293047309        1421435120.0776982     
  -743878332.74300253       -38251150.547609448        1308110770.5584342     
  -657497238.28989911       -35762296.653917491        1305835077.3646040     
  -568844804.27152824       -25702310.876006395        1309350349.5971944     
  -477921030.68787932       -8071193.2138322890        1318656587.2561996     
  -384725917.53896368        17131056.332564458        1333753790.3416238     
  -887290794.39883482       -46115525.178217858        1219089363.9570847     
  -785923160.43664706       -44175891.346331477        1216556342.8575559     
  -682282084.84895766       -34658118.762761742        1219887206.7374825     
  -576367567.63575399       -17562207.427484602        1229081955.5968530     
  -468179608.79704767        7111842.6594713926        1244140589.4356661     
  -1039117284.7503737       -56504108.417531550        1128126276.5714104     
  -922554769.69902074       -55051192.173426449        1125338379.9698024     
  -803716710.96192944       -46013130.310193121        1128487287.9006693     
  -682603108.53908360       -29389922.827780038        1137573000.3640122     
  -559213962.43049824       -5181569.7262316346        1152595517.3598342     
  -240560522.14891335        30346887.540915310        1507184578.6439035     
  -199723309.39493802        60278310.808376297        1486083104.5736270     
  -154306350.21313012        105475555.50194240        1467736944.9092162     
  -104309644.60350385        165938621.62157100        1452146099.6506782     
  -49733192.566056281        241667509.16727132        1439310568.7979980     
  -308852888.65625268        24876071.293047309        1421435120.0776982     
  -259162500.98173338        55258788.158607066        1404705057.6557357     
  -203034208.96931154        107101186.15050802        1391925670.7056828     
  -140468012.61899376        180403265.26873112        1383096959.2275419     
  -71463911.930779919        275165025.51327103        1378218923.2213116     
  -384725917.53896368        17131056.332564458        1333753790.3416238     
  -322767037.61234879        48989661.995691776        1323562990.4630582     
  -252512095.43775898        108501808.48539384        1318518227.1224470     
  -173961091.01519853        195667495.80167019        1318619500.3197935     
  -87114024.344666138        310486723.94451195        1323866810.0550904     
  -468179608.79704767        7111842.6594713926        1244140589.4356661     
  -390536919.28678232        41470932.319624439        1242656902.9955871     
  -302740009.61846793        109677422.50660791        1247514614.1595056     
  -204788879.79210913        211731313.22040746        1258713722.9274199     
  -96683529.807710409        347632604.46100384        1276254229.2993388     
  -559213962.43049824       -5181569.7262316346        1152595517.3598342     
  -462472146.00503242        32702599.130422086        1161986795.2533276     
  -353717951.51144427        110628028.21413670        1178914831.8168573     
  -232951378.94973618        228594717.52492183        1203379627.0504334     
  -100172428.31991565        386602667.06275403        1235381180.9540496     
  -49733192.566056281        241667509.16727132        1439310568.7979980     
  -40451063.447258562        322553883.02068549        1346303404.0872226     
  -23388823.712339520        429373958.92783326        1253164913.9295621     
   1453526.6386876106        562127736.88867354        1159895098.3250263     
   34075987.605836213        720815216.90325844        1066493957.2736014     
  -71463911.930779919        275165025.51327103        1378218923.2213116     
  -57332018.022196293        376848215.97440279        1296713408.5363340     
  -34220604.989632785        508463136.84880215        1214270542.2270703     
  -2129672.8331117332        670009788.13639438        1130890324.2935090     
   38940778.447384149        861488169.83723605        1046572754.7356461     
  -87114024.344666138        310486723.94451195        1323866810.0550904     
  -70435297.581753045        432275851.43274426        1255262255.3217452     
  -43577643.187009662        587994737.69374681        1184914322.7867014     
  -6541061.1604546309        777643382.72745550        1112823012.4499416     
   40674448.497927487        1001221786.5339122        1038988324.3114833     
  -96683529.807710409        347632604.46100384        1276254229.2993388     
  -79760902.125928104        488836789.39570862        1221949944.4434531     
  -51459938.304472208        667968761.46265876        1165096255.6084523     
  -11780638.343343675        885028520.66184449        1105693162.7943368     
   39276997.757456779        1140016066.9932778        1043740666.0010939     
  -100172428.31991565        386602667.06275403        1235381180.9540496     
  -85308831.654736251        546531029.86324978        1196776475.9014561     
  -57867490.342013836        748385208.15555859        1154816340.6923375     
  -17848404.381779492        992165201.93957233        1109500775.3266792     
   34748426.225985944        1277871011.2153563        1060829779.8045046     
  -3073776425.7339339        107886822.61115324        1200631601.9587092     
  -2951458927.9325423        74291047.494219065        1164886505.3142810     
  -2825754486.6955671        51985083.829233170        1142995251.7968812     
  -2696663102.0230041        40968931.616211653        1134957841.4065099     
  -2564184773.9148560        41242590.855133176        1140774274.1431684     
  -3542505017.6078730        21054485.167353392        1044318750.1999706     
  -3380306178.5352826        17964915.550103903        1024910068.6124232     
  -3216699194.8236246        19569161.396439314        1015285605.1449977     
  -3051684066.4728837        25867222.706372857        1015445359.7976886     
  -2885260793.4830642        36859099.479899168        1025389332.5704955     
  -3966736201.3386154       -52428629.833487034        896291660.47700787     
  -3776283521.0145788       -28500243.956973314        890910795.35042214     
  -3586401494.8479772       -6474038.6052403450        891244523.33703887     
  -3397090122.8388019        13649986.221729517        897292844.43686461     
  -3208349404.9870601        31871830.523923993        909055758.64989877     
  -4346469976.9261570       -112562522.39136767        756550332.78983295     
  -4139390955.3704205       -65104431.027019739        762888685.52827084     
  -3934861386.7686181       -26144516.175808191        770872006.37300944     
  -3732881271.1207614        4317222.1622736454        780500295.32404554     
  -3533450608.4268384        26280783.987223387        791773552.38137305     
  -4681706344.3705082       -159347192.50629115        625094767.13843310     
  -4469628481.6028080       -91847645.660030365        640843739.14597726     
  -4262078870.5855641       -39442271.315268040        654168054.25290859     
  -4059057511.3187594       -2131069.4719986916        665067712.45922375     
  -3860564403.8024111        20085959.869767427        673542713.76492286     
  -2564184773.9148560        41242590.855133176        1140774274.1431684     
  -2493833853.8276320        28397147.859355688        1135321473.5355742     
  -2423230896.8430767        16391827.854677677        1133155831.2473531     
  -2352375902.9612060        5226630.8410536051        1134277347.2785034     
  -2281268872.1820111       -5098443.1814904213        1138686021.6290240     
  -2885260793.4830642        36859099.479899168        1025389332.5704955     
  -2806172317.0488310        24149548.893196106        1019576647.2951351     
  -2726844285.2933860        12238516.043869495        1017166641.1037009     
  -2647276698.2167234        1126000.9319288731        1018159313.9961922     
  -2567469555.8188472       -9187996.4426258802        1022554665.9726077     
  -3208349404.9870601        31871830.523923993        909055758.64989877     
  -3120193312.8785286        19397190.144466877        902868626.86797857     
  -3031810147.0248837        7679462.2487109900        900199694.93453777     
  -2943199907.4261389       -3281353.1633718014        901048962.84957767     
  -2854362594.0822787       -13485256.091741323        905416430.61309361     
  -3533450608.4268384        26280783.987223387        791773552.38137305     
  -3435896841.3167090        14140071.613203049        785197412.25410140     
  -3338128482.0375757        2714666.4691860676        782254992.73986375     
  -3240145530.5894432       -7995431.4448258877        782946293.83865964     
  -3141947986.9723101       -17990222.128837824        787271315.55048907     
  -3860564403.8024111        20085959.869767427        673542713.76492286     
  -3753282902.3633819        8378193.2993879318        666563003.45350683     
  -3645799290.3314562       -2655871.2946820259        663332534.51968133     
  -3538113567.7066460       -13016233.912460327        663851306.96344042     
  -3430225734.4889359       -22702894.553909302        668119320.78478885     
  -2281268872.1820111       -5098443.1814904213        1138686021.6290240     
  -2171529165.7707839       -3828231.9773986340        1131214741.7447708     
  -2062037881.3973007       -3386094.2324519157        1128398039.3960211     
  -1952795019.0615625       -3772029.9466553926        1130235914.5827758     
  -1843800578.7635670       -4986039.1200044155        1136728367.3050394     
  -2567469555.8188472       -9187996.4426258802        1022554665.9726077     
  -2445207024.8884492       -6734805.9234434366        1014593562.5351555     
  -2323163892.3557611       -5012943.3966220617        1011337828.2734630     
  -2201340158.2207804       -4022408.8621619940        1012787463.1875281     
  -2079735822.4835079       -3763202.3200583458        1018942467.2773489     
  -2854362594.0822787       -13485256.091741323        905416430.61309361     
  -2719432119.6605597       -9805550.5658181906        896999364.53582168     
  -2584692019.9965148       -6760427.5654743910        893338459.27455711     
  -2450142295.0901461       -4349887.0907095671        894433714.82930624     
  -2315782944.9414463       -2573929.1415232420        900285131.20006585     
  -3141947986.9723101       -17990222.128837824        787271315.55048907     
  -2994204450.0871162       -13040465.904525399        778432147.74676681     
  -2846622264.3195634       -8628546.7390148640        774399932.39931011     
  -2699201429.6696501       -4754464.6323070526        775174669.50811565     
  -2551941946.1373711       -1418219.5843846798        780756359.07318723     
  -3430225734.4889359       -22702894.553909302        668119320.78478885     
  -3269524016.1681166       -16439551.939572334        658891912.16799355     
  -3108954625.3249078       -10617300.917251468        654522247.64771330     
  -2948517561.9592986       -5236141.4869399071        655010327.22395289     
  -2788212826.0712919       -296073.64863514900        660356150.89670789     
  -1843800578.7635670       -4986039.1200044155        1136728367.3050394     
  -1749084320.2613921       -11274470.328679323        1129537141.9392271     
  -1654641156.7521915       -18473218.180603743        1126488427.2209859     
  -1560471088.2359569       -26582282.675746083        1127582223.1503253     
  -1466574114.7126935       -35601663.814126670        1132818529.7272301     
  -2079735822.4835079       -3763202.3200583458        1018942467.2773489     
  -1974499942.6215801       -9146843.9287332296        1011198201.8808389     
  -1869527507.0354552       -15408633.123415947        1007194644.6673331     
  -1764818515.7251325       -22548569.904111862        1006931795.6368300     
  -1660372968.6906166       -30566654.270823121        1010409654.7893331     
  -2315782944.9414463       -2573929.1415232420        900285131.20006585     
  -2201175450.7613897       -7397183.2626819611        891999084.94288206     
  -2086821750.1399627       -13066415.912614107        887051944.40413570     
  -1972721843.0771780       -19581627.091341972        885443709.58382237     
  -1858875729.5730276       -26942816.798865914        887174380.48195064     
  -2551941946.1373711       -1418219.5843846798        780756359.07318723     
  -2429110844.6808119       -6025488.3305038214        771939791.12535727     
  -2306523886.0657144       -11446566.548175693        766060326.43139374     
  -2184181070.2920947       -17681454.237434983        763117964.99130177     
  -2062082397.3599427       -24730151.398263216        763112706.80507219     
  -2788212826.0712919       -296073.64863514900        660356150.89670789     
  -2658306124.3798523       -5031759.1322175264        651020320.42826211     
  -2528633914.8127093       -10549085.030119538        644219790.74911094     
  -2399196197.3698716       -16848051.342380166        639954561.85925794     
  -2269992972.0513492       -23928658.069007874        638224633.75870538     
  -1466574114.7126935       -35601663.814126670        1132818529.7272301     
  -1359788482.6295300       -41089192.989705741        1125785257.6743739     
  -1252950466.9414203       -46402110.148784518        1122658791.4641168     
  -1146060067.6483684       -51540415.291399360        1123439131.0964627     
  -1039117284.7503737       -56504108.417531550        1128126276.5714104     
  -1660372968.6906166       -30566654.270823121        1010409654.7893331     
  -1543349056.3057523       -35001320.113940477        1001750646.3386812     
  -1426187034.4240928       -38975620.967732906        996817463.81616414     
  -1308886903.0456526       -42489556.832254291        995610107.22178435     
  -1191448662.1704185       -45543127.707475126        998128576.55554330     
  -1858875729.5730276       -26942816.798865914        887174380.48195064     
  -1732130622.3563616       -30479744.950471401        876989649.17398381     
  -1605161679.7510612       -33270555.139969945        870349763.87969065     
  -1477968901.7571278       -35315247.367359757        867254724.59906852     
  -1350552288.3745673       -36613821.632653177        867704531.33211493     
  -2062082397.3599427       -24730151.398263216        763112706.80507219     
  -1926133180.7813785       -27524467.499347806        751502266.18028009     
  -1789874402.9223356       -29286912.665508986        743255691.65469718     
  -1653306063.7828135       -30017486.896735132        738372983.22831821     
  -1516428163.3628178       -29716190.193059981        736854140.90115106     
  -2269992972.0513492       -23928658.069007874        638224633.75870538     
  -2125356731.5807776       -26135487.760515809        625288497.35757816     
  -1980325203.9379015       -27024693.544320345        615535247.14118481     
  -1834898389.1226969       -26596275.420371056        608964883.10953128     
  -1689076287.1351736       -24850233.388698518        605577405.26262593     
  -1039117284.7503737       -56504108.417531550        1128126276.5714104     
  -922554769.69902074       -55051192.173426449        1125338379.9698024     
  -803716710.96192944       -46013130.310193121        1128487287.9006693     
  -682603108.53908360       -29389922.827780038        1137573000.3640122     
  -559213962.43049824       -5181569.7262316346        1152595517.3598342     
  -1191448662.1704185       -45543127.707475126        998128576.55554330     
  -1061304086.4198961       -42419393.602077544        994221278.74909627     
  -929738012.79163575       -34557333.237543464        994439342.05692756     
  -796750441.28562784       -21956946.613851875        998782766.47903275     
  -662341371.90188956       -4618233.7310560644        1007251552.0154138     
  -1350552288.3745673       -36613821.632653177        867704531.33211493     
  -1212001204.5483019       -33371935.452957690        861681445.54483354     
  -1072882668.6523063       -28238542.374169767        857972277.45361686     
  -933196680.68657374       -21213642.396250844        856577027.05848432     
  -792943240.65110290       -12297235.519213736        857495694.35942483     
  -1516428163.3628178       -29716190.193059981        736854140.90115106     
  -1374646124.0842428       -27908817.726126671        727718880.35701084     
  -1233150678.5439341       -27056757.720086575        719086094.09074759     
  -1091941826.7419002       -27160010.174953938        710955782.10235870     
  -951019568.67813361       -28218575.090723276        703327944.39184856     
  -1689076287.1351736       -24850233.388698518        605577405.26262593     
  -1549238845.0277157       -26030040.421528637        592333583.18562758     
  -1410542042.4665332       -31011979.275304854        577780791.96831059     
  -1272985879.4516261       -39796049.949984491        561919031.61066902     
  -1136570355.9829941       -52382252.445581794        544748302.11270237     
  -559213962.43049824       -5181569.7262316346        1152595517.3598342     
  -462472146.00503242        32702599.130422086        1161986795.2533276     
  -353717951.51144427        110628028.21413670        1178914831.8168573     
  -232951378.94973618        228594717.52492183        1203379627.0504334     
  -100172428.31991565        386602667.06275403        1235381180.9540496     
  -662341371.90188956       -4618233.7310560644        1007251552.0154138     
  -547195895.93450117        25606418.168702036        1020808997.6555662     
  -421165313.20188594        92114759.285894513        1042753926.6479710     
  -284249623.70404434        194906789.62051201        1073086338.9926286     
  -136448827.44096118        333982509.17259312        1111806234.6895480     
  -792943240.65110290       -12297235.519213736        857495694.35942483     
  -656963463.19261909        10997092.008388937        873904157.89286041     
  -511225850.27179086        66817537.743805856        899550829.46077216     
  -355730401.88861001        155164101.68706462        934435709.06315005     
  -190477118.04309368        276036783.83810955        978558796.69999790     
  -951019568.67813361       -28218575.090723276        703327944.39184856     
  -791774847.77937198       -11125379.350515485        721272275.96521056     
  -623899562.72115481        34736363.587876558        749305540.25525570     
  -447393713.50347346        109366653.72448805        787427737.26198661     
  -262257300.12633109        212765491.05929273        835638866.98539877     
  -1136570355.9829941       -52382252.445581794        544748302.11270237     
  -951630049.69476807       -40760995.908006251        562913351.87262070     
  -759186450.54997456       -4128763.1818728447        592018059.03143501     
  -559239558.54859793        57514445.732873976        632062423.58914149     
  -351789373.69066137        144168630.83614814        683046445.54575408     
  -100172428.31991565        386602667.06275403        1235381180.9540496     
  -85308831.654736251        546531029.86324978        1196776475.9014561     
  -57867490.342013836        748385208.15555859        1154816340.6923375     
  -17848404.381779492        992165201.93957233        1109500775.3266792     
   34748426.225985944        1277871011.2153563        1060829779.8045046     
  -136448827.44096118        333982509.17259312        1111806234.6895480     
  -127339549.31069627        483040210.29561478        1090214368.7112236     
  -95100364.531960309        709197600.24687290        1070060148.2496873     
  -39731273.104746759        1012454679.0263888        1051343573.3049226     
   38767724.970927835        1392811446.6341107        1034064643.8769487     
  -190477118.04309368        276036783.83810955        978558796.69999790     
  -173427656.52401206        418332173.86074954        986290625.46371388     
  -122696126.35550842        672901126.04812765        1000253175.4175271     
  -38282527.537581861        1039743640.4002213        1020446446.5614300     
   79813139.929748833        1518859716.9170415        1046870438.8954248     
  -262257300.12633109        212765491.05929273        835638866.98539877     
  -223573153.29467979        352406920.55867720        885005246.15893161     
  -140654775.81266165        639495785.55928373        945395422.19586408     
  -13502167.680279911        1074032086.0611136        1016809395.0962008     
   157884671.10246354        1656015822.0641274        1099247164.8599370     
  -351789373.69066137        144168630.83614814        683046445.54575408     
  -277776039.62269932        285264450.38939923        786358230.79686689     
  -148976312.90342277        608981578.78037083        905486888.58469617     
   34609806.467167139        1115320016.0090425        1040432418.9092228     
   272982318.48905832        1804279762.0753908        1191194821.7704735     
  -4681706344.3705082       -159347192.50629115        625094767.13843310     
  -4469628481.6028080       -91847645.660030365        640843739.14597726     
  -4262078870.5855641       -39442271.315268040        654168054.25290859     
  -4059057511.3187594       -2131069.4719986916        665067712.45922375     
  -3860564403.8024111        20085959.869767427        673542713.76492286     
  -4980999963.6540327       -66085459.239621401        506906894.65672106     
  -4780958391.1799603       -41993689.603043079        502184109.10252589     
  -4581585314.2216730       -20130238.352417707        500644474.96377653     
  -4382880732.7791691       -495105.48774242401        502287992.24047577     
  -4184844646.8524518        16911708.990986347        507114660.93261373     
  -5338134228.1217527        9824080.4717915058        371161001.50417614     
  -5134106636.4668474       -4685234.2589800358        350469507.32868123     
  -4926887784.0930586       -8557013.2601456642        338568972.88469207     
  -4716477671.0003958       -1791256.5317277908        335459398.17221177     
  -4502876297.1888494        15612035.926300049        341140783.19123572     
  -5753109137.7736616        68381426.627946854        217857087.68079570     
  -5529073217.4634590        20077720.372177601        185699933.82444319     
  -5297986280.1997128       -4722596.0384495258        167941548.01565641     
  -5059848325.9824295       -6019522.6039435863        164581930.25443840     
  -4814659354.8116026        16186940.675699711        175621080.54079053     
  -6225924692.6097612        109586579.22884488        46995153.186583176     
  -5965858134.1698122        32295174.290399313        7875388.5898132408     
  -5694880802.5416479       -8626986.6873514652       -11237799.643329596     
  -5412992697.7252865       -13179903.704434872       -10344411.512845011     
  -5120193819.7207098        18636423.239199638        10555552.981271157     
  -3860564403.8024111        20085959.869767427        673542713.76492286     
  -3753282902.3633819        8378193.2993879318        666563003.45350683     
  -3645799290.3314562       -2655871.2946820259        663332534.51968133     
  -3538113567.7066460       -13016233.912460327        663851306.96344042     
  -3430225734.4889359       -22702894.553909302        668119320.78478885     
  -4184844646.8524518        16911708.990986347        507114660.93261373     
  -4067148680.7362466        8846311.8542432785        502138869.55477184     
  -3949687631.6354475       -2142.0005331039429        500584416.68171901     
  -3832461499.5500684       -9633652.5733647346        502451302.31344676     
  -3715470284.4800901       -20048219.864215136        507739526.44996905     
  -4502876297.1888494        15612035.926300049        341140783.19123572     
  -4375702731.7463207        10907948.617940903        337659045.20394433     
  -4249201110.9275103        3964045.8972008228        337270742.84863853     
  -4123371434.7324166       -5219672.2359406948        339975876.12532091     
  -3998213703.1610389       -16643205.781459093        345774445.03398347     
  -4814659354.8116026        16186940.675699711        175621080.54079053     
  -4678945055.3936119        14563103.590482712        173123530.40102631     
  -4544339728.2076464        9242692.3985075951        173391513.02044666     
  -4410843373.2537003        225707.09980511665        176425028.39905602     
  -4278455990.5317774       -12487852.305636883        182224076.53684244     
  -5120193819.7207098        18636423.239199638        10555552.981271157     
  -4976875651.6781197        19811776.771845818        8532325.1460118089     
  -4835103483.4758596        15833797.503393412        8946727.1971405987     
  -4694877315.1139250        6702485.4338526726        11798759.134648401     
  -4556197146.5923128       -7582159.4367604256        17088420.958543383     
  -3430225734.4889359       -22702894.553909302        668119320.78478885     
  -3269524016.1681166       -16439551.939572334        658891912.16799355     
  -3108954625.3249078       -10617300.917251468        654522247.64771330     
  -2948517561.9592986       -5236141.4869399071        655010327.22395289     
  -2788212826.0712919       -296073.64863514900        660356150.89670789     
  -3715470284.4800901       -20048219.864215136        507739526.44996905     
  -3542562833.5517421       -14137408.623006344        499151921.20537013     
  -3369716834.1082773       -8431435.6647369862        495176950.34076583     
  -3196932286.1496887       -2930300.9893970490        495814613.85616493     
  -3024209189.6759801        2365995.4030193090        501064911.75155610     
  -3998213703.1610389       -16643205.781459093        345774445.03398347     
  -3813800833.1009283       -11295019.956111908        337909331.81976354     
  -3629378538.5329762       -5915419.1046113968        334411743.26901406     
  -3444946819.4571805       -504403.22697114944        335281679.38174677     
  -3260505675.8735366        4938027.6768281460        340519140.15795738     
  -4278455990.5317774       -12487852.305636883        182224076.53684244     
  -4083238014.8156834       -7912385.9388885498        175164144.01116967     
  -3887939738.5990214       -3069251.2369110584        172226626.43245780     
  -3692561161.8817739        2041551.8003439903        173411523.80070168     
  -3497102284.6639819        7420023.1727595329        178718836.11590341     
  -4556197146.5923128       -7582159.4367604256        17088420.958543383     
  -4350874378.6959934       -3989506.5713214874        10916357.779601803     
  -4145400434.3063846        107067.93843364716        8621599.8310985751     
  -3939775313.4234896        4707564.0924711227        10204147.113031782     
  -3733999016.0472927        9811981.8908379078        15663999.625404622     
  -2788212826.0712919       -296073.64863514900        660356150.89670789     
  -2658306124.3798523       -5031759.1322175264        651020320.42826211     
  -2528633914.8127093       -10549085.030119538        644219790.74911094     
  -2399196197.3698716       -16848051.342380166        639954561.85925794     
  -2269992972.0513492       -23928658.069007874        638224633.75870538     
  -3024209189.6759801        2365995.4030193090        501064911.75155610     
  -2887101507.6717606       -3075743.9845150709        491818329.92287028     
  -2749967590.5161357       -8430032.8673638105        485738598.44639701     
  -2612807438.2090998       -13696871.245502234        482825717.32213819     
  -2475621050.7506585       -18876259.118970990        483079686.55009192     
  -3260505675.8735366        4938027.6768281460        340519140.15795738     
  -3114392586.2339325       -668437.41790509224        331665988.79069513     
  -2967992534.1672058       -5318361.0889014006        326611237.33856642     
  -2821305519.6733518       -9011743.3361448050        325354885.80156583     
  -2674331542.7523813       -11748584.159654617        327896934.17969853     
  -3497102284.6639819        7420023.1727595329        178718836.11590341     
  -3340179360.0663671        2190160.5676198006        170563297.03173077     
  -3182708745.7659125       -1214069.6947199106        166837707.42561254     
  -3024690441.7626305       -2792667.6142888069        167542067.29753378     
  -2866124448.0564966       -2545633.1910444498        172676376.64750946     
  -3733999016.0472927        9811981.8908379078        15663999.625404622     
  -3564461829.1690555        5500049.9720814228        8510254.6459932160     
  -3394116225.3122654        3882841.3151543140        6418008.7075461373     
  -3222962204.4769211        4960355.9200886488        9387261.8100563437     
  -3050999766.6630363        8732593.7868119478        17418013.953534722     
  -2269992972.0513492       -23928658.069007874        638224633.75870538     
  -2125356731.5807776       -26135487.760515809        625288497.35757816     
  -1980325203.9379015       -27024693.544320345        615535247.14118481     
  -1834898389.1226969       -26596275.420371056        608964883.10953128     
  -1689076287.1351736       -24850233.388698518        605577405.26262593     
  -2475621050.7506585       -18876259.118970990        483079686.55009192     
  -2322966223.4634333       -19221771.580165863        472540767.00437021     
  -2170210152.1208334       -19229803.856781960        464557570.23357195     
  -2017352836.7228491       -18900355.948777676        459130096.23769879     
  -1864394277.2694864       -18233427.856185317        456258345.01675105     
  -2674331542.7523813       -11748584.159654617        327896934.17969853     
  -2515450024.1051078       -10770348.027512908        319412181.18628150     
  -2356761304.5193958       -10434775.433913589        312855987.55797738     
  -2198265383.9952450       -10741866.378854275        308228353.29478085     
  -2039962262.5326617       -11691620.862344146        305529278.39670110     
  -2866124448.0564966       -2545633.1910444498        172676376.64750946     
  -2702808133.5058026       -781217.10257387161        165902739.90330651     
  -2539978661.1336017       -639608.27576780319        160430499.11440429     
  -2377636030.9399037       -2120806.7106246948        156259654.28078815     
  -2215780242.9247055       -5224812.4071503878        153390205.40247092     
  -3050999766.6630363        8732593.7868119478        17418013.953534722     
  -2885040551.6655121        10745621.194680691        12012443.155447515     
  -2719862221.9634352        10155697.617726445        7281104.9028298063     
  -2555464777.5568137        6962823.0559256077        3223999.1957035353     
  -2391848218.4456105        1166997.5093851089       -158873.96594458882     
  -1689076287.1351736       -24850233.388698518        605577405.26262593     
  -1549238845.0277157       -26030040.421528637        592333583.18562758     
  -1410542042.4665332       -31011979.275304854        577780791.96831059     
  -1272985879.4516261       -39796049.949984491        561919031.61066902     
  -1136570355.9829941       -52382252.445581794        544748302.11270237     
  -1864394277.2694864       -18233427.856185317        456258345.01675105     
  -1727692079.6421616       -22316653.273785949        442689460.17359704     
  -1591007551.3201382       -26458776.375724256        428687837.57483965     
  -1454340692.3034067       -30659797.161963284        414253477.22048044     
  -1317691502.5919881       -34919715.632578492        399386379.11051589     
  -2039962262.5326617       -11691620.862344146        305529278.39670110     
  -1903891791.1434104       -17927209.192077518        292945462.73518991     
  -1766716018.8184848       -20478461.069571137        280805140.70280027     
  -1628434945.5578794       -19345376.494789302        269108312.29952717     
  -1489048571.3616011       -14527955.467774153        257854977.52537334     
  -2215780242.9247055       -5224812.4071503878        153390205.40247092     
  -2077837979.5314629       -12861708.176420093        143101590.87041053     
  -1937667444.9615705       -13071033.356823921        134132701.35219024     
  -1795268639.2150295       -5852787.9484219551        126483536.84781769     
  -1650641562.2918320        8793028.0488480330        120154097.35726891     
  -2391848218.4456105        1166997.5093851089       -158873.96594458882     
  -2249530644.8063169       -7120150.2267763615       -6842155.4207438622     
  -2103861829.7494061       -4236493.2375384569       -11329480.476980090     
  -1954841773.2748570        9817968.4771661758       -13620849.134660000     
  -1802470475.3826749        35043234.917293310       -13716261.393776223     
  -1136570355.9829941       -52382252.445581794        544748302.11270237     
  -951630049.69476807       -40760995.908006251        562913351.87262070     
  -759186450.54997456       -4128763.1818728447        592018059.03143501     
  -559239558.54859793        57514445.732873976        632062423.58914149     
  -351789373.69066137        144168630.83614814        683046445.54575408     
  -1317691502.5919881       -34919715.632578492        399386379.11051589     
  -1117928965.8880525       -14813207.143676937        421227610.37079072     
  -914566942.60734189        17291589.934486210        441572764.87087083     
  -707605432.74985814        61394675.601894349        460421842.61074972     
  -497044436.31559229        117496049.85858446        477774843.59043258     
  -1489048571.3616011       -14527955.467774153        257854977.52537334     
  -1309994473.2679403        3404604.2646814585        278817949.62625074     
  -1131244694.8772974        20322764.987080455        285849110.80782783     
  -952799236.18968999        36226526.699369431        278948461.07011342     
  -774658097.20508575        51115889.401638687        258116000.41311026     
  -1650641562.2918320        8793028.0488480330        120154097.35726891     
  -1527826571.8344369        13892438.317042172        135684369.63899022     
  -1409219707.3598554        4964761.9758546352        124847096.84230468     
  -1294820968.8680785       -17990000.974682212        87642278.967243701     
  -1184630356.3591268       -54971850.534631431        24069916.013778463     
  -1802470475.3826749        35043234.917293310       -13716261.393776223     
  -1771425261.5875316        16650295.013423443       -8173129.5909851594     
  -1748491980.0549867       -28782419.099096298       -41433277.025695026     
  -1733670630.7850666       -101254907.42037225       -113496703.69787556     
  -1726961213.7777512       -200767169.95032978       -224363409.60753942     
  -351789373.69066137        144168630.83614814        683046445.54575408     
  -277776039.62269932        285264450.38939923        786358230.79686689     
  -148976312.90342277        608981578.78037083        905486888.58469617     
   34609806.467167139        1115320016.0090425        1040432418.9092228     
   272982318.48905832        1804279762.0753908        1191194821.7704735     
  -497044436.31559229        117496049.85858446        477774843.59043258     
  -388231260.65055323        223062813.82510942        597052619.38404751     
  -230277086.32674113        492432906.65422493        735481644.38949072     
  -23181913.344145179        925606328.34596741        893061918.60674095     
   233054258.29723114        1522583078.9002693        1069793442.0358208     
  -774658097.20508575        51115889.401638687        258116000.41311026     
  -621518289.44267702        124011634.93152538        386773473.75795323     
  -424882877.01403153        341892729.34887403        537916572.98972154     
  -184751859.91912711        704759172.65376139        711545298.10841823     
   98874761.842030585        1212610964.8461356        907659649.11403263     
  -1184630356.3591268       -54971850.534631431        24069916.013778463     
  -977637125.99907136       -11889086.291353285        155520793.91858232     
  -732793684.96527445        157361046.86436409        312791674.38539153     
  -450100033.25776494        452778548.93246698        495882557.41422862     
  -129556170.87652934        874363419.91300106        704793443.00511265     
  -1726961213.7777512       -200767169.95032978       -224363409.60753942     
  -1456587770.3197095       -184639349.84347838       -96705420.134097084     
  -1154009510.1804967       -61162140.799389660        60106948.576495923     
  -819226433.36006629        169664457.18212420        246073696.52421978     
  -452238539.85845423        507840444.10084367        461194823.70905459     
 </DataArray>
 <DataArray  type="Float64" Name="VM" NumberOfComponents="1" format="ascii">
   6150515116.5821571     
   5908182116.3050442     
   5662264640.3835421     
   5411633330.9861174     
   5155541752.2350044     
   5744770407.5265179     
   5523206151.1936951     
   5299737589.6186352     
   5073988297.7254505     
   4845811492.5494366     
   5377151444.9700279     
   5171178999.2191296     
   4965325475.5203304     
   4759673101.2205019     
   4554420438.9884453     
   5052494035.0586576     
   4856888728.3804560     
   4663484205.6614237     
   4472503312.5061464     
   4284239841.8737755     
   4776566698.1143503     
   4585942066.8678856     
   4399364304.9372015     
   4216873914.0337849     
   4038637814.5466013     
   5155541752.2350044     
   5000426150.2536964     
   4846746918.7181292     
   4694470546.1344681     
   4543611599.7827044     
   4845811492.5494366     
   4702066600.9952717     
   4559682987.0490427     
   4418672136.1688662     
   4279087569.5303187     
   4554420438.9884453     
   4421926028.9190855     
   4290763508.4226007     
   4160991507.0066466     
   4032709244.6846528     
   4284239841.8737755     
   4163129605.1155324     
   4043383196.5862308     
   3925107629.1732011     
   3808454274.8523741     
   4038637814.5466013     
   3929333385.8243456     
   3821502630.4564161     
   3715300183.6518855     
   3610934417.0507684     
   4543611599.7827044     
   4343610793.4637051     
   4143244871.2679329     
   3942489648.2099752     
   3741347160.2279167     
   4279087569.5303187     
   4087953740.2220974     
   3897030909.6435061     
   3706364495.2467866     
   3516048355.6300225     
   4032709244.6846528     
   3852061524.9463377     
   3672426578.0876555     
   3493951315.6705503     
   3316860733.7440543     
   3808454274.8523741     
   3639952177.2998519     
   3473506974.8264771     
   3309393321.0233150     
   3147996755.2298903     
   3610934417.0507684     
   3456194964.4604969     
   3304791422.4871850     
   3157136615.2857809     
   3013782253.8164639     
   3741347160.2279167     
   3569152358.1865072     
   3397568371.2497420     
   3226566969.2722230     
   3056194886.7127080     
   3516048355.6300225     
   3355506160.5485582     
   3196018442.2239962     
   3037637101.8931050     
   2880488535.0246930     
   3316860733.7440543     
   3167313962.8198500     
   3019224649.4225636     
   2872725489.1270499     
   2728023523.1574373     
   3147996755.2298903     
   3009084347.7466412     
   2871979993.6331401     
   2736893272.6786771     
   2604107587.3702712     
   3013782253.8164639     
   2885472364.6540351     
   2759254710.2969518     
   2635405437.0548301     
   2514272668.3924799     
   3056194886.7127080     
   2890686349.9354300     
   2724777367.3304844     
   2558461214.8125658     
   2391735901.8768711     
   2880488535.0246930     
   2717465212.4110584     
   2554467474.8275580     
   2391522675.7554302     
   2228675495.1411328     
   2728023523.1574373     
   2570001571.0066996     
   2412831471.7829719     
   2256653520.1070347     
   2101665302.2056220     
   2604107587.3702712     
   2453698406.5314236     
   2305405130.7706389     
   2159553651.7784319     
   2016585904.3670087     
   2514272668.3924799     
   2373944460.8214307     
   2237386555.0724225     
   2105137771.7765198     
   1977903246.0515666     
   2391735901.8768711     
   2245639056.8779545     
   2101725893.9614336     
   1959995080.9407163     
   1820613007.7248099     
   2228675495.1411328     
   2086045001.5877233     
   1945084998.7524657     
   1805795225.5000682     
   1668252575.5608332     
   2101665302.2056220     
   1961698759.8726864     
   1822709390.4198282     
   1684726948.4971881     
   1547809938.5404570     
   2016585904.3670087     
   1880125093.8434999     
   1743984337.9791541     
   1608287579.0620341     
   1473205371.3540583     
   1977903246.0515666     
   1847531999.5379598     
   1717153363.1640675     
   1587103404.7961748     
   1457872073.0756340     
   1820613007.7248099     
   1779966442.3722947     
   1735791869.3801999     
   1696729117.9528613     
   1681293616.7746735     
   1668252575.5608332     
   1552781386.1798947     
   1428181852.6235726     
   1294813057.4698513     
   1158805359.0079787     
   1547809938.5404570     
   1397831977.9217885     
   1244284127.0537174     
   1084896958.9656210     
   917640796.64423680     
   1473205371.3540583     
   1328844822.4535067     
   1198951095.1137972     
   1088019860.6343896     
   1001974402.2189695     
   1457872073.0756340     
   1348741289.9403150     
   1274610872.1290565     
   1243628032.9411824     
   1262850554.1295948     
   1681293616.7746735     
   1383746644.7223616     
   1129463679.3910534     
   1010189503.7332560     
   1153226125.1492658     
   1158805359.0079787     
   1008367861.9858408     
   985181963.05233312     
   1161503056.5988867     
   1544227313.3749804     
   917640796.64423680     
   963063530.45254409     
   1144891426.8747911     
   1476472186.8769352     
   1957500501.6587522     
   1001974402.2189695     
   1164676347.2522311     
   1425400982.0809982     
   1808733825.5642655     
   2334768376.5894909     
   1262850554.1295948     
   1446667445.1868362     
   1715685324.4244795     
   2110484675.1723874     
   2663512075.8929963     
   4776566698.1143503     
   4585942066.8678856     
   4399364304.9372015     
   4216873914.0337849     
   4038637814.5466013     
   4504836827.9042273     
   4321898912.6373415     
   4142863057.6397009     
   3968051453.3817525     
   3797894385.4495711     
   4231811225.7727962     
   4061959474.2329416     
   3896896786.0447769     
   3737117409.3185196     
   3583275959.6744261     
   3960841570.0041151     
   3809669635.1151285     
   3665251522.1249075     
   3528134824.6023817     
   3399156321.4548669     
   3697061961.2955990     
   3569990110.0812006     
   3452769736.9554009     
   3345837006.9710131     
   3250122257.0746250     
   4038637814.5466013     
   3929333385.8243456     
   3821502630.4564161     
   3715300183.6518855     
   3610934417.0507684     
   3797894385.4495711     
   3699502685.5505304     
   3603273797.0624185     
   3509401813.8683496     
   3418130886.2050109     
   3583275959.6744261     
   3495923389.9474821     
   3411425189.0078144     
   3330000061.1535163     
   3251910479.9674330     
   3399156321.4548669     
   3322847032.3012276     
   3250047944.1473551     
   3180982322.1877027     
   3115908635.6157742     
   3250122257.0746250     
   3184651812.6027713     
   3123264477.0018282     
   3066164839.0502815     
   3013583210.8865409     
   3610934417.0507684     
   3456194964.4604969     
   3304791422.4871850     
   3157136615.2857809     
   3013782253.8164639     
   3418130886.2050109     
   3278671568.1941223     
   3143373807.7883735     
   3012740924.8207302     
   2887418485.2967138     
   3251910479.9674330     
   3128357128.7523293     
   3009839921.6148190     
   2896931141.9085226     
   2790337177.1008959     
   3115908635.6157742     
   3008784032.2321463     
   2907562242.0442882     
   2812847787.4217710     
   2725358863.8726335     
   3013583210.8865409     
   2923168343.4211645     
   2839441728.8313475     
   2762992937.2768011     
   2694495819.2790008     
   3013782253.8164639     
   2885472364.6540351     
   2759254710.2969518     
   2635405437.0548301     
   2514272668.3924799     
   2887418485.2967138     
   2770102816.6455779     
   2656028672.9716740     
   2545598851.5023627     
   2439306814.8742604     
   2790337177.1008959     
   2685844514.6957054     
   2585894425.6820221     
   2490994900.3068089     
   2401747781.2192254     
   2725358863.8726335     
   2635069320.0638957     
   2550664382.0378838     
   2472704861.1100378     
   2401830132.1637979     
   2694495819.2790008     
   2619111592.8602214     
   2550875063.3187995     
   2490331773.9938059     
   2438078482.2835574     
   2514272668.3924799     
   2373944460.8214307     
   2237386555.0724225     
   2105137771.7765198     
   1977903246.0515666     
   2439306814.8742604     
   2313763006.2529073     
   2193350347.1303048     
   2078800807.4840178     
   1971020381.0835416     
   2401747781.2192254     
   2292901066.7303309     
   2190563634.8648577     
   2095570980.7569225     
   2008897513.9528503     
   2401830132.1637979     
   2310861375.4813190     
   2227591689.6246629     
   2152841835.0097861     
   2087511005.4329178     
   2438078482.2835574     
   2365264536.8865252     
   2301011044.2996612     
   2246027224.4576049     
   2201043325.1163249     
   1977903246.0515666     
   1847531999.5379598     
   1717153363.1640675     
   1587103404.7961748     
   1457872073.0756340     
   1971020381.0835416     
   1855057244.0890503     
   1743430174.8988836     
   1637048690.4619825     
   1537028785.5213723     
   2008897513.9528503     
   1912509828.0846183     
   1824883785.3547683     
   1747213798.7534103     
   1680785775.7027273     
   2087511005.4329178     
   2012315612.6118212     
   1949497037.3128703     
   1900135071.0592265     
   1865260319.0004230     
   2201043325.1163249     
   2145640706.0038314     
   2105236410.9787710     
   2080601834.0463107     
   2072419540.2612023     
   1457872073.0756340     
   1348741289.9403150     
   1274610872.1290565     
   1243628032.9411824     
   1262850554.1295948     
   1537028785.5213723     
   1476126314.2345254     
   1447931631.4216385     
   1456418380.3425455     
   1504883175.8728778     
   1680785775.7027273     
   1652311218.7335300     
   1651559987.4203520     
   1680901812.0722654     
   1742943264.0350206     
   1865260319.0004230     
   1854810789.6832793     
   1867319886.9160562     
   1904995708.1397047     
   1970867366.4068279     
   2072419540.2612023     
   2069000443.5543518     
   2084788219.4486377     
   2122413927.0640154     
   2185688937.7479768     
   1262850554.1295948     
   1446667445.1868362     
   1715685324.4244795     
   2110484675.1723874     
   2663512075.8929963     
   1504883175.8728778     
   1613282445.7064843     
   1788869749.8879485     
   2066397359.5720863     
   2476077035.9415674     
   1742943264.0350206     
   1787730594.5503595     
   1884662673.0309000     
   2060650764.0664663     
   2340928048.2533493     
   1970867366.4068279     
   1968972429.6744018     
   2003629050.4878578     
   2093512009.4556208     
   2257281259.6521292     
   2185688937.7479768     
   2156293776.6921649     
   2146509800.6188440     
   2166858916.1823211     
   2228409025.8072653     
   3697061961.2955990     
   3569990110.0812006     
   3452769736.9554009     
   3345837006.9710131     
   3250122257.0746250     
   3407629488.2160921     
   3314651889.8436646     
   3230956398.1194258     
   3157141043.3621740     
   3094053109.9626517     
   3174001559.0721097     
   3109174103.5065818     
   3052536555.2974768     
   3004601227.5409889     
   2965956423.6164384     
   3000497676.0637670     
   2958028328.8128948     
   2921969888.2181034     
   2892545952.7863221     
   2869992111.9248009     
   2889710176.8976388     
   2864121833.5133080     
   2842416574.6415973     
   2824387099.9984426     
   2809895004.6198730     
   3250122257.0746250     
   3184651812.6027713     
   3123264477.0018282     
   3066164839.0502815     
   3013583210.8865409     
   3094053109.9626517     
   3037661276.2025003     
   2985928931.7442422     
   2939065383.0774488     
   2897302713.2584853     
   2965956423.6164384     
   2918733484.1590543     
   2876785337.0239868     
   2840309944.1397858     
   2809523612.9108067     
   2869992111.9248009     
   2831636647.2291365     
   2799185822.3246493     
   2772809570.1828690     
   2752691272.4041967     
   2809895004.6198730     
   2779613224.0827074     
   2755859322.2950783     
   2738762031.9455752     
   2728459454.6511445     
   3013583210.8865409     
   2923168343.4211645     
   2839441728.8313475     
   2762992937.2768011     
   2694495819.2790008     
   2897302713.2584853     
   2822381936.7615848     
   2755059384.0377979     
   2695887000.1086369     
   2645474361.8510165     
   2809523612.9108067     
   2749725709.6520123     
   2698309810.4786639     
   2655747533.6391172     
   2622541595.1489038     
   2752691272.4041967     
   2707014740.0256619     
   2670344861.7697506     
   2643044087.6790638     
   2625485544.3955345     
   2728459454.6511445     
   2695225586.3529382     
   2671465555.0244904     
   2657424282.3259749     
   2653345940.4421163     
   2694495819.2790008     
   2619111592.8602214     
   2550875063.3187995     
   2490331773.9938059     
   2438078482.2835574     
   2645474361.8510165     
   2584823312.2836089     
   2531874471.4985085     
   2487094318.2489929     
   2450974213.5839462     
   2622541595.1489038     
   2575855607.6781645     
   2537257698.0642576     
   2507113403.1223249     
   2485793955.2830124     
   2625485544.3955345     
   2591528100.6449103     
   2565888720.1264691     
   2548828248.8948879     
   2540602919.2792439     
   2653345940.4421163     
   2630484321.9403634     
   2616054993.3416295     
   2610225474.1668367     
   2613155786.0556006     
   2438078482.2835574     
   2365264536.8865252     
   2301011044.2996612     
   2246027224.4576049     
   2201043325.1163249     
   2450974213.5839462     
   2394090311.0118971     
   2346666377.5699439     
   2309272341.8096938     
   2282461610.3910184     
   2485793955.2830124     
   2443684308.7227139     
   2411664688.7530293     
   2390146900.5308480     
   2379508236.8774080     
   2540602919.2792439     
   2511524188.2304225     
   2492969081.4671731     
   2485203419.0630937     
   2488457410.9185605     
   2613155786.0556006     
   2594956775.9038463     
   2587616967.2585855     
   2591285417.8129792     
   2606084670.3009644     
   2201043325.1163249     
   2145640706.0038314     
   2105236410.9787710     
   2080601834.0463107     
   2072419540.2612023     
   2282461610.3910184     
   2242010438.7338705     
   2215470170.3074555     
   2203289459.6303735     
   2205855432.8308878     
   2379508236.8774080     
   2351029848.1837273     
   2335352712.1308856     
   2332724047.9966917     
   2343362419.2546711     
   2488457410.9185605     
   2469288725.9425225     
   2461905220.0294728     
   2466440271.2789221     
   2483025553.7035017     
   2606084670.3009644     
   2593947912.3250656     
   2592732611.0048623     
   2602515787.6314416     
   2623391123.5769234     
   2072419540.2612023     
   2069000443.5543518     
   2084788219.4486377     
   2122413927.0640154     
   2185688937.7479768     
   2205855432.8308878     
   2191557726.5906858     
   2192245023.4730139     
   2209887331.2391872     
   2247405074.6570454     
   2343362419.2546711     
   2319001082.3261361     
   2306185542.7666454     
   2306322382.9888430     
   2321501152.5747871     
   2483025553.7035017     
   2450363461.9458408     
   2426293628.8177218     
   2411762302.8976107     
   2408147434.9029436     
   2623391123.5769234     
   2584869129.4472222     
   2552287449.6213622     
   2526228075.9976740     
   2507500568.1495361     
   2185688937.7479768     
   2156293776.6921649     
   2146509800.6188440     
   2166858916.1823211     
   2228409025.8072653     
   2247405074.6570454     
   2182669873.4464531     
   2134380331.7804728     
   2112201922.1101351     
   2127066488.4792337     
   2321501152.5747871     
   2224763268.3543754     
   2141354978.2454867     
   2079640613.7278662     
   2049790063.4114528     
   2408147434.9029436     
   2282867154.2694998     
   2168080353.9055653     
   2070526505.2835896     
   1998972960.8234041     
   2507500568.1495361     
   2357189997.9135389     
   2215026707.4798164     
   2085991123.0343051     
   1976959391.2981973     
   2889710176.8976388     
   2864121833.5133080     
   2842416574.6415973     
   2824387099.9984426     
   2809895004.6198730     
   2798968994.6714177     
   2767037835.1555190     
   2742278445.6780272     
   2724815443.6057425     
   2714782005.3287311     
   2733788901.4841495     
   2696527145.2981715     
   2670805623.3046122     
   2656788295.6140099     
   2654637708.7294226     
   2706286250.8290782     
   2662334338.2797847     
   2635203128.7028813     
   2624862494.5915561     
   2631308117.5735607     
   2729064991.7338347     
   2674200201.9682951     
   2642131750.6743870     
   2632554090.5852919     
   2645235237.3450451     
   2809895004.6198730     
   2779613224.0827074     
   2755859322.2950783     
   2738762031.9455752     
   2728459454.6511445     
   2714782005.3287311     
   2693020224.0862312     
   2677846361.4377470     
   2669338841.0850124     
   2667581442.1551189     
   2654637708.7294226     
   2639633912.1993599     
   2631226500.1426063     
   2629451138.6186128     
   2634346931.6242008     
   2631308117.5735607     
   2621006789.4929194     
   2617274533.2758946     
   2620116915.8984780     
   2629542349.8578720     
   2645235237.3450451     
   2637416922.9575377     
   2636122949.6972022     
   2641344015.2667484     
   2653073543.5341616     
   2728459454.6511445     
   2695225586.3529382     
   2671465555.0244904     
   2657424282.3259749     
   2653345940.4421163     
   2667581442.1551189     
   2644384149.5037680     
   2630760770.3560729     
   2626855279.5209064     
   2632808012.3399396     
   2634346931.6242008     
   2618751734.9339509     
   2612787444.3066874     
   2616519451.3192430     
   2630010411.0737381     
   2629542349.8578720     
   2618762266.4632869     
   2617668244.4187398     
   2626276615.6843805     
   2644602903.8734918     
   2653073543.5341616     
   2644123375.4370127     
   2644946456.7332315     
   2655542683.5037498     
   2675911953.5424867     
   2653345940.4421163     
   2630484321.9403634     
   2616054993.3416295     
   2610225474.1668367     
   2613155786.0556006     
   2632808012.3399396     
   2618104078.6766148     
   2611821237.4885387     
   2614051916.0594106     
   2624882196.6635036     
   2630010411.0737381     
   2621367244.5484676     
   2621129179.6203923     
   2629335316.0054946     
   2646021193.1538768     
   2644602903.8734918     
   2639770281.8941855     
   2643356065.0205569     
   2655368999.2612081     
   2675816863.9027476     
   2675911953.5424867     
   2672574926.2443929     
   2677723079.0805440     
   2691357362.4405012     
   2713479030.0027676     
   2613155786.0556006     
   2594956775.9038463     
   2587616967.2585855     
   2591285417.8129792     
   2606084670.3009644     
   2624882196.6635036     
   2613884268.9157925     
   2613318907.7770214     
   2623266224.0998178     
   2643790588.8310823     
   2646021193.1538768     
   2640579287.2948017     
   2645253283.6308675     
   2660078430.7947745     
   2685082782.9155669     
   2675816863.9027476     
   2674313043.3531861     
   2682741337.5128484     
   2701111200.8933964     
   2729430480.0376801     
   2713479030.0027676     
   2714351729.8579054     
   2725119561.2293873     
   2745781093.6319323     
   2776335674.5455594     
   2606084670.3009644     
   2593947912.3250656     
   2592732611.0048623     
   2602515787.6314416     
   2623391123.5769234     
   2643790588.8310823     
   2633110226.8593721     
   2632589778.7271614     
   2642267834.6488738     
   2662194153.8729906     
   2685082782.9155669     
   2675548784.1308141     
   2675587659.7185783     
   2685214434.7736149     
   2704449981.1433816     
   2729430480.0376801     
   2720869149.8737736     
   2721450871.2867360     
   2731178696.9047165     
   2750057556.0874782     
   2776335674.5455594     
   2768697339.1943474     
   2769914214.0572071     
   2779986246.8156257     
   2798913422.5394864     
   2623391123.5769234     
   2584869129.4472222     
   2552287449.6213622     
   2526228075.9976740     
   2507500568.1495361     
   2662194153.8729906     
   2616756851.5209045     
   2577017115.3505907     
   2543305823.6670027     
   2516085336.5526667     
   2704449981.1433816     
   2654200283.4368200     
   2609549170.2183571     
   2570643802.3520575     
   2537690117.6832061     
   2750057556.0874782     
   2697105554.5363917     
   2649796166.1046257     
   2608165777.9365740     
   2572265114.4969487     
   2798913422.5394864     
   2745370264.9415512     
   2697656109.0034013     
   2655770947.7242446     
   2619714779.0122433     
   2507500568.1495361     
   2357189997.9135389     
   2215026707.4798164     
   2085991123.0343051     
   1976959391.2981973     
   2516085336.5526667     
   2348229746.2181907     
   2183918670.3955569     
   2026252668.4268813     
   1879797509.9512389     
   2537690117.6832061     
   2357374368.2799363     
   2176795584.9115157     
   1997426109.3082449     
   1821545334.4272544     
   2572265114.4969487     
   2384728334.0506883     
   2194124612.1585150     
   2000832797.9798975     
   1805458022.9930973     
   2619714779.0122433     
   2430261184.4836640     
   2236048545.9724073     
   2037076862.4435861     
   1833346133.9506462     
   2729064991.7338347     
   2674200201.9682951     
   2642131750.6743870     
   2632554090.5852919     
   2645235237.3450451     
   2657491472.6446376     
   2624354220.0958285     
   2607757418.8015051     
   2607718552.5044503     
   2624263836.5550170     
   2661305414.2047133     
   2640622733.0466447     
   2630604416.3010902     
   2631422769.3927083     
   2643240971.1203170     
   2723997767.3756032     
   2710437861.1952505     
   2702099518.2666864     
   2699013949.1195779     
   2701247976.9368138     
   2827543505.4866085     
   2819734246.1544075     
   2812074317.1854110     
   2804173735.4674096     
   2795782747.3100638     
   2645235237.3450451     
   2637416922.9575377     
   2636122949.6972022     
   2641344015.2667484     
   2653073543.5341616     
   2624263836.5550170     
   2615902667.1972861     
   2613946611.3652849     
   2618402465.2434306     
   2629276977.1118751     
   2643240971.1203170     
   2631598276.2025046     
   2626159938.1356320     
   2626963160.3461432     
   2634046033.3035507     
   2701247976.9368138     
   2683862480.4524312     
   2672388859.3561387     
   2666903350.5393648     
   2667488323.8964353     
   2795782747.3100638     
   2770637732.8373518     
   2751014454.5457926     
   2737028383.2695694     
   2728810793.0104842     
   2653073543.5341616     
   2644123375.4370127     
   2644946456.7332315     
   2655542683.5037498     
   2675911953.5424867     
   2629276977.1118751     
   2618445175.4679203     
   2617285462.3200841     
   2625814493.2642794     
   2644047925.4800477     
   2634046033.3035507     
   2618333896.1306410     
   2612216032.3786902     
   2615758238.6546035     
   2629023497.1188965     
   2667488323.8964353     
   2644109527.5117526     
   2630235912.5615501     
   2626011214.0652852     
   2631575902.8685403     
   2728810793.0104842     
   2695347228.9422908     
   2671247467.9062161     
   2656754177.6575947     
   2652110398.2447743     
   2675911953.5424867     
   2672574926.2443929     
   2677723079.0805440     
   2691357362.4405012     
   2713479030.0027676     
   2644047925.4800477     
   2638527435.8752556     
   2641479540.6469650     
   2652915412.8860135     
   2672845488.1948047     
   2629023497.1188965     
   2619372107.4631438     
   2618245029.4557385     
   2625682154.1500444     
   2641720102.5006089     
   2631575902.8685403     
   2615880963.3861766     
   2608804635.5035739     
   2610435118.0378265     
   2620854244.7423835     
   2652110398.2447743     
   2628569218.6673393     
   2613754005.6016054     
   2607820642.0122647     
   2610916477.2924614     
   2713479030.0027676     
   2714351729.8579054     
   2725119561.2293873     
   2745781093.6319323     
   2776335674.5455594     
   2672845488.1948047     
   2672233359.0462618     
   2681547654.1699085     
   2700794226.7261105     
   2729977361.9924512     
   2641720102.5006089     
   2637601041.3793092     
   2643562248.7506628     
   2659637413.9642272     
   2685852869.2342033     
   2620854244.7423835     
   2611165356.5180430     
   2611816469.1772180     
   2622893622.7921762     
   2644466743.1817198     
   2610916477.2924614     
   2593601994.3422046     
   2586964056.7389774     
   2591170104.3242927     
   2606361013.2066298     
   2776335674.5455594     
   2768697339.1943474     
   2769914214.0572071     
   2779986246.8156257     
   2798913422.5394864     
   2729977361.9924512     
   2721207319.6800222     
   2721588997.2441173     
   2731126074.5222068     
   2749823406.8866787     
   2685852869.2342033     
   2676007801.1833162     
   2675755960.5899124     
   2685112687.7144918     
   2704098916.7826352     
   2644466743.1817198     
   2633476014.4448652     
   2632680961.7771573     
   2642119262.7789264     
   2661841127.2697239     
   2606361013.2066298     
   2594012098.5167785     
   2592640920.4580903     
   2602321397.5647411     
   2623148227.5728183     
   2798913422.5394864     
   2745370264.9415512     
   2697656109.0034013     
   2655770947.7242446     
   2619714779.0122433     
   2749823406.8866787     
   2696957911.8861241     
   2649728405.7251530     
   2608171611.9784079     
   2572339205.1779613     
   2704098916.7826352     
   2653983131.7466545     
   2609452460.9009447     
   2570654173.9600701     
   2537794534.7119312     
   2661841127.2697239     
   2616547051.0576901     
   2576929820.8795133     
   2543319602.8391523     
   2516176851.2484975     
   2623148227.5728183     
   2584741929.0688443     
   2552247305.5887561     
   2526244250.0562668     
   2507536682.1965237     
   2619714779.0122433     
   2430261184.4836640     
   2236048545.9724073     
   2037076862.4435861     
   1833346133.9506462     
   2572339205.1779613     
   2384766487.9132452     
   2194130848.7557273     
   2000810355.6537404     
   1805408430.5157990     
   2537794534.7119312     
   2357424245.6836944     
   2176799135.1291680     
   1997391824.4395442     
   1821482063.6197762     
   2516176851.2484975     
   2348265229.6432796     
   2183910649.8617687     
   2026216709.4623375     
   1879754606.8323262     
   2507536682.1965237     
   2357185506.3069382     
   2214998530.4790387     
   2085963219.9620936     
   1976967713.9894395     
   2827543505.4866085     
   2819734246.1544075     
   2812074317.1854110     
   2804173735.4674096     
   2795782747.3100638     
   2990130962.7642317     
   2951111593.8270726     
   2916436922.4514585     
   2886229439.5944443     
   2860663049.2789688     
   3196706817.5096011     
   3124291296.9895988     
   3060541174.2787447     
   3005859251.3096676     
   2960729151.4988093     
   3451478309.8761177     
   3342257014.9913530     
   3245682936.9700017     
   3162313524.9574161     
   3092926334.3751268     
   3757114555.7124181     
   3606491043.8253870     
   3471858636.0598283     
   3353883965.0022507     
   3253704959.4616556     
   2795782747.3100638     
   2770637732.8373518     
   2751014454.5457926     
   2737028383.2695694     
   2728810793.0104842     
   2860663049.2789688     
   2825835666.8148999     
   2796220543.3009906     
   2771980314.8275437     
   2753294727.1343479     
   2960729151.4988093     
   2915554049.2598834     
   2875265792.8835750     
   2840060954.0367270     
   2810156849.3640008     
   3092926334.3751268     
   3037077238.2650762     
   2985786197.7356334     
   2939268052.8008237     
   2897763190.8415976     
   3253704959.4616556     
   3187114055.3798976     
   3124766274.2704687     
   3066879522.9995818     
   3013702093.6288543     
   2728810793.0104842     
   2695347228.9422908     
   2671247467.9062161     
   2656754177.6575947     
   2652110398.2447743     
   2753294727.1343479     
   2707448026.7769971     
   2670540346.0024433     
   2642930138.1268106     
   2624987092.8573980     
   2810156849.3640008     
   2750285309.8217206     
   2698781001.3999887     
   2656111419.7747970     
   2622774738.0879827     
   2897763190.8415976     
   2822868641.7406683     
   2755619814.4767222     
   2696567052.8929024     
   2646316858.7160282     
   3013702093.6288543     
   2923385166.4779034     
   2839872504.4115405     
   2763757637.9321465     
   2695716289.9919033     
   2652110398.2447743     
   2628569218.6673393     
   2613754005.6016054     
   2607820642.0122647     
   2610916477.2924614     
   2624987092.8573980     
   2590900919.7302523     
   2565327310.7848959     
   2548521039.9013138     
   2540730809.4496498     
   2622774738.0879827     
   2576246683.4591355     
   2537893977.2963233     
   2508082771.3452110     
   2487183720.8177309     
   2646316858.7160282     
   2585912751.7855372     
   2533178691.4583797     
   2488587688.8881721     
   2452637544.1733060     
   2695716289.9919033     
   2620546801.5005980     
   2552359810.1163793     
   2491710408.7938542     
   2439206448.3559489     
   2610916477.2924614     
   2593601994.3422046     
   2586964056.7389774     
   2591170104.3242927     
   2606361013.2066298     
   2540730809.4496498     
   2511769451.2108059     
   2493190680.7502341     
   2485273329.6831894     
   2488262163.0028434     
   2487183720.8177309     
   2444723793.1965404     
   2412273975.8813581     
   2390250913.1483216     
   2379038731.6100612     
   2452637544.1733060     
   2395188506.5641198     
   2347207075.4025302     
   2309258426.4463148     
   2281891834.9601378     
   2439206448.3559489     
   2365801717.6161213     
   2301083824.8555856     
   2245748900.7160687     
   2200511244.6183062     
   2606361013.2066298     
   2594012098.5167785     
   2592640920.4580903     
   2602321397.5647411     
   2623148227.5728183     
   2488262163.0028434     
   2469077773.6210032     
   2461713244.9480619     
   2466299182.3042622     
   2482967050.5269432     
   2379038731.6100612     
   2350677284.6912475     
   2335127278.7799764     
   2332634100.7745996     
   2343415410.4287972     
   2281891834.9601378     
   2241636873.6675010     
   2215273754.2933483     
   2203250570.8829718     
   2205953254.9348111     
   2200511244.6183062     
   2145346033.9152970     
   2105123966.5983231     
   2080616762.4386330     
   2072505435.0273201     
   2623148227.5728183     
   2584741929.0688443     
   2552247305.5887561     
   2526244250.0562668     
   2507536682.1965237     
   2482967050.5269432     
   2450332352.6279206     
   2426274917.8534527     
   2411739845.9834852     
   2408100797.7449398     
   2343415410.4287972     
   2319018707.2979865     
   2306166508.6391234     
   2306265145.4282594     
   2321402291.5703425     
   2205953254.9348111     
   2191580112.4734817     
   2192204947.5358553     
   2209798534.1639814     
   2247283038.0949578     
   2072505435.0273201     
   2068988623.4702864     
   2084707800.0048261     
   2122296144.4866877     
   2185571561.9252648     
   2507536682.1965237     
   2357185506.3069382     
   2214998530.4790387     
   2085963219.9620936     
   1976967713.9894395     
   2408100797.7449398     
   2282828070.2929025     
   2168055482.8368998     
   2070527307.2554970     
   1999018465.1232717     
   2321402291.5703425     
   2224706949.2444859     
   2141337456.9300213     
   2079659539.4974718     
   2049845249.4679067     
   2247283038.0949578     
   2182612716.8293657     
   2134373884.1386132     
   2112229290.9389744     
   2127107576.1799455     
   2185571561.9252648     
   2156251257.8073316     
   2146517780.5505576     
   2166885975.4421830     
   2228415857.2919955     
   3757114555.7124181     
   3606491043.8253870     
   3471858636.0598283     
   3353883965.0022507     
   3253704959.4616556     
   3987000836.0331211     
   3826073896.3191466     
   3674629144.2549610     
   3533521074.2764688     
   3403925146.6924963     
   4235538989.3390603     
   4066284622.2575254     
   3901544501.1978178     
   3741948851.0956855     
   3588303889.5225520     
   4486906191.9990749     
   4314545261.6602793     
   4142906416.0636587     
   3972163016.9778953     
   3802570421.2703838     
   4729691265.2176285     
   4561527375.1854067     
   4391192713.8640623     
   4218322827.2110839     
   4042633234.0662603     
   3253704959.4616556     
   3187114055.3798976     
   3124766274.2704687     
   3066879522.9995818     
   3013702093.6288543     
   3403925146.6924963     
   3325892915.9527998     
   3251628206.3559184     
   3181352100.4221134     
   3115324794.1261110     
   3588303889.5225520     
   3498859930.8692245     
   3412666535.9500799     
   3329931903.8656096     
   3250909503.2837434     
   3802570421.2703838     
   3701861126.7602639     
   3603878418.9347849     
   3508805398.1332059     
   3416873546.3277693     
   4042633234.0662603     
   3930848150.4223003     
   3821283409.9827290     
   3714089363.4645085     
   3609465090.3205671     
   3013702093.6288543     
   2923385166.4779034     
   2839872504.4115405     
   2763757637.9321465     
   2695716289.9919033     
   3115324794.1261110     
   3008457253.9480629     
   2907556073.3963957     
   2813232183.5527496     
   2726209830.7364988     
   3250909503.2837434     
   3127709266.0662670     
   3009545767.5355935     
   2896997299.9707050     
   2790777053.8624606     
   3416873546.3277693     
   3277842941.2598295     
   3142905712.9005370     
   3012567843.1983628     
   2887478479.6523795     
   3609465090.3205671     
   3455245822.9549708     
   3304224720.0531311     
   3156811676.6033130     
   3013555387.3895907     
   2695716289.9919033     
   2620546801.5005980     
   2552359810.1163793     
   2491710408.7938542     
   2439206448.3559489     
   2726209830.7364988     
   2635951186.1594009     
   2551447984.7346601     
   2473263758.8769851     
   2402041565.1049242     
   2790777053.8624606     
   2686248813.4513988     
   2586177086.6227770     
   2491067541.2987022     
   2401519662.4823971     
   2887478479.6523795     
   2770135799.3021574     
   2655998296.8588548     
   2545464038.1437383     
   2439020867.8626752     
   3013555387.3895907     
   2885259639.3096704     
   2759072924.1064110     
   2635266588.6638079     
   2514182737.5116420     
   2439206448.3559489     
   2365801717.6161213     
   2301083824.8555856     
   2245748900.7160687     
   2200511244.6183062     
   2402041565.1049242     
   2310767236.2144494     
   2227302673.5073681     
   2152462478.1298299     
   2087137695.1464694     
   2401519662.4823971     
   2292540761.3478718     
   2190153524.8155880     
   2095193708.4454002     
   2008635515.9807031     
   2439020867.8626752     
   2313438524.0387454     
   2193028790.4404621     
   2078527816.5180233     
   1970846780.8970938     
   2514182737.5116420     
   2373864819.2629547     
   2237308983.3721714     
   2105058831.4647210     
   1977825644.2894642     
   2200511244.6183062     
   2145346033.9152970     
   2105123966.5983231     
   2080616762.4386330     
   2072505435.0273201     
   2087137695.1464694     
   2012106792.9869587     
   1949411842.1899524     
   1900131629.6867712     
   1865295054.6395762     
   2008635515.9807031     
   1912354182.8657212     
   1824808833.7975297     
   1747192654.7040415     
   1680790228.6266687     
   1970846780.8970938     
   1854936771.6814210     
   1743353675.2862363     
   1637006976.2620754     
   1537012909.1731117     
   1977825644.2894642     
   1847449331.7807279     
   1717072749.3437479     
   1587033698.2841244     
   1457824439.7475755     
   2072505435.0273201     
   2068988623.4702864     
   2084707800.0048261     
   2122296144.4866877     
   2185571561.9252648     
   1865295054.6395762     
   1854789420.1752861     
   1867262206.0083549     
   1904922979.9708090     
   1970805274.8024793     
   1680790228.6266687     
   1652292966.5167882     
   1651529712.1859765     
   1680870872.0925193     
   1742925266.7242796     
   1537012909.1731117     
   1476117704.0900576     
   1447931510.5845368     
   1456426955.7383108     
   1504900095.3387041     
   1457824439.7475755     
   1348735017.2874365     
   1274638285.5449293     
   1243675950.7586968     
   1262899319.1163707     
   2185571561.9252648     
   2156251257.8073316     
   2146517780.5505576     
   2166885975.4421830     
   2228415857.2919955     
   1970805274.8024793     
   1968947799.5854299     
   2003630811.4158988     
   2093523129.0559504     
   2257277030.9432640     
   1742925266.7242796     
   1787718356.4332912     
   1884656963.8118203     
   2060647775.6066332     
   2340917162.4297390     
   1504900095.3387041     
   1613278393.8894246     
   1788855576.8939724     
   2066381627.2916667     
   2476063296.2924471     
   1262899319.1163707     
   1446669542.6201129     
   1715661928.0992739     
   2110458344.0245781     
   2663502138.8440132     
   4729691265.2176285     
   4561527375.1854067     
   4391192713.8640623     
   4218322827.2110839     
   4042633234.0662603     
   5025576589.3403053     
   4838917561.1681557     
   4653067320.0068655     
   4468148772.8185930     
   4284329520.1266994     
   5381588731.7167940     
   5167543424.1457701     
   4957421090.0045795     
   4751243566.8650513     
   4549238271.6058426     
   5799890663.8822069     
   5548469909.9095602     
   5303609503.8877802     
   5064869700.2516880     
   4832356528.3476658     
   6281962346.2150440     
   5982086655.0722656     
   5690605502.3705168     
   5406444483.5334005     
   5129570004.0027304     
   4042633234.0662603     
   3930848150.4223003     
   3821283409.9827290     
   3714089363.4645085     
   3609465090.3205671     
   4284329520.1266994     
   4163434429.2889514     
   4043733201.1322579     
   3925341422.5768232     
   3808415823.0123701     
   4549238271.6058426     
   4420029888.2411032     
   4291133240.1759133     
   4162625058.2283669     
   4034616043.6327906     
   4832356528.3476658     
   4695827312.3327198     
   4558870998.1040058     
   4421528270.2841635     
   4283868546.6614923     
   5129570004.0027304     
   4986832953.8811340     
   4843064586.2213831     
   4698276588.9474783     
   4552507018.8808546     
   3609465090.3205671     
   3455245822.9549708     
   3304224720.0531311     
   3156811676.6033130     
   3013555387.3895907     
   3808415823.0123701     
   3639687700.7462001     
   3473075253.5658164     
   3308853736.4152312     
   3147411670.4462452     
   4034616043.6327906     
   3852878867.1733856     
   3672389945.9494905     
   3493302536.9419999     
   3315853128.2658687     
   4283868546.6614923     
   4090554310.6619554     
   3897837579.9904447     
   3705774592.0144677     
   3514477100.9758353     
   4552507018.8808546     
   4348922100.2488241     
   4145480865.6705351     
   3942170823.2994709     
   3739013097.0898499     
   3013555387.3895907     
   2885259639.3096704     
   2759072924.1064110     
   2635266588.6638079     
   2514182737.5116420     
   3147411670.4462452     
   3008677516.7257571     
   2871765390.0054302     
   2736882358.8702502     
   2604308619.6370387     
   3315853128.2658687     
   3166601780.4296627     
   3018815630.8225527     
   2872627468.1528025     
   2728244274.0565915     
   3514477100.9758353     
   3354309764.7985458     
   3195195904.1601505     
   3037190172.7395430     
   2880422039.1510687     
   3739013097.0898499     
   3567245488.2779417     
   3396077504.2098269     
   3225486223.5516772     
   3055524363.7726617     
   2514182737.5116420     
   2373864819.2629547     
   2237308983.3721714     
   2105058831.4647210     
   1977825644.2894642     
   2604308619.6370387     
   2453930389.2250133     
   2305621474.2137055     
   2159708855.4742961     
   2016635617.2221081     
   2728244274.0565915     
   2570327795.5218334     
   2413188153.2335920     
   2256964059.6317353     
   2101850775.1697242     
   2880422039.1510687     
   2717651945.0122166     
   2554815306.8038297     
   2391937776.2941027     
   2229062137.4999042     
   3055524363.7726617     
   2890503226.4988875     
   2724983446.9977856     
   2558959386.5129285     
   2392431946.4931898     
   1977825644.2894642     
   1847449331.7807279     
   1717072749.3437479     
   1587033698.2841244     
   1457824439.7475755     
   2016635617.2221081     
   1880101998.4066641     
   1743911915.3346910     
   1608189948.9764667     
   1473107365.2107100     
   2101850775.1697242     
   1961745397.1413257     
   1822657349.7069085     
   1684615617.7694750     
   1547679374.5262089     
   2229062137.4999042     
   2086213254.4202952     
   1945089562.9984496     
   1805688420.1601822     
   1668088739.6654096     
   2392431946.4931898     
   2246010299.9771891     
   2101838390.9141676     
   1959911199.1482456     
   1820400133.6848729     
   1457824439.7475755     
   1348735017.2874365     
   1274638285.5449293     
   1243675950.7586968     
   1262899319.1163707     
   1473107365.2107100     
   1328804947.9701133     
   1198960186.2276006     
   1088063775.7532530     
   1002030765.3857298     
   1547679374.5262089     
   1397775186.2136142     
   1244285633.2010348     
   1084938746.8836548     
   917701993.21093667     
   1668088739.6654096     
   1552708283.7246342     
   1428174242.0522273     
   1294849280.1292665     
   1158873481.1190233     
   1820400133.6848729     
   1779865119.3436217     
   1735764083.1460123     
   1696752267.8212895     
   1681369142.5830927     
   1262899319.1163707     
   1446669542.6201129     
   1715661928.0992739     
   2110458344.0245781     
   2663502138.8440132     
   1002030765.3857298     
   1164687073.4293964     
   1425381866.9747462     
   1808706878.7593987     
   2334759746.7798324     
   917701993.21093667     
   963078672.24446154     
   1144876928.9876933     
   1476453332.4513280     
   1957509403.8414283     
   1158873481.1190233     
   1008391114.7839078     
   985179252.66999793     
   1161504466.8394370     
   1544272242.8514946     
   1681369142.5830927     
   1383781781.2443221     
   1129484661.5648363     
   1010231843.5068877     
   1153338038.3769372     
 </DataArray>
 <DataArray  type="Float64" Name="strain" NumberOfComponents="3" format="ascii">
  0.10307781964945217       -2.8038912437540864E-002   3.5922009366931018E-003
   9.8744279516289057E-002  -2.8299233049635109E-002   1.9259996112137578E-003
   9.4410739383125941E-002  -2.8135436138396586E-002   7.8266278838790004E-004
   9.0077199249962825E-002  -2.7547521703825142E-002   1.6219046821602801E-004
   8.5743659116799709E-002  -2.6535489745921459E-002   6.4582650697642130E-005
   9.5950748387327867E-002  -2.6944496238768489E-002   8.9042647853693202E-003
   9.2078010501871088E-002  -2.6797572109485523E-002   7.9783684564336821E-003
   8.8205272616414587E-002  -2.6389124414865017E-002   7.4512121202577331E-003
   8.4332534730957920E-002  -2.5719153154906596E-002   7.3227957768408347E-003
   8.0459796845501308E-002  -2.4787658329610274E-002   7.5931194261834034E-003
   8.9283223832359204E-002  -2.5850080039995837E-002   1.4704870354419641E-002
   8.5747163684714689E-002  -2.5295911169336327E-002   1.4356685064033314E-002
   8.2211103537070285E-002  -2.4642812691333532E-002   1.4283115256511908E-002
   7.8675043389425825E-002  -2.3890784605987765E-002   1.4484160931855797E-002
   7.5138983241781421E-002  -2.3039826913299033E-002   1.4959822090064162E-002
   8.3075245984546464E-002  -2.4755663841223297E-002   2.0994017643844162E-002
   7.9751739064819749E-002  -2.3794250229186867E-002   2.1060949434012335E-002
   7.6428232145093186E-002  -2.2896500967802061E-002   2.1278372197150876E-002
   7.3104725225366596E-002  -2.2062416057069077E-002   2.1646285933260113E-002
   6.9781218305639964E-002  -2.1291995496987709E-002   2.2164690642340147E-002
   7.7326814843889424E-002  -2.3661247642450811E-002   2.7771706653643147E-002
   7.4091736642186268E-002  -2.2292589289037434E-002   2.8091161566370648E-002
   7.0856658440483139E-002  -2.1150189244270645E-002   2.8436982942174560E-002
   6.7621580238780080E-002  -2.0234047508150346E-002   2.8809170781054799E-002
   6.4386502037076992E-002  -1.9544164080676496E-002   2.9207725083011393E-002
   8.5743659116799709E-002  -2.6535489745921459E-002   6.4582650697642130E-005
   8.3255038615601573E-002  -2.5361399329539236E-002   2.4281408712911734E-005
   8.0766418114403549E-002  -2.4287309519533146E-002   1.5600195115078597E-004
   7.8277797613205524E-002  -2.3313220315902682E-002   4.5974427801104278E-004
   7.5789177112007389E-002  -2.2439131718648309E-002   9.3550838929368219E-004
   8.0459796845501308E-002  -2.4787658329610274E-002   7.5931194261834034E-003
   7.8141352850813223E-002  -2.3757781304384162E-002   7.4316416879375846E-003
   7.5822908856125082E-002  -2.2792663444636541E-002   7.4384951782891506E-003
   7.3504464861436913E-002  -2.1892304750367228E-002   7.6136798972381431E-003
   7.1186020866748856E-002  -2.1056705221576655E-002   7.9571958447847702E-003
   7.5138983241781421E-002  -2.3039826913299033E-002   1.4959822090064162E-002
   7.2987025197778305E-002  -2.2154163279228950E-002   1.4712409296454620E-002
   7.0835067153775105E-002  -2.1298017369739949E-002   1.4629637175617508E-002
   6.8683109109771961E-002  -2.0471389184832000E-002   1.4711505727552719E-002
   6.6531151065768845E-002  -1.9674278724505001E-002   1.4958014952260734E-002
   6.9781218305639964E-002  -2.1291995496987709E-002   2.2164690642340147E-002
   6.7792055656496791E-002  -2.0550545254073918E-002   2.1866584234264394E-002
   6.5802893007353605E-002  -1.9803371294843573E-002   2.1729427943135943E-002
   6.3813730358210419E-002  -1.9050473619296827E-002   2.1753221768955160E-002
   6.1824567709067260E-002  -1.8291852227433347E-002   2.1937965711721727E-002
   6.4386502037076992E-002  -1.9544164080676496E-002   2.9207725083011393E-002
   6.2556444226968766E-002  -1.8946927228918747E-002   2.8894166501366725E-002
   6.0726386416860553E-002  -1.8308725219947003E-002   2.8737867480844587E-002
   5.8896328606752320E-002  -1.7629558053761464E-002   2.8738828021445048E-002
   5.7066270796644114E-002  -1.6909425730361749E-002   2.8897048123167790E-002
   7.5789177112007389E-002  -2.2439131718648309E-002   9.3550838929368219E-004
   7.2420092521666146E-002  -2.1598605178796915E-002   6.5725773777658425E-004
   6.9051007931324904E-002  -2.0725202147376109E-002   5.2829756606598277E-004
   6.5681923340983661E-002  -1.9818922624385629E-002   5.4862787416237735E-004
   6.2312838750642419E-002  -1.8879766609825488E-002   7.1824866206493532E-004
   7.1186020866748856E-002  -2.1056705221576655E-002   7.9571958447847702E-003
   6.7973965635681255E-002  -2.0241686167827955E-002   7.6632078704951256E-003
   6.4761910404613654E-002  -1.9403068898685372E-002   7.5339881349462956E-003
   6.1549855173546025E-002  -1.8540853414148378E-002   7.5695366381380996E-003
   5.8337799942478452E-002  -1.7655039714217224E-002   7.7698533800705238E-003
   6.6531151065768845E-002  -1.9674278724505001E-002   1.4958014952260734E-002
   6.3491602952909038E-002  -1.8884767156858967E-002   1.4639011379023070E-002
   6.0452054840049202E-002  -1.8080935649994384E-002   1.4500253803460289E-002
   5.7412506727189422E-002  -1.7262784203911231E-002   1.4541742225572321E-002
   5.4372958614329614E-002  -1.6430312818608961E-002   1.4763476645359319E-002
   6.1824567709067260E-002  -1.8291852227433347E-002   2.1937965711721727E-002
   5.8973004473349355E-002  -1.7527848145890049E-002   2.1584668263360612E-002
   5.6121441237631547E-002  -1.6758802401303632E-002   2.1427094571608483E-002
   5.3269878001913684E-002  -1.5984714993673921E-002   2.1465244636465489E-002
   5.0418314766195890E-002  -1.5205585923000919E-002   2.1699118457931252E-002
   5.7066270796644114E-002  -1.6909425730361749E-002   2.8897048123167790E-002
   5.4418170197002402E-002  -1.6170929134921019E-002   2.8500178523507724E-002
   5.1770069597360718E-002  -1.5436669152612770E-002   2.8314510439390816E-002
   4.9121968997719020E-002  -1.4706645783436612E-002   2.8340043870817233E-002
   4.6473868398077323E-002  -1.3980859027392711E-002   2.8576778817786586E-002
   6.2312838750642419E-002  -1.8879766609825488E-002   7.1824866206493532E-004
   5.9461864010735055E-002  -1.7944777506567311E-002   3.9365702499427613E-004
   5.6610889270827858E-002  -1.7050998717481669E-002   2.8906117926347230E-004
   5.3759914530920605E-002  -1.6198430242570241E-002   4.0446112487318997E-004
   5.0908939791013297E-002  -1.5387072081831876E-002   7.3985686182331811E-004
   5.8337799942478452E-002  -1.7655039714217224E-002   7.7698533800705238E-003
   5.5693044944145065E-002  -1.6771142991678034E-002   7.4073619310723871E-003
   5.3048289945811566E-002  -1.5914678439317820E-002   7.2373141738823477E-003
   5.0403534947478068E-002  -1.5085646057135971E-002   7.2597101084989069E-003
   4.7758779949144736E-002  -1.4284045845132320E-002   7.4745497349235634E-003
   5.4372958614329614E-002  -1.6430312818608961E-002   1.4763476645359319E-002
   5.1906871258037252E-002  -1.5597508476789312E-002   1.4376863528429262E-002
   4.9440783901744861E-002  -1.4778358161153499E-002   1.4155142003773602E-002
   4.6974696545452485E-002  -1.3972861871701471E-002   1.4098312071393018E-002
   4.4508609189160137E-002  -1.3181019608432654E-002   1.4206373731286803E-002
   5.0418314766195890E-002  -1.5205585923000919E-002   2.1699118457931252E-002
   4.8103342952411823E-002  -1.4423873961900757E-002   2.1302161817063903E-002
   4.5788371138627749E-002  -1.3642037882989191E-002   2.1042544668938130E-002
   4.3473399324843662E-002  -1.2860077686266642E-002   2.0920267013554438E-002
   4.1158427511059664E-002  -1.2077993371732820E-002   2.0935328850912774E-002
   4.6473868398077323E-002  -1.3980859027392711E-002   2.8576778817786586E-002
   4.4282460027268822E-002  -1.3250239447011924E-002   2.8183256796976475E-002
   4.2091051656460265E-002  -1.2505717604825009E-002   2.7899522169375551E-002
   3.9899643285651737E-002  -1.1747293500832177E-002   2.7725574934983385E-002
   3.7708234914843153E-002  -1.0974967135033209E-002   2.7661415093800823E-002
   5.0908939791013297E-002  -1.5387072081831876E-002   7.3985686182331811E-004
   4.8146831239303189E-002  -1.4580199854116849E-002   5.0555623920189863E-004
   4.5384722687593027E-002  -1.3741089178275823E-002   3.0537171477329483E-004
   4.2622614135882919E-002  -1.2869740054309284E-002   1.3930328853767326E-004
   3.9860505584172756E-002  -1.1966152482215664E-002   7.3509604949784091E-006
   4.7758779949144736E-002  -1.4284045845132320E-002   7.4745497349235634E-003
   4.5043678710699864E-002  -1.3486819857943533E-002   7.1785904935958156E-003
   4.2328577472254936E-002  -1.2670910150207437E-002   6.9425297806050557E-003
   3.9613476233810035E-002  -1.1836316721923715E-002   6.7663675959522551E-003
   3.6898374995365191E-002  -1.0983039573091657E-002   6.6501039396369421E-003
   4.4508609189160137E-002  -1.3181019608432654E-002   1.4206373731286803E-002
   4.1866297694125088E-002  -1.2393439861770883E-002   1.3835201143674314E-002
   3.9223986199090122E-002  -1.1600731122139302E-002   1.3549709514543290E-002
   3.6581674704055142E-002  -1.0802893389538153E-002   1.3349898843895217E-002
   3.3939363209020135E-002  -9.9999266639670958E-003   1.3235769131728581E-002
   4.1158427511059664E-002  -1.2077993371732820E-002   2.0935328850912774E-002
   3.8614688189579138E-002  -1.1300059865597456E-002   2.0475388189436630E-002
   3.6070948868098626E-002  -1.0530552094070819E-002   2.0126910916587810E-002
   3.3527209546618170E-002  -9.7694700571528091E-003   1.9889897032365603E-002
   3.0983470225137692E-002  -9.0168137548423677E-003   1.9764346536770477E-002
   3.7708234914843153E-002  -1.0974967135033209E-002   2.7661415093800823E-002
   3.5288850197061794E-002  -1.0206679869424473E-002   2.7099151630883944E-002
   3.2869465479280463E-002  -9.4603730660022256E-003   2.6674133986738346E-002
   3.0450080761499146E-002  -8.7360467247668272E-003   2.6386362161364446E-002
   2.8030696043717773E-002  -8.0337008457179726E-003   2.6235836154762104E-002
   3.9860505584172756E-002  -1.1966152482215664E-002   7.3509604949784091E-006
   3.7450089902868688E-002  -1.1128581616436151E-002  -2.8607598878149787E-004
   3.5039674221564787E-002  -1.0455282611408823E-002  -4.8549166605316163E-004
   3.2629258540260803E-002  -9.9462554671339021E-003  -5.9089607131895816E-004
   3.0218842858956818E-002  -9.6015001836122771E-003  -6.0228920457983115E-004
   3.6898374995365191E-002  -1.0983039573091657E-002   6.6501039396369421E-003
   3.4563025462650165E-002  -1.0174858075164939E-002   6.2042772278504410E-003
   3.2227675929935029E-002  -9.4755515995967876E-003   5.8145715412359911E-003
   2.9892326397219976E-002  -8.8851201463883145E-003   5.4809868797940642E-003
   2.7556976864504867E-002  -8.4035637155379650E-003   5.2035232435250212E-003
   3.3939363209020135E-002  -9.9999266639670958E-003   1.3235769131728581E-002
   3.1641189578061002E-002  -9.2211345338935047E-003   1.2692939495826006E-002
   2.9343015947101800E-002  -8.4958205877851967E-003   1.2168340638262942E-002
   2.7044842316142660E-002  -7.8239848256420608E-003   1.1661972559039072E-002
   2.4746668685183465E-002  -7.2056272474638750E-003   1.1173835258154630E-002
   3.0983470225137692E-002  -9.0168137548423677E-003   1.9764346536770477E-002
   2.8684582249101351E-002  -8.2674109926220707E-003   1.9179910815145834E-002
   2.6385694273064957E-002  -7.5160895759731616E-003   1.8575815625027331E-002
   2.4086806297028675E-002  -6.7628495048958071E-003   1.7952060966414926E-002
   2.1787918320992271E-002  -6.0076907793897849E-003   1.7308646839309230E-002
   2.8030696043717773E-002  -8.0337008457179726E-003   2.6235836154762104E-002
   2.5693203475771198E-002  -7.3136874513509142E-003   2.5665191185808567E-002
   2.3355710907824623E-002  -6.5363585641615152E-003   2.5036996501528908E-002
   2.1018218339878075E-002  -5.7017141841494839E-003   2.4351252101922155E-002
   1.8680725771931528E-002  -4.8097543113154728E-003   2.3607957986988670E-002
   3.0218842858956818E-002  -9.6015001836122771E-003  -6.0228920457983115E-004
   2.9608731103585306E-002  -9.1348813910181459E-003  -3.5874267509172775E-004
   2.8998619348213794E-002  -8.2602637195284268E-003  -1.7968830152270687E-003
   2.8388507592842255E-002  -6.9776471691428560E-003  -4.9167102249842998E-003
   2.7778395837470771E-002  -5.2870317398598932E-003  -9.7182243043636429E-003
   2.7556976864504867E-002  -8.4035637155379650E-003   5.2035232435250212E-003
   2.5534723484752053E-002  -7.8708603359426421E-003   5.8777567327571445E-003
   2.3512470104999128E-002  -7.1269880364960847E-003   5.4093938428485533E-003
   2.1490216725246286E-002  -6.1719468172005548E-003   3.7984345738002190E-003
   1.9467963345493278E-002  -5.0057366780535961E-003   1.0448789256112256E-003
   2.4746668685183465E-002  -7.2056272474638750E-003   1.1173835258154630E-002
   2.1851364171531107E-002  -6.6068392808656951E-003   1.2081925748085420E-002
   1.8956059657878763E-002  -5.9937123534641590E-003   1.2386510349357588E-002
   1.6060755144226384E-002  -5.3662464652582467E-003   1.2087589061971216E-002
   1.3165450630573977E-002  -4.7244416162467440E-003   1.1185161885926165E-002
   2.1787918320992271E-002  -6.0076907793897849E-003   1.7308646839309230E-002
   1.8558653163922412E-002  -5.3428182257901358E-003   1.8253764370892669E-002
   1.5329388006852473E-002  -4.8604366704318031E-003   1.9134466504299417E-002
   1.2100122849782539E-002  -4.5605461133150539E-003   1.9950753239529644E-002
   8.8708576927125637E-003  -4.4431465544401694E-003   2.0702624576583381E-002
   1.8680725771931528E-002  -4.8097543113154728E-003   2.3607957986988670E-002
   1.5656590461925912E-002  -4.0787971707136883E-003   2.4393272601178850E-002
   1.2632455151920380E-002  -3.7271609873995859E-003   2.5653262307674618E-002
   9.6083198419147781E-003  -3.7548457613728950E-003   2.7387927106475085E-002
   6.5841845319092318E-003  -4.1618514926334838E-003   2.9597266997581584E-002
   2.7778395837470771E-002  -5.2870317398598932E-003  -9.7182243043636429E-003
   2.3352765317129043E-002  -4.2058915000886543E-003  -4.1888652783013125E-003
   1.8927134796787259E-002  -4.7517005182340921E-003   2.6044285791283484E-003
   1.4501504276445587E-002  -6.9244587942968866E-003   1.0661657267922064E-002
   1.0075873756103748E-002  -1.0724166328276219E-002   1.9982820788081668E-002
   1.9467963345493278E-002  -5.0057366780535961E-003   1.0448789256112256E-003
   1.6233880275196955E-002  -4.6902660160212939E-003   6.7399717814127236E-003
   1.2999797204900521E-002  -6.2874432280687342E-003   1.3554224705941142E-002
   9.7657141346039755E-003  -9.7972683141947792E-003   2.1487637699193984E-002
   6.5316310643077635E-003  -1.5219741274401066E-002   3.0540210761171860E-002
   1.3165450630573977E-002  -4.7244416162467440E-003   1.1185161885926165E-002
   1.0978140247682511E-002  -5.1746405319543776E-003   1.6760289955306318E-002
   8.7908298647909472E-003  -7.8231859379029045E-003   2.3309803330771789E-002
   6.6035194818995224E-003  -1.2670077834093553E-002   3.0833702012320760E-002
   4.4162090990079172E-003  -1.9715316220525025E-002   3.9331985999955466E-002
   8.8708576927125637E-003  -4.4431465544401694E-003   2.0702624576583381E-002
   7.5855452345856694E-003  -5.6590150478876833E-003   2.5872089243379276E-002
   6.3002327764587196E-003  -9.3589286477384209E-003   3.1871164453618810E-002
   5.0149203183319224E-003  -1.5542887353992330E-002   3.8699850207303335E-002
   3.7296078602048893E-003  -2.4210891166649429E-002   4.6358146504432429E-002
   6.5841845319092318E-003  -4.1618514926334838E-003   2.9597266997581584E-002
   6.0560952359065001E-003  -6.1433895638208780E-003   3.4075369645630516E-002
   5.5280059399038239E-003  -1.0894671357572799E-002   3.9238308074484085E-002
   4.9999166439009257E-003  -1.8415696873890379E-002   4.5086082284141654E-002
   4.4718273478984161E-003  -2.8706466112773832E-002   5.1618692274602473E-002
   7.7326814843889424E-002  -2.3661247642450811E-002   2.7771706653643147E-002
   7.4091736642186268E-002  -2.2292589289037434E-002   2.8091161566370648E-002
   7.0856658440483139E-002  -2.1150189244270645E-002   2.8436982942174560E-002
   6.7621580238780080E-002  -2.0234047508150346E-002   2.8809170781054799E-002
   6.4386502037076992E-002  -1.9544164080676496E-002   2.9207725083011393E-002
   7.1587556480094100E-002  -2.1190169594453356E-002   3.4271540183474503E-002
   6.8438590211633205E-002  -2.0212957970173945E-002   3.4039349201120478E-002
   6.5289623943172351E-002  -1.9349868460878536E-002   3.3953015622174343E-002
   6.2140657674711448E-002  -1.8600901066567126E-002   3.4012539446636417E-002
   5.8991691406250574E-002  -1.7966055787239837E-002   3.4217920674506602E-002
   6.5407096962866437E-002  -1.8719091546455957E-002   4.0323858887340774E-002
   6.2463733567979560E-002  -1.8133326651310400E-002   3.9652158203567336E-002
   5.9520370173092758E-002  -1.7549547677486371E-002   3.9245805863533850E-002
   5.6577006778205916E-002  -1.6967754624983990E-002   3.9104801867240288E-002
   5.3633643383319073E-002  -1.6387947493803179E-002   3.9229146214686775E-002
   5.8785436292206381E-002  -1.6248013498458502E-002   4.5928662765242018E-002
   5.6167166711225361E-002  -1.6053695332446827E-002   4.4929588573711779E-002
   5.3548897130244341E-002  -1.5749226894094262E-002   4.4315353666253242E-002
   5.0930627549263349E-002  -1.5334608183400839E-002   4.4085958042866386E-002
   4.8312357968282350E-002  -1.4809839200366548E-002   4.4241401703551328E-002
   5.1722574468113902E-002  -1.3776935450461103E-002   5.1085951817178232E-002
   4.9548889641370580E-002  -1.3974064013583309E-002   4.9871640311553556E-002
   4.7375204814627203E-002  -1.3948906110702070E-002   4.9161659030332483E-002
   4.5201519987883840E-002  -1.3701461741817668E-002   4.8956007973514903E-002
   4.3027835161140504E-002  -1.3231730906929917E-002   4.9254687141100817E-002
   6.4386502037076992E-002  -1.9544164080676496E-002   2.9207725083011393E-002
   6.2556444226968766E-002  -1.8946927228918747E-002   2.8894166501366725E-002
   6.0726386416860553E-002  -1.8308725219947003E-002   2.8737867480844587E-002
   5.8896328606752320E-002  -1.7629558053761464E-002   2.8738828021445048E-002
   5.7066270796644114E-002  -1.6909425730361749E-002   2.8897048123167790E-002
   5.8991691406250574E-002  -1.7966055787239837E-002   3.4217920674506602E-002
   5.7315214965142150E-002  -1.7375903032377057E-002   3.3970297620268389E-002
   5.5638738524033740E-002  -1.6761013211459501E-002   3.3872577742907514E-002
   5.3962262082925323E-002  -1.6121386324487286E-002   3.3924761042423569E-002
   5.2285785641816906E-002  -1.5457022371460238E-002   3.4126847518816616E-002
   5.3633643383319073E-002  -1.6387947493803179E-002   3.9229146214686775E-002
   5.2103391926965004E-002  -1.5804878835835243E-002   3.9031230596695964E-002
   5.0573140470610900E-002  -1.5213301202971943E-002   3.8975861771336662E-002
   4.9042889014256859E-002  -1.4613214595212993E-002   3.9063039738609084E-002
   4.7512637557902790E-002  -1.4004619012558589E-002   3.9292764498513127E-002
   4.8312357968282350E-002  -1.4809839200366548E-002   4.4241401703551328E-002
   4.6920975112437209E-002  -1.4233854639293518E-002   4.4076965430648603E-002
   4.5529592256592061E-002  -1.3665589194484414E-002   4.4047719566132001E-002
   4.4138209400746933E-002  -1.3105042865938854E-002   4.4153664110001663E-002
   4.2746826544901820E-002  -1.2552215653657009E-002   4.4394799062257698E-002
   4.3027835161140504E-002  -1.3231730906929917E-002   4.9254687141100817E-002
   4.1767964521558856E-002  -1.2662830442751710E-002   4.9107502122127000E-002
   4.0508093881977236E-002  -1.2117877185996870E-002   4.9088151127293728E-002
   3.9248223242395630E-002  -1.1596871136664629E-002   4.9196634156601277E-002
   3.7988352602813996E-002  -1.1099812294755484E-002   4.9432951210049758E-002
   5.7066270796644114E-002  -1.6909425730361749E-002   2.8897048123167790E-002
   5.4418170197002402E-002  -1.6170929134921019E-002   2.8500178523507724E-002
   5.1770069597360718E-002  -1.5436669152612770E-002   2.8314510439390816E-002
   4.9121968997719020E-002  -1.4706645783436612E-002   2.8340043870817233E-002
   4.6473868398077323E-002  -1.3980859027392711E-002   2.8576778817786586E-002
   5.2285785641816906E-002  -1.5457022371460238E-002   3.4126847518816616E-002
   4.9847574721232690E-002  -1.4779297063147734E-002   3.3734877669275770E-002
   4.7409363800648502E-002  -1.4099586110319251E-002   3.3551485662306868E-002
   4.4971152880064313E-002  -1.3417889512974623E-002   3.3576671497909785E-002
   4.2532941959480097E-002  -1.2734207271114129E-002   3.3810435176084619E-002
   4.7512637557902790E-002  -1.4004619012558589E-002   3.9292764498513127E-002
   4.5281692643404689E-002  -1.3387664991374226E-002   3.8911916656740042E-002
   4.3050747728906623E-002  -1.2762503068025677E-002   3.8737022984567271E-002
   4.0819802814408557E-002  -1.2129133242512746E-002   3.8768083481995189E-002
   3.8588857899910442E-002  -1.1487555514835740E-002   3.9005098149023074E-002
   4.2746826544901820E-002  -1.2552215653657009E-002   4.4394799062257698E-002
   4.0720523963518426E-002  -1.1996032919600802E-002   4.4031295485900471E-002
   3.8694221382135047E-002  -1.1425420025732158E-002   4.3871122406172081E-002
   3.6667918800751681E-002  -1.0840376972050869E-002   4.3914279823072826E-002
   3.4641616219368329E-002  -1.0240903758557365E-002   4.4160767736602463E-002
   3.7988352602813996E-002  -1.1099812294755484E-002   4.9432951210049758E-002
   3.6164068681573930E-002  -1.0604400847827378E-002   4.9093014156756432E-002
   3.4339784760333850E-002  -1.0088336983438612E-002   4.8953783927120798E-002
   3.2515500839093776E-002  -9.5516207015889990E-003   4.9015260521142773E-002
   3.0691216917853703E-002  -8.9942520022788242E-003   4.9277443938822441E-002
   4.6473868398077323E-002  -1.3980859027392711E-002   2.8576778817786586E-002
   4.4282460027268822E-002  -1.3250239447011924E-002   2.8183256796976475E-002
   4.2091051656460265E-002  -1.2505717604825009E-002   2.7899522169375551E-002
   3.9899643285651737E-002  -1.1747293500832177E-002   2.7725574934983385E-002
   3.7708234914843153E-002  -1.0974967135033209E-002   2.7661415093800823E-002
   4.2532941959480097E-002  -1.2734207271114129E-002   3.3810435176084619E-002
   4.0460573525218008E-002  -1.2043668832384252E-002   3.3435822583153807E-002
   3.8388205090955918E-002  -1.1341403644431244E-002   3.3189502470106630E-002
   3.6315836656693828E-002  -1.0627411707255337E-002   3.3071474836943088E-002
   3.4243468222431711E-002  -9.9016930208563059E-003   3.3081739683663514E-002
   3.8588857899910442E-002  -1.1487555514835740E-002   3.9005098149023074E-002
   3.6654034488869405E-002  -1.0837098217756552E-002   3.8647219471388619E-002
   3.4719211077828355E-002  -1.0177089684037473E-002   3.8436138360312365E-002
   3.2784387666787297E-002  -9.5075299136784964E-003   3.8371854815794387E-002
   3.0849564255746212E-002  -8.8284189066795138E-003   3.8454368837835012E-002
   3.4641616219368329E-002  -1.0240903758557365E-002   4.4160767736602463E-002
   3.2862842918222931E-002  -9.6305276031288661E-003   4.3817447461681078E-002
   3.1084069617077541E-002  -9.0127757236437046E-003   4.3639429839992555E-002
   2.9305296315932188E-002  -8.3876481201017108E-003   4.3626714871537027E-002
   2.7526523014786756E-002  -7.7551447925026107E-003   4.3779302556314723E-002
   3.0691216917853703E-002  -8.9942520022788242E-003   4.9277443938822441E-002
   2.9086998813278586E-002  -8.4239569885011245E-003   4.8946506554031155E-002
   2.7482780708703469E-002  -7.8484617632499226E-003   4.8799376909147513E-002
   2.5878562604128352E-002  -7.2677663265249236E-003   4.8836055004171555E-002
   2.4274344499553235E-002  -6.6818706783258186E-003   4.9056540839102936E-002
   3.7708234914843153E-002  -1.0974967135033209E-002   2.7661415093800823E-002
   3.5288850197061794E-002  -1.0206679869424473E-002   2.7099151630883944E-002
   3.2869465479280463E-002  -9.4603730660022256E-003   2.6674133986738346E-002
   3.0450080761499146E-002  -8.7360467247668272E-003   2.6386362161364446E-002
   2.8030696043717773E-002  -8.0337008457179726E-003   2.6235836154762104E-002
   3.4243468222431711E-002  -9.9016930208563059E-003   3.3081739683663514E-002
   3.1965128825187178E-002  -9.1772965360428782E-003   3.2575962640947531E-002
   2.9686789427942617E-002  -8.4672712036237552E-003   3.2215030420533863E-002
   2.7408450030698098E-002  -7.7716170235987633E-003   3.1998943022422247E-002
   2.5130110633453523E-002  -7.0903339959680345E-003   3.1927700446612917E-002
   3.0849564255746212E-002  -8.8284189066795138E-003   3.8454368837835012E-002
   2.8719869182569191E-002  -8.1479132026615053E-003   3.8012687525112249E-002
   2.6590174109392135E-002  -7.4741693412451737E-003   3.7723450038222750E-002
   2.4460479036215125E-002  -6.8071873224308105E-003   3.7586656377165920E-002
   2.2330783963038073E-002  -6.1469671462180409E-003   3.7602306541941799E-002
   2.7526523014786756E-002  -7.7551447925026107E-003   4.3779302556314723E-002
   2.5553071269207885E-002  -7.1185298692800769E-003   4.3409326283377854E-002
   2.3579619523629074E-002  -6.4810674788666478E-003   4.3199392839804687E-002
   2.1606167778050266E-002  -5.8427576212628021E-003   4.3149502225595111E-002
   1.9632716032471395E-002  -5.2036002964682970E-003   4.3259654440749015E-002
   2.4274344499553235E-002  -6.6818706783258186E-003   4.9056540839102936E-002
   2.2464735085103271E-002  -6.0891465358983710E-003   4.8765878915744576E-002
   2.0655125670653363E-002  -5.4879656164880941E-003   4.8642858825280022E-002
   1.8845516256203426E-002  -4.8783279200946758E-003   4.8687480567709968E-002
   1.7035906841753518E-002  -4.2602334467182201E-003   4.8899744143034218E-002
   2.8030696043717773E-002  -8.0337008457179726E-003   2.6235836154762104E-002
   2.5693203475771198E-002  -7.3136874513509142E-003   2.5665191185808567E-002
   2.3355710907824623E-002  -6.5363585641615152E-003   2.5036996501528908E-002
   2.1018218339878075E-002  -5.7017141841494839E-003   2.4351252101922155E-002
   1.8680725771931528E-002  -4.8097543113154728E-003   2.3607957986988670E-002
   2.5130110633453523E-002  -7.0903339959680345E-003   3.1927700446612917E-002
   2.2774600867340539E-002  -6.4093878176155195E-003   3.1533353207998827E-002
   2.0419091101227596E-002  -5.7147441854252801E-003   3.1160521288378706E-002
   1.8063581335114633E-002  -5.0064030993978159E-003   3.0809204687752847E-002
   1.5708071569001669E-002  -4.2843645595326274E-003   3.0479403406120653E-002
   2.2330783963038073E-002  -6.1469671462180409E-003   3.7602306541941799E-002
   2.0036322033079451E-002  -5.5050881838798749E-003   3.7340638994681985E-002
   1.7741860103120816E-002  -4.8931298066891837E-003   3.7179551800736926E-002
   1.5447398173162229E-002  -4.3110920146459328E-003   3.7119044960106387E-002
   1.3152936243203558E-002  -3.7589748077500040E-003   3.7159118472790714E-002
   1.9632716032471395E-002  -5.2036002964682970E-003   4.3259654440749015E-002
   1.7478366972987762E-002  -4.6007885501442997E-003   4.3087048545858375E-002
   1.5324017913504233E-002  -4.0715154279529625E-003   4.3094088038603186E-002
   1.3169668854020621E-002  -3.6157809298939352E-003   4.3280772918983454E-002
   1.1015319794537067E-002  -3.2335850559673807E-003   4.3647103186998833E-002
   1.7035906841753518E-002  -4.2602334467182201E-003   4.8899744143034218E-002
   1.5100735687065686E-002  -3.6964889164089465E-003   4.8772581861527886E-002
   1.3165564532377841E-002  -3.2499010492167690E-003   4.8904130001977686E-002
   1.1230393377690030E-002  -2.9204698451421943E-003   4.9294388564383562E-002
   9.2952222230022197E-003  -2.7081953041845352E-003   4.9943357548745682E-002
   1.8680725771931528E-002  -4.8097543113154728E-003   2.3607957986988670E-002
   1.5656590461925912E-002  -4.0787971707136883E-003   2.4393272601178850E-002
   1.2632455151920380E-002  -3.7271609873995859E-003   2.5653262307674618E-002
   9.6083198419147781E-003  -3.7548457613728950E-003   2.7387927106475085E-002
   6.5841845319092318E-003  -4.1618514926334838E-003   2.9597266997581584E-002
   1.5708071569001669E-002  -4.2843645595326274E-003   3.0479403406120653E-002
   1.3140002717081073E-002  -3.7735260914242841E-003   3.1255918985903075E-002
   1.0571933865160490E-002  -3.6987852206662453E-003   3.2469892389549837E-002
   8.0038650132398387E-003  -4.0601419472590661E-003   3.4121323617061106E-002
   5.4357961613192562E-003  -4.8575962712024134E-003   3.6210212668437491E-002
   1.3152936243203558E-002  -3.7589748077500040E-003   3.7159118472790714E-002
   1.1003716580927192E-002  -3.4682550121348799E-003   3.7870058378102062E-002
   8.8544969186507907E-003  -3.6704094539332238E-003   3.8981238838837431E-002
   6.7052772563743722E-003  -4.3654381331455668E-003   4.0492659854996803E-002
   4.5560575940979675E-003  -5.5533410497716207E-003   4.2404321426579655E-002
   1.1015319794537067E-002  -3.2335850559673807E-003   4.3647103186998833E-002
   9.2477320534641028E-003  -3.1629839328452536E-003   4.4235690777776435E-002
   7.4801443123912476E-003  -3.6420336872001538E-003   4.5187301655537082E-002
   5.7125565713183639E-003  -4.6707343190317916E-003   4.6501935820280768E-002
   3.9449688302454836E-003  -6.2490858283405781E-003   4.8179593272007361E-002
   9.2952222230022197E-003  -2.7081953041845352E-003   4.9943357548745682E-002
   7.8720491346920829E-003  -2.8577128535559604E-003   5.0352816184925930E-002
   6.4488760463819461E-003  -3.6136579204669728E-003   5.1088080839648553E-002
   5.0257029580718093E-003  -4.9760305049183218E-003   5.2149151512913827E-002
   3.6025298697616726E-003  -6.9448306069097576E-003   5.3536028204721031E-002
   6.5841845319092318E-003  -4.1618514926334838E-003   2.9597266997581584E-002
   6.0560952359065001E-003  -6.1433895638208780E-003   3.4075369645630516E-002
   5.5280059399038239E-003  -1.0894671357572799E-002   3.9238308074484085E-002
   4.9999166439009257E-003  -1.8415696873890379E-002   4.5086082284141654E-002
   4.4718273478984161E-003  -2.8706466112773832E-002   5.1618692274602473E-002
   5.4357961613192562E-003  -4.8575962712024134E-003   3.6210212668437491E-002
   5.4888309623794540E-003  -6.9913054135143371E-003   3.8350175555138533E-002
   5.5418657634396656E-003  -1.1361426595212692E-002   4.0967550855161072E-002
   5.5949005644998079E-003  -1.7967959816297126E-002   4.4062338568505915E-002
   5.6479353655600750E-003  -2.6810905076767977E-002   4.7634538695172202E-002
   4.5560575940979675E-003  -5.5533410497716207E-003   4.2404321426579655E-002
   4.9827931247387186E-003  -7.8392212632082958E-003   4.2739476235111373E-002
   5.4095286553795113E-003  -1.1828181832852155E-002   4.3344620089482574E-002
   5.8362641860202485E-003  -1.7520222758703543E-002   4.4219752989693363E-002
   6.2629997166609996E-003  -2.4915344040762122E-002   4.5364874935743038E-002
   3.9449688302454836E-003  -6.2490858283405781E-003   4.8179593272007361E-002
   4.5379817229845472E-003  -8.6871371129021158E-003   4.7243271685548711E-002
   5.1309946157235865E-003  -1.2294937070491500E-002   4.6369515777447398E-002
   5.7240075084625079E-003  -1.7072485701109905E-002   4.5558325547702963E-002
   6.3170204012016340E-003  -2.3019783004756267E-002   4.4809700996316204E-002
   3.6025298697616726E-003  -6.9448306069097576E-003   5.3536028204721031E-002
   4.1543967571166796E-003  -9.5350529625956026E-003   5.1861561906451303E-002
   4.7062636444716865E-003  -1.2761692308131289E-002   5.0042237919056154E-002
   5.2581305318266103E-003  -1.6624748643516374E-002   4.8078056242535860E-002
   5.8099974191816450E-003  -2.1124221968750412E-002   4.5969016876890034E-002
   5.1722574468113902E-002  -1.3776935450461103E-002   5.1085951817178232E-002
   4.9548889641370580E-002  -1.3974064013583309E-002   4.9871640311553556E-002
   4.7375204814627203E-002  -1.3948906110702070E-002   4.9161659030332483E-002
   4.5201519987883840E-002  -1.3701461741817668E-002   4.8956007973514903E-002
   4.3027835161140504E-002  -1.3231730906929917E-002   4.9254687141100817E-002
   4.4656099365440516E-002  -1.2568238989529745E-002   5.3008144790002598E-002
   4.2926664060621872E-002  -1.2518918271546664E-002   5.2342836533118942E-002
   4.1197228755803214E-002  -1.2341665309668348E-002   5.2061697095681259E-002
   3.9467793450984591E-002  -1.2036480103894576E-002   5.2164726477689285E-002
   3.7738358146165926E-002  -1.1603362654225347E-002   5.2651924679143286E-002
   3.8023598859037611E-002  -1.1359542528598304E-002   5.5223964154986122E-002
   3.6618251671186007E-002  -1.1063772529510157E-002   5.5013304924735607E-002
   3.5212904483334403E-002  -1.0734424508634530E-002   5.5066653108973129E-002
   3.3807557295482786E-002  -1.0371498465971424E-002   5.5384008707699085E-002
   3.2402210107631182E-002  -9.9749944015208591E-003   5.5965371720913079E-002
   3.1825072948905145E-002  -1.0150846067666891E-002   5.7733409912128823E-002
   3.0623652473062903E-002  -9.6086267874735815E-003   5.7883045486403412E-002
   2.9422231997220685E-002  -9.1271837076007042E-003   5.8176527070208525E-002
   2.8220811521378453E-002  -8.7065168280483305E-003   5.8613854663544164E-002
   2.7019391045536228E-002  -8.3466261488163856E-003   5.9195028266410474E-002
   2.6060521635043132E-002  -8.9421496067355055E-003   6.0536482061430585E-002
   2.4942866466252628E-002  -8.1534810454370610E-003   6.0952058218122496E-002
   2.3825211297462096E-002  -7.5199429065669621E-003   6.1391318979387099E-002
   2.2707556128671591E-002  -7.0415351901251602E-003   6.1854264345224647E-002
   2.1589900959881073E-002  -6.7182578961118566E-003   6.2340894315635054E-002
   4.3027835161140504E-002  -1.3231730906929917E-002   4.9254687141100817E-002
   4.1767964521558856E-002  -1.2662830442751710E-002   4.9107502122127000E-002
   4.0508093881977236E-002  -1.2117877185996870E-002   4.9088151127293728E-002
   3.9248223242395630E-002  -1.1596871136664629E-002   4.9196634156601277E-002
   3.7988352602813996E-002  -1.1099812294755484E-002   4.9432951210049758E-002
   3.7738358146165926E-002  -1.1603362654225347E-002   5.2651924679143286E-002
   3.6612222737890193E-002  -1.1113946102508626E-002   5.2444329220162400E-002
   3.5486087329614481E-002  -1.0639863590592644E-002   5.2376370199652592E-002
   3.4359951921338727E-002  -1.0181115118476910E-002   5.2448047617613715E-002
   3.3233816513063022E-002  -9.7377006861616988E-003   5.2659361474045652E-002
   3.2402210107631182E-002  -9.9749944015208591E-003   5.5965371720913079E-002
   3.1421612344991467E-002  -9.5650617622655559E-003   5.5705978989547919E-002
   3.0441014582351801E-002  -9.1618499951883689E-003   5.5598025110983891E-002
   2.9460416819712103E-002  -8.7653591002890257E-003   5.5641510085220905E-002
   2.8479819057072427E-002  -8.3755890775678854E-003   5.5836433912259148E-002
   2.7019391045536228E-002  -8.3466261488163856E-003   5.9195028266410474E-002
   2.6196133342862742E-002  -8.0161774220225343E-003   5.8892451430283280E-002
   2.5372875640189266E-002  -7.6838363997840352E-003   5.8753115861287369E-002
   2.4549617937515759E-002  -7.3496030821012795E-003   5.8777021559422840E-002
   2.3726360234842307E-002  -7.0134774689740581E-003   5.8964168524689463E-002
   2.1589900959881073E-002  -6.7182578961118566E-003   6.2340894315635054E-002
   2.0935785731503953E-002  -6.4672930817793739E-003   6.2003746542368482E-002
   2.0281670503126827E-002  -6.2058228043798402E-003   6.1841642450563339E-002
   1.9627555274749704E-002  -5.9338470639135540E-003   6.1854582040219624E-002
   1.8973440046372581E-002  -5.6513658603802863E-003   6.2042565311337394E-002
   3.7988352602813996E-002  -1.1099812294755484E-002   4.9432951210049758E-002
   3.6164068681573930E-002  -1.0604400847827378E-002   4.9093014156756432E-002
   3.4339784760333850E-002  -1.0088336983438612E-002   4.8953783927120798E-002
   3.2515500839093776E-002  -9.5516207015889990E-003   4.9015260521142773E-002
   3.0691216917853703E-002  -8.9942520022788242E-003   4.9277443938822441E-002
   3.3233816513063022E-002  -9.7377006861616988E-003   5.2659361474045652E-002
   3.1614408216410733E-002  -9.2934810338243801E-003   5.2342930304095980E-002
   2.9994999919758465E-002  -8.8323169016417957E-003   5.2235543559664144E-002
   2.8375591623106166E-002  -8.3542082896147576E-003   5.2337201240750572E-002
   2.6756183326453908E-002  -7.8591551977425511E-003   5.2647903347354752E-002
   2.8479819057072427E-002  -8.3755890775678854E-003   5.5836433912259148E-002
   2.7073623986868363E-002  -7.9825612198211326E-003   5.5539800688036961E-002
   2.5667428916664316E-002  -7.5762968198452990E-003   5.5460549491193292E-002
   2.4261233846460270E-002  -7.1567958776403463E-003   5.5598680321728079E-002
   2.2855038776256206E-002  -6.7240583932062503E-003   5.5954193179641135E-002
   2.3726360234842307E-002  -7.0134774689740581E-003   5.8964168524689463E-002
   2.2541715992946854E-002  -6.6716414058180379E-003   5.8683625308579283E-002
   2.1357071751051428E-002  -6.3202767380485872E-003   5.8628801721707827E-002
   2.0172427509155978E-002  -5.9593834656659090E-003   5.8799697764075259E-002
   1.8987783267260548E-002  -5.5889615886699079E-003   5.9196313435681491E-002
   1.8973440046372581E-002  -5.6513658603802863E-003   6.2042565311337394E-002
   1.8018684234646185E-002  -5.3607215918148876E-003   6.1774404165723107E-002
   1.7063928422919789E-002  -5.0642566562520280E-003   6.1740300251208163E-002
   1.6109172611193406E-002  -4.7619710536916209E-003   6.1940253567792383E-002
   1.5154416799466996E-002  -4.4538647841337320E-003   6.2374264115476030E-002
   3.0691216917853703E-002  -8.9942520022788242E-003   4.9277443938822441E-002
   2.9086998813278586E-002  -8.4239569885011245E-003   4.8946506554031155E-002
   2.7482780708703469E-002  -7.8484617632499226E-003   4.8799376909147513E-002
   2.5878562604128352E-002  -7.2677663265249236E-003   4.8836055004171555E-002
   2.4274344499553235E-002  -6.6818706783258186E-003   4.9056540839102936E-002
   2.6756183326453908E-002  -7.8591551977425511E-003   5.2647903347354752E-002
   2.5337974408387295E-002  -7.3524054120659987E-003   5.2358881009985203E-002
   2.3919765490320655E-002  -6.8392067186256872E-003   5.2258069305725352E-002
   2.2501556572254056E-002  -6.3195591174219599E-003   5.2345468234574727E-002
   2.1083347654187401E-002  -5.7934626084543694E-003   5.2621077796533411E-002
   2.2855038776256206E-002  -6.7240583932062503E-003   5.5954193179641135E-002
   2.1627241937899971E-002  -6.2808538356307897E-003   5.5708334585983468E-002
   2.0399445099543695E-002  -5.8299516740016807E-003   5.5655089518636812E-002
   1.9171648261187411E-002  -5.3713519083191091E-003   5.5794457977601672E-002
   1.7943851422831184E-002  -4.9050545385829203E-003   5.6126439962877583E-002
   1.8987783267260548E-002  -5.5889615886699079E-003   5.9196313435681491E-002
   1.7954801401816510E-002  -5.2093022591955668E-003   5.8994867282025187E-002
   1.6921819536372455E-002  -4.8206966293775043E-003   5.8990437547882135E-002
   1.5888837670928427E-002  -4.4231446992162018E-003   5.9183024233252265E-002
   1.4855855805484357E-002  -4.0166464687113601E-003   5.9572627338135363E-002
   1.5154416799466996E-002  -4.4538647841337320E-003   6.2374264115476030E-002
   1.4320652800137029E-002  -4.1377506827603439E-003   6.2218479098111068E-002
   1.3486888800807048E-002  -3.8114415847535638E-003   6.2264113393461357E-002
   1.2653124801477081E-002  -3.4749374901133813E-003   6.2511167001526466E-002
   1.1819360802147100E-002  -3.1282383988400220E-003   6.2959639922306687E-002
   2.4274344499553235E-002  -6.6818706783258186E-003   4.9056540839102936E-002
   2.2464735085103271E-002  -6.0891465358983710E-003   4.8765878915744576E-002
   2.0655125670653363E-002  -5.4879656164880941E-003   4.8642858825280022E-002
   1.8845516256203426E-002  -4.8783279200946758E-003   4.8687480567709968E-002
   1.7035906841753518E-002  -4.2602334467182201E-003   4.8899744143034218E-002
   2.1083347654187401E-002  -5.7934626084543694E-003   5.2621077796533411E-002
   1.9451092342056928E-002  -5.2636906764906288E-003   5.2396308114215528E-002
   1.7818837029926426E-002  -4.7330168062975353E-003   5.2358604803642239E-002
   1.6186581717795905E-002  -4.2014409978761089E-003   5.2507967864813557E-002
   1.4554326405665452E-002  -3.6689632512253434E-003   5.2844397297729384E-002
   1.7943851422831184E-002  -4.9050545385829203E-003   5.6126439962877583E-002
   1.6508374751870405E-002  -4.4382348170824149E-003   5.5960007682846008E-002
   1.5072898080909676E-002  -3.9780679961072124E-003   5.6000066313409660E-002
   1.3637421409948933E-002  -3.5245540756573789E-003   5.6246615854568131E-002
   1.2201944738988203E-002  -3.0776930557326332E-003   5.6699656306321372E-002
   1.4855855805484357E-002  -4.0166464687113601E-003   5.9572627338135363E-002
   1.3636582314543746E-002  -3.6127789576742703E-003   5.9456977621636160E-002
   1.2417308823603106E-002  -3.2231191859168826E-003   5.9567243354582550E-002
   1.1198035332662459E-002  -2.8476671534388414E-003   5.9903424536974073E-002
   9.9787618417218563E-003  -2.4864228602398397E-003   6.0465521168810842E-002
   1.1819360802147100E-002  -3.1282383988400220E-003   6.2959639922306687E-002
   1.0835715030076909E-002  -2.7873230982664587E-003   6.2887217930585826E-002
   9.8520692580067182E-003  -2.4681703757264417E-003   6.3060135927160588E-002
   8.8684234859365413E-003  -2.1707802312198321E-003   6.3478393912030945E-002
   7.8847777138663366E-003  -1.8951526647470462E-003   6.4141991885197092E-002
   1.7035906841753518E-002  -4.2602334467182201E-003   4.8899744143034218E-002
   1.5100735687065686E-002  -3.6964889164089465E-003   4.8772581861527886E-002
   1.3165564532377841E-002  -3.2499010492167690E-003   4.8904130001977686E-002
   1.1230393377690030E-002  -2.9204698451421943E-003   4.9294388564383562E-002
   9.2952222230022197E-003  -2.7081953041845352E-003   4.9943357548745682E-002
   1.4554326405665452E-002  -3.6689632512253434E-003   5.2844397297729384E-002
   1.2875964711350510E-002  -3.1936671983256448E-003   5.2728321829626668E-002
   1.1197603017035637E-002  -2.8336364711566420E-003   5.2867154860313847E-002
   9.5192413227207090E-003  -2.5888710697183626E-003   5.3260896389790285E-002
   7.8408796284058224E-003  -2.4593709940107233E-003   5.3909546418056897E-002
   1.2201944738988203E-002  -3.0776930557326332E-003   5.6699656306321372E-002
   1.0776590581879832E-002  -2.6908454802426207E-003   5.6596558989008949E-002
   9.3512364247714010E-003  -2.4173718930966120E-003   5.6744568247320062E-002
   7.9258822676630137E-003  -2.2572722942947494E-003   5.7143684081254260E-002
   6.5005281105546264E-003  -2.2105466838369114E-003   5.7793906490812008E-002
   9.9787618417218563E-003  -2.4864228602398397E-003   6.0465521168810842E-002
   8.8026132986535350E-003  -2.1880237621594578E-003   6.0377293339675175E-002
   7.6264647555852683E-003  -2.0011073150364780E-003   6.0536370162996567E-002
   6.4503162125169530E-003  -1.9256735188711380E-003   6.0942751638774863E-002
   5.2741676694486803E-003  -1.9617223736632106E-003   6.1596437767009959E-002
   7.8847777138663366E-003  -1.8951526647470462E-003   6.4141991885197092E-002
   6.9540328616717328E-003  -1.6852020440762949E-003   6.4070524881624902E-002
   6.0232880094771429E-003  -1.5848427369763440E-003   6.4242560607343568E-002
   5.0925431572825322E-003  -1.5940747434472768E-003   6.4658099062352342E-002
   4.1617983050879215E-003  -1.7128980634891766E-003   6.5317140246651695E-002
   9.2952222230022197E-003  -2.7081953041845352E-003   4.9943357548745682E-002
   7.8720491346920829E-003  -2.8577128535559604E-003   5.0352816184925930E-002
   6.4488760463819461E-003  -3.6136579204669728E-003   5.1088080839648553E-002
   5.0257029580718093E-003  -4.9760305049183218E-003   5.2149151512913827E-002
   3.6025298697616726E-003  -6.9448306069097576E-003   5.3536028204721031E-002
   7.8408796284058224E-003  -2.4593709940107233E-003   5.3909546418056897E-002
   6.7177992826150251E-003  -2.6440863830065053E-003   5.3847486294351710E-002
   5.5947189368241723E-003  -3.3419673756782953E-003   5.4059805637142133E-002
   4.4716385910333403E-003  -4.5530139720258503E-003   5.4546504446429028E-002
   3.3485582452425500E-003  -6.2772261720493994E-003   5.5307582722212145E-002
   6.5005281105546264E-003  -2.2105466838369114E-003   5.7793906490812008E-002
   5.6261139552369471E-003  -2.4304599124571058E-003   5.7353589521084575E-002
   4.7516997999192956E-003  -3.0702768308892847E-003   5.7136225465807156E-002
   3.8772856446016024E-003  -4.1299974391331568E-003   5.7141814324979986E-002
   3.0028714892839647E-003  -5.6096217371890411E-003   5.7370356098602693E-002
   5.2741676694486803E-003  -1.9617223736632106E-003   6.1596437767009959E-002
   4.5969931525580206E-003  -2.2168334419079005E-003   6.0871125865124880E-002
   3.9198186356673159E-003  -2.7985862861005517E-003   6.0317340325643717E-002
   3.2426441187766268E-003  -3.7069809062406853E-003   5.9935081148566403E-002
   2.5654696018859793E-003  -4.9420173023286829E-003   5.9724348333893312E-002
   4.1617983050879215E-003  -1.7128980634891766E-003   6.5317140246651695E-002
   3.6304368745780774E-003  -2.0032069713583067E-003   6.4400095326473172E-002
   3.0990754440682333E-003  -2.5268957413115412E-003   6.3603150216652082E-002
   2.5677140135583754E-003  -3.2839643733479223E-003   6.2926304917188924E-002
   2.0363525830485174E-003  -4.2744128674684356E-003   6.2369559428083643E-002
   3.6025298697616726E-003  -6.9448306069097576E-003   5.3536028204721031E-002
   4.1543967571166796E-003  -9.5350529625956026E-003   5.1861561906451303E-002
   4.7062636444716865E-003  -1.2761692308131289E-002   5.0042237919056154E-002
   5.2581305318266103E-003  -1.6624748643516374E-002   4.8078056242535860E-002
   5.8099974191816450E-003  -2.1124221968750412E-002   4.5969016876890034E-002
   3.3485582452425500E-003  -6.2772261720493994E-003   5.5307582722212145E-002
   3.7729170659937805E-003  -8.5457241976356624E-003   5.2952839396374518E-002
   4.1972758867449833E-003  -1.1389628270672802E-002   5.0487937626454149E-002
   4.6216347074962000E-003  -1.4808938391159848E-002   4.7912877412451954E-002
   5.0459935282474166E-003  -1.8803654559096827E-002   4.5227658754366740E-002
   3.0028714892839647E-003  -5.6096217371890411E-003   5.7370356098602693E-002
   3.3344214884742374E-003  -7.5563954326764438E-003   5.4396346687596658E-002
   3.6659714876644961E-003  -1.0017564233214427E-002   5.1346878077550645E-002
   3.9975214868547410E-003  -1.2993128138803434E-002   4.8221950268465125E-002
   4.3290714860450275E-003  -1.6483087149443021E-002   4.5021563260340347E-002
   2.5654696018859793E-003  -4.9420173023286829E-003   5.9724348333893312E-002
   2.8389100245580709E-003  -6.5670666677166423E-003   5.6192083780117988E-002
   3.1123504472301902E-003  -8.6455001957559952E-003   5.2619059272345517E-002
   3.3857908699023616E-003  -1.1177317886446853E-002   4.9005274810576788E-002
   3.6592312925744011E-003  -1.4162519739789214E-002   4.5350730394810995E-002
   2.0363525830485174E-003  -4.2744128674684356E-003   6.2369559428083643E-002
   2.2863826742453158E-003  -5.5777379027568408E-003   5.8340050673938104E-002
   2.5364127654421142E-003  -7.2734361582977025E-003   5.4304481210838584E-002
   2.7864428566389127E-003  -9.3615076340906947E-003   5.0262851038785611E-002
   3.0364729478357111E-003  -1.1841952330135630E-002   4.6215160157778712E-002
   2.6060521635043132E-002  -8.9421496067355055E-003   6.0536482061430585E-002
   2.4942866466252628E-002  -8.1534810454370610E-003   6.0952058218122496E-002
   2.3825211297462096E-002  -7.5199429065669621E-003   6.1391318979387099E-002
   2.2707556128671591E-002  -7.0415351901251602E-003   6.1854264345224647E-002
   2.1589900959881073E-002  -6.7182578961118566E-003   6.2340894315635054E-002
   2.0259142066710409E-002  -6.0978204381543222E-003   6.3074561549186225E-002
   1.9230910453784528E-002  -5.6862299205428513E-003   6.2933474626819336E-002
   1.8202678840858681E-002  -5.3490508307798557E-003   6.2947550211609110E-002
   1.7174447227932810E-002  -5.0862831688651550E-003   6.3116788303555202E-002
   1.6146215615006947E-002  -4.8979269347989851E-003   6.3441188902657764E-002
   1.3950131393165859E-002  -3.2534912695731388E-003   6.5195203495964471E-002
   1.3142801238688162E-002  -3.2189787956488358E-003   6.4578172489119373E-002
   1.2335471084210438E-002  -3.1781587549928741E-003   6.4247781892014036E-002
   1.1528140929732724E-002  -3.1310311476052573E-003   6.4204031704648695E-002
   1.0720810775255014E-002  -3.0775959734860858E-003   6.4446921927023337E-002
   7.1334896144094433E-003  -4.0916210099195549E-004   6.6898407901765961E-002
   6.6785388209634200E-003  -7.5172767075475100E-004   6.5886151805022192E-002
   6.2235880275173759E-003  -1.0072666792058024E-003   6.5292014020601863E-002
   5.7686372340713431E-003  -1.1757791263453058E-003   6.5115994548505127E-002
   5.3136864406253094E-003  -1.2572650121731449E-003   6.5358093388731719E-002
  -1.9078326955880576E-004   2.4351670675892279E-003   6.8184174766590055E-002
  -1.6187679938964999E-004   1.7155234541393893E-003   6.6857412574527875E-002
  -1.3297032922049423E-004   1.1636253965811999E-003   6.6080246597372633E-002
  -1.0406385905133847E-004   7.7947289491468383E-004   6.5852676835124427E-002
  -7.5157388882182707E-005   5.6306594913968500E-004   6.6174703287783077E-002
   2.1589900959881073E-002  -6.7182578961118566E-003   6.2340894315635054E-002
   2.0935785731503953E-002  -6.4672930817793739E-003   6.2003746542368482E-002
   2.0281670503126827E-002  -6.2058228043798402E-003   6.1841642450563339E-002
   1.9627555274749704E-002  -5.9338470639135540E-003   6.1854582040219624E-002
   1.8973440046372581E-002  -5.6513658603802863E-003   6.2042565311337394E-002
   1.6146215615006947E-002  -4.8979269347989851E-003   6.3441188902657764E-002
   1.5665573143623830E-002  -4.7393599644202922E-003   6.3133419891815895E-002
   1.5184930672240724E-002  -4.5659600935685843E-003   6.2997552713500674E-002
   1.4704288200857623E-002  -4.3777273222436897E-003   6.3033587367712030E-002
   1.4223645729474516E-002  -4.1746616504458323E-003   6.3241523854450032E-002
   1.0720810775255014E-002  -3.0775959734860858E-003   6.4446921927023337E-002
   1.0410499211931087E-002  -3.0114268470614464E-003   6.4172859116012476E-002
   1.0100187648607159E-002  -2.9260973827573838E-003   6.4067556288593439E-002
   9.7898760852832313E-003  -2.8216075805741030E-003   6.4131013444766183E-002
   9.4795645219592981E-003  -2.6979574405113782E-003   6.4363230584530653E-002
   5.3136864406253094E-003  -1.2572650121731449E-003   6.5358093388731719E-002
   5.1705639364257143E-003  -1.2834937297025104E-003   6.5122064214958184E-002
   5.0274414322261218E-003  -1.2862346719461834E-003   6.5051653175841564E-002
   4.8843189280265318E-003  -1.2654878389043774E-003   6.5146860271381876E-002
   4.7411964238269350E-003  -1.2212532305769519E-003   6.5407685501579174E-002
  -7.5157388882182707E-005   5.6306594913968500E-004   6.6174703287783077E-002
  -5.4232682892282197E-005   4.4443938765650892E-004   6.5981035188653059E-002
  -3.3307976902378217E-005   3.5362803886503091E-004   6.5949843375245149E-002
  -1.2383270912477706E-005   2.9063190276533771E-004   6.6081127847559221E-002
   8.5414350774262737E-006   2.5545097935752992E-004   6.6374888605595428E-002
   1.8973440046372581E-002  -5.6513658603802863E-003   6.2042565311337394E-002
   1.8018684234646185E-002  -5.3607215918148876E-003   6.1774404165723107E-002
   1.7063928422919789E-002  -5.0642566562520280E-003   6.1740300251208163E-002
   1.6109172611193406E-002  -4.7619710536916209E-003   6.1940253567792383E-002
   1.5154416799466996E-002  -4.4538647841337320E-003   6.2374264115476030E-002
   1.4223645729474516E-002  -4.1746616504458323E-003   6.3241523854450032E-002
   1.3504250787864186E-002  -3.9617037753588991E-003   6.2985765543786681E-002
   1.2784855846253856E-002  -3.7437943941673879E-003   6.2966671742256092E-002
   1.2065460904643534E-002  -3.5209335068710212E-003   6.3184242449858513E-002
   1.1346065963033197E-002  -3.2931211134700766E-003   6.3638477666593807E-002
   9.4795645219592981E-003  -2.6979574405113782E-003   6.4363230584530653E-002
   8.9981377284986848E-003  -2.5626859589029660E-003   6.4119005947925134E-002
   8.5167109350380715E-003  -2.4233321320827547E-003   6.4114053098486334E-002
   8.0352841415774583E-003  -2.2798959600504789E-003   6.4348372036213991E-002
   7.5538573481168519E-003  -2.1323774428063935E-003   6.4821962761108257E-002
   4.7411964238269350E-003  -1.2212532305769519E-003   6.5407685501579174E-002
   4.5003450565496879E-003  -1.1636681424471718E-003   6.5174125378138881E-002
   4.2594936892724391E-003  -1.1028698699981458E-003   6.5182444319898863E-002
   4.0186423219951903E-003  -1.0388584132300744E-003   6.5432642326859039E-002
   3.7777909547179432E-003  -9.7163377214272428E-004   6.5924719399019338E-002
   8.5414350774262737E-006   2.5545097935752992E-004   6.6374888605595428E-002
   1.0872772017195276E-005   2.3534967400892781E-004   6.6151123834427616E-002
   1.3204108956957339E-005   2.1759239208656023E-004   6.6171845406493707E-002
   1.5535445896719402E-005   2.0217913359056247E-004   6.6437053321793629E-002
   1.7866782836488404E-005   1.8910989852088944E-004   6.6946747580327204E-002
   1.5154416799466996E-002  -4.4538647841337320E-003   6.2374264115476030E-002
   1.4320652800137029E-002  -4.1377506827603439E-003   6.2218479098111068E-002
   1.3486888800807048E-002  -3.8114415847535638E-003   6.2264113393461357E-002
   1.2653124801477081E-002  -3.4749374901133813E-003   6.2511167001526466E-002
   1.1819360802147100E-002  -3.1282383988400220E-003   6.2959639922306687E-002
   1.1346065963033197E-002  -3.2931211134700766E-003   6.3638477666593807E-002
   1.0715084070985655E-002  -3.0601355797299223E-003   6.3507992550917353E-002
   1.0084102178938140E-002  -2.8217552714163013E-003   6.3581652337090594E-002
   9.4531202868905900E-003  -2.5779801885291824E-003   6.3859457025113892E-002
   8.8221383948430543E-003  -2.3288103310685759E-003   6.4341406614987162E-002
   7.5538573481168519E-003  -2.1323774428063935E-003   6.4821962761108257E-002
   7.1283831524866295E-003  -1.9825204766995008E-003   6.4711977325060219E-002
   6.7029089568564036E-003  -1.8320689580789210E-003   6.4808862379996918E-002
   6.2774347612261847E-003  -1.6810228869449818E-003   6.5112617925918354E-002
   5.8519605655959553E-003  -1.5293822632971299E-003   6.5623243962824401E-002
   3.7777909547179432E-003  -9.7163377214272428E-004   6.5924719399019338E-002
   3.5605500446399055E-003  -9.0490537366913482E-004   6.5830433420539888E-002
   3.3433091345618790E-003  -8.4238264474159955E-004   6.5945743522180009E-002
   3.1260682244838509E-003  -7.8406558536061547E-004   6.6270649703939685E-002
   2.9088273144058149E-003  -7.2995419552573937E-004   6.6805151965819057E-002
   1.7866782836488404E-005   1.8910989852088944E-004   6.6946747580327204E-002
   1.1584747445524124E-005   1.7270972936134221E-004   6.6863360837356445E-002
   5.3027120545494355E-006   1.4730366859556920E-004   6.6992295763640103E-002
  -9.7932333641484459E-007   1.1289171622349062E-004   6.7333552359178275E-002
  -7.2613587273895330E-006   6.9473872245651158E-005   6.7887130623970782E-002
   1.1819360802147100E-002  -3.1282383988400220E-003   6.2959639922306687E-002
   1.0835715030076909E-002  -2.7873230982664587E-003   6.2887217930585826E-002
   9.8520692580067182E-003  -2.4681703757264417E-003   6.3060135927160588E-002
   8.8684234859365413E-003  -2.1707802312198321E-003   6.3478393912030945E-002
   7.8847777138663366E-003  -1.8951526647470462E-003   6.4141991885197092E-002
   8.8221383948430543E-003  -2.3288103310685759E-003   6.4341406614987162E-002
   8.0841040342912035E-003  -2.0833178155815202E-003   6.4279044606268709E-002
   7.3460696737393319E-003  -1.8505747586147481E-003   6.4462565432291868E-002
   6.6080353131874811E-003  -1.6305811601685441E-003   6.4891969093055807E-002
   5.8700009526356095E-003  -1.4233370202424434E-003   6.5567255588560802E-002
   5.8519605655959553E-003  -1.5293822632971299E-003   6.5623243962824401E-002
   5.3600804630078713E-003  -1.3793125328963596E-003   6.5579955056622119E-002
   4.8682003604197666E-003  -1.2329791415028324E-003   6.5783091831606327E-002
   4.3763202578316583E-003  -1.0903820891165900E-003   6.6232654287776957E-002
   3.8844401552435640E-003  -9.5152137573772944E-004   6.6928642425134133E-002
   2.9088273144058149E-003  -7.2995419552573937E-004   6.6805151965819057E-002
   2.6636443162269081E-003  -6.7530725021142102E-004   6.6789949281645694E-002
   2.4184613180480031E-003  -6.1538352439097221E-004   6.7021715125104214E-002
   2.1732783198690972E-003  -5.5018301806480235E-004   6.7500449496194631E-002
   1.9280953216901913E-003  -4.7970573123296001E-004   6.8226152394916889E-002
  -7.2613587273895330E-006   6.9473872245651158E-005   6.7887130623970782E-002
  -5.2044060516592827E-006   2.8698032473628565E-005   6.7909027281339518E-002
  -3.1474533759394407E-006   2.2120927208602037E-006   6.8178435312785390E-002
  -1.0905007002039863E-006  -9.9839470131604657E-006   6.8695354718308593E-002
   9.6645197551065154E-007  -7.8900867284126264E-006   6.9459785497909210E-002
   7.8847777138663366E-003  -1.8951526647470462E-003   6.4141991885197092E-002
   6.9540328616717328E-003  -1.6852020440762949E-003   6.4070524881624902E-002
   6.0232880094771429E-003  -1.5848427369763440E-003   6.4242560607343568E-002
   5.0925431572825322E-003  -1.5940747434472768E-003   6.4658099062352342E-002
   4.1617983050879215E-003  -1.7128980634891766E-003   6.5317140246651695E-002
   5.8700009526356095E-003  -1.4233370202424434E-003   6.5567255588560802E-002
   5.1800138565359852E-003  -1.2639601743419937E-003   6.5425971354081458E-002
   4.4900267604363608E-003  -1.1875684579716606E-003   6.5522699902501369E-002
   3.8000396643367469E-003  -1.1941618711311733E-003   6.5857441233821118E-002
   3.1100525682371122E-003  -1.2837404138210662E-003   6.6430195348039900E-002
   3.8844401552435640E-003  -9.5152137573772944E-004   6.6928642425134133E-002
   3.4297208688478971E-003  -8.4271830460724839E-004   6.6744147143787985E-002
   2.9750015824522337E-003  -7.9029417896619991E-004   6.6792174698950268E-002
   2.5202822960565790E-003  -7.9424899881473665E-004   6.7072725090621052E-002
   2.0655630096609034E-003  -8.5458276415301127E-004   6.7585798318800239E-002
   1.9280953216901913E-003  -4.7970573123296001E-004   6.8226152394916889E-002
   1.7031538986074807E-003  -4.2147643487244757E-004   6.8025052250744955E-002
   1.4782124755247658E-003  -3.9301989996096132E-004   6.8050984996690142E-002
   1.2532710524420540E-003  -3.9433612649841104E-004   6.8303950632752769E-002
   1.0283296293593404E-003  -4.2542511448492859E-004   6.8783949158933030E-002
   9.6645197551065154E-007  -7.8900867284126264E-006   6.9459785497909210E-002
   3.1294581472052219E-007  -2.3456513825736991E-007   6.9268686674951674E-002
  -3.4056034605919883E-007   4.2543790439442120E-006   6.9299130795720698E-002
  -9.9406650684065456E-007   5.5767458177480300E-006   6.9551117860216061E-002
  -1.6475726676290492E-006   3.7325351832651066E-006   7.0024647868437762E-002
   4.1617983050879215E-003  -1.7128980634891766E-003   6.5317140246651695E-002
   3.6304368745780774E-003  -2.0032069713583067E-003   6.4400095326473172E-002
   3.0990754440682333E-003  -2.5268957413115412E-003   6.3603150216652082E-002
   2.5677140135583754E-003  -3.2839643733479223E-003   6.2926304917188924E-002
   2.0363525830485174E-003  -4.2744128674684356E-003   6.2369559428083643E-002
   3.1100525682371122E-003  -1.2837404138210662E-003   6.6430195348039900E-002
   2.7020075652542802E-003  -1.5021824969749242E-003   6.5319562316564161E-002
   2.2939625622714552E-003  -1.8953665315264434E-003   6.4335462329785237E-002
   1.8859175592886440E-003  -2.4632925174755682E-003   6.3477895387702502E-002
   1.4778725563057982E-003  -3.2059604548224652E-003   6.2746861490315720E-002
   2.0655630096609034E-003  -8.5458276415301127E-004   6.7585798318800239E-002
   1.7872676685436878E-003  -1.0011580225916250E-003   6.6340215086714394E-002
   1.5089723274264583E-003  -1.2638373217415955E-003   6.5227598133663051E-002
   1.2306769863092357E-003  -1.6426206616033320E-003   6.4247947459646890E-002
   9.5238164519201307E-004  -2.1375080421764392E-003   6.3401263064665286E-002
   1.0283296293593404E-003  -4.2542511448492859E-004   6.8783949158933030E-002
   8.8621718444626893E-004  -5.0013354820822864E-004   6.7462053636922259E-002
   7.4410473953320441E-004  -6.3230811195651160E-004   6.6279557628285080E-002
   6.0199229462014683E-004  -8.2194880573103687E-004   6.5236461133021409E-002
   4.5987984970706844E-004  -1.0690556295304410E-003   6.4332764151131122E-002
  -1.6475726676290492E-006   3.7325351832651066E-006   7.0024647868437762E-002
  -1.1438870379659738E-006   8.9092617516772776E-007   6.8685077967188812E-002
  -6.4020140828555117E-007  -7.7890217164977571E-007   6.7491340813651879E-002
  -1.3651577861206743E-007  -1.2769498586306938E-006   6.6443436407826739E-002
   3.6716985105794686E-007  -6.0321688433173648E-007   6.5541364749713948E-002
   2.0363525830485174E-003  -4.2744128674684356E-003   6.2369559428083643E-002
   2.2863826742453158E-003  -5.5777379027568408E-003   5.8340050673938104E-002
   2.5364127654421142E-003  -7.2734361582977025E-003   5.4304481210838584E-002
   2.7864428566389127E-003  -9.3615076340906947E-003   5.0262851038785611E-002
   3.0364729478357111E-003  -1.1841952330135630E-002   4.6215160157778712E-002
   1.4778725563057982E-003  -3.2059604548224652E-003   6.2746861490315720E-002
   1.7077165005477402E-003  -4.1832047302213238E-003   5.8392824441319102E-002
   1.9375604447896613E-003  -5.4548597303269442E-003   5.4004475807366559E-002
   2.1674043890315929E-003  -7.0209254551389794E-003   4.9581815588457812E-002
   2.3972483332735384E-003  -8.8814019046574710E-003   4.5124843784593915E-002
   9.5238164519201307E-004  -2.1375080421764392E-003   6.3401263064665286E-002
   1.1337885664771397E-003  -2.7886715576856957E-003   5.8820660216362425E-002
   1.3151954877622871E-003  -3.6362833023560609E-003   5.4177494907102122E-002
   1.4966024090474241E-003  -4.6803432761871495E-003   4.9471767136884275E-002
   1.6780093303325611E-003  -5.9208514791795341E-003   4.4703476905708306E-002
   4.5987984970706844E-004  -1.0690556295304410E-003   6.4332764151131122E-002
   5.6459887203352647E-004  -1.3941383851500122E-003   5.9623557999067989E-002
   6.6931789435998451E-004  -1.8177068743850180E-003   5.4823538510045677E-002
   7.7403691668643474E-004  -2.3397610972358211E-003   4.9932705684063182E-002
   8.7875593901290058E-004  -2.9603010537013752E-003   4.4951059521121661E-002
   3.6716985105794686E-007  -6.0321688433173648E-007   6.5541364749713948E-002
   1.4741721689887077E-007   3.9478738556031345E-007   6.0801517789436210E-002
  -7.2335417256735868E-008   8.6955358560847351E-007   5.5942606616197377E-002
  -2.9208805142448557E-007   8.2108171601397162E-007   5.0964631229996532E-002
  -5.1184068557141860E-007   2.4937177656170206E-007   4.5867591630833981E-002
  -1.9078326955880576E-004   2.4351670675892279E-003   6.8184174766590055E-002
  -1.6187679938964999E-004   1.7155234541393893E-003   6.6857412574527875E-002
  -1.3297032922049423E-004   1.1636253965811999E-003   6.6080246597372633E-002
  -1.0406385905133847E-004   7.7947289491468383E-004   6.5852676835124427E-002
  -7.5157388882182707E-005   5.6306594913968500E-004   6.6174703287783077E-002
  -7.4775869230523304E-003   2.9772096485208843E-003   6.5481790770999748E-002
  -6.9716013106328641E-003   2.5920113413595569E-003   6.4787227888135096E-002
  -6.4656156982133839E-003   2.2833611096921280E-003   6.4497227074864133E-002
  -5.9596300857939098E-003   2.0512589535187919E-003   6.4611788331186804E-002
  -5.4536444733744305E-003   1.8957048728392989E-003   6.5130911657103246E-002
  -1.4181821010384545E-002   3.5192522294526241E-003   6.3159450821896876E-002
  -1.3343790401028016E-002   3.4684992285797245E-003   6.3005889767832057E-002
  -1.2505759791671473E-002   3.4030968228031463E-003   6.3111856638047609E-002
  -1.1667729182314944E-002   3.3230450121229018E-003   6.3477351432543586E-002
  -1.0829698572958409E-002   3.2283437965389128E-003   6.4102374151320016E-002
  -2.0303485531555455E-002   4.0612948103843499E-003   6.1217154919281216E-002
  -1.9278444070575114E-002   4.3449871157999476E-003   6.1513398213618578E-002
  -1.8253402609594772E-002   4.5228325359140918E-003   6.1924135286922970E-002
  -1.7228361148614431E-002   4.5948310707270386E-003   6.2449366139194613E-002
  -1.6203319687634089E-002   4.5609827202384989E-003   6.3089090770433426E-002
  -2.5842580486565028E-002   4.6033373913160203E-003   5.9654903063152909E-002
  -2.4775562319274150E-002   5.2214750030200596E-003   6.0309753225494644E-002
  -2.3708544151983271E-002   5.6425682490250928E-003   6.0934063021490403E-002
  -2.2641525984692400E-002   5.8666171293311059E-003   6.1527832451140074E-002
  -2.1574507817401514E-002   5.8936216439381406E-003   6.2091061514443602E-002
  -7.5157388882182707E-005   5.6306594913968500E-004   6.6174703287783077E-002
  -5.4232682892282197E-005   4.4443938765650892E-004   6.5981035188653059E-002
  -3.3307976902378217E-005   3.5362803886503091E-004   6.5949843375245149E-002
  -1.2383270912477706E-005   2.9063190276533771E-004   6.6081127847559221E-002
   8.5414350774262737E-006   2.5545097935752992E-004   6.6374888605595428E-002
  -5.4536444733744305E-003   1.8957048728392989E-003   6.5130911657103246E-002
  -5.2716161980656392E-003   1.7832513502735320E-003   6.4957037953190841E-002
  -5.0895879227568427E-003   1.6804508684408470E-003   6.4942895102194156E-002
  -4.9075596474480515E-003   1.5873034273417228E-003   6.5088483104113165E-002
  -4.7255313721392619E-003   1.5038090269755555E-003   6.5393801958947811E-002
  -1.0829698572958409E-002   3.2283437965389128E-003   6.4102374151320016E-002
  -1.0489312161137090E-002   3.1220633128905689E-003   6.3930132670666717E-002
  -1.0148925749315779E-002   3.0072736980167672E-003   6.3914876610122739E-002
  -9.8085393374944575E-003   2.8839749519178840E-003   6.4056605969688041E-002
  -9.4681529256731428E-003   2.7521670745935811E-003   6.4355320749362746E-002
  -1.6203319687634089E-002   4.5609827202384989E-003   6.3089090770433426E-002
  -1.5707320572106644E-002   4.4608752755075989E-003   6.2900319341080702E-002
  -1.5211321456579167E-002   4.3340965275926908E-003   6.2865787899030995E-002
  -1.4715322341051700E-002   4.1806464764939074E-003   6.2985496444284111E-002
  -1.4219323225524251E-002   4.0005251222115790E-003   6.3259444976840384E-002
  -2.1574507817401514E-002   5.8936216439381406E-003   6.2091061514443602E-002
  -2.0925641430974272E-002   5.7996872381246012E-003   6.1867597964432863E-002
  -2.0276775044547026E-002   5.6609193571684341E-003   6.1795628968918687E-002
  -1.9627908658119780E-002   5.4773180010704407E-003   6.1875154527901141E-002
  -1.8979042271692538E-002   5.2488831698295768E-003   6.2106174641380185E-002
   8.5414350774262737E-006   2.5545097935752992E-004   6.6374888605595428E-002
   1.0872772017195276E-005   2.3534967400892781E-004   6.6151123834427616E-002
   1.3204108956957339E-005   2.1759239208656023E-004   6.6171845406493707E-002
   1.5535445896719402E-005   2.0217913359056247E-004   6.6437053321793629E-002
   1.7866782836488404E-005   1.8910989852088944E-004   6.6946747580327204E-002
  -4.7255313721392619E-003   1.5038090269755555E-003   6.5393801958947811E-002
  -4.4802762565048226E-003   1.4246560407695785E-003   6.5160612782430322E-002
  -4.2350211408703816E-003   1.3445328421502201E-003   6.5168784820068201E-002
  -3.9897660252359328E-003   1.2634394311176536E-003   6.5418318071861464E-002
  -3.7445109096015013E-003   1.1813758076716363E-003   6.5909212537810402E-002
  -9.4681529256731428E-003   2.7521670745935811E-003   6.4355320749362746E-002
  -8.9830991604223573E-003   2.6139624075301876E-003   6.4109392931655712E-002
  -8.4980453951715718E-003   2.4714732922139424E-003   6.4101701199025779E-002
  -8.0129916299207845E-003   2.3246997286446355E-003   6.4332245551473058E-002
  -7.5279378646699990E-003   2.1736417168224109E-003   6.4801025988997493E-002
  -1.4219323225524251E-002   4.0005251222115790E-003   6.3259444976840384E-002
  -1.3497595939735429E-002   3.8032687742909008E-003   6.2997464282104038E-002
  -1.2775868653946622E-002   3.5984137422776057E-003   6.2970594543366579E-002
  -1.2054141368157814E-002   3.3859600261716164E-003   6.3178835760628077E-002
  -1.1332414082369006E-002   3.1659076259732827E-003   6.3622187933888352E-002
  -1.8979042271692538E-002   5.2488831698295768E-003   6.2106174641380185E-002
  -1.8023766594444018E-002   4.9925751410514752E-003   6.1824826833775215E-002
  -1.7068490917195537E-002   4.7253541923412551E-003   6.1775464853090684E-002
  -1.6113215239947042E-002   4.4472203236987744E-003   6.1958088699326744E-002
  -1.5157939562698536E-002   4.1581735351239324E-003   6.2372698372483271E-002
   1.7866782836488404E-005   1.8910989852088944E-004   6.6946747580327204E-002
   1.1584747445524124E-005   1.7270972936134221E-004   6.6863360837356445E-002
   5.3027120545494355E-006   1.4730366859556920E-004   6.6992295763640103E-002
  -9.7932333641484459E-007   1.1289171622349062E-004   6.7333552359178275E-002
  -7.2613587273895330E-006   6.9473872245651158E-005   6.7887130623970782E-002
  -3.7445109096015013E-003   1.1813758076716363E-003   6.5909212537810402E-002
  -3.5389906227748305E-003   1.0960581470070563E-003   6.5796985308357064E-002
  -3.3334703359481598E-003   1.0052026243178025E-003   6.5896041054084281E-002
  -3.1279500491214847E-003   9.0880923960454107E-004   6.6206379774992385E-002
  -2.9224297622948182E-003   8.0687799286704998E-004   6.6728001471081211E-002
  -7.5279378646699990E-003   2.1736417168224109E-003   6.4801025988997493E-002
  -7.1116539496994076E-003   2.0194065646526038E-003   6.4663426302643351E-002
  -6.6953700347288083E-003   1.8631015800402509E-003   6.4736070897396164E-002
  -6.2790861197582161E-003   1.7047267629856453E-003   6.5018959773256058E-002
  -5.8628022047876177E-003   1.5442821134885043E-003   6.5512092930223143E-002
  -1.1332414082369006E-002   3.1659076259732827E-003   6.3622187933888352E-002
  -1.0706405233328217E-002   2.9427549822981236E-003   6.3462683820215263E-002
  -1.0080396384287418E-002   2.7210005357625362E-003   6.3512385293575599E-002
  -9.4543875352466229E-003   2.5006442863665006E-003   6.3771292353969306E-002
  -8.8283786862058296E-003   2.2816862341099309E-003   6.4239405001396299E-002
  -1.5157939562698536E-002   4.1581735351239324E-003   6.2372698372483271E-002
  -1.4323244473661248E-002   3.8661033999438099E-003   6.2194757861073202E-002
  -1.3488549384623974E-002   3.5788994914849881E-003   6.2224984242622905E-002
  -1.2653854295586693E-002   3.2965618097476196E-003   6.2463377517132102E-002
  -1.1819159206549412E-002   3.0190903547314685E-003   6.2909937684601069E-002
  -7.2613587273895330E-006   6.9473872245651158E-005   6.7887130623970782E-002
  -5.2044060516592827E-006   2.8698032473628565E-005   6.7909027281339518E-002
  -3.1474533759394407E-006   2.2120927208602037E-006   6.8178435312785390E-002
  -1.0905007002039863E-006  -9.9839470131604657E-006   6.8695354718308593E-002
   9.6645197551065154E-007  -7.8900867284126264E-006   6.9459785497909210E-002
  -2.9224297622948182E-003   8.0687799286704998E-004   6.6728001471081211E-002
  -2.6734400872990907E-003   7.0739522612861538E-004   6.6736477798787885E-002
  -2.4244504123033476E-003   6.1834728141296758E-004   6.6991308197057092E-002
  -2.1754607373076079E-003   5.3973415871977348E-004   6.7492492665889164E-002
  -1.9264710623118769E-003   4.7155585804969924E-004   6.8240031205283991E-002
  -5.8628022047876177E-003   1.5442821134885043E-003   6.5512092930223143E-002
  -5.3680371109865524E-003   1.3860924197835467E-003   6.5503293850271566E-002
  -4.8732720171854862E-003   1.2344824701048668E-003   6.5739691537368097E-002
  -4.3785069233844339E-003   1.0894522644528774E-003   6.6221285991512641E-002
  -3.8837418295833686E-003   9.5100180282758906E-004   6.6948077212705126E-002
  -8.8283786862058296E-003   2.2816862341099309E-003   6.4239405001396299E-002
  -8.0889954771141068E-003   2.0647896134382837E-003   6.4209475435790600E-002
  -7.3496122680223909E-003   1.8506176587968701E-003   6.4423585333718142E-002
  -6.6102290589306707E-003   1.6391703701860074E-003   6.4881734695179050E-002
  -5.8708458498389522E-003   1.4304477476054234E-003   6.5583923520173129E-002
  -1.1819159206549412E-002   3.0190903547314685E-003   6.2909937684601069E-002
  -1.0836315185681705E-002   2.7434868070932428E-003   6.2855022555344864E-002
  -9.8534711648140261E-003   2.4667528474887068E-003   6.3042989586107268E-002
  -8.8706271439463226E-003   2.1888884759190402E-003   6.3473838776888281E-002
  -7.8877831230786399E-003   1.9098936923834797E-003   6.4147570127688014E-002
   9.6645197551065154E-007  -7.8900867284126264E-006   6.9459785497909210E-002
   3.1294581472052219E-007  -2.3456513825736991E-007   6.9268686674951674E-002
  -3.4056034605919883E-007   4.2543790439442120E-006   6.9299130795720698E-002
  -9.9406650684065456E-007   5.5767458177480300E-006   6.9551117860216061E-002
  -1.6475726676290492E-006   3.7325351832651066E-006   7.0024647868437762E-002
  -1.9264710623118769E-003   4.7155585804969924E-004   6.8240031205283991E-002
  -1.7026967251434454E-003   4.2173453835353536E-004   6.8033540310204255E-002
  -1.4789223879750051E-003   3.9819235858523649E-004   6.8054362158056797E-002
  -1.2551480508065710E-003   4.0092931874298465E-004   6.8302496748841188E-002
  -1.0313737136381333E-003   4.2994541882757087E-004   6.8777944082557774E-002
  -3.8837418295833686E-003   9.5100180282758906E-004   6.6948077212705126E-002
  -3.4297698498800995E-003   8.4370364184602198E-004   6.6755639962838398E-002
  -2.9757978701768512E-003   7.9213033812630673E-004   6.6796285255109417E-002
  -2.5218258904735895E-003   7.9628189166833230E-004   6.7070013089517933E-002
  -2.0678539107703339E-003   8.5615830247159908E-004   6.7576823466064084E-002
  -5.8708458498389522E-003   1.4304477476054234E-003   6.5583923520173129E-002
  -5.1809064283952723E-003   1.2656727453381617E-003   6.5434985632854173E-002
  -4.4909670069515854E-003   1.1860683176676545E-003   6.5524900086878460E-002
  -3.8010275855079097E-003   1.1916344645935134E-003   6.5853666882246101E-002
  -3.1110881640642198E-003   1.2823711861156550E-003   6.6421286018956763E-002
  -7.8877831230786399E-003   1.9098936923834797E-003   6.4147570127688014E-002
  -6.9561064606889211E-003   1.6876418488303013E-003   6.4071577320251705E-002
  -6.0244297982992197E-003   1.5800062972086415E-003   6.4240206653364273E-002
  -5.0927531359095009E-003   1.5869870375189651E-003   6.4653458127025748E-002
  -4.1610764735197994E-003   1.7085840697598220E-003   6.5311331741235823E-002
  -1.6475726676290492E-006   3.7325351832651066E-006   7.0024647868437762E-002
  -1.1438870379659738E-006   8.9092617516772776E-007   6.8685077967188812E-002
  -6.4020140828555117E-007  -7.7890217164977571E-007   6.7491340813651879E-002
  -1.3651577861206743E-007  -1.2769498586306938E-006   6.6443436407826739E-002
   3.6716985105794686E-007  -6.0321688433173648E-007   6.5541364749713948E-002
  -1.0313737136381333E-003   4.2994541882757087E-004   6.8777944082557774E-002
  -8.8834175406199076E-004   5.0148195974342169E-004   6.7458282412580006E-002
  -7.4530979448584125E-004   6.3178024239574082E-004   6.6277844542783126E-002
  -6.0227783490970303E-004   8.2084026678339028E-004   6.5236630473166968E-002
  -4.5924587533354919E-004   1.0686620329080077E-003   6.4334640203732141E-002
  -2.0678539107703339E-003   8.5615830247159908E-004   6.7576823466064084E-002
  -1.7889026247788114E-003   1.0020729933113981E-003   6.6334659988432881E-002
  -1.5099513387873010E-003   1.2643393869630204E-003   6.5225111363451521E-002
  -1.2310000527957915E-003   1.6429574834258553E-003   6.4248177591120004E-002
  -9.5204876680426813E-004   2.1379272827002915E-003   6.3403858671438024E-002
  -3.1110881640642198E-003   1.2823711861156550E-003   6.6421286018956763E-002
  -2.7028264991884364E-003   1.5026640268798463E-003   6.5314210694747368E-002
  -2.2945648343126461E-003   1.8968985315303555E-003   6.4333141275656938E-002
  -1.8863031694368523E-003   2.4650747000683204E-003   6.3478077761685084E-002
  -1.4780415045610724E-003   3.2071925324928252E-003   6.2749020152831986E-002
  -4.1610764735197994E-003   1.7085840697598220E-003   6.5311331741235823E-002
  -3.6301133772908487E-003   2.0032550604476285E-003   6.4396934531523842E-002
  -3.0991502810618805E-003   2.5294576760980236E-003   6.3601934279399364E-002
  -2.5681871848329194E-003   3.2871919167103691E-003   6.2926330984862722E-002
  -2.0372240886039616E-003   4.2764577822848038E-003   6.2370124647913250E-002
   3.6716985105794686E-007  -6.0321688433173648E-007   6.5541364749713948E-002
   1.4741721689887077E-007   3.9478738556031345E-007   6.0801517789436210E-002
  -7.2335417256735868E-008   8.6955358560847351E-007   5.5942606616197377E-002
  -2.9208805142448557E-007   8.2108171601397162E-007   5.0964631229996532E-002
  -5.1184068557141860E-007   2.4937177656170206E-007   4.5867591630833981E-002
  -4.5924587533354919E-004   1.0686620329080077E-003   6.4334640203732141E-002
  -5.6435816047969295E-004   1.3948344324344331E-003   5.9624483221117353E-002
  -6.6947044562582110E-004   1.8189463570290332E-003   5.4823605386439933E-002
  -7.7458273077196139E-004   2.3409978066916068E-003   4.9932006699700521E-002
  -8.7969501591809302E-004   2.9609887814219249E-003   4.4949687160898533E-002
  -9.5204876680426813E-004   2.1379272827002915E-003   6.3403858671438024E-002
  -1.1337102235632352E-003   2.7892740774833613E-003   5.8821854429623732E-002
  -1.3153716803221823E-003   3.6370231604723330E-003   5.4177472696645954E-002
  -1.4970331370811290E-003   4.6811745316668631E-003   4.9470713472505333E-002
  -1.6786945938400827E-003   5.9217281910675101E-003   4.4701576757200767E-002
  -1.4780415045610724E-003   3.2071925324928252E-003   6.2749020152831986E-002
  -1.7079087720336780E-003   4.1837137225322618E-003   5.8393631414955550E-002
  -1.9377760395062769E-003   5.4550999639156952E-003   5.4004208546815563E-002
  -2.1676433069788724E-003   7.0213512566423986E-003   4.9580751548410323E-002
  -2.3975105744514814E-003   8.8824676007129844E-003   4.5123260419742295E-002
  -2.0372240886039616E-003   4.2764577822848038E-003   6.2370124647913250E-002
  -2.2869538058910704E-003   5.5781533675810513E-003   5.8339814177112981E-002
  -2.5366835231781584E-003   7.2731767673589187E-003   5.4303812936947693E-002
  -2.7864132404652412E-003   9.3615279816177885E-003   5.0262120927417803E-002
  -3.0361429577523552E-003   1.1843207010358459E-002   4.6214738148522727E-002
  -2.5842580486565028E-002   4.6033373913160203E-003   5.9654903063152909E-002
  -2.4775562319274150E-002   5.2214750030200596E-003   6.0309753225494644E-002
  -2.3708544151983271E-002   5.6425682490250928E-003   6.0934063021490403E-002
  -2.2641525984692400E-002   5.8666171293311059E-003   6.1527832451140074E-002
  -2.1574507817401514E-002   5.8936216439381406E-003   6.2091061514443602E-002
  -3.1398841910640247E-002   7.7442520032008910E-003   5.8488191379049981E-002
  -3.0283504913630757E-002   7.9149759434067046E-003   5.8453988014054853E-002
  -2.9168167916621336E-002   7.9807238110935069E-003   5.8546962674843106E-002
  -2.8052830919611867E-002   7.9414956062613291E-003   5.8767115361414393E-002
  -2.6937493922602428E-002   7.7972913289102719E-003   5.9114446073769145E-002
  -3.7572005839007994E-002   1.0885166615085790E-002   5.6828031876858337E-002
  -3.6250631620150665E-002   1.0608476883793239E-002   5.6196843277706673E-002
  -3.4929257401293309E-002   1.0318879373161782E-002   5.5850551096467305E-002
  -3.3607883182435939E-002   1.0016374083191497E-002   5.5789155333140661E-002
  -3.2286508963578590E-002   9.7009610138823477E-003   5.6012655987726520E-002
  -4.4362072271668399E-002   1.4026081226970688E-002   5.4674424556578741E-002
  -4.2676942438833750E-002   1.3301977824179800E-002   5.3538319016450203E-002
  -4.0991812605999198E-002   1.2657034935230127E-002   5.2844828286363603E-002
  -3.9306682773164570E-002   1.2091252560121692E-002   5.2593952366318766E-002
  -3.7621552940329976E-002   1.1604630698854479E-002   5.2785691256315909E-002
  -5.1769041208621330E-002   1.7166995838855559E-002   5.2027369418210734E-002
  -4.9562437369680135E-002   1.5995478764566362E-002   5.0478415230285512E-002
  -4.7355833530738953E-002   1.4995190497298388E-002   4.9529794244531522E-002
  -4.5149229691797792E-002   1.4166131037051881E-002   4.9181506460948765E-002
  -4.2942625852856603E-002   1.3508300383826499E-002   4.9433551879537296E-002
  -2.1574507817401514E-002   5.8936216439381406E-003   6.2091061514443602E-002
  -2.0925641430974272E-002   5.7996872381246012E-003   6.1867597964432863E-002
  -2.0276775044547026E-002   5.6609193571684341E-003   6.1795628968918687E-002
  -1.9627908658119780E-002   5.4773180010704407E-003   6.1875154527901141E-002
  -1.8979042271692538E-002   5.2488831698295768E-003   6.2106174641380185E-002
  -2.6937493922602428E-002   7.7972913289102719E-003   5.9114446073769145E-002
  -2.6138264360094060E-002   7.5853791952920219E-003   5.8866185651988631E-002
  -2.5339034797585695E-002   7.3430274216579050E-003   5.8767157027873843E-002
  -2.4539805235077362E-002   7.0702360080086082E-003   5.8817360201424619E-002
  -2.3740575672568962E-002   6.7670049543435140E-003   5.9016795172641162E-002
  -3.2286508963578590E-002   9.7009610138823477E-003   5.6012655987726520E-002
  -3.1339178981820037E-002   9.3710711524593177E-003   5.5753992529303117E-002
  -3.0391849000061519E-002   9.0251354861476049E-003   5.5642298111714457E-002
  -2.9444519018302993E-002   8.6631540149469440E-003   5.5677572734960434E-002
  -2.8497189036544475E-002   8.2851267388573679E-003   5.5859816399041182E-002
  -3.7621552940329976E-002   1.1604630698854479E-002   5.2785691256315909E-002
  -3.6528385296152259E-002   1.1156763109626759E-002   5.2531018596376371E-002
  -3.5435217651974528E-002   1.0707243550637079E-002   5.2421052220440502E-002
  -3.4342050007796811E-002   1.0256072021885141E-002   5.2455792128508330E-002
  -3.3248882363619080E-002   9.8032485233712635E-003   5.2635238320579925E-002
  -4.2942625852856603E-002   1.3508300383826499E-002   4.9433551879537296E-002
  -4.1705883303090649E-002   1.2942455066794090E-002   4.9197263853208217E-002
  -4.0469140753324667E-002   1.2389351615126679E-002   4.9103419354051964E-002
  -3.9232398203558699E-002   1.1848990028823590E-002   4.9152018382068480E-002
  -3.7995655653792731E-002   1.1321370307885215E-002   4.9343060937257710E-002
  -1.8979042271692538E-002   5.2488831698295768E-003   6.2106174641380185E-002
  -1.8023766594444018E-002   4.9925751410514752E-003   6.1824826833775215E-002
  -1.7068490917195537E-002   4.7253541923412551E-003   6.1775464853090684E-002
  -1.6113215239947042E-002   4.4472203236987744E-003   6.1958088699326744E-002
  -1.5157939562698536E-002   4.1581735351239324E-003   6.2372698372483271E-002
  -2.3740575672568962E-002   6.7670049543435140E-003   5.9016795172641162E-002
  -2.2557100101781032E-002   6.4428918464295437E-003   5.8725462774348952E-002
  -2.1373624530993077E-002   6.1074542700339796E-003   5.8658544336215104E-002
  -2.0190148960205146E-002   5.7606922251565648E-003   5.8816039858239556E-002
  -1.9006673389417188E-002   5.4026057117974036E-003   5.9197949340422606E-002
  -2.8497189036544475E-002   8.2851267388573679E-003   5.5859816399041182E-002
  -2.7093085438979262E-002   7.8932085518077094E-003   5.5558087861512076E-002
  -2.5688981841414004E-002   7.4895543477267665E-003   5.5473201417379416E-002
  -2.4284878243848770E-002   7.0741641266144680E-003   5.5605157066642763E-002
  -2.2880774646283533E-002   6.6470378884708747E-003   5.5953954809302514E-002
  -3.3248882363619080E-002   9.8032485233712635E-003   5.2635238320579925E-002
  -3.1631722606038734E-002   9.3435252571859098E-003   5.2322702095264746E-002
  -3.0014562848458357E-002   8.8716544254195222E-003   5.2219436096583520E-002
  -2.8397403090878001E-002   8.3876360280724267E-003   5.2325440324536454E-002
  -2.6780243333297631E-002   7.8914700651443459E-003   5.2640714779123257E-002
  -3.7995655653792731E-002   1.1321370307885215E-002   4.9343060937257710E-002
  -3.6173011602959410E-002   1.0793841962563944E-002   4.9019305475606734E-002
  -3.4350367552126088E-002   1.0253754503112306E-002   4.8897248373827584E-002
  -3.2527723501292766E-002   9.7011079295302241E-003   4.8976889631920290E-002
  -3.0705079450459430E-002   9.1359022418177616E-003   4.9258229249885044E-002
  -1.5157939562698536E-002   4.1581735351239324E-003   6.2372698372483271E-002
  -1.4323244473661248E-002   3.8661033999438099E-003   6.2194757861073202E-002
  -1.3488549384623974E-002   3.5788994914849881E-003   6.2224984242622905E-002
  -1.2653854295586693E-002   3.2965618097476196E-003   6.2463377517132102E-002
  -1.1819159206549412E-002   3.0190903547314685E-003   6.2909937684601069E-002
  -1.9006673389417188E-002   5.4026057117974036E-003   5.9197949340422606E-002
  -1.7967393669699190E-002   5.0389559905818782E-003   5.8993591276330942E-002
  -1.6928113949981213E-002   4.6755043221347187E-003   5.8990235580641148E-002
  -1.5888834230263257E-002   4.3122507064567474E-003   5.9187882253353211E-002
  -1.4849554510545242E-002   3.9491951435472461E-003   5.9586531294466838E-002
  -2.2880774646283533E-002   6.6470378884708747E-003   5.5953954809302514E-002
  -2.1644074820442727E-002   6.2118085812196966E-003   5.5718511018576736E-002
  -2.0407374994601907E-002   5.7721091527846158E-003   5.5676905071694954E-002
  -1.9170675168761059E-002   5.3279396031658197E-003   5.5829136968657087E-002
  -1.7933975342920246E-002   4.8792999323630792E-003   5.6175206709463077E-002
  -2.6780243333297631E-002   7.8914700651443459E-003   5.2640714779123257E-002
  -2.5353287925891789E-002   7.3846611718574734E-003   5.2369517087810916E-002
  -2.3926332518485974E-002   6.8687139834344296E-003   5.2284992715784427E-002
  -2.2499377111080181E-002   6.3436284998750307E-003   5.2387141663044007E-002
  -2.1072421703674318E-002   5.8094047211789956E-003   5.2675963929589703E-002
  -3.0705079450459430E-002   9.1359022418177616E-003   4.9258229249885044E-002
  -2.9095032986046473E-002   8.5575137624956388E-003   4.8946609484033177E-002
  -2.7484986521633510E-002   7.9653188140842296E-003   4.8814498512909393E-002
  -2.5874940057220550E-002   7.3593173965840163E-003   4.8861896336514096E-002
  -2.4264893592807590E-002   6.7395095099946900E-003   4.9088802954846633E-002
  -1.1819159206549412E-002   3.0190903547314685E-003   6.2909937684601069E-002
  -1.0836315185681705E-002   2.7434868070932428E-003   6.2855022555344864E-002
  -9.8534711648140261E-003   2.4667528474887068E-003   6.3042989586107268E-002
  -8.8706271439463226E-003   2.1888884759190402E-003   6.3473838776888281E-002
  -7.8877831230786399E-003   1.9098936923834797E-003   6.4147570127688014E-002
  -1.4849554510545242E-002   3.9491951435472461E-003   5.9586531294466838E-002
  -1.3633026734680486E-002   3.5861457378163486E-003   5.9467734156621099E-002
  -1.2416498958815718E-002   3.2229105936736752E-003   5.9573422368750822E-002
  -1.1199971182950959E-002   2.8594897111189725E-003   5.9903595930856313E-002
  -9.9834434070861927E-003   2.4958830901524731E-003   6.0458254842937043E-002
  -1.7933975342920246E-002   4.8792999323630792E-003   5.6175206709463077E-002
  -1.6502160622101525E-002   4.4288046685395654E-003   5.5993472236581784E-002
  -1.5070345901282789E-002   3.9790683398580884E-003   5.6017826303632834E-002
  -1.3638531180464059E-002   3.5300909463187938E-003   5.6248268910616295E-002
  -1.2206716459645328E-002   3.0818724879215220E-003   5.6684800057532153E-002
  -2.1072421703674318E-002   5.8094047211789956E-003   5.2675963929589703E-002
  -1.9443716847944784E-002   5.2714635992628933E-003   5.2432236795226739E-002
  -1.7815011992215236E-002   4.7352260860426681E-003   5.2376201390753156E-002
  -1.6186307136485705E-002   4.2006921815187816E-003   5.2507857716168629E-002
  -1.4557602280756157E-002   3.6678618856905432E-003   5.2827205771473672E-002
  -2.4264893592807590E-002   6.7395095099946900E-003   4.9088802954846633E-002
  -2.2457695412210307E-002   6.1141225299858881E-003   4.8784027832556198E-002
  -2.0650497231613080E-002   5.4913838322273589E-003   4.8648547630111727E-002
  -1.8843299051015810E-002   4.8712934167185196E-003   4.8682362347513386E-002
  -1.7036100870418569E-002   4.2538512834596753E-003   4.8885471984761120E-002
  -7.8877831230786399E-003   1.9098936923834797E-003   6.4147570127688014E-002
  -6.9561064606889211E-003   1.6876418488303013E-003   6.4071577320251705E-002
  -6.0244297982992197E-003   1.5800062972086415E-003   6.4240206653364273E-002
  -5.0927531359095009E-003   1.5869870375189651E-003   6.4653458127025748E-002
  -4.1610764735197994E-003   1.7085840697598220E-003   6.5311331741235823E-002
  -9.9834434070861927E-003   2.4958830901524731E-003   6.0458254842937043E-002
  -8.8055646804986627E-003   2.1895448813573082E-003   6.0370898617940927E-002
  -7.6276859539111536E-003   1.9979292353164146E-003   6.0531324380791840E-002
  -6.4498072273236427E-003   1.9210361520304101E-003   6.0939532131489449E-002
  -5.2719285007361144E-003   1.9588656314987185E-003   6.1595521870033587E-002
  -1.2206716459645328E-002   3.0818724879215220E-003   5.6684800057532153E-002
  -1.0779475821562065E-002   2.6914479138842040E-003   5.6586186685799511E-002
  -9.3522351834787725E-003   2.4158521734242017E-003   5.6738515149211757E-002
  -7.9249945453954938E-003   2.2550852665421915E-003   5.7141785447768649E-002
  -6.4977539073122169E-003   2.2091471932375595E-003   5.7795997581470360E-002
  -1.4557602280756157E-002   3.6678618856905432E-003   5.2827205771473672E-002
  -1.2877839883879128E-002   3.1933509464110443E-003   5.2717441523827423E-002
  -1.1198077487002153E-002   2.8337751115320928E-003   5.2861778958624248E-002
  -9.5183150901251446E-003   2.5891343810540268E-003   5.3260218075863633E-002
  -7.8385526932481520E-003   2.4594287549764282E-003   5.3912758875545530E-002
  -1.7036100870418569E-002   4.2538512834596753E-003   4.8885471984761120E-002
  -1.5100656867449880E-002   3.6952539789379957E-003   4.8764663132024766E-002
  -1.3165212864481191E-002   3.2516980496397618E-003   4.8901115809029005E-002
  -1.1229768861512494E-002   2.9231834955657510E-003   4.9294830015773866E-002
  -9.2943248585438121E-003   2.7097103167152969E-003   4.9945805752259487E-002
  -4.1610764735197994E-003   1.7085840697598220E-003   6.5311331741235823E-002
  -3.6301133772908487E-003   2.0032550604476285E-003   6.4396934531523842E-002
  -3.0991502810618805E-003   2.5294576760980236E-003   6.3601934279399364E-002
  -2.5681871848329194E-003   3.2871919167103691E-003   6.2926330984862722E-002
  -2.0372240886039616E-003   4.2764577822848038E-003   6.2370124647913250E-002
  -5.2719285007361144E-003   1.9588656314987185E-003   6.1595521870033587E-002
  -4.5956689571552585E-003   2.2167923075521179E-003   6.0870552498415220E-002
  -3.9194094135743991E-003   2.8001908140216913E-003   6.0316779063912918E-002
  -3.2431498699935519E-003   3.7090611509071544E-003   5.9934201566526818E-002
  -2.5668903264126873E-003   4.9434033182084169E-003   5.9722820006256838E-002
  -6.4977539073122169E-003   2.2091471932375595E-003   5.7795997581470360E-002
  -5.6243989368509398E-003   2.4303295546566073E-003   5.7354396253399192E-002
  -4.7510439663896193E-003   3.0709239519453591E-003   5.7135789841972706E-002
  -3.8776889959283266E-003   4.1309303851038287E-003   5.7140178347191053E-002
  -3.0043340254669957E-003   5.6103488541318636E-003   5.7367561769053915E-002
  -7.8385526932481520E-003   2.4594287549764282E-003   5.3912758875545530E-002
  -6.7163033163778274E-003   2.6438668017609857E-003   5.3848465796475446E-002
  -5.5940539395075047E-003   3.3416570898691378E-003   5.4058966613578577E-002
  -4.4718045626371888E-003   4.5527996193006695E-003   5.4544261326854866E-002
  -3.3495551857668595E-003   6.2772943900552824E-003   5.5304349936304682E-002
  -9.2943248585438121E-003   2.7097103167152969E-003   4.9945805752259487E-002
  -7.8713820957359848E-003   2.8574040488655306E-003   5.0352761127644197E-002
  -6.4484393329280881E-003   3.6123902277928333E-003   5.1086309378730488E-002
  -5.0254965701202123E-003   4.9746688534973785E-003   5.2146450505518777E-002
  -3.6025538073123642E-003   6.9442399259788123E-003   5.3533184508008813E-002
  -2.0372240886039616E-003   4.2764577822848038E-003   6.2370124647913250E-002
  -2.2869538058910704E-003   5.5781533675810513E-003   5.8339814177112981E-002
  -2.5366835231781584E-003   7.2731767673589187E-003   5.4303812936947693E-002
  -2.7864132404652412E-003   9.3615279816177885E-003   5.0262120927417803E-002
  -3.0361429577523552E-003   1.1843207010358459E-002   4.6214738148522727E-002
  -2.5668903264126873E-003   4.9434033182084169E-003   5.9722820006256838E-002
  -2.8397747135752854E-003   6.5674636896843608E-003   5.6190914369907807E-002
  -3.1126591007378905E-003   8.6454886390948671E-003   5.2618390163173046E-002
  -3.3855434879005008E-003   1.1177478166438798E-002   4.9005247386052053E-002
  -3.6584278750631111E-003   1.4163432271717014E-002   4.5351486038544664E-002
  -3.0043340254669957E-003   5.6103488541318636E-003   5.7367561769053915E-002
  -3.3353008835262724E-003   7.5567740117878368E-003   5.4394697730608954E-002
  -3.6662677415855620E-003   1.0017800510830829E-002   5.1346287320757064E-002
  -3.9972345996448552E-003   1.2993428351259866E-002   4.8222330539497475E-002
  -4.3282014577041041E-003   1.6483657533075569E-002   4.5022827386830944E-002
  -3.3495551857668595E-003   6.2772943900552824E-003   5.5304349936304682E-002
  -3.7735323157440121E-003   8.5460843338914516E-003   5.2951164259216296E-002
  -4.1975094457211643E-003   1.1390112382566674E-002   5.0487504409699596E-002
  -4.6214865756982835E-003   1.4809378536080794E-002   4.7913370387754596E-002
  -5.0454637056754426E-003   1.8803882794434013E-002   4.5228762193380734E-002
  -3.6025538073123642E-003   6.9442399259788123E-003   5.3533184508008813E-002
  -4.1544690102285203E-003   9.5353946559945113E-003   5.1860313955729764E-002
  -4.7063842131446904E-003   1.2762424254302712E-002   5.0042041430001294E-002
  -5.2582994160608534E-003   1.6625328720901771E-002   4.8078366930822763E-002
  -5.8102146189770165E-003   2.1124108055792679E-002   4.5969290458195200E-002
  -5.1769041208621330E-002   1.7166995838855559E-002   5.2027369418210734E-002
  -4.9562437369680135E-002   1.5995478764566362E-002   5.0478415230285512E-002
  -4.7355833530738953E-002   1.4995190497298388E-002   4.9529794244531522E-002
  -4.5149229691797792E-002   1.4166131037051881E-002   4.9181506460948765E-002
  -4.2942625852856603E-002   1.3508300383826499E-002   4.9433551879537296E-002
  -5.9147022719301320E-002   1.8063433174161925E-002   4.5253812508665392E-002
  -5.6428260886671897E-002   1.7200946151844809E-002   4.4412769639871674E-002
  -5.3709499054042605E-002   1.6409648664058779E-002   4.3995709556283236E-002
  -5.0990737221413257E-002   1.5689540710803966E-002   4.4002632257899840E-002
  -4.8271975388783903E-002   1.5040622292080308E-002   4.4433537744721474E-002
  -6.5850126873142817E-002   1.8959870509468291E-002   3.8839305287337006E-002
  -6.2795557463791452E-002   1.8406413539123340E-002   3.8606134465184960E-002
  -5.9740988054440086E-002   1.7824106830819211E-002   3.8620596011271685E-002
  -5.6686418645088679E-002   1.7212950384556166E-002   3.8882689925597465E-002
  -5.3631849235737286E-002   1.6572944200334033E-002   3.9392416208162279E-002
  -7.1878353670145778E-002   1.9856307844774657E-002   3.2783847754226096E-002
  -6.8664327101038578E-002   1.9611880926401773E-002   3.3058509706225071E-002
  -6.5450300531931266E-002   1.9238564997579623E-002   3.3404453609497078E-002
  -6.2236273962824058E-002   1.8736360058308366E-002   3.3821679464041972E-002
  -5.9022247393716754E-002   1.8105266108587911E-002   3.4310187269859502E-002
  -7.7231703110310357E-002   2.0752745180081023E-002   2.7087439909332101E-002
  -7.4034569798413330E-002   2.0817348313680206E-002   2.7769895362992347E-002
  -7.0837436486516386E-002   2.0653023164340020E-002   2.8347282350959374E-002
  -6.7640303174619332E-002   2.0259769732060489E-002   2.8819600873233028E-002
  -6.4443169862722360E-002   1.9637588016841512E-002   2.9186850929813324E-002
  -4.2942625852856603E-002   1.3508300383826499E-002   4.9433551879537296E-002
  -4.1705883303090649E-002   1.2942455066794090E-002   4.9197263853208217E-002
  -4.0469140753324667E-002   1.2389351615126679E-002   4.9103419354051964E-002
  -3.9232398203558699E-002   1.1848990028823590E-002   4.9152018382068480E-002
  -3.7995655653792731E-002   1.1321370307885215E-002   4.9343060937257710E-002
  -4.8271975388783903E-002   1.5040622292080308E-002   4.4433537744721474E-002
  -4.6890286361946504E-002   1.4433354066797424E-002   4.4181654716122523E-002
  -4.5508597335109112E-002   1.3838196693864754E-002   4.4077221114493706E-002
  -4.4126908308271706E-002   1.3255150173282434E-002   4.4120236939834995E-002
  -4.2745219281434328E-002   1.2684214505050473E-002   4.4310702192146334E-002
  -5.3631849235737286E-002   1.6572944200334033E-002   3.9392416208162279E-002
  -5.2100207832031148E-002   1.5924253066800426E-002   3.9124307164279074E-002
  -5.0568566428324947E-002   1.5287041772602934E-002   3.9008653447163304E-002
  -4.9036925024618788E-002   1.4661310317741165E-002   3.9045455056815032E-002
  -4.7505283620912601E-002   1.4047058702215703E-002   3.9234711993234056E-002
  -5.9022247393716754E-002   1.8105266108587911E-002   3.4310187269859502E-002
  -5.7335647713344498E-002   1.7415152066803594E-002   3.4025221197677730E-002
  -5.5649048032972194E-002   1.6735886851340979E-002   3.3897716352060764E-002
  -5.3962448352599925E-002   1.6067470462200119E-002   3.3927672733008583E-002
  -5.2275848672227648E-002   1.5409902899380920E-002   3.4115090340521195E-002
  -6.4443169862722360E-002   1.9637588016841512E-002   2.9186850929813324E-002
  -6.2596606005886637E-002   1.8906051066806706E-002   2.8884396816318630E-002
  -6.0750042149050859E-002   1.8184731930079245E-002   2.8744409829186190E-002
  -5.8903478292215136E-002   1.7473630606658894E-002   2.8766889968415754E-002
  -5.7056914435379386E-002   1.6772747096546192E-002   2.8951837234007516E-002
  -3.7995655653792731E-002   1.1321370307885215E-002   4.9343060937257710E-002
  -3.6173011602959410E-002   1.0793841962563944E-002   4.9019305475606734E-002
  -3.4350367552126088E-002   1.0253754503112306E-002   4.8897248373827584E-002
  -3.2527723501292766E-002   9.7011079295302241E-003   4.8976889631920290E-002
  -3.0705079450459430E-002   9.1359022418177616E-003   4.9258229249885044E-002
  -4.2745219281434328E-002   1.2684214505050473E-002   4.4310702192146334E-002
  -4.0719776385190275E-002   1.2113788359051525E-002   4.3965721043190076E-002
  -3.8694333488946242E-002   1.1532270405168438E-002   4.3824639225183398E-002
  -3.6668890592702202E-002   1.0939660643401204E-002   4.3887456738126218E-002
  -3.4643447696458177E-002   1.0335959073749901E-002   4.4154173582018452E-002
  -4.7505283620912601E-002   1.4047058702215703E-002   3.9234711993234056E-002
  -4.5274840908180236E-002   1.3433734755539162E-002   3.8869972463218938E-002
  -4.3044398195447878E-002   1.2810786307224667E-002   3.8711333235230808E-002
  -4.0813955482715554E-002   1.2178213357272236E-002   3.8758794309269935E-002
  -3.8583512769983161E-002   1.1536015905681846E-002   3.9012355685336189E-002
  -5.2275848672227648E-002   1.5409902899380920E-002   3.4115090340521195E-002
  -4.9838205171929315E-002   1.4753681152026826E-002   3.3732059735693230E-002
  -4.7400561671630981E-002   1.4089302209280903E-002   3.3557330403970104E-002
  -4.4962918171332633E-002   1.3416766071143131E-002   3.3590902345351677E-002
  -4.2525274671034265E-002   1.2736072737613777E-002   3.3832775559838116E-002
  -5.7056914435379386E-002   1.6772747096546192E-002   2.8951837234007516E-002
  -5.4409869176437420E-002   1.6073627548514380E-002   2.8551982860613057E-002
  -5.1762823917495537E-002   1.5367818111337014E-002   2.8362630731400912E-002
  -4.9115778658553613E-002   1.4655318785014162E-002   2.8383780846371290E-002
  -4.6468733399611689E-002   1.3936129569545874E-002   2.8615433205524010E-002
  -3.0705079450459430E-002   9.1359022418177616E-003   4.9258229249885044E-002
  -2.9095032986046473E-002   8.5575137624956388E-003   4.8946609484033177E-002
  -2.7484986521633510E-002   7.9653188140842296E-003   4.8814498512909393E-002
  -2.5874940057220550E-002   7.3593173965840163E-003   4.8861896336514096E-002
  -2.4264893592807590E-002   6.7395095099946900E-003   4.9088802954846633E-002
  -3.4643447696458177E-002   1.0335959073749901E-002   4.4154173582018452E-002
  -3.2862598157382669E-002   9.7200523142956796E-003   4.3818588748169685E-002
  -3.1081748618307176E-002   9.0908269831203453E-003   4.3645101268917769E-002
  -2.9300899079231647E-002   8.4482830802237972E-003   4.3633711144262635E-002
  -2.7520049540156161E-002   7.7924206056060319E-003   4.3784418374204437E-002
  -3.8583512769983161E-002   1.1536015905681846E-002   3.9012355685336189E-002
  -3.6649271596376418E-002   1.0882590866095582E-002   3.8653293680858222E-002
  -3.4715030422769647E-002   1.0216335152156246E-002   3.8438917590845882E-002
  -3.2780789249162924E-002   9.5372487638635244E-003   3.8369227415298968E-002
  -3.0846548075556132E-002   8.8453317012173738E-003   3.8444223154217860E-002
  -4.2525274671034265E-002   1.2736072737613777E-002   3.3832775559838116E-002
  -4.0455053303027684E-002   1.2045129417895664E-002   3.3450724282098818E-002
  -3.8384831935021027E-002   1.1341843321192310E-002   3.3195947478693727E-002
  -3.6314610567014405E-002   1.0626214447503224E-002   3.3068445149623080E-002
  -3.4244389199007727E-002   9.8982427968286602E-003   3.3068217294886459E-002
  -4.6468733399611689E-002   1.3936129569545874E-002   2.8615433205524010E-002
  -4.4279943277336448E-002   1.3207667969695636E-002   2.8210880551891360E-002
  -4.2091153155061220E-002   1.2467351490228221E-002   2.7916190932461477E-002
  -3.9902363032785958E-002   1.1715180131143022E-002   2.7731364347234513E-002
  -3.7713572910510779E-002   1.0951153892439947E-002   2.7656400796210567E-002
  -2.4264893592807590E-002   6.7395095099946900E-003   4.9088802954846633E-002
  -2.2457695412210307E-002   6.1141225299858881E-003   4.8784027832556198E-002
  -2.0650497231613080E-002   5.4913838322273589E-003   4.8648547630111727E-002
  -1.8843299051015810E-002   4.8712934167185196E-003   4.8682362347513386E-002
  -1.7036100870418569E-002   4.2538512834596753E-003   4.8885471984761120E-002
  -2.7520049540156161E-002   7.7924206056060319E-003   4.3784418374204437E-002
  -2.5547477671192836E-002   7.1333899462964201E-003   4.3409194674676188E-002
  -2.3574905802229547E-002   6.4813414893249155E-003   4.3195423432033780E-002
  -2.1602333933266275E-002   5.8362752346906924E-003   4.3143104646277325E-002
  -1.9629762064302933E-002   5.1981911823941740E-003   4.3252238317406877E-002
  -3.0846548075556132E-002   8.8453317012173738E-003   3.8444223154217860E-002
  -2.8716444981187004E-002   8.1526573626072851E-003   3.8002884797539299E-002
  -2.6586341886817834E-002   7.4712991464224721E-003   3.7715156434786595E-002
  -2.4456238792448664E-002   6.8012570526629762E-003   3.7581038065959638E-002
  -2.2326135698079522E-002   6.1425310813286171E-003   3.7600529691058315E-002
  -3.4244389199007727E-002   9.8982427968286602E-003   3.3068217294886459E-002
  -3.1964597342192903E-002   9.1719247789177616E-003   3.2565098201145469E-002
  -2.9684805485378052E-002   8.4612568035198621E-003   3.2207746638370213E-002
  -2.7405013628563218E-002   7.7662388706351490E-003   3.1996162606560456E-002
  -2.5125221771748328E-002   7.0868709802630880E-003   3.1930346105716545E-002
  -3.7713572910510779E-002   1.0951153892439947E-002   2.7656400796210567E-002
  -3.5291934754210386E-002   1.0191192195228627E-002   2.7095834885495051E-002
  -3.2870296597910090E-002   9.4512144606175019E-003   2.6673194042784676E-002
  -3.0448658441609759E-002   8.7312206886073010E-003   2.6388478268079690E-002
  -2.8027020285309401E-002   8.0312108791975589E-003   2.6241687561380456E-002
  -1.7036100870418569E-002   4.2538512834596753E-003   4.8885471984761120E-002
  -1.5100656867449880E-002   3.6952539789379957E-003   4.8764663132024766E-002
  -1.3165212864481191E-002   3.2516980496397618E-003   4.8901115809029005E-002
  -1.1229768861512494E-002   2.9231834955657510E-003   4.9294830015773866E-002
  -9.2943248585438121E-003   2.7097103167152969E-003   4.9945805752259487E-002
  -1.9629762064302933E-002   5.1981911823941740E-003   4.3252238317406877E-002
  -1.7476304472321215E-002   4.5995305387315222E-003   4.3082922079127506E-002
  -1.5322846880339545E-002   4.0727345099991208E-003   4.3092371489133530E-002
  -1.3169389288357872E-002   3.6178030961972751E-003   4.3280586547424754E-002
  -1.1015931696376213E-002   3.2347362973251803E-003   4.3647567254001263E-002
  -2.2326135698079522E-002   6.1425310813286171E-003   3.7600529691058315E-002
  -2.0033160398540244E-002   5.5038070985255483E-003   3.7339529306942787E-002
  -1.7740185099000921E-002   4.8937709703587018E-003   3.7178798689656734E-002
  -1.5447209799461641E-002   4.3124226968286883E-003   3.7118337839200988E-002
  -1.3154234499922313E-002   3.7597622779352857E-003   3.7158146755575078E-002
  -2.5125221771748328E-002   7.0868709802630880E-003   3.1930346105716545E-002
  -2.2771224646106744E-002   6.4080836583191025E-003   3.1534484815470470E-002
  -2.0417227520465136E-002   5.7148074307182273E-003   3.1160397410599061E-002
  -1.8063230394823566E-002   5.0070422974602680E-003   3.0808083891102213E-002
  -1.5709233269181944E-002   4.2847882585452801E-003   3.0477544256980106E-002
  -2.8027020285309401E-002   8.0312108791975589E-003   2.6241687561380456E-002
  -2.5690497215020952E-002   7.3123602181131009E-003   2.5667788604710529E-002
  -2.3353974144732365E-002   6.5358438910775862E-003   2.5037167651960124E-002
  -2.1017451074443846E-002   5.7016618980917227E-003   2.4349824703128992E-002
  -1.8680928004155328E-002   4.8098142391552745E-003   2.3605759758217104E-002
  -9.2943248585438121E-003   2.7097103167152969E-003   4.9945805752259487E-002
  -7.8713820957359848E-003   2.8574040488655306E-003   5.0352761127644197E-002
  -6.4484393329280881E-003   3.6123902277928333E-003   5.1086309378730488E-002
  -5.0254965701202123E-003   4.9746688534973785E-003   5.2146450505518777E-002
  -3.6025538073123642E-003   6.9442399259788123E-003   5.3533184508008813E-002
  -1.1015931696376213E-002   3.2347362973251803E-003   4.3647567254001263E-002
  -9.2479636897518647E-003   3.1627531158175404E-003   4.4235056565074538E-002
  -7.4799956831275716E-003   3.6410725541076716E-003   4.5186003488078746E-002
  -5.7120276765032993E-003   4.6696946121954214E-003   4.6500408023013903E-002
  -3.9440596698789854E-003   6.2486192900813586E-003   4.8178270169880411E-002
  -1.3154234499922313E-002   3.7597622779352857E-003   3.7158146755575078E-002
  -1.1004376513252263E-002   3.4681021827695779E-003   3.7869180175357287E-002
  -8.8545185265822106E-003   3.6697548804223851E-003   3.8980535943300129E-002
  -6.7046605399121561E-003   4.3647203708941269E-003   4.0492214059403168E-002
  -4.5548025532421085E-003   5.5529986541839604E-003   4.2404214523666578E-002
  -1.5709233269181944E-002   4.2847882585452801E-003   3.0477544256980106E-002
  -1.3140620566236955E-002   3.7734512497216016E-003   3.1255131958492458E-002
  -1.0572007863291964E-002   3.6984372067370500E-003   3.2469906744394414E-002
  -8.0033951603469978E-003   4.0597461295921681E-003   3.4121868614686086E-002
  -5.4347824574019817E-003   4.8573780182865345E-003   3.6211017569367281E-002
  -1.8680928004155328E-002   4.8098142391552745E-003   2.3605759758217104E-002
  -1.5656695848706104E-002   4.0788003166737363E-003   2.4392911914480231E-002
  -1.2632463693256879E-002   3.7271195330519924E-003   2.5654115891362184E-002
  -9.6082315378076683E-003   3.7547718882908893E-003   2.7389371688862796E-002
  -6.5839993823584297E-003   4.1617573823891085E-003   2.9598679306982678E-002
  -3.6025538073123642E-003   6.9442399259788123E-003   5.3533184508008813E-002
  -4.1544690102285203E-003   9.5353946559945113E-003   5.1860313955729764E-002
  -4.7063842131446904E-003   1.2762424254302712E-002   5.0042041430001294E-002
  -5.2582994160608534E-003   1.6625328720901771E-002   4.8078366930822763E-002
  -5.8102146189770165E-003   2.1124108055792679E-002   4.5969290458195200E-002
  -3.9440596698789854E-003   6.2486192900813586E-003   4.8178270169880411E-002
  -4.5375268733230112E-003   8.6873679181470598E-003   4.7242622644153021E-002
  -5.1309940767670370E-003   1.2295461826774351E-002   4.6369273090819785E-002
  -5.7244612802110559E-003   1.7072901015963544E-002   4.5558221509879981E-002
  -6.3179284836550886E-003   2.3019685485713870E-002   4.4809467901334443E-002
  -4.5548025532421085E-003   5.5529986541839604E-003   4.2404214523666578E-002
  -4.9821218113706156E-003   7.8393411802992197E-003   4.2739260436760934E-002
  -5.4094410694991123E-003   1.1828499399246337E-002   4.3344304268092840E-002
  -5.8367603276274719E-003   1.7520473311024933E-002   4.4219346017661969E-002
  -6.2640795857560605E-003   2.4915262915635283E-002   4.5364385685468411E-002
  -5.4347824574019817E-003   4.8573780182865345E-003   3.6211017569367281E-002
  -5.4882538243713822E-003   6.9913144424513518E-003   3.8350227333553706E-002
  -5.5417251913407800E-003   1.1361536971718038E-002   4.0967134961820778E-002
  -5.5951965583102333E-003   1.7968045606086627E-002   4.4061740454168705E-002
  -5.6486679252795782E-003   2.6810840345556475E-002   4.7634043810597271E-002
  -6.5839993823584297E-003   4.1617573823891085E-003   2.9598679306982678E-002
  -6.0559229123253178E-003   6.1432877046034839E-003   3.4075523334530899E-002
  -5.5278464422922335E-003   1.0894574544189961E-002   3.9237765172003503E-002
  -4.9997699722590938E-003   1.8415617901148207E-002   4.5085404819399655E-002
  -4.4716935022259818E-003   2.8706417775477888E-002   5.1618442276720522E-002
  -7.7231703110310357E-002   2.0752745180081023E-002   2.7087439909332101E-002
  -7.4034569798413330E-002   2.0817348313680206E-002   2.7769895362992347E-002
  -7.0837436486516386E-002   2.0653023164340020E-002   2.8347282350959374E-002
  -6.7640303174619332E-002   2.0259769732060489E-002   2.8819600873233028E-002
  -6.4443169862722360E-002   1.9637588016841512E-002   2.9186850929813324E-002
  -8.2686238764702435E-002   2.3803575497609808E-002   2.1965965435124579E-002
  -7.9472671404984124E-002   2.3204897129182417E-002   2.1761311394442789E-002
  -7.6259104045265785E-002   2.2572422598568065E-002   2.1694593915096982E-002
  -7.3045536685547446E-002   2.1906151905766807E-002   2.1765812997087283E-002
  -6.9831969325829135E-002   2.1206085050778700E-002   2.1974968640413262E-002
  -8.9018024204388174E-002   2.6854405815138621E-002   1.6083643398514300E-002
  -8.5545017769819223E-002   2.5592445944684572E-002   1.5187011984242854E-002
  -8.2072011335250245E-002   2.4491822032796200E-002   1.4671322158336657E-002
  -7.8599004900681294E-002   2.3552534079473185E-002   1.4536573920795843E-002
  -7.5125998466112329E-002   2.2774582084715916E-002   1.4782767271620215E-002
  -9.6227059429367420E-002   2.9905236132667420E-002   9.4404737995011472E-003
  -9.2251608892918530E-002   2.7979994760186921E-002   8.0469971323925381E-003
  -8.8276158356469625E-002   2.6411221467024400E-002   7.2774670806784441E-003
  -8.4300707820020762E-002   2.5198916253179753E-002   7.1318836443589979E-003
  -8.0325257283571871E-002   2.4343079118653008E-002   7.6102468234342559E-003
 -0.10431334443964024        3.2956066450196220E-002   2.0364566380852711E-003
  -9.9592444774282196E-002   3.0367543575689049E-002   3.4126683889190712E-004
  -9.4871545108924038E-002   2.8330620901252379E-002  -4.8697131787761583E-004
  -9.0150645443565935E-002   2.6845298426885850E-002  -4.4825783222328386E-004
  -8.5429745778207833E-002   2.5911576152590210E-002   4.5740729585508344E-004
  -6.4443169862722360E-002   1.9637588016841512E-002   2.9186850929813324E-002
  -6.2596606005886637E-002   1.8906051066806706E-002   2.8884396816318630E-002
  -6.0750042149050859E-002   1.8184731930079245E-002   2.8744409829186190E-002
  -5.8903478292215136E-002   1.7473630606658894E-002   2.8766889968415754E-002
  -5.7056914435379386E-002   1.6772747096546192E-002   2.8951837234007516E-002
  -6.9831969325829135E-002   2.1206085050778700E-002   2.1974968640413262E-002
  -6.7830042904875334E-002   2.0483181934585287E-002   2.1759351014040113E-002
  -6.5828116483921451E-002   1.9748402458168349E-002   2.1691991389541157E-002
  -6.3826190062967650E-002   1.9001746621527597E-002   2.1772889766916027E-002
  -6.1824263642013766E-002   1.8243214424663534E-002   2.2002046146165327E-002
  -7.5125998466112329E-002   2.2774582084715916E-002   1.4782767271620215E-002
  -7.2982918605528385E-002   2.2060312802363952E-002   1.4631891958837587E-002
  -7.0839838744944511E-002   2.1312072986257563E-002   1.4615065523441002E-002
  -6.8696758884360581E-002   2.0529862636396411E-002   1.4732287965430572E-002
  -6.6553679023776680E-002   1.9713681752780876E-002   1.4983559284805950E-002
  -8.0325257283571871E-002   2.4343079118653008E-002   7.6102468234342559E-003
  -7.8055233107845942E-002   2.3637443670142769E-002   7.5020196507111399E-003
  -7.5785208932119985E-002   2.2875743514346694E-002   7.5136322308860214E-003
  -7.3515184756394028E-002   2.2057978651265252E-002   7.6450845639590946E-003
  -7.1245160580668113E-002   2.1184149080898274E-002   7.8963766499298392E-003
  -8.5429745778207833E-002   2.5911576152590210E-002   4.5740729585508344E-004
  -8.3046986411827894E-002   2.5214574537921364E-002   3.6973408966051169E-004
  -8.0664227045447956E-002   2.4439414042435853E-002   3.8769151187609263E-004
  -7.8281467679068018E-002   2.3586094666133837E-002   5.1127956250143075E-004
  -7.5898708312688079E-002   2.2654616409015560E-002   7.4049824153687993E-004
  -5.7056914435379386E-002   1.6772747096546192E-002   2.8951837234007516E-002
  -5.4409869176437420E-002   1.6073627548514380E-002   2.8551982860613057E-002
  -5.1762823917495537E-002   1.5367818111337014E-002   2.8362630731400912E-002
  -4.9115778658553613E-002   1.4655318785014162E-002   2.8383780846371290E-002
  -4.6468733399611689E-002   1.3936129569545874E-002   2.8615433205524010E-002
  -6.1824263642013766E-002   1.8243214424663534E-002   2.2002046146165327E-002
  -5.8972026849414008E-002   1.7477190690708605E-002   2.1629916585566039E-002
  -5.6119790056814264E-002   1.6708060242795766E-002   2.1457667848099854E-002
  -5.3267553264214493E-002   1.5935823080925161E-002   2.1485299933767146E-002
  -5.0415316471614763E-002   1.5160479205096888E-002   2.1712812842567430E-002
  -6.6553679023776680E-002   1.9713681752780876E-002   1.4983559284805950E-002
  -6.3506872118568244E-002   1.8880753832902775E-002   1.4642737712189755E-002
  -6.0460065213359879E-002   1.8048302374254692E-002   1.4491175541657277E-002
  -5.7413258308151485E-002   1.7216327376836385E-002   1.4528872773209026E-002
  -5.4366451402943085E-002   1.6384828840648152E-002   1.4755829406844820E-002
  -7.1245160580668113E-002   2.1184149080898274E-002   7.8963766499298392E-003
  -6.8014404983900281E-002   2.0284316975096944E-002   7.5904462404840188E-003
  -6.4783649387132464E-002   1.9388544505713253E-002   7.4631538120731710E-003
  -6.1552893790364618E-002   1.8496831672747939E-002   7.5144993646970729E-003
  -5.8322138193596829E-002   1.7609178476199236E-002   7.7444828983558138E-003
  -7.5898708312688079E-002   2.2654616409015560E-002   7.4049824153687993E-004
  -7.2494625445409966E-002   2.1687880117291281E-002   4.7304217044941144E-004
  -6.9090542578131908E-002   2.0728786637172480E-002   3.7360265934760495E-004
  -6.5686459710853851E-002   1.9777335968658633E-002   4.4217970823137720E-004
  -6.2282376843575737E-002   1.8833528111750431E-002   6.7877331710086697E-004
  -4.6468733399611689E-002   1.3936129569545874E-002   2.8615433205524010E-002
  -4.4279943277336448E-002   1.3207667969695636E-002   2.8210880551891360E-002
  -4.2091153155061220E-002   1.2467351490228221E-002   2.7916190932461477E-002
  -3.9902363032785958E-002   1.1715180131143022E-002   2.7731364347234513E-002
  -3.7713572910510779E-002   1.0951153892439947E-002   2.7656400796210567E-002
  -5.0415316471614763E-002   1.5160479205096888E-002   2.1712812842567430E-002
  -4.8102979741273436E-002   1.4384245138616886E-002   2.1312127629991046E-002
  -4.5790643010932108E-002   1.3609337404791283E-002   2.1048672599343871E-002
  -4.3478306280590823E-002   1.2835756003620462E-002   2.0922447750625989E-002
  -4.1165969550249454E-002   1.2063500935103777E-002   2.0933453083837317E-002
  -5.4366451402943085E-002   1.6384828840648152E-002   1.4755829406844820E-002
  -5.1903200916809354E-002   1.5560822307537914E-002   1.4372192847596790E-002
  -4.9439950430675589E-002   1.4751323319354338E-002   1.4153153618004545E-002
  -4.6976699944541803E-002   1.3956331876097678E-002   1.4098711718067852E-002
  -4.4513449458408079E-002   1.3175847977767663E-002   1.4208867147786935E-002
  -5.8322138193596829E-002   1.7609178476199236E-002   7.7444828983558138E-003
  -5.5680606803944217E-002   1.6737399476458831E-002   7.3910762047083335E-003
  -5.3039075414291606E-002   1.5893309233917564E-002   7.2296339884432102E-003
  -5.0397544024639064E-002   1.5076907748575005E-002   7.2601562495597976E-003
  -4.7756012634986390E-002   1.4288195020431743E-002   7.4826429880587436E-003
  -6.2282376843575737E-002   1.8833528111750431E-002   6.7877331710086697E-004
  -5.9435197402677997E-002   1.7913976645379970E-002   3.6877770132637266E-004
  -5.6588017961780201E-002   1.7035295148480567E-002   2.7811371066033264E-004
  -5.3740838520882461E-002   1.6197483621052750E-002   4.0678134510244157E-004
  -5.0893659079984666E-002   1.5400542063095379E-002   7.5478060465317132E-004
  -3.7713572910510779E-002   1.0951153892439947E-002   2.7656400796210567E-002
  -3.5291934754210386E-002   1.0191192195228627E-002   2.7095834885495051E-002
  -3.2870296597910090E-002   9.4512144606175019E-003   2.6673194042784676E-002
  -3.0448658441609759E-002   8.7312206886073010E-003   2.6388478268079690E-002
  -2.8027020285309401E-002   8.0312108791975589E-003   2.6241687561380456E-002
  -4.1165969550249454E-002   1.2063500935103777E-002   2.0933453083837317E-002
  -3.8619994866489732E-002   1.1294468257647738E-002   2.0476766570189375E-002
  -3.6074020182729982E-002   1.0530554029657802E-002   2.0130828043454785E-002
  -3.3528045498970267E-002   9.7717582511346185E-003   1.9895637503633615E-002
  -3.0982070815210511E-002   9.0180809220776759E-003   1.9771194950725879E-002
  -4.4513449458408079E-002   1.3175847977767663E-002   1.4208867147786935E-002
  -4.1870315328280894E-002   1.2397744320066989E-002   1.3841194518072197E-002
  -3.9227181198153702E-002   1.1609893598698420E-002   1.3557092794179021E-002
  -3.6584047068026482E-002   1.0812295813661988E-002   1.3356561976107170E-002
  -3.3940912937899304E-002   1.0004950964957571E-002   1.3239602063857048E-002
  -4.7756012634986390E-002   1.4288195020431743E-002   7.4826429880587436E-003
  -4.5042896139583843E-002   1.3501020382486115E-002   7.1891187291432818E-003
  -4.2329779644181192E-002   1.2689233167738546E-002   6.9519882949575194E-003
  -3.9616663148778611E-002   1.1852833376189109E-002   6.7712516855008200E-003
  -3.6903546653376001E-002   1.0991821007837688E-002   6.6469089007737403E-003
  -5.0893659079984666E-002   1.5400542063095379E-002   7.5478060465317132E-004
  -4.8137737300398609E-002   1.4604296444905573E-002   5.2053920340272564E-004
  -4.5381815520812552E-002   1.3768572736779283E-002   3.1551454578929161E-004
  -4.2625893741226523E-002   1.2893370938716162E-002   1.3970663181381987E-004
  -3.9869971961640438E-002   1.1978691050717805E-002  -6.8845385242655155E-006
  -2.8027020285309401E-002   8.0312108791975589E-003   2.6241687561380456E-002
  -2.5690497215020952E-002   7.3123602181131009E-003   2.5667788604710529E-002
  -2.3353974144732365E-002   6.5358438910775862E-003   2.5037167651960124E-002
  -2.1017451074443846E-002   5.7016618980917227E-003   2.4349824703128992E-002
  -1.8680928004155328E-002   4.8098142391552745E-003   2.3605759758217104E-002
  -3.0982070815210511E-002   9.0180809220776759E-003   1.9771194950725879E-002
  -2.8683284727667097E-002   8.2665161769810425E-003   1.9183209940855872E-002
  -2.6384498640123683E-002   7.5140581503386206E-003   1.8576472961576385E-002
  -2.4085712552580296E-002   6.7607068421509792E-003   1.7950984012887486E-002
  -2.1786926465036910E-002   6.0064622524169664E-003   1.7306743094789023E-002
  -3.3940912937899304E-002   1.0004950964957571E-002   1.3239602063857048E-002
  -3.1641893806429788E-002   9.2206721358490951E-003   1.2694303385191563E-002
  -2.9342874674960225E-002   8.4922724095995716E-003   1.2168222763788011E-002
  -2.7043855543490713E-002   7.8197517862095764E-003   1.1661360199646177E-002
  -2.4744836412021146E-002   7.2031102656784363E-003   1.1173715692766178E-002
  -3.6903546653376001E-002   1.0991821007837688E-002   6.6469089007737403E-003
  -3.4566324451308951E-002   1.0174828094716981E-002   6.2010689377177894E-003
  -3.2229102249242053E-002   9.4704866688607864E-003   5.8124170585949105E-003
  -2.9891880047175048E-002   8.8787967302681146E-003   5.4809532634054331E-003
  -2.7554657845108108E-002   8.3997582789399616E-003   5.2066775521483200E-003
  -3.9869971961640438E-002   1.1978691050717805E-002  -6.8845385242655155E-006
  -3.7456576662304730E-002   1.1128984053585311E-002  -2.9649340156556736E-004
  -3.5043181362969078E-002   1.0448700928121391E-002  -4.9094415400247060E-004
  -3.2629786063633454E-002   9.9378416743270553E-003  -5.9023679583526667E-004
  -3.0216390764297718E-002   9.5964062922015980E-003  -5.9437132706363638E-004
  -1.8680928004155328E-002   4.8098142391552745E-003   2.3605759758217104E-002
  -1.5656695848706104E-002   4.0788003166737363E-003   2.4392911914480231E-002
  -1.2632463693256879E-002   3.7271195330519924E-003   2.5654115891362184E-002
  -9.6082315378076683E-003   3.7547718882908893E-003   2.7389371688862796E-002
  -6.5839993823584297E-003   4.1617573823891085E-003   2.9598679306982678E-002
  -2.1786926465036910E-002   6.0064622524169664E-003   1.7306743094789023E-002
  -1.8558083395749159E-002   5.3427580437123146E-003   1.8253196449400932E-002
  -1.5329240326461463E-002   4.8610278786114791E-003   1.9134819811071069E-002
  -1.2100397257173774E-002   4.5612717571141964E-003   1.9951613179799155E-002
  -8.8715541878861270E-003   4.4434896792210354E-003   2.0703576555585412E-002
  -2.4744836412021146E-002   7.2031102656784363E-003   1.1173715692766178E-002
  -2.1850264242455744E-002   6.6067157707510593E-003   1.2082111150470864E-002
  -1.8955692072890357E-002   5.9949362241711601E-003   1.2386794801672540E-002
  -1.6061119903325014E-002   5.3677716259379407E-003   1.2087766646371581E-002
  -1.3166547733759623E-002   4.7252219760527403E-003   1.1185026684568111E-002
  -2.7554657845108108E-002   8.3997582789399616E-003   5.2066775521483200E-003
  -2.5533238388825825E-002   7.8706734977895543E-003   5.8796560176895760E-003
  -2.3511818932543532E-002   7.1288445697301889E-003   5.4100408631665362E-003
  -2.1490399476261229E-002   6.1742714947623546E-003   3.7978320885805605E-003
  -1.9468980019978960E-002   5.0069542728851113E-003   1.0430296939304001E-003
  -3.0216390764297718E-002   9.5964062922015980E-003  -5.9437132706363638E-004
  -2.9607005834859312E-002   9.1346312248280492E-003  -3.5416894894269024E-004
  -2.8997620905420962E-002   8.2627529152899948E-003  -1.7954420044467845E-003
  -2.8388235975982584E-002   6.9807713635857971E-003  -4.9181904935746076E-003
  -2.7778851046544206E-002   5.2886865697165941E-003  -9.7224144163267079E-003
  -6.5839993823584297E-003   4.1617573823891085E-003   2.9598679306982678E-002
  -6.0559229123253178E-003   6.1432877046034839E-003   3.4075523334530899E-002
  -5.5278464422922335E-003   1.0894574544189961E-002   3.9237765172003503E-002
  -4.9997699722590938E-003   1.8415617901148207E-002   4.5085404819399655E-002
  -4.4716935022259818E-003   2.8706417775477888E-002   5.1618442276720522E-002
  -8.8715541878861270E-003   4.4434896792210354E-003   2.0703576555585412E-002
  -7.5858350799681007E-003   5.6588698670045900E-003   2.5872280173308726E-002
  -6.3001159720501437E-003   9.3586005425374541E-003   3.1870871256877931E-002
  -5.0143968641322562E-003   1.5542681705820183E-002   3.8699349806292110E-002
  -3.7286777562141604E-003   2.4211113356851666E-002   4.6357715821552237E-002
  -1.3166547733759623E-002   4.7252219760527403E-003   1.1185026684568111E-002
  -1.0978696332035576E-002   5.1744520294054741E-003   1.6760183862844641E-002
  -8.7908449303115629E-003   7.8226265408847251E-003   2.3309718162887932E-002
  -6.6029935285875918E-003   1.2669745510491659E-002   3.0833629584698125E-002
  -4.4151421268635027E-003   1.9715808938225443E-002   3.9331918128274745E-002
  -1.9468980019978960E-002   5.0069542728851113E-003   1.0430296939304001E-003
  -1.6234506668527757E-002   4.6900341918061361E-003   6.7392344031385679E-003
  -1.3000033317076394E-002   6.2866525392324402E-003   1.3554305890033633E-002
  -9.7655599656250834E-003   9.7968093151632740E-003   2.1488244154616573E-002
  -6.5310866141738283E-003   1.5220504519599332E-002   3.0541049196888215E-002
  -2.7778851046544206E-002   5.2886865697165941E-003  -9.7224144163267079E-003
  -2.3353266089444435E-002   4.2056163542072422E-003  -4.1905682058108740E-003
  -1.8927681132344665E-002   4.7506785375793226E-003   2.6046344383148234E-003
  -1.4502096175245061E-002   6.9238731198357356E-003   1.0663193516049524E-002
  -1.0076511218145123E-002   1.0725200100972998E-002   1.9985109027392367E-002
 </DataArray>
 </PointData>
 </Piece>
 </UnstructuredGrid>
 </VTKFile>
