 <VTKFile type="UnstructuredGrid"  version="0.1"   >
 <UnstructuredGrid>
 <Piece  NumberOfPoints="          1600 "  NumberOfCells="         1024 ">
 <Points>
 <DataArray  type="Float64" NumberOfComponents="3"  format="ascii" >
   0.0000000000000000        0.0000000000000000        0.0000000000000000     
   3.1250000000000000E-002   0.0000000000000000        0.0000000000000000     
   6.2500000000000000E-002   0.0000000000000000        0.0000000000000000     
   9.3750000000000000E-002   0.0000000000000000        0.0000000000000000     
  0.12500000000000000        0.0000000000000000        0.0000000000000000     
   0.0000000000000000        3.1250000000000000E-002   0.0000000000000000     
   3.1250000000000000E-002   3.1250000000000000E-002   0.0000000000000000     
   6.2500000000000000E-002   3.1250000000000000E-002   0.0000000000000000     
   9.3750000000000000E-002   3.1250000000000000E-002   0.0000000000000000     
  0.12500000000000000        3.1250000000000000E-002   0.0000000000000000     
   0.0000000000000000        6.2500000000000000E-002   0.0000000000000000     
   3.1250000000000000E-002   6.2500000000000000E-002   0.0000000000000000     
   6.2500000000000000E-002   6.2500000000000000E-002   0.0000000000000000     
   9.3750000000000000E-002   6.2500000000000000E-002   0.0000000000000000     
  0.12500000000000000        6.2500000000000000E-002   0.0000000000000000     
   0.0000000000000000        9.3750000000000000E-002   0.0000000000000000     
   3.1250000000000000E-002   9.3750000000000000E-002   0.0000000000000000     
   6.2500000000000000E-002   9.3750000000000000E-002   0.0000000000000000     
   9.3750000000000000E-002   9.3750000000000000E-002   0.0000000000000000     
  0.12500000000000000        9.3750000000000000E-002   0.0000000000000000     
   0.0000000000000000       0.12500000000000000        0.0000000000000000     
   3.1250000000000000E-002  0.12500000000000000        0.0000000000000000     
   6.2500000000000000E-002  0.12500000000000000        0.0000000000000000     
   9.3750000000000000E-002  0.12500000000000000        0.0000000000000000     
  0.12500000000000000       0.12500000000000000        0.0000000000000000     
  0.12500000000000000        0.0000000000000000        0.0000000000000000     
  0.15625000000000000        0.0000000000000000        0.0000000000000000     
  0.18750000000000000        0.0000000000000000        0.0000000000000000     
  0.21875000000000000        0.0000000000000000        0.0000000000000000     
  0.25000000000000000        0.0000000000000000        0.0000000000000000     
  0.12500000000000000        3.1250000000000000E-002   0.0000000000000000     
  0.15625000000000000        3.1250000000000000E-002   0.0000000000000000     
  0.18750000000000000        3.1250000000000000E-002   0.0000000000000000     
  0.21875000000000000        3.1250000000000000E-002   0.0000000000000000     
  0.25000000000000000        3.1250000000000000E-002   0.0000000000000000     
  0.12500000000000000        6.2500000000000000E-002   0.0000000000000000     
  0.15625000000000000        6.2500000000000000E-002   0.0000000000000000     
  0.18750000000000000        6.2500000000000000E-002   0.0000000000000000     
  0.21875000000000000        6.2500000000000000E-002   0.0000000000000000     
  0.25000000000000000        6.2500000000000000E-002   0.0000000000000000     
  0.12500000000000000        9.3750000000000000E-002   0.0000000000000000     
  0.15625000000000000        9.3750000000000000E-002   0.0000000000000000     
  0.18750000000000000        9.3750000000000000E-002   0.0000000000000000     
  0.21875000000000000        9.3750000000000000E-002   0.0000000000000000     
  0.25000000000000000        9.3750000000000000E-002   0.0000000000000000     
  0.12500000000000000       0.12500000000000000        0.0000000000000000     
  0.15625000000000000       0.12500000000000000        0.0000000000000000     
  0.18750000000000000       0.12500000000000000        0.0000000000000000     
  0.21875000000000000       0.12500000000000000        0.0000000000000000     
  0.25000000000000000       0.12500000000000000        0.0000000000000000     
  0.25000000000000000        0.0000000000000000        0.0000000000000000     
  0.28125000000000000        0.0000000000000000        0.0000000000000000     
  0.31250000000000000        0.0000000000000000        0.0000000000000000     
  0.34375000000000000        0.0000000000000000        0.0000000000000000     
  0.37500000000000000        0.0000000000000000        0.0000000000000000     
  0.25000000000000000        3.1250000000000000E-002   0.0000000000000000     
  0.28125000000000000        3.1250000000000000E-002   0.0000000000000000     
  0.31250000000000000        3.1250000000000000E-002   0.0000000000000000     
  0.34375000000000000        3.1250000000000000E-002   0.0000000000000000     
  0.37500000000000000        3.1250000000000000E-002   0.0000000000000000     
  0.25000000000000000        6.2500000000000000E-002   0.0000000000000000     
  0.28125000000000000        6.2500000000000000E-002   0.0000000000000000     
  0.31250000000000000        6.2500000000000000E-002   0.0000000000000000     
  0.34375000000000000        6.2500000000000000E-002   0.0000000000000000     
  0.37500000000000000        6.2500000000000000E-002   0.0000000000000000     
  0.25000000000000000        9.3750000000000000E-002   0.0000000000000000     
  0.28125000000000000        9.3750000000000000E-002   0.0000000000000000     
  0.31250000000000000        9.3750000000000000E-002   0.0000000000000000     
  0.34375000000000000        9.3750000000000000E-002   0.0000000000000000     
  0.37500000000000000        9.3750000000000000E-002   0.0000000000000000     
  0.25000000000000000       0.12500000000000000        0.0000000000000000     
  0.28125000000000000       0.12500000000000000        0.0000000000000000     
  0.31250000000000000       0.12500000000000000        0.0000000000000000     
  0.34375000000000000       0.12500000000000000        0.0000000000000000     
  0.37500000000000000       0.12500000000000000        0.0000000000000000     
  0.37500000000000000        0.0000000000000000        0.0000000000000000     
  0.40625000000000000        0.0000000000000000        0.0000000000000000     
  0.43750000000000000        0.0000000000000000        0.0000000000000000     
  0.46875000000000000        0.0000000000000000        0.0000000000000000     
  0.50000000000000000        0.0000000000000000        0.0000000000000000     
  0.37500000000000000        3.1250000000000000E-002   0.0000000000000000     
  0.40625000000000000        3.1250000000000000E-002   0.0000000000000000     
  0.43750000000000000        3.1250000000000000E-002   0.0000000000000000     
  0.46875000000000000        3.1250000000000000E-002   0.0000000000000000     
  0.50000000000000000        3.1250000000000000E-002   0.0000000000000000     
  0.37500000000000000        6.2500000000000000E-002   0.0000000000000000     
  0.40625000000000000        6.2500000000000000E-002   0.0000000000000000     
  0.43750000000000000        6.2500000000000000E-002   0.0000000000000000     
  0.46875000000000000        6.2500000000000000E-002   0.0000000000000000     
  0.50000000000000000        6.2500000000000000E-002   0.0000000000000000     
  0.37500000000000000        9.3750000000000000E-002   0.0000000000000000     
  0.40625000000000000        9.3750000000000000E-002   0.0000000000000000     
  0.43750000000000000        9.3750000000000000E-002   0.0000000000000000     
  0.46875000000000000        9.3750000000000000E-002   0.0000000000000000     
  0.50000000000000000        9.3750000000000000E-002   0.0000000000000000     
  0.37500000000000000       0.12500000000000000        0.0000000000000000     
  0.40625000000000000       0.12500000000000000        0.0000000000000000     
  0.43750000000000000       0.12500000000000000        0.0000000000000000     
  0.46875000000000000       0.12500000000000000        0.0000000000000000     
  0.50000000000000000       0.12500000000000000        0.0000000000000000     
  0.50000000000000000        0.0000000000000000        0.0000000000000000     
  0.53125000000000000        0.0000000000000000        0.0000000000000000     
  0.56250000000000000        0.0000000000000000        0.0000000000000000     
  0.59375000000000000        0.0000000000000000        0.0000000000000000     
  0.62500000000000000        0.0000000000000000        0.0000000000000000     
  0.50000000000000000        3.1250000000000000E-002   0.0000000000000000     
  0.53125000000000000        3.1250000000000000E-002   0.0000000000000000     
  0.56250000000000000        3.1250000000000000E-002   0.0000000000000000     
  0.59375000000000000        3.1250000000000000E-002   0.0000000000000000     
  0.62500000000000000        3.1250000000000000E-002   0.0000000000000000     
  0.50000000000000000        6.2500000000000000E-002   0.0000000000000000     
  0.53125000000000000        6.2500000000000000E-002   0.0000000000000000     
  0.56250000000000000        6.2500000000000000E-002   0.0000000000000000     
  0.59375000000000000        6.2500000000000000E-002   0.0000000000000000     
  0.62500000000000000        6.2500000000000000E-002   0.0000000000000000     
  0.50000000000000000        9.3750000000000000E-002   0.0000000000000000     
  0.53125000000000000        9.3750000000000000E-002   0.0000000000000000     
  0.56250000000000000        9.3750000000000000E-002   0.0000000000000000     
  0.59375000000000000        9.3750000000000000E-002   0.0000000000000000     
  0.62500000000000000        9.3750000000000000E-002   0.0000000000000000     
  0.50000000000000000       0.12500000000000000        0.0000000000000000     
  0.53125000000000000       0.12500000000000000        0.0000000000000000     
  0.56250000000000000       0.12500000000000000        0.0000000000000000     
  0.59375000000000000       0.12500000000000000        0.0000000000000000     
  0.62500000000000000       0.12500000000000000        0.0000000000000000     
  0.62500000000000000        0.0000000000000000        0.0000000000000000     
  0.65625000000000000        0.0000000000000000        0.0000000000000000     
  0.68750000000000000        0.0000000000000000        0.0000000000000000     
  0.71875000000000000        0.0000000000000000        0.0000000000000000     
  0.75000000000000000        0.0000000000000000        0.0000000000000000     
  0.62500000000000000        3.1250000000000000E-002   0.0000000000000000     
  0.65625000000000000        3.1250000000000000E-002   0.0000000000000000     
  0.68750000000000000        3.1250000000000000E-002   0.0000000000000000     
  0.71875000000000000        3.1250000000000000E-002   0.0000000000000000     
  0.75000000000000000        3.1250000000000000E-002   0.0000000000000000     
  0.62500000000000000        6.2500000000000000E-002   0.0000000000000000     
  0.65625000000000000        6.2500000000000000E-002   0.0000000000000000     
  0.68750000000000000        6.2500000000000000E-002   0.0000000000000000     
  0.71875000000000000        6.2500000000000000E-002   0.0000000000000000     
  0.75000000000000000        6.2500000000000000E-002   0.0000000000000000     
  0.62500000000000000        9.3750000000000000E-002   0.0000000000000000     
  0.65625000000000000        9.3750000000000000E-002   0.0000000000000000     
  0.68750000000000000        9.3750000000000000E-002   0.0000000000000000     
  0.71875000000000000        9.3750000000000000E-002   0.0000000000000000     
  0.75000000000000000        9.3750000000000000E-002   0.0000000000000000     
  0.62500000000000000       0.12500000000000000        0.0000000000000000     
  0.65625000000000000       0.12500000000000000        0.0000000000000000     
  0.68750000000000000       0.12500000000000000        0.0000000000000000     
  0.71875000000000000       0.12500000000000000        0.0000000000000000     
  0.75000000000000000       0.12500000000000000        0.0000000000000000     
  0.75000000000000000        0.0000000000000000        0.0000000000000000     
  0.78125000000000000        0.0000000000000000        0.0000000000000000     
  0.81250000000000000        0.0000000000000000        0.0000000000000000     
  0.84375000000000000        0.0000000000000000        0.0000000000000000     
  0.87500000000000000        0.0000000000000000        0.0000000000000000     
  0.75000000000000000        3.1250000000000000E-002   0.0000000000000000     
  0.78125000000000000        3.1250000000000000E-002   0.0000000000000000     
  0.81250000000000000        3.1250000000000000E-002   0.0000000000000000     
  0.84375000000000000        3.1250000000000000E-002   0.0000000000000000     
  0.87500000000000000        3.1250000000000000E-002   0.0000000000000000     
  0.75000000000000000        6.2500000000000000E-002   0.0000000000000000     
  0.78125000000000000        6.2500000000000000E-002   0.0000000000000000     
  0.81250000000000000        6.2500000000000000E-002   0.0000000000000000     
  0.84375000000000000        6.2500000000000000E-002   0.0000000000000000     
  0.87500000000000000        6.2500000000000000E-002   0.0000000000000000     
  0.75000000000000000        9.3750000000000000E-002   0.0000000000000000     
  0.78125000000000000        9.3750000000000000E-002   0.0000000000000000     
  0.81250000000000000        9.3750000000000000E-002   0.0000000000000000     
  0.84375000000000000        9.3750000000000000E-002   0.0000000000000000     
  0.87500000000000000        9.3750000000000000E-002   0.0000000000000000     
  0.75000000000000000       0.12500000000000000        0.0000000000000000     
  0.78125000000000000       0.12500000000000000        0.0000000000000000     
  0.81250000000000000       0.12500000000000000        0.0000000000000000     
  0.84375000000000000       0.12500000000000000        0.0000000000000000     
  0.87500000000000000       0.12500000000000000        0.0000000000000000     
  0.87500000000000000        0.0000000000000000        0.0000000000000000     
  0.90625000000000000        0.0000000000000000        0.0000000000000000     
  0.93750000000000000        0.0000000000000000        0.0000000000000000     
  0.96875000000000000        0.0000000000000000        0.0000000000000000     
   1.0000000000000000        0.0000000000000000        0.0000000000000000     
  0.87500000000000000        3.1250000000000000E-002   0.0000000000000000     
  0.90625000000000000        3.1250000000000000E-002   0.0000000000000000     
  0.93750000000000000        3.1250000000000000E-002   0.0000000000000000     
  0.96875000000000000        3.1250000000000000E-002   0.0000000000000000     
   1.0000000000000000        3.1250000000000000E-002   0.0000000000000000     
  0.87500000000000000        6.2500000000000000E-002   0.0000000000000000     
  0.90625000000000000        6.2500000000000000E-002   0.0000000000000000     
  0.93750000000000000        6.2500000000000000E-002   0.0000000000000000     
  0.96875000000000000        6.2500000000000000E-002   0.0000000000000000     
   1.0000000000000000        6.2500000000000000E-002   0.0000000000000000     
  0.87500000000000000        9.3750000000000000E-002   0.0000000000000000     
  0.90625000000000000        9.3750000000000000E-002   0.0000000000000000     
  0.93750000000000000        9.3750000000000000E-002   0.0000000000000000     
  0.96875000000000000        9.3750000000000000E-002   0.0000000000000000     
   1.0000000000000000        9.3750000000000000E-002   0.0000000000000000     
  0.87500000000000000       0.12500000000000000        0.0000000000000000     
  0.90625000000000000       0.12500000000000000        0.0000000000000000     
  0.93750000000000000       0.12500000000000000        0.0000000000000000     
  0.96875000000000000       0.12500000000000000        0.0000000000000000     
   1.0000000000000000       0.12500000000000000        0.0000000000000000     
   0.0000000000000000       0.12500000000000000        0.0000000000000000     
   3.1250000000000000E-002  0.12500000000000000        0.0000000000000000     
   6.2500000000000000E-002  0.12500000000000000        0.0000000000000000     
   9.3750000000000000E-002  0.12500000000000000        0.0000000000000000     
  0.12500000000000000       0.12500000000000000        0.0000000000000000     
   0.0000000000000000       0.15625000000000000        0.0000000000000000     
   3.1250000000000000E-002  0.15625000000000000        0.0000000000000000     
   6.2500000000000000E-002  0.15625000000000000        0.0000000000000000     
   9.3750000000000000E-002  0.15625000000000000        0.0000000000000000     
  0.12500000000000000       0.15625000000000000        0.0000000000000000     
   0.0000000000000000       0.18750000000000000        0.0000000000000000     
   3.1250000000000000E-002  0.18750000000000000        0.0000000000000000     
   6.2500000000000000E-002  0.18750000000000000        0.0000000000000000     
   9.3750000000000000E-002  0.18750000000000000        0.0000000000000000     
  0.12500000000000000       0.18750000000000000        0.0000000000000000     
   0.0000000000000000       0.21875000000000000        0.0000000000000000     
   3.1250000000000000E-002  0.21875000000000000        0.0000000000000000     
   6.2500000000000000E-002  0.21875000000000000        0.0000000000000000     
   9.3750000000000000E-002  0.21875000000000000        0.0000000000000000     
  0.12500000000000000       0.21875000000000000        0.0000000000000000     
   0.0000000000000000       0.25000000000000000        0.0000000000000000     
   3.1250000000000000E-002  0.25000000000000000        0.0000000000000000     
   6.2500000000000000E-002  0.25000000000000000        0.0000000000000000     
   9.3750000000000000E-002  0.25000000000000000        0.0000000000000000     
  0.12500000000000000       0.25000000000000000        0.0000000000000000     
  0.12500000000000000       0.12500000000000000        0.0000000000000000     
  0.15625000000000000       0.12500000000000000        0.0000000000000000     
  0.18750000000000000       0.12500000000000000        0.0000000000000000     
  0.21875000000000000       0.12500000000000000        0.0000000000000000     
  0.25000000000000000       0.12500000000000000        0.0000000000000000     
  0.12500000000000000       0.15625000000000000        0.0000000000000000     
  0.15625000000000000       0.15625000000000000        0.0000000000000000     
  0.18750000000000000       0.15625000000000000        0.0000000000000000     
  0.21875000000000000       0.15625000000000000        0.0000000000000000     
  0.25000000000000000       0.15625000000000000        0.0000000000000000     
  0.12500000000000000       0.18750000000000000        0.0000000000000000     
  0.15625000000000000       0.18750000000000000        0.0000000000000000     
  0.18750000000000000       0.18750000000000000        0.0000000000000000     
  0.21875000000000000       0.18750000000000000        0.0000000000000000     
  0.25000000000000000       0.18750000000000000        0.0000000000000000     
  0.12500000000000000       0.21875000000000000        0.0000000000000000     
  0.15625000000000000       0.21875000000000000        0.0000000000000000     
  0.18750000000000000       0.21875000000000000        0.0000000000000000     
  0.21875000000000000       0.21875000000000000        0.0000000000000000     
  0.25000000000000000       0.21875000000000000        0.0000000000000000     
  0.12500000000000000       0.25000000000000000        0.0000000000000000     
  0.15625000000000000       0.25000000000000000        0.0000000000000000     
  0.18750000000000000       0.25000000000000000        0.0000000000000000     
  0.21875000000000000       0.25000000000000000        0.0000000000000000     
  0.25000000000000000       0.25000000000000000        0.0000000000000000     
  0.25000000000000000       0.12500000000000000        0.0000000000000000     
  0.28125000000000000       0.12500000000000000        0.0000000000000000     
  0.31250000000000000       0.12500000000000000        0.0000000000000000     
  0.34375000000000000       0.12500000000000000        0.0000000000000000     
  0.37500000000000000       0.12500000000000000        0.0000000000000000     
  0.25000000000000000       0.15625000000000000        0.0000000000000000     
  0.28125000000000000       0.15625000000000000        0.0000000000000000     
  0.31250000000000000       0.15625000000000000        0.0000000000000000     
  0.34375000000000000       0.15625000000000000        0.0000000000000000     
  0.37500000000000000       0.15625000000000000        0.0000000000000000     
  0.25000000000000000       0.18750000000000000        0.0000000000000000     
  0.28125000000000000       0.18750000000000000        0.0000000000000000     
  0.31250000000000000       0.18750000000000000        0.0000000000000000     
  0.34375000000000000       0.18750000000000000        0.0000000000000000     
  0.37500000000000000       0.18750000000000000        0.0000000000000000     
  0.25000000000000000       0.21875000000000000        0.0000000000000000     
  0.28125000000000000       0.21875000000000000        0.0000000000000000     
  0.31250000000000000       0.21875000000000000        0.0000000000000000     
  0.34375000000000000       0.21875000000000000        0.0000000000000000     
  0.37500000000000000       0.21875000000000000        0.0000000000000000     
  0.25000000000000000       0.25000000000000000        0.0000000000000000     
  0.28125000000000000       0.25000000000000000        0.0000000000000000     
  0.31250000000000000       0.25000000000000000        0.0000000000000000     
  0.34375000000000000       0.25000000000000000        0.0000000000000000     
  0.37500000000000000       0.25000000000000000        0.0000000000000000     
  0.37500000000000000       0.12500000000000000        0.0000000000000000     
  0.40625000000000000       0.12500000000000000        0.0000000000000000     
  0.43750000000000000       0.12500000000000000        0.0000000000000000     
  0.46875000000000000       0.12500000000000000        0.0000000000000000     
  0.50000000000000000       0.12500000000000000        0.0000000000000000     
  0.37500000000000000       0.15625000000000000        0.0000000000000000     
  0.40625000000000000       0.15625000000000000        0.0000000000000000     
  0.43750000000000000       0.15625000000000000        0.0000000000000000     
  0.46875000000000000       0.15625000000000000        0.0000000000000000     
  0.50000000000000000       0.15625000000000000        0.0000000000000000     
  0.37500000000000000       0.18750000000000000        0.0000000000000000     
  0.40625000000000000       0.18750000000000000        0.0000000000000000     
  0.43750000000000000       0.18750000000000000        0.0000000000000000     
  0.46875000000000000       0.18750000000000000        0.0000000000000000     
  0.50000000000000000       0.18750000000000000        0.0000000000000000     
  0.37500000000000000       0.21875000000000000        0.0000000000000000     
  0.40625000000000000       0.21875000000000000        0.0000000000000000     
  0.43750000000000000       0.21875000000000000        0.0000000000000000     
  0.46875000000000000       0.21875000000000000        0.0000000000000000     
  0.50000000000000000       0.21875000000000000        0.0000000000000000     
  0.37500000000000000       0.25000000000000000        0.0000000000000000     
  0.40625000000000000       0.25000000000000000        0.0000000000000000     
  0.43750000000000000       0.25000000000000000        0.0000000000000000     
  0.46875000000000000       0.25000000000000000        0.0000000000000000     
  0.50000000000000000       0.25000000000000000        0.0000000000000000     
  0.50000000000000000       0.12500000000000000        0.0000000000000000     
  0.53125000000000000       0.12500000000000000        0.0000000000000000     
  0.56250000000000000       0.12500000000000000        0.0000000000000000     
  0.59375000000000000       0.12500000000000000        0.0000000000000000     
  0.62500000000000000       0.12500000000000000        0.0000000000000000     
  0.50000000000000000       0.15625000000000000        0.0000000000000000     
  0.53125000000000000       0.15625000000000000        0.0000000000000000     
  0.56250000000000000       0.15625000000000000        0.0000000000000000     
  0.59375000000000000       0.15625000000000000        0.0000000000000000     
  0.62500000000000000       0.15625000000000000        0.0000000000000000     
  0.50000000000000000       0.18750000000000000        0.0000000000000000     
  0.53125000000000000       0.18750000000000000        0.0000000000000000     
  0.56250000000000000       0.18750000000000000        0.0000000000000000     
  0.59375000000000000       0.18750000000000000        0.0000000000000000     
  0.62500000000000000       0.18750000000000000        0.0000000000000000     
  0.50000000000000000       0.21875000000000000        0.0000000000000000     
  0.53125000000000000       0.21875000000000000        0.0000000000000000     
  0.56250000000000000       0.21875000000000000        0.0000000000000000     
  0.59375000000000000       0.21875000000000000        0.0000000000000000     
  0.62500000000000000       0.21875000000000000        0.0000000000000000     
  0.50000000000000000       0.25000000000000000        0.0000000000000000     
  0.53125000000000000       0.25000000000000000        0.0000000000000000     
  0.56250000000000000       0.25000000000000000        0.0000000000000000     
  0.59375000000000000       0.25000000000000000        0.0000000000000000     
  0.62500000000000000       0.25000000000000000        0.0000000000000000     
  0.62500000000000000       0.12500000000000000        0.0000000000000000     
  0.65625000000000000       0.12500000000000000        0.0000000000000000     
  0.68750000000000000       0.12500000000000000        0.0000000000000000     
  0.71875000000000000       0.12500000000000000        0.0000000000000000     
  0.75000000000000000       0.12500000000000000        0.0000000000000000     
  0.62500000000000000       0.15625000000000000        0.0000000000000000     
  0.65625000000000000       0.15625000000000000        0.0000000000000000     
  0.68750000000000000       0.15625000000000000        0.0000000000000000     
  0.71875000000000000       0.15625000000000000        0.0000000000000000     
  0.75000000000000000       0.15625000000000000        0.0000000000000000     
  0.62500000000000000       0.18750000000000000        0.0000000000000000     
  0.65625000000000000       0.18750000000000000        0.0000000000000000     
  0.68750000000000000       0.18750000000000000        0.0000000000000000     
  0.71875000000000000       0.18750000000000000        0.0000000000000000     
  0.75000000000000000       0.18750000000000000        0.0000000000000000     
  0.62500000000000000       0.21875000000000000        0.0000000000000000     
  0.65625000000000000       0.21875000000000000        0.0000000000000000     
  0.68750000000000000       0.21875000000000000        0.0000000000000000     
  0.71875000000000000       0.21875000000000000        0.0000000000000000     
  0.75000000000000000       0.21875000000000000        0.0000000000000000     
  0.62500000000000000       0.25000000000000000        0.0000000000000000     
  0.65625000000000000       0.25000000000000000        0.0000000000000000     
  0.68750000000000000       0.25000000000000000        0.0000000000000000     
  0.71875000000000000       0.25000000000000000        0.0000000000000000     
  0.75000000000000000       0.25000000000000000        0.0000000000000000     
  0.75000000000000000       0.12500000000000000        0.0000000000000000     
  0.78125000000000000       0.12500000000000000        0.0000000000000000     
  0.81250000000000000       0.12500000000000000        0.0000000000000000     
  0.84375000000000000       0.12500000000000000        0.0000000000000000     
  0.87500000000000000       0.12500000000000000        0.0000000000000000     
  0.75000000000000000       0.15625000000000000        0.0000000000000000     
  0.78125000000000000       0.15625000000000000        0.0000000000000000     
  0.81250000000000000       0.15625000000000000        0.0000000000000000     
  0.84375000000000000       0.15625000000000000        0.0000000000000000     
  0.87500000000000000       0.15625000000000000        0.0000000000000000     
  0.75000000000000000       0.18750000000000000        0.0000000000000000     
  0.78125000000000000       0.18750000000000000        0.0000000000000000     
  0.81250000000000000       0.18750000000000000        0.0000000000000000     
  0.84375000000000000       0.18750000000000000        0.0000000000000000     
  0.87500000000000000       0.18750000000000000        0.0000000000000000     
  0.75000000000000000       0.21875000000000000        0.0000000000000000     
  0.78125000000000000       0.21875000000000000        0.0000000000000000     
  0.81250000000000000       0.21875000000000000        0.0000000000000000     
  0.84375000000000000       0.21875000000000000        0.0000000000000000     
  0.87500000000000000       0.21875000000000000        0.0000000000000000     
  0.75000000000000000       0.25000000000000000        0.0000000000000000     
  0.78125000000000000       0.25000000000000000        0.0000000000000000     
  0.81250000000000000       0.25000000000000000        0.0000000000000000     
  0.84375000000000000       0.25000000000000000        0.0000000000000000     
  0.87500000000000000       0.25000000000000000        0.0000000000000000     
  0.87500000000000000       0.12500000000000000        0.0000000000000000     
  0.90625000000000000       0.12500000000000000        0.0000000000000000     
  0.93750000000000000       0.12500000000000000        0.0000000000000000     
  0.96875000000000000       0.12500000000000000        0.0000000000000000     
   1.0000000000000000       0.12500000000000000        0.0000000000000000     
  0.87500000000000000       0.15625000000000000        0.0000000000000000     
  0.90625000000000000       0.15625000000000000        0.0000000000000000     
  0.93750000000000000       0.15625000000000000        0.0000000000000000     
  0.96875000000000000       0.15625000000000000        0.0000000000000000     
   1.0000000000000000       0.15625000000000000        0.0000000000000000     
  0.87500000000000000       0.18750000000000000        0.0000000000000000     
  0.90625000000000000       0.18750000000000000        0.0000000000000000     
  0.93750000000000000       0.18750000000000000        0.0000000000000000     
  0.96875000000000000       0.18750000000000000        0.0000000000000000     
   1.0000000000000000       0.18750000000000000        0.0000000000000000     
  0.87500000000000000       0.21875000000000000        0.0000000000000000     
  0.90625000000000000       0.21875000000000000        0.0000000000000000     
  0.93750000000000000       0.21875000000000000        0.0000000000000000     
  0.96875000000000000       0.21875000000000000        0.0000000000000000     
   1.0000000000000000       0.21875000000000000        0.0000000000000000     
  0.87500000000000000       0.25000000000000000        0.0000000000000000     
  0.90625000000000000       0.25000000000000000        0.0000000000000000     
  0.93750000000000000       0.25000000000000000        0.0000000000000000     
  0.96875000000000000       0.25000000000000000        0.0000000000000000     
   1.0000000000000000       0.25000000000000000        0.0000000000000000     
   0.0000000000000000       0.25000000000000000        0.0000000000000000     
   3.1250000000000000E-002  0.25000000000000000        0.0000000000000000     
   6.2500000000000000E-002  0.25000000000000000        0.0000000000000000     
   9.3750000000000000E-002  0.25000000000000000        0.0000000000000000     
  0.12500000000000000       0.25000000000000000        0.0000000000000000     
   0.0000000000000000       0.28125000000000000        0.0000000000000000     
   3.1250000000000000E-002  0.28125000000000000        0.0000000000000000     
   6.2500000000000000E-002  0.28125000000000000        0.0000000000000000     
   9.3750000000000000E-002  0.28125000000000000        0.0000000000000000     
  0.12500000000000000       0.28125000000000000        0.0000000000000000     
   0.0000000000000000       0.31250000000000000        0.0000000000000000     
   3.1250000000000000E-002  0.31250000000000000        0.0000000000000000     
   6.2500000000000000E-002  0.31250000000000000        0.0000000000000000     
   9.3750000000000000E-002  0.31250000000000000        0.0000000000000000     
  0.12500000000000000       0.31250000000000000        0.0000000000000000     
   0.0000000000000000       0.34375000000000000        0.0000000000000000     
   3.1250000000000000E-002  0.34375000000000000        0.0000000000000000     
   6.2500000000000000E-002  0.34375000000000000        0.0000000000000000     
   9.3750000000000000E-002  0.34375000000000000        0.0000000000000000     
  0.12500000000000000       0.34375000000000000        0.0000000000000000     
   0.0000000000000000       0.37500000000000000        0.0000000000000000     
   3.1250000000000000E-002  0.37500000000000000        0.0000000000000000     
   6.2500000000000000E-002  0.37500000000000000        0.0000000000000000     
   9.3750000000000000E-002  0.37500000000000000        0.0000000000000000     
  0.12500000000000000       0.37500000000000000        0.0000000000000000     
  0.12500000000000000       0.25000000000000000        0.0000000000000000     
  0.15625000000000000       0.25000000000000000        0.0000000000000000     
  0.18750000000000000       0.25000000000000000        0.0000000000000000     
  0.21875000000000000       0.25000000000000000        0.0000000000000000     
  0.25000000000000000       0.25000000000000000        0.0000000000000000     
  0.12500000000000000       0.28125000000000000        0.0000000000000000     
  0.15625000000000000       0.28125000000000000        0.0000000000000000     
  0.18750000000000000       0.28125000000000000        0.0000000000000000     
  0.21875000000000000       0.28125000000000000        0.0000000000000000     
  0.25000000000000000       0.28125000000000000        0.0000000000000000     
  0.12500000000000000       0.31250000000000000        0.0000000000000000     
  0.15625000000000000       0.31250000000000000        0.0000000000000000     
  0.18750000000000000       0.31250000000000000        0.0000000000000000     
  0.21875000000000000       0.31250000000000000        0.0000000000000000     
  0.25000000000000000       0.31250000000000000        0.0000000000000000     
  0.12500000000000000       0.34375000000000000        0.0000000000000000     
  0.15625000000000000       0.34375000000000000        0.0000000000000000     
  0.18750000000000000       0.34375000000000000        0.0000000000000000     
  0.21875000000000000       0.34375000000000000        0.0000000000000000     
  0.25000000000000000       0.34375000000000000        0.0000000000000000     
  0.12500000000000000       0.37500000000000000        0.0000000000000000     
  0.15625000000000000       0.37500000000000000        0.0000000000000000     
  0.18750000000000000       0.37500000000000000        0.0000000000000000     
  0.21875000000000000       0.37500000000000000        0.0000000000000000     
  0.25000000000000000       0.37500000000000000        0.0000000000000000     
  0.25000000000000000       0.25000000000000000        0.0000000000000000     
  0.28125000000000000       0.25000000000000000        0.0000000000000000     
  0.31250000000000000       0.25000000000000000        0.0000000000000000     
  0.34375000000000000       0.25000000000000000        0.0000000000000000     
  0.37500000000000000       0.25000000000000000        0.0000000000000000     
  0.25000000000000000       0.28125000000000000        0.0000000000000000     
  0.28125000000000000       0.28125000000000000        0.0000000000000000     
  0.31250000000000000       0.28125000000000000        0.0000000000000000     
  0.34375000000000000       0.28125000000000000        0.0000000000000000     
  0.37500000000000000       0.28125000000000000        0.0000000000000000     
  0.25000000000000000       0.31250000000000000        0.0000000000000000     
  0.28125000000000000       0.31250000000000000        0.0000000000000000     
  0.31250000000000000       0.31250000000000000        0.0000000000000000     
  0.34375000000000000       0.31250000000000000        0.0000000000000000     
  0.37500000000000000       0.31250000000000000        0.0000000000000000     
  0.25000000000000000       0.34375000000000000        0.0000000000000000     
  0.28125000000000000       0.34375000000000000        0.0000000000000000     
  0.31250000000000000       0.34375000000000000        0.0000000000000000     
  0.34375000000000000       0.34375000000000000        0.0000000000000000     
  0.37500000000000000       0.34375000000000000        0.0000000000000000     
  0.25000000000000000       0.37500000000000000        0.0000000000000000     
  0.28125000000000000       0.37500000000000000        0.0000000000000000     
  0.31250000000000000       0.37500000000000000        0.0000000000000000     
  0.34375000000000000       0.37500000000000000        0.0000000000000000     
  0.37500000000000000       0.37500000000000000        0.0000000000000000     
  0.37500000000000000       0.25000000000000000        0.0000000000000000     
  0.40625000000000000       0.25000000000000000        0.0000000000000000     
  0.43750000000000000       0.25000000000000000        0.0000000000000000     
  0.46875000000000000       0.25000000000000000        0.0000000000000000     
  0.50000000000000000       0.25000000000000000        0.0000000000000000     
  0.37500000000000000       0.28125000000000000        0.0000000000000000     
  0.40625000000000000       0.28125000000000000        0.0000000000000000     
  0.43750000000000000       0.28125000000000000        0.0000000000000000     
  0.46875000000000000       0.28125000000000000        0.0000000000000000     
  0.50000000000000000       0.28125000000000000        0.0000000000000000     
  0.37500000000000000       0.31250000000000000        0.0000000000000000     
  0.40625000000000000       0.31250000000000000        0.0000000000000000     
  0.43750000000000000       0.31250000000000000        0.0000000000000000     
  0.46875000000000000       0.31250000000000000        0.0000000000000000     
  0.50000000000000000       0.31250000000000000        0.0000000000000000     
  0.37500000000000000       0.34375000000000000        0.0000000000000000     
  0.40625000000000000       0.34375000000000000        0.0000000000000000     
  0.43750000000000000       0.34375000000000000        0.0000000000000000     
  0.46875000000000000       0.34375000000000000        0.0000000000000000     
  0.50000000000000000       0.34375000000000000        0.0000000000000000     
  0.37500000000000000       0.37500000000000000        0.0000000000000000     
  0.40625000000000000       0.37500000000000000        0.0000000000000000     
  0.43750000000000000       0.37500000000000000        0.0000000000000000     
  0.46875000000000000       0.37500000000000000        0.0000000000000000     
  0.50000000000000000       0.37500000000000000        0.0000000000000000     
  0.50000000000000000       0.25000000000000000        0.0000000000000000     
  0.53125000000000000       0.25000000000000000        0.0000000000000000     
  0.56250000000000000       0.25000000000000000        0.0000000000000000     
  0.59375000000000000       0.25000000000000000        0.0000000000000000     
  0.62500000000000000       0.25000000000000000        0.0000000000000000     
  0.50000000000000000       0.28125000000000000        0.0000000000000000     
  0.53125000000000000       0.28125000000000000        0.0000000000000000     
  0.56250000000000000       0.28125000000000000        0.0000000000000000     
  0.59375000000000000       0.28125000000000000        0.0000000000000000     
  0.62500000000000000       0.28125000000000000        0.0000000000000000     
  0.50000000000000000       0.31250000000000000        0.0000000000000000     
  0.53125000000000000       0.31250000000000000        0.0000000000000000     
  0.56250000000000000       0.31250000000000000        0.0000000000000000     
  0.59375000000000000       0.31250000000000000        0.0000000000000000     
  0.62500000000000000       0.31250000000000000        0.0000000000000000     
  0.50000000000000000       0.34375000000000000        0.0000000000000000     
  0.53125000000000000       0.34375000000000000        0.0000000000000000     
  0.56250000000000000       0.34375000000000000        0.0000000000000000     
  0.59375000000000000       0.34375000000000000        0.0000000000000000     
  0.62500000000000000       0.34375000000000000        0.0000000000000000     
  0.50000000000000000       0.37500000000000000        0.0000000000000000     
  0.53125000000000000       0.37500000000000000        0.0000000000000000     
  0.56250000000000000       0.37500000000000000        0.0000000000000000     
  0.59375000000000000       0.37500000000000000        0.0000000000000000     
  0.62500000000000000       0.37500000000000000        0.0000000000000000     
  0.62500000000000000       0.25000000000000000        0.0000000000000000     
  0.65625000000000000       0.25000000000000000        0.0000000000000000     
  0.68750000000000000       0.25000000000000000        0.0000000000000000     
  0.71875000000000000       0.25000000000000000        0.0000000000000000     
  0.75000000000000000       0.25000000000000000        0.0000000000000000     
  0.62500000000000000       0.28125000000000000        0.0000000000000000     
  0.65625000000000000       0.28125000000000000        0.0000000000000000     
  0.68750000000000000       0.28125000000000000        0.0000000000000000     
  0.71875000000000000       0.28125000000000000        0.0000000000000000     
  0.75000000000000000       0.28125000000000000        0.0000000000000000     
  0.62500000000000000       0.31250000000000000        0.0000000000000000     
  0.65625000000000000       0.31250000000000000        0.0000000000000000     
  0.68750000000000000       0.31250000000000000        0.0000000000000000     
  0.71875000000000000       0.31250000000000000        0.0000000000000000     
  0.75000000000000000       0.31250000000000000        0.0000000000000000     
  0.62500000000000000       0.34375000000000000        0.0000000000000000     
  0.65625000000000000       0.34375000000000000        0.0000000000000000     
  0.68750000000000000       0.34375000000000000        0.0000000000000000     
  0.71875000000000000       0.34375000000000000        0.0000000000000000     
  0.75000000000000000       0.34375000000000000        0.0000000000000000     
  0.62500000000000000       0.37500000000000000        0.0000000000000000     
  0.65625000000000000       0.37500000000000000        0.0000000000000000     
  0.68750000000000000       0.37500000000000000        0.0000000000000000     
  0.71875000000000000       0.37500000000000000        0.0000000000000000     
  0.75000000000000000       0.37500000000000000        0.0000000000000000     
  0.75000000000000000       0.25000000000000000        0.0000000000000000     
  0.78125000000000000       0.25000000000000000        0.0000000000000000     
  0.81250000000000000       0.25000000000000000        0.0000000000000000     
  0.84375000000000000       0.25000000000000000        0.0000000000000000     
  0.87500000000000000       0.25000000000000000        0.0000000000000000     
  0.75000000000000000       0.28125000000000000        0.0000000000000000     
  0.78125000000000000       0.28125000000000000        0.0000000000000000     
  0.81250000000000000       0.28125000000000000        0.0000000000000000     
  0.84375000000000000       0.28125000000000000        0.0000000000000000     
  0.87500000000000000       0.28125000000000000        0.0000000000000000     
  0.75000000000000000       0.31250000000000000        0.0000000000000000     
  0.78125000000000000       0.31250000000000000        0.0000000000000000     
  0.81250000000000000       0.31250000000000000        0.0000000000000000     
  0.84375000000000000       0.31250000000000000        0.0000000000000000     
  0.87500000000000000       0.31250000000000000        0.0000000000000000     
  0.75000000000000000       0.34375000000000000        0.0000000000000000     
  0.78125000000000000       0.34375000000000000        0.0000000000000000     
  0.81250000000000000       0.34375000000000000        0.0000000000000000     
  0.84375000000000000       0.34375000000000000        0.0000000000000000     
  0.87500000000000000       0.34375000000000000        0.0000000000000000     
  0.75000000000000000       0.37500000000000000        0.0000000000000000     
  0.78125000000000000       0.37500000000000000        0.0000000000000000     
  0.81250000000000000       0.37500000000000000        0.0000000000000000     
  0.84375000000000000       0.37500000000000000        0.0000000000000000     
  0.87500000000000000       0.37500000000000000        0.0000000000000000     
  0.87500000000000000       0.25000000000000000        0.0000000000000000     
  0.90625000000000000       0.25000000000000000        0.0000000000000000     
  0.93750000000000000       0.25000000000000000        0.0000000000000000     
  0.96875000000000000       0.25000000000000000        0.0000000000000000     
   1.0000000000000000       0.25000000000000000        0.0000000000000000     
  0.87500000000000000       0.28125000000000000        0.0000000000000000     
  0.90625000000000000       0.28125000000000000        0.0000000000000000     
  0.93750000000000000       0.28125000000000000        0.0000000000000000     
  0.96875000000000000       0.28125000000000000        0.0000000000000000     
   1.0000000000000000       0.28125000000000000        0.0000000000000000     
  0.87500000000000000       0.31250000000000000        0.0000000000000000     
  0.90625000000000000       0.31250000000000000        0.0000000000000000     
  0.93750000000000000       0.31250000000000000        0.0000000000000000     
  0.96875000000000000       0.31250000000000000        0.0000000000000000     
   1.0000000000000000       0.31250000000000000        0.0000000000000000     
  0.87500000000000000       0.34375000000000000        0.0000000000000000     
  0.90625000000000000       0.34375000000000000        0.0000000000000000     
  0.93750000000000000       0.34375000000000000        0.0000000000000000     
  0.96875000000000000       0.34375000000000000        0.0000000000000000     
   1.0000000000000000       0.34375000000000000        0.0000000000000000     
  0.87500000000000000       0.37500000000000000        0.0000000000000000     
  0.90625000000000000       0.37500000000000000        0.0000000000000000     
  0.93750000000000000       0.37500000000000000        0.0000000000000000     
  0.96875000000000000       0.37500000000000000        0.0000000000000000     
   1.0000000000000000       0.37500000000000000        0.0000000000000000     
   0.0000000000000000       0.37500000000000000        0.0000000000000000     
   3.1250000000000000E-002  0.37500000000000000        0.0000000000000000     
   6.2500000000000000E-002  0.37500000000000000        0.0000000000000000     
   9.3750000000000000E-002  0.37500000000000000        0.0000000000000000     
  0.12500000000000000       0.37500000000000000        0.0000000000000000     
   0.0000000000000000       0.40625000000000000        0.0000000000000000     
   3.1250000000000000E-002  0.40625000000000000        0.0000000000000000     
   6.2500000000000000E-002  0.40625000000000000        0.0000000000000000     
   9.3750000000000000E-002  0.40625000000000000        0.0000000000000000     
  0.12500000000000000       0.40625000000000000        0.0000000000000000     
   0.0000000000000000       0.43750000000000000        0.0000000000000000     
   3.1250000000000000E-002  0.43750000000000000        0.0000000000000000     
   6.2500000000000000E-002  0.43750000000000000        0.0000000000000000     
   9.3750000000000000E-002  0.43750000000000000        0.0000000000000000     
  0.12500000000000000       0.43750000000000000        0.0000000000000000     
   0.0000000000000000       0.46875000000000000        0.0000000000000000     
   3.1250000000000000E-002  0.46875000000000000        0.0000000000000000     
   6.2500000000000000E-002  0.46875000000000000        0.0000000000000000     
   9.3750000000000000E-002  0.46875000000000000        0.0000000000000000     
  0.12500000000000000       0.46875000000000000        0.0000000000000000     
   0.0000000000000000       0.50000000000000000        0.0000000000000000     
   3.1250000000000000E-002  0.50000000000000000        0.0000000000000000     
   6.2500000000000000E-002  0.50000000000000000        0.0000000000000000     
   9.3750000000000000E-002  0.50000000000000000        0.0000000000000000     
  0.12500000000000000       0.50000000000000000        0.0000000000000000     
  0.12500000000000000       0.37500000000000000        0.0000000000000000     
  0.15625000000000000       0.37500000000000000        0.0000000000000000     
  0.18750000000000000       0.37500000000000000        0.0000000000000000     
  0.21875000000000000       0.37500000000000000        0.0000000000000000     
  0.25000000000000000       0.37500000000000000        0.0000000000000000     
  0.12500000000000000       0.40625000000000000        0.0000000000000000     
  0.15625000000000000       0.40625000000000000        0.0000000000000000     
  0.18750000000000000       0.40625000000000000        0.0000000000000000     
  0.21875000000000000       0.40625000000000000        0.0000000000000000     
  0.25000000000000000       0.40625000000000000        0.0000000000000000     
  0.12500000000000000       0.43750000000000000        0.0000000000000000     
  0.15625000000000000       0.43750000000000000        0.0000000000000000     
  0.18750000000000000       0.43750000000000000        0.0000000000000000     
  0.21875000000000000       0.43750000000000000        0.0000000000000000     
  0.25000000000000000       0.43750000000000000        0.0000000000000000     
  0.12500000000000000       0.46875000000000000        0.0000000000000000     
  0.15625000000000000       0.46875000000000000        0.0000000000000000     
  0.18750000000000000       0.46875000000000000        0.0000000000000000     
  0.21875000000000000       0.46875000000000000        0.0000000000000000     
  0.25000000000000000       0.46875000000000000        0.0000000000000000     
  0.12500000000000000       0.50000000000000000        0.0000000000000000     
  0.15625000000000000       0.50000000000000000        0.0000000000000000     
  0.18750000000000000       0.50000000000000000        0.0000000000000000     
  0.21875000000000000       0.50000000000000000        0.0000000000000000     
  0.25000000000000000       0.50000000000000000        0.0000000000000000     
  0.25000000000000000       0.37500000000000000        0.0000000000000000     
  0.28125000000000000       0.37500000000000000        0.0000000000000000     
  0.31250000000000000       0.37500000000000000        0.0000000000000000     
  0.34375000000000000       0.37500000000000000        0.0000000000000000     
  0.37500000000000000       0.37500000000000000        0.0000000000000000     
  0.25000000000000000       0.40625000000000000        0.0000000000000000     
  0.28125000000000000       0.40625000000000000        0.0000000000000000     
  0.31250000000000000       0.40625000000000000        0.0000000000000000     
  0.34375000000000000       0.40625000000000000        0.0000000000000000     
  0.37500000000000000       0.40625000000000000        0.0000000000000000     
  0.25000000000000000       0.43750000000000000        0.0000000000000000     
  0.28125000000000000       0.43750000000000000        0.0000000000000000     
  0.31250000000000000       0.43750000000000000        0.0000000000000000     
  0.34375000000000000       0.43750000000000000        0.0000000000000000     
  0.37500000000000000       0.43750000000000000        0.0000000000000000     
  0.25000000000000000       0.46875000000000000        0.0000000000000000     
  0.28125000000000000       0.46875000000000000        0.0000000000000000     
  0.31250000000000000       0.46875000000000000        0.0000000000000000     
  0.34375000000000000       0.46875000000000000        0.0000000000000000     
  0.37500000000000000       0.46875000000000000        0.0000000000000000     
  0.25000000000000000       0.50000000000000000        0.0000000000000000     
  0.28125000000000000       0.50000000000000000        0.0000000000000000     
  0.31250000000000000       0.50000000000000000        0.0000000000000000     
  0.34375000000000000       0.50000000000000000        0.0000000000000000     
  0.37500000000000000       0.50000000000000000        0.0000000000000000     
  0.37500000000000000       0.37500000000000000        0.0000000000000000     
  0.40625000000000000       0.37500000000000000        0.0000000000000000     
  0.43750000000000000       0.37500000000000000        0.0000000000000000     
  0.46875000000000000       0.37500000000000000        0.0000000000000000     
  0.50000000000000000       0.37500000000000000        0.0000000000000000     
  0.37500000000000000       0.40625000000000000        0.0000000000000000     
  0.40625000000000000       0.40625000000000000        0.0000000000000000     
  0.43750000000000000       0.40625000000000000        0.0000000000000000     
  0.46875000000000000       0.40625000000000000        0.0000000000000000     
  0.50000000000000000       0.40625000000000000        0.0000000000000000     
  0.37500000000000000       0.43750000000000000        0.0000000000000000     
  0.40625000000000000       0.43750000000000000        0.0000000000000000     
  0.43750000000000000       0.43750000000000000        0.0000000000000000     
  0.46875000000000000       0.43750000000000000        0.0000000000000000     
  0.50000000000000000       0.43750000000000000        0.0000000000000000     
  0.37500000000000000       0.46875000000000000        0.0000000000000000     
  0.40625000000000000       0.46875000000000000        0.0000000000000000     
  0.43750000000000000       0.46875000000000000        0.0000000000000000     
  0.46875000000000000       0.46875000000000000        0.0000000000000000     
  0.50000000000000000       0.46875000000000000        0.0000000000000000     
  0.37500000000000000       0.50000000000000000        0.0000000000000000     
  0.40625000000000000       0.50000000000000000        0.0000000000000000     
  0.43750000000000000       0.50000000000000000        0.0000000000000000     
  0.46875000000000000       0.50000000000000000        0.0000000000000000     
  0.50000000000000000       0.50000000000000000        0.0000000000000000     
  0.50000000000000000       0.37500000000000000        0.0000000000000000     
  0.53125000000000000       0.37500000000000000        0.0000000000000000     
  0.56250000000000000       0.37500000000000000        0.0000000000000000     
  0.59375000000000000       0.37500000000000000        0.0000000000000000     
  0.62500000000000000       0.37500000000000000        0.0000000000000000     
  0.50000000000000000       0.40625000000000000        0.0000000000000000     
  0.53125000000000000       0.40625000000000000        0.0000000000000000     
  0.56250000000000000       0.40625000000000000        0.0000000000000000     
  0.59375000000000000       0.40625000000000000        0.0000000000000000     
  0.62500000000000000       0.40625000000000000        0.0000000000000000     
  0.50000000000000000       0.43750000000000000        0.0000000000000000     
  0.53125000000000000       0.43750000000000000        0.0000000000000000     
  0.56250000000000000       0.43750000000000000        0.0000000000000000     
  0.59375000000000000       0.43750000000000000        0.0000000000000000     
  0.62500000000000000       0.43750000000000000        0.0000000000000000     
  0.50000000000000000       0.46875000000000000        0.0000000000000000     
  0.53125000000000000       0.46875000000000000        0.0000000000000000     
  0.56250000000000000       0.46875000000000000        0.0000000000000000     
  0.59375000000000000       0.46875000000000000        0.0000000000000000     
  0.62500000000000000       0.46875000000000000        0.0000000000000000     
  0.50000000000000000       0.50000000000000000        0.0000000000000000     
  0.53125000000000000       0.50000000000000000        0.0000000000000000     
  0.56250000000000000       0.50000000000000000        0.0000000000000000     
  0.59375000000000000       0.50000000000000000        0.0000000000000000     
  0.62500000000000000       0.50000000000000000        0.0000000000000000     
  0.62500000000000000       0.37500000000000000        0.0000000000000000     
  0.65625000000000000       0.37500000000000000        0.0000000000000000     
  0.68750000000000000       0.37500000000000000        0.0000000000000000     
  0.71875000000000000       0.37500000000000000        0.0000000000000000     
  0.75000000000000000       0.37500000000000000        0.0000000000000000     
  0.62500000000000000       0.40625000000000000        0.0000000000000000     
  0.65625000000000000       0.40625000000000000        0.0000000000000000     
  0.68750000000000000       0.40625000000000000        0.0000000000000000     
  0.71875000000000000       0.40625000000000000        0.0000000000000000     
  0.75000000000000000       0.40625000000000000        0.0000000000000000     
  0.62500000000000000       0.43750000000000000        0.0000000000000000     
  0.65625000000000000       0.43750000000000000        0.0000000000000000     
  0.68750000000000000       0.43750000000000000        0.0000000000000000     
  0.71875000000000000       0.43750000000000000        0.0000000000000000     
  0.75000000000000000       0.43750000000000000        0.0000000000000000     
  0.62500000000000000       0.46875000000000000        0.0000000000000000     
  0.65625000000000000       0.46875000000000000        0.0000000000000000     
  0.68750000000000000       0.46875000000000000        0.0000000000000000     
  0.71875000000000000       0.46875000000000000        0.0000000000000000     
  0.75000000000000000       0.46875000000000000        0.0000000000000000     
  0.62500000000000000       0.50000000000000000        0.0000000000000000     
  0.65625000000000000       0.50000000000000000        0.0000000000000000     
  0.68750000000000000       0.50000000000000000        0.0000000000000000     
  0.71875000000000000       0.50000000000000000        0.0000000000000000     
  0.75000000000000000       0.50000000000000000        0.0000000000000000     
  0.75000000000000000       0.37500000000000000        0.0000000000000000     
  0.78125000000000000       0.37500000000000000        0.0000000000000000     
  0.81250000000000000       0.37500000000000000        0.0000000000000000     
  0.84375000000000000       0.37500000000000000        0.0000000000000000     
  0.87500000000000000       0.37500000000000000        0.0000000000000000     
  0.75000000000000000       0.40625000000000000        0.0000000000000000     
  0.78125000000000000       0.40625000000000000        0.0000000000000000     
  0.81250000000000000       0.40625000000000000        0.0000000000000000     
  0.84375000000000000       0.40625000000000000        0.0000000000000000     
  0.87500000000000000       0.40625000000000000        0.0000000000000000     
  0.75000000000000000       0.43750000000000000        0.0000000000000000     
  0.78125000000000000       0.43750000000000000        0.0000000000000000     
  0.81250000000000000       0.43750000000000000        0.0000000000000000     
  0.84375000000000000       0.43750000000000000        0.0000000000000000     
  0.87500000000000000       0.43750000000000000        0.0000000000000000     
  0.75000000000000000       0.46875000000000000        0.0000000000000000     
  0.78125000000000000       0.46875000000000000        0.0000000000000000     
  0.81250000000000000       0.46875000000000000        0.0000000000000000     
  0.84375000000000000       0.46875000000000000        0.0000000000000000     
  0.87500000000000000       0.46875000000000000        0.0000000000000000     
  0.75000000000000000       0.50000000000000000        0.0000000000000000     
  0.78125000000000000       0.50000000000000000        0.0000000000000000     
  0.81250000000000000       0.50000000000000000        0.0000000000000000     
  0.84375000000000000       0.50000000000000000        0.0000000000000000     
  0.87500000000000000       0.50000000000000000        0.0000000000000000     
  0.87500000000000000       0.37500000000000000        0.0000000000000000     
  0.90625000000000000       0.37500000000000000        0.0000000000000000     
  0.93750000000000000       0.37500000000000000        0.0000000000000000     
  0.96875000000000000       0.37500000000000000        0.0000000000000000     
   1.0000000000000000       0.37500000000000000        0.0000000000000000     
  0.87500000000000000       0.40625000000000000        0.0000000000000000     
  0.90625000000000000       0.40625000000000000        0.0000000000000000     
  0.93750000000000000       0.40625000000000000        0.0000000000000000     
  0.96875000000000000       0.40625000000000000        0.0000000000000000     
   1.0000000000000000       0.40625000000000000        0.0000000000000000     
  0.87500000000000000       0.43750000000000000        0.0000000000000000     
  0.90625000000000000       0.43750000000000000        0.0000000000000000     
  0.93750000000000000       0.43750000000000000        0.0000000000000000     
  0.96875000000000000       0.43750000000000000        0.0000000000000000     
   1.0000000000000000       0.43750000000000000        0.0000000000000000     
  0.87500000000000000       0.46875000000000000        0.0000000000000000     
  0.90625000000000000       0.46875000000000000        0.0000000000000000     
  0.93750000000000000       0.46875000000000000        0.0000000000000000     
  0.96875000000000000       0.46875000000000000        0.0000000000000000     
   1.0000000000000000       0.46875000000000000        0.0000000000000000     
  0.87500000000000000       0.50000000000000000        0.0000000000000000     
  0.90625000000000000       0.50000000000000000        0.0000000000000000     
  0.93750000000000000       0.50000000000000000        0.0000000000000000     
  0.96875000000000000       0.50000000000000000        0.0000000000000000     
   1.0000000000000000       0.50000000000000000        0.0000000000000000     
   0.0000000000000000       0.50000000000000000        0.0000000000000000     
   3.1250000000000000E-002  0.50000000000000000        0.0000000000000000     
   6.2500000000000000E-002  0.50000000000000000        0.0000000000000000     
   9.3750000000000000E-002  0.50000000000000000        0.0000000000000000     
  0.12500000000000000       0.50000000000000000        0.0000000000000000     
   0.0000000000000000       0.53125000000000000        0.0000000000000000     
   3.1250000000000000E-002  0.53125000000000000        0.0000000000000000     
   6.2500000000000000E-002  0.53125000000000000        0.0000000000000000     
   9.3750000000000000E-002  0.53125000000000000        0.0000000000000000     
  0.12500000000000000       0.53125000000000000        0.0000000000000000     
   0.0000000000000000       0.56250000000000000        0.0000000000000000     
   3.1250000000000000E-002  0.56250000000000000        0.0000000000000000     
   6.2500000000000000E-002  0.56250000000000000        0.0000000000000000     
   9.3750000000000000E-002  0.56250000000000000        0.0000000000000000     
  0.12500000000000000       0.56250000000000000        0.0000000000000000     
   0.0000000000000000       0.59375000000000000        0.0000000000000000     
   3.1250000000000000E-002  0.59375000000000000        0.0000000000000000     
   6.2500000000000000E-002  0.59375000000000000        0.0000000000000000     
   9.3750000000000000E-002  0.59375000000000000        0.0000000000000000     
  0.12500000000000000       0.59375000000000000        0.0000000000000000     
   0.0000000000000000       0.62500000000000000        0.0000000000000000     
   3.1250000000000000E-002  0.62500000000000000        0.0000000000000000     
   6.2500000000000000E-002  0.62500000000000000        0.0000000000000000     
   9.3750000000000000E-002  0.62500000000000000        0.0000000000000000     
  0.12500000000000000       0.62500000000000000        0.0000000000000000     
  0.12500000000000000       0.50000000000000000        0.0000000000000000     
  0.15625000000000000       0.50000000000000000        0.0000000000000000     
  0.18750000000000000       0.50000000000000000        0.0000000000000000     
  0.21875000000000000       0.50000000000000000        0.0000000000000000     
  0.25000000000000000       0.50000000000000000        0.0000000000000000     
  0.12500000000000000       0.53125000000000000        0.0000000000000000     
  0.15625000000000000       0.53125000000000000        0.0000000000000000     
  0.18750000000000000       0.53125000000000000        0.0000000000000000     
  0.21875000000000000       0.53125000000000000        0.0000000000000000     
  0.25000000000000000       0.53125000000000000        0.0000000000000000     
  0.12500000000000000       0.56250000000000000        0.0000000000000000     
  0.15625000000000000       0.56250000000000000        0.0000000000000000     
  0.18750000000000000       0.56250000000000000        0.0000000000000000     
  0.21875000000000000       0.56250000000000000        0.0000000000000000     
  0.25000000000000000       0.56250000000000000        0.0000000000000000     
  0.12500000000000000       0.59375000000000000        0.0000000000000000     
  0.15625000000000000       0.59375000000000000        0.0000000000000000     
  0.18750000000000000       0.59375000000000000        0.0000000000000000     
  0.21875000000000000       0.59375000000000000        0.0000000000000000     
  0.25000000000000000       0.59375000000000000        0.0000000000000000     
  0.12500000000000000       0.62500000000000000        0.0000000000000000     
  0.15625000000000000       0.62500000000000000        0.0000000000000000     
  0.18750000000000000       0.62500000000000000        0.0000000000000000     
  0.21875000000000000       0.62500000000000000        0.0000000000000000     
  0.25000000000000000       0.62500000000000000        0.0000000000000000     
  0.25000000000000000       0.50000000000000000        0.0000000000000000     
  0.28125000000000000       0.50000000000000000        0.0000000000000000     
  0.31250000000000000       0.50000000000000000        0.0000000000000000     
  0.34375000000000000       0.50000000000000000        0.0000000000000000     
  0.37500000000000000       0.50000000000000000        0.0000000000000000     
  0.25000000000000000       0.53125000000000000        0.0000000000000000     
  0.28125000000000000       0.53125000000000000        0.0000000000000000     
  0.31250000000000000       0.53125000000000000        0.0000000000000000     
  0.34375000000000000       0.53125000000000000        0.0000000000000000     
  0.37500000000000000       0.53125000000000000        0.0000000000000000     
  0.25000000000000000       0.56250000000000000        0.0000000000000000     
  0.28125000000000000       0.56250000000000000        0.0000000000000000     
  0.31250000000000000       0.56250000000000000        0.0000000000000000     
  0.34375000000000000       0.56250000000000000        0.0000000000000000     
  0.37500000000000000       0.56250000000000000        0.0000000000000000     
  0.25000000000000000       0.59375000000000000        0.0000000000000000     
  0.28125000000000000       0.59375000000000000        0.0000000000000000     
  0.31250000000000000       0.59375000000000000        0.0000000000000000     
  0.34375000000000000       0.59375000000000000        0.0000000000000000     
  0.37500000000000000       0.59375000000000000        0.0000000000000000     
  0.25000000000000000       0.62500000000000000        0.0000000000000000     
  0.28125000000000000       0.62500000000000000        0.0000000000000000     
  0.31250000000000000       0.62500000000000000        0.0000000000000000     
  0.34375000000000000       0.62500000000000000        0.0000000000000000     
  0.37500000000000000       0.62500000000000000        0.0000000000000000     
  0.37500000000000000       0.50000000000000000        0.0000000000000000     
  0.40625000000000000       0.50000000000000000        0.0000000000000000     
  0.43750000000000000       0.50000000000000000        0.0000000000000000     
  0.46875000000000000       0.50000000000000000        0.0000000000000000     
  0.50000000000000000       0.50000000000000000        0.0000000000000000     
  0.37500000000000000       0.53125000000000000        0.0000000000000000     
  0.40625000000000000       0.53125000000000000        0.0000000000000000     
  0.43750000000000000       0.53125000000000000        0.0000000000000000     
  0.46875000000000000       0.53125000000000000        0.0000000000000000     
  0.50000000000000000       0.53125000000000000        0.0000000000000000     
  0.37500000000000000       0.56250000000000000        0.0000000000000000     
  0.40625000000000000       0.56250000000000000        0.0000000000000000     
  0.43750000000000000       0.56250000000000000        0.0000000000000000     
  0.46875000000000000       0.56250000000000000        0.0000000000000000     
  0.50000000000000000       0.56250000000000000        0.0000000000000000     
  0.37500000000000000       0.59375000000000000        0.0000000000000000     
  0.40625000000000000       0.59375000000000000        0.0000000000000000     
  0.43750000000000000       0.59375000000000000        0.0000000000000000     
  0.46875000000000000       0.59375000000000000        0.0000000000000000     
  0.50000000000000000       0.59375000000000000        0.0000000000000000     
  0.37500000000000000       0.62500000000000000        0.0000000000000000     
  0.40625000000000000       0.62500000000000000        0.0000000000000000     
  0.43750000000000000       0.62500000000000000        0.0000000000000000     
  0.46875000000000000       0.62500000000000000        0.0000000000000000     
  0.50000000000000000       0.62500000000000000        0.0000000000000000     
  0.50000000000000000       0.50000000000000000        0.0000000000000000     
  0.53125000000000000       0.50000000000000000        0.0000000000000000     
  0.56250000000000000       0.50000000000000000        0.0000000000000000     
  0.59375000000000000       0.50000000000000000        0.0000000000000000     
  0.62500000000000000       0.50000000000000000        0.0000000000000000     
  0.50000000000000000       0.53125000000000000        0.0000000000000000     
  0.53125000000000000       0.53125000000000000        0.0000000000000000     
  0.56250000000000000       0.53125000000000000        0.0000000000000000     
  0.59375000000000000       0.53125000000000000        0.0000000000000000     
  0.62500000000000000       0.53125000000000000        0.0000000000000000     
  0.50000000000000000       0.56250000000000000        0.0000000000000000     
  0.53125000000000000       0.56250000000000000        0.0000000000000000     
  0.56250000000000000       0.56250000000000000        0.0000000000000000     
  0.59375000000000000       0.56250000000000000        0.0000000000000000     
  0.62500000000000000       0.56250000000000000        0.0000000000000000     
  0.50000000000000000       0.59375000000000000        0.0000000000000000     
  0.53125000000000000       0.59375000000000000        0.0000000000000000     
  0.56250000000000000       0.59375000000000000        0.0000000000000000     
  0.59375000000000000       0.59375000000000000        0.0000000000000000     
  0.62500000000000000       0.59375000000000000        0.0000000000000000     
  0.50000000000000000       0.62500000000000000        0.0000000000000000     
  0.53125000000000000       0.62500000000000000        0.0000000000000000     
  0.56250000000000000       0.62500000000000000        0.0000000000000000     
  0.59375000000000000       0.62500000000000000        0.0000000000000000     
  0.62500000000000000       0.62500000000000000        0.0000000000000000     
  0.62500000000000000       0.50000000000000000        0.0000000000000000     
  0.65625000000000000       0.50000000000000000        0.0000000000000000     
  0.68750000000000000       0.50000000000000000        0.0000000000000000     
  0.71875000000000000       0.50000000000000000        0.0000000000000000     
  0.75000000000000000       0.50000000000000000        0.0000000000000000     
  0.62500000000000000       0.53125000000000000        0.0000000000000000     
  0.65625000000000000       0.53125000000000000        0.0000000000000000     
  0.68750000000000000       0.53125000000000000        0.0000000000000000     
  0.71875000000000000       0.53125000000000000        0.0000000000000000     
  0.75000000000000000       0.53125000000000000        0.0000000000000000     
  0.62500000000000000       0.56250000000000000        0.0000000000000000     
  0.65625000000000000       0.56250000000000000        0.0000000000000000     
  0.68750000000000000       0.56250000000000000        0.0000000000000000     
  0.71875000000000000       0.56250000000000000        0.0000000000000000     
  0.75000000000000000       0.56250000000000000        0.0000000000000000     
  0.62500000000000000       0.59375000000000000        0.0000000000000000     
  0.65625000000000000       0.59375000000000000        0.0000000000000000     
  0.68750000000000000       0.59375000000000000        0.0000000000000000     
  0.71875000000000000       0.59375000000000000        0.0000000000000000     
  0.75000000000000000       0.59375000000000000        0.0000000000000000     
  0.62500000000000000       0.62500000000000000        0.0000000000000000     
  0.65625000000000000       0.62500000000000000        0.0000000000000000     
  0.68750000000000000       0.62500000000000000        0.0000000000000000     
  0.71875000000000000       0.62500000000000000        0.0000000000000000     
  0.75000000000000000       0.62500000000000000        0.0000000000000000     
  0.75000000000000000       0.50000000000000000        0.0000000000000000     
  0.78125000000000000       0.50000000000000000        0.0000000000000000     
  0.81250000000000000       0.50000000000000000        0.0000000000000000     
  0.84375000000000000       0.50000000000000000        0.0000000000000000     
  0.87500000000000000       0.50000000000000000        0.0000000000000000     
  0.75000000000000000       0.53125000000000000        0.0000000000000000     
  0.78125000000000000       0.53125000000000000        0.0000000000000000     
  0.81250000000000000       0.53125000000000000        0.0000000000000000     
  0.84375000000000000       0.53125000000000000        0.0000000000000000     
  0.87500000000000000       0.53125000000000000        0.0000000000000000     
  0.75000000000000000       0.56250000000000000        0.0000000000000000     
  0.78125000000000000       0.56250000000000000        0.0000000000000000     
  0.81250000000000000       0.56250000000000000        0.0000000000000000     
  0.84375000000000000       0.56250000000000000        0.0000000000000000     
  0.87500000000000000       0.56250000000000000        0.0000000000000000     
  0.75000000000000000       0.59375000000000000        0.0000000000000000     
  0.78125000000000000       0.59375000000000000        0.0000000000000000     
  0.81250000000000000       0.59375000000000000        0.0000000000000000     
  0.84375000000000000       0.59375000000000000        0.0000000000000000     
  0.87500000000000000       0.59375000000000000        0.0000000000000000     
  0.75000000000000000       0.62500000000000000        0.0000000000000000     
  0.78125000000000000       0.62500000000000000        0.0000000000000000     
  0.81250000000000000       0.62500000000000000        0.0000000000000000     
  0.84375000000000000       0.62500000000000000        0.0000000000000000     
  0.87500000000000000       0.62500000000000000        0.0000000000000000     
  0.87500000000000000       0.50000000000000000        0.0000000000000000     
  0.90625000000000000       0.50000000000000000        0.0000000000000000     
  0.93750000000000000       0.50000000000000000        0.0000000000000000     
  0.96875000000000000       0.50000000000000000        0.0000000000000000     
   1.0000000000000000       0.50000000000000000        0.0000000000000000     
  0.87500000000000000       0.53125000000000000        0.0000000000000000     
  0.90625000000000000       0.53125000000000000        0.0000000000000000     
  0.93750000000000000       0.53125000000000000        0.0000000000000000     
  0.96875000000000000       0.53125000000000000        0.0000000000000000     
   1.0000000000000000       0.53125000000000000        0.0000000000000000     
  0.87500000000000000       0.56250000000000000        0.0000000000000000     
  0.90625000000000000       0.56250000000000000        0.0000000000000000     
  0.93750000000000000       0.56250000000000000        0.0000000000000000     
  0.96875000000000000       0.56250000000000000        0.0000000000000000     
   1.0000000000000000       0.56250000000000000        0.0000000000000000     
  0.87500000000000000       0.59375000000000000        0.0000000000000000     
  0.90625000000000000       0.59375000000000000        0.0000000000000000     
  0.93750000000000000       0.59375000000000000        0.0000000000000000     
  0.96875000000000000       0.59375000000000000        0.0000000000000000     
   1.0000000000000000       0.59375000000000000        0.0000000000000000     
  0.87500000000000000       0.62500000000000000        0.0000000000000000     
  0.90625000000000000       0.62500000000000000        0.0000000000000000     
  0.93750000000000000       0.62500000000000000        0.0000000000000000     
  0.96875000000000000       0.62500000000000000        0.0000000000000000     
   1.0000000000000000       0.62500000000000000        0.0000000000000000     
   0.0000000000000000       0.62500000000000000        0.0000000000000000     
   3.1250000000000000E-002  0.62500000000000000        0.0000000000000000     
   6.2500000000000000E-002  0.62500000000000000        0.0000000000000000     
   9.3750000000000000E-002  0.62500000000000000        0.0000000000000000     
  0.12500000000000000       0.62500000000000000        0.0000000000000000     
   0.0000000000000000       0.65625000000000000        0.0000000000000000     
   3.1250000000000000E-002  0.65625000000000000        0.0000000000000000     
   6.2500000000000000E-002  0.65625000000000000        0.0000000000000000     
   9.3750000000000000E-002  0.65625000000000000        0.0000000000000000     
  0.12500000000000000       0.65625000000000000        0.0000000000000000     
   0.0000000000000000       0.68750000000000000        0.0000000000000000     
   3.1250000000000000E-002  0.68750000000000000        0.0000000000000000     
   6.2500000000000000E-002  0.68750000000000000        0.0000000000000000     
   9.3750000000000000E-002  0.68750000000000000        0.0000000000000000     
  0.12500000000000000       0.68750000000000000        0.0000000000000000     
   0.0000000000000000       0.71875000000000000        0.0000000000000000     
   3.1250000000000000E-002  0.71875000000000000        0.0000000000000000     
   6.2500000000000000E-002  0.71875000000000000        0.0000000000000000     
   9.3750000000000000E-002  0.71875000000000000        0.0000000000000000     
  0.12500000000000000       0.71875000000000000        0.0000000000000000     
   0.0000000000000000       0.75000000000000000        0.0000000000000000     
   3.1250000000000000E-002  0.75000000000000000        0.0000000000000000     
   6.2500000000000000E-002  0.75000000000000000        0.0000000000000000     
   9.3750000000000000E-002  0.75000000000000000        0.0000000000000000     
  0.12500000000000000       0.75000000000000000        0.0000000000000000     
  0.12500000000000000       0.62500000000000000        0.0000000000000000     
  0.15625000000000000       0.62500000000000000        0.0000000000000000     
  0.18750000000000000       0.62500000000000000        0.0000000000000000     
  0.21875000000000000       0.62500000000000000        0.0000000000000000     
  0.25000000000000000       0.62500000000000000        0.0000000000000000     
  0.12500000000000000       0.65625000000000000        0.0000000000000000     
  0.15625000000000000       0.65625000000000000        0.0000000000000000     
  0.18750000000000000       0.65625000000000000        0.0000000000000000     
  0.21875000000000000       0.65625000000000000        0.0000000000000000     
  0.25000000000000000       0.65625000000000000        0.0000000000000000     
  0.12500000000000000       0.68750000000000000        0.0000000000000000     
  0.15625000000000000       0.68750000000000000        0.0000000000000000     
  0.18750000000000000       0.68750000000000000        0.0000000000000000     
  0.21875000000000000       0.68750000000000000        0.0000000000000000     
  0.25000000000000000       0.68750000000000000        0.0000000000000000     
  0.12500000000000000       0.71875000000000000        0.0000000000000000     
  0.15625000000000000       0.71875000000000000        0.0000000000000000     
  0.18750000000000000       0.71875000000000000        0.0000000000000000     
  0.21875000000000000       0.71875000000000000        0.0000000000000000     
  0.25000000000000000       0.71875000000000000        0.0000000000000000     
  0.12500000000000000       0.75000000000000000        0.0000000000000000     
  0.15625000000000000       0.75000000000000000        0.0000000000000000     
  0.18750000000000000       0.75000000000000000        0.0000000000000000     
  0.21875000000000000       0.75000000000000000        0.0000000000000000     
  0.25000000000000000       0.75000000000000000        0.0000000000000000     
  0.25000000000000000       0.62500000000000000        0.0000000000000000     
  0.28125000000000000       0.62500000000000000        0.0000000000000000     
  0.31250000000000000       0.62500000000000000        0.0000000000000000     
  0.34375000000000000       0.62500000000000000        0.0000000000000000     
  0.37500000000000000       0.62500000000000000        0.0000000000000000     
  0.25000000000000000       0.65625000000000000        0.0000000000000000     
  0.28125000000000000       0.65625000000000000        0.0000000000000000     
  0.31250000000000000       0.65625000000000000        0.0000000000000000     
  0.34375000000000000       0.65625000000000000        0.0000000000000000     
  0.37500000000000000       0.65625000000000000        0.0000000000000000     
  0.25000000000000000       0.68750000000000000        0.0000000000000000     
  0.28125000000000000       0.68750000000000000        0.0000000000000000     
  0.31250000000000000       0.68750000000000000        0.0000000000000000     
  0.34375000000000000       0.68750000000000000        0.0000000000000000     
  0.37500000000000000       0.68750000000000000        0.0000000000000000     
  0.25000000000000000       0.71875000000000000        0.0000000000000000     
  0.28125000000000000       0.71875000000000000        0.0000000000000000     
  0.31250000000000000       0.71875000000000000        0.0000000000000000     
  0.34375000000000000       0.71875000000000000        0.0000000000000000     
  0.37500000000000000       0.71875000000000000        0.0000000000000000     
  0.25000000000000000       0.75000000000000000        0.0000000000000000     
  0.28125000000000000       0.75000000000000000        0.0000000000000000     
  0.31250000000000000       0.75000000000000000        0.0000000000000000     
  0.34375000000000000       0.75000000000000000        0.0000000000000000     
  0.37500000000000000       0.75000000000000000        0.0000000000000000     
  0.37500000000000000       0.62500000000000000        0.0000000000000000     
  0.40625000000000000       0.62500000000000000        0.0000000000000000     
  0.43750000000000000       0.62500000000000000        0.0000000000000000     
  0.46875000000000000       0.62500000000000000        0.0000000000000000     
  0.50000000000000000       0.62500000000000000        0.0000000000000000     
  0.37500000000000000       0.65625000000000000        0.0000000000000000     
  0.40625000000000000       0.65625000000000000        0.0000000000000000     
  0.43750000000000000       0.65625000000000000        0.0000000000000000     
  0.46875000000000000       0.65625000000000000        0.0000000000000000     
  0.50000000000000000       0.65625000000000000        0.0000000000000000     
  0.37500000000000000       0.68750000000000000        0.0000000000000000     
  0.40625000000000000       0.68750000000000000        0.0000000000000000     
  0.43750000000000000       0.68750000000000000        0.0000000000000000     
  0.46875000000000000       0.68750000000000000        0.0000000000000000     
  0.50000000000000000       0.68750000000000000        0.0000000000000000     
  0.37500000000000000       0.71875000000000000        0.0000000000000000     
  0.40625000000000000       0.71875000000000000        0.0000000000000000     
  0.43750000000000000       0.71875000000000000        0.0000000000000000     
  0.46875000000000000       0.71875000000000000        0.0000000000000000     
  0.50000000000000000       0.71875000000000000        0.0000000000000000     
  0.37500000000000000       0.75000000000000000        0.0000000000000000     
  0.40625000000000000       0.75000000000000000        0.0000000000000000     
  0.43750000000000000       0.75000000000000000        0.0000000000000000     
  0.46875000000000000       0.75000000000000000        0.0000000000000000     
  0.50000000000000000       0.75000000000000000        0.0000000000000000     
  0.50000000000000000       0.62500000000000000        0.0000000000000000     
  0.53125000000000000       0.62500000000000000        0.0000000000000000     
  0.56250000000000000       0.62500000000000000        0.0000000000000000     
  0.59375000000000000       0.62500000000000000        0.0000000000000000     
  0.62500000000000000       0.62500000000000000        0.0000000000000000     
  0.50000000000000000       0.65625000000000000        0.0000000000000000     
  0.53125000000000000       0.65625000000000000        0.0000000000000000     
  0.56250000000000000       0.65625000000000000        0.0000000000000000     
  0.59375000000000000       0.65625000000000000        0.0000000000000000     
  0.62500000000000000       0.65625000000000000        0.0000000000000000     
  0.50000000000000000       0.68750000000000000        0.0000000000000000     
  0.53125000000000000       0.68750000000000000        0.0000000000000000     
  0.56250000000000000       0.68750000000000000        0.0000000000000000     
  0.59375000000000000       0.68750000000000000        0.0000000000000000     
  0.62500000000000000       0.68750000000000000        0.0000000000000000     
  0.50000000000000000       0.71875000000000000        0.0000000000000000     
  0.53125000000000000       0.71875000000000000        0.0000000000000000     
  0.56250000000000000       0.71875000000000000        0.0000000000000000     
  0.59375000000000000       0.71875000000000000        0.0000000000000000     
  0.62500000000000000       0.71875000000000000        0.0000000000000000     
  0.50000000000000000       0.75000000000000000        0.0000000000000000     
  0.53125000000000000       0.75000000000000000        0.0000000000000000     
  0.56250000000000000       0.75000000000000000        0.0000000000000000     
  0.59375000000000000       0.75000000000000000        0.0000000000000000     
  0.62500000000000000       0.75000000000000000        0.0000000000000000     
  0.62500000000000000       0.62500000000000000        0.0000000000000000     
  0.65625000000000000       0.62500000000000000        0.0000000000000000     
  0.68750000000000000       0.62500000000000000        0.0000000000000000     
  0.71875000000000000       0.62500000000000000        0.0000000000000000     
  0.75000000000000000       0.62500000000000000        0.0000000000000000     
  0.62500000000000000       0.65625000000000000        0.0000000000000000     
  0.65625000000000000       0.65625000000000000        0.0000000000000000     
  0.68750000000000000       0.65625000000000000        0.0000000000000000     
  0.71875000000000000       0.65625000000000000        0.0000000000000000     
  0.75000000000000000       0.65625000000000000        0.0000000000000000     
  0.62500000000000000       0.68750000000000000        0.0000000000000000     
  0.65625000000000000       0.68750000000000000        0.0000000000000000     
  0.68750000000000000       0.68750000000000000        0.0000000000000000     
  0.71875000000000000       0.68750000000000000        0.0000000000000000     
  0.75000000000000000       0.68750000000000000        0.0000000000000000     
  0.62500000000000000       0.71875000000000000        0.0000000000000000     
  0.65625000000000000       0.71875000000000000        0.0000000000000000     
  0.68750000000000000       0.71875000000000000        0.0000000000000000     
  0.71875000000000000       0.71875000000000000        0.0000000000000000     
  0.75000000000000000       0.71875000000000000        0.0000000000000000     
  0.62500000000000000       0.75000000000000000        0.0000000000000000     
  0.65625000000000000       0.75000000000000000        0.0000000000000000     
  0.68750000000000000       0.75000000000000000        0.0000000000000000     
  0.71875000000000000       0.75000000000000000        0.0000000000000000     
  0.75000000000000000       0.75000000000000000        0.0000000000000000     
  0.75000000000000000       0.62500000000000000        0.0000000000000000     
  0.78125000000000000       0.62500000000000000        0.0000000000000000     
  0.81250000000000000       0.62500000000000000        0.0000000000000000     
  0.84375000000000000       0.62500000000000000        0.0000000000000000     
  0.87500000000000000       0.62500000000000000        0.0000000000000000     
  0.75000000000000000       0.65625000000000000        0.0000000000000000     
  0.78125000000000000       0.65625000000000000        0.0000000000000000     
  0.81250000000000000       0.65625000000000000        0.0000000000000000     
  0.84375000000000000       0.65625000000000000        0.0000000000000000     
  0.87500000000000000       0.65625000000000000        0.0000000000000000     
  0.75000000000000000       0.68750000000000000        0.0000000000000000     
  0.78125000000000000       0.68750000000000000        0.0000000000000000     
  0.81250000000000000       0.68750000000000000        0.0000000000000000     
  0.84375000000000000       0.68750000000000000        0.0000000000000000     
  0.87500000000000000       0.68750000000000000        0.0000000000000000     
  0.75000000000000000       0.71875000000000000        0.0000000000000000     
  0.78125000000000000       0.71875000000000000        0.0000000000000000     
  0.81250000000000000       0.71875000000000000        0.0000000000000000     
  0.84375000000000000       0.71875000000000000        0.0000000000000000     
  0.87500000000000000       0.71875000000000000        0.0000000000000000     
  0.75000000000000000       0.75000000000000000        0.0000000000000000     
  0.78125000000000000       0.75000000000000000        0.0000000000000000     
  0.81250000000000000       0.75000000000000000        0.0000000000000000     
  0.84375000000000000       0.75000000000000000        0.0000000000000000     
  0.87500000000000000       0.75000000000000000        0.0000000000000000     
  0.87500000000000000       0.62500000000000000        0.0000000000000000     
  0.90625000000000000       0.62500000000000000        0.0000000000000000     
  0.93750000000000000       0.62500000000000000        0.0000000000000000     
  0.96875000000000000       0.62500000000000000        0.0000000000000000     
   1.0000000000000000       0.62500000000000000        0.0000000000000000     
  0.87500000000000000       0.65625000000000000        0.0000000000000000     
  0.90625000000000000       0.65625000000000000        0.0000000000000000     
  0.93750000000000000       0.65625000000000000        0.0000000000000000     
  0.96875000000000000       0.65625000000000000        0.0000000000000000     
   1.0000000000000000       0.65625000000000000        0.0000000000000000     
  0.87500000000000000       0.68750000000000000        0.0000000000000000     
  0.90625000000000000       0.68750000000000000        0.0000000000000000     
  0.93750000000000000       0.68750000000000000        0.0000000000000000     
  0.96875000000000000       0.68750000000000000        0.0000000000000000     
   1.0000000000000000       0.68750000000000000        0.0000000000000000     
  0.87500000000000000       0.71875000000000000        0.0000000000000000     
  0.90625000000000000       0.71875000000000000        0.0000000000000000     
  0.93750000000000000       0.71875000000000000        0.0000000000000000     
  0.96875000000000000       0.71875000000000000        0.0000000000000000     
   1.0000000000000000       0.71875000000000000        0.0000000000000000     
  0.87500000000000000       0.75000000000000000        0.0000000000000000     
  0.90625000000000000       0.75000000000000000        0.0000000000000000     
  0.93750000000000000       0.75000000000000000        0.0000000000000000     
  0.96875000000000000       0.75000000000000000        0.0000000000000000     
   1.0000000000000000       0.75000000000000000        0.0000000000000000     
   0.0000000000000000       0.75000000000000000        0.0000000000000000     
   3.1250000000000000E-002  0.75000000000000000        0.0000000000000000     
   6.2500000000000000E-002  0.75000000000000000        0.0000000000000000     
   9.3750000000000000E-002  0.75000000000000000        0.0000000000000000     
  0.12500000000000000       0.75000000000000000        0.0000000000000000     
   0.0000000000000000       0.78125000000000000        0.0000000000000000     
   3.1250000000000000E-002  0.78125000000000000        0.0000000000000000     
   6.2500000000000000E-002  0.78125000000000000        0.0000000000000000     
   9.3750000000000000E-002  0.78125000000000000        0.0000000000000000     
  0.12500000000000000       0.78125000000000000        0.0000000000000000     
   0.0000000000000000       0.81250000000000000        0.0000000000000000     
   3.1250000000000000E-002  0.81250000000000000        0.0000000000000000     
   6.2500000000000000E-002  0.81250000000000000        0.0000000000000000     
   9.3750000000000000E-002  0.81250000000000000        0.0000000000000000     
  0.12500000000000000       0.81250000000000000        0.0000000000000000     
   0.0000000000000000       0.84375000000000000        0.0000000000000000     
   3.1250000000000000E-002  0.84375000000000000        0.0000000000000000     
   6.2500000000000000E-002  0.84375000000000000        0.0000000000000000     
   9.3750000000000000E-002  0.84375000000000000        0.0000000000000000     
  0.12500000000000000       0.84375000000000000        0.0000000000000000     
   0.0000000000000000       0.87500000000000000        0.0000000000000000     
   3.1250000000000000E-002  0.87500000000000000        0.0000000000000000     
   6.2500000000000000E-002  0.87500000000000000        0.0000000000000000     
   9.3750000000000000E-002  0.87500000000000000        0.0000000000000000     
  0.12500000000000000       0.87500000000000000        0.0000000000000000     
  0.12500000000000000       0.75000000000000000        0.0000000000000000     
  0.15625000000000000       0.75000000000000000        0.0000000000000000     
  0.18750000000000000       0.75000000000000000        0.0000000000000000     
  0.21875000000000000       0.75000000000000000        0.0000000000000000     
  0.25000000000000000       0.75000000000000000        0.0000000000000000     
  0.12500000000000000       0.78125000000000000        0.0000000000000000     
  0.15625000000000000       0.78125000000000000        0.0000000000000000     
  0.18750000000000000       0.78125000000000000        0.0000000000000000     
  0.21875000000000000       0.78125000000000000        0.0000000000000000     
  0.25000000000000000       0.78125000000000000        0.0000000000000000     
  0.12500000000000000       0.81250000000000000        0.0000000000000000     
  0.15625000000000000       0.81250000000000000        0.0000000000000000     
  0.18750000000000000       0.81250000000000000        0.0000000000000000     
  0.21875000000000000       0.81250000000000000        0.0000000000000000     
  0.25000000000000000       0.81250000000000000        0.0000000000000000     
  0.12500000000000000       0.84375000000000000        0.0000000000000000     
  0.15625000000000000       0.84375000000000000        0.0000000000000000     
  0.18750000000000000       0.84375000000000000        0.0000000000000000     
  0.21875000000000000       0.84375000000000000        0.0000000000000000     
  0.25000000000000000       0.84375000000000000        0.0000000000000000     
  0.12500000000000000       0.87500000000000000        0.0000000000000000     
  0.15625000000000000       0.87500000000000000        0.0000000000000000     
  0.18750000000000000       0.87500000000000000        0.0000000000000000     
  0.21875000000000000       0.87500000000000000        0.0000000000000000     
  0.25000000000000000       0.87500000000000000        0.0000000000000000     
  0.25000000000000000       0.75000000000000000        0.0000000000000000     
  0.28125000000000000       0.75000000000000000        0.0000000000000000     
  0.31250000000000000       0.75000000000000000        0.0000000000000000     
  0.34375000000000000       0.75000000000000000        0.0000000000000000     
  0.37500000000000000       0.75000000000000000        0.0000000000000000     
  0.25000000000000000       0.78125000000000000        0.0000000000000000     
  0.28125000000000000       0.78125000000000000        0.0000000000000000     
  0.31250000000000000       0.78125000000000000        0.0000000000000000     
  0.34375000000000000       0.78125000000000000        0.0000000000000000     
  0.37500000000000000       0.78125000000000000        0.0000000000000000     
  0.25000000000000000       0.81250000000000000        0.0000000000000000     
  0.28125000000000000       0.81250000000000000        0.0000000000000000     
  0.31250000000000000       0.81250000000000000        0.0000000000000000     
  0.34375000000000000       0.81250000000000000        0.0000000000000000     
  0.37500000000000000       0.81250000000000000        0.0000000000000000     
  0.25000000000000000       0.84375000000000000        0.0000000000000000     
  0.28125000000000000       0.84375000000000000        0.0000000000000000     
  0.31250000000000000       0.84375000000000000        0.0000000000000000     
  0.34375000000000000       0.84375000000000000        0.0000000000000000     
  0.37500000000000000       0.84375000000000000        0.0000000000000000     
  0.25000000000000000       0.87500000000000000        0.0000000000000000     
  0.28125000000000000       0.87500000000000000        0.0000000000000000     
  0.31250000000000000       0.87500000000000000        0.0000000000000000     
  0.34375000000000000       0.87500000000000000        0.0000000000000000     
  0.37500000000000000       0.87500000000000000        0.0000000000000000     
  0.37500000000000000       0.75000000000000000        0.0000000000000000     
  0.40625000000000000       0.75000000000000000        0.0000000000000000     
  0.43750000000000000       0.75000000000000000        0.0000000000000000     
  0.46875000000000000       0.75000000000000000        0.0000000000000000     
  0.50000000000000000       0.75000000000000000        0.0000000000000000     
  0.37500000000000000       0.78125000000000000        0.0000000000000000     
  0.40625000000000000       0.78125000000000000        0.0000000000000000     
  0.43750000000000000       0.78125000000000000        0.0000000000000000     
  0.46875000000000000       0.78125000000000000        0.0000000000000000     
  0.50000000000000000       0.78125000000000000        0.0000000000000000     
  0.37500000000000000       0.81250000000000000        0.0000000000000000     
  0.40625000000000000       0.81250000000000000        0.0000000000000000     
  0.43750000000000000       0.81250000000000000        0.0000000000000000     
  0.46875000000000000       0.81250000000000000        0.0000000000000000     
  0.50000000000000000       0.81250000000000000        0.0000000000000000     
  0.37500000000000000       0.84375000000000000        0.0000000000000000     
  0.40625000000000000       0.84375000000000000        0.0000000000000000     
  0.43750000000000000       0.84375000000000000        0.0000000000000000     
  0.46875000000000000       0.84375000000000000        0.0000000000000000     
  0.50000000000000000       0.84375000000000000        0.0000000000000000     
  0.37500000000000000       0.87500000000000000        0.0000000000000000     
  0.40625000000000000       0.87500000000000000        0.0000000000000000     
  0.43750000000000000       0.87500000000000000        0.0000000000000000     
  0.46875000000000000       0.87500000000000000        0.0000000000000000     
  0.50000000000000000       0.87500000000000000        0.0000000000000000     
  0.50000000000000000       0.75000000000000000        0.0000000000000000     
  0.53125000000000000       0.75000000000000000        0.0000000000000000     
  0.56250000000000000       0.75000000000000000        0.0000000000000000     
  0.59375000000000000       0.75000000000000000        0.0000000000000000     
  0.62500000000000000       0.75000000000000000        0.0000000000000000     
  0.50000000000000000       0.78125000000000000        0.0000000000000000     
  0.53125000000000000       0.78125000000000000        0.0000000000000000     
  0.56250000000000000       0.78125000000000000        0.0000000000000000     
  0.59375000000000000       0.78125000000000000        0.0000000000000000     
  0.62500000000000000       0.78125000000000000        0.0000000000000000     
  0.50000000000000000       0.81250000000000000        0.0000000000000000     
  0.53125000000000000       0.81250000000000000        0.0000000000000000     
  0.56250000000000000       0.81250000000000000        0.0000000000000000     
  0.59375000000000000       0.81250000000000000        0.0000000000000000     
  0.62500000000000000       0.81250000000000000        0.0000000000000000     
  0.50000000000000000       0.84375000000000000        0.0000000000000000     
  0.53125000000000000       0.84375000000000000        0.0000000000000000     
  0.56250000000000000       0.84375000000000000        0.0000000000000000     
  0.59375000000000000       0.84375000000000000        0.0000000000000000     
  0.62500000000000000       0.84375000000000000        0.0000000000000000     
  0.50000000000000000       0.87500000000000000        0.0000000000000000     
  0.53125000000000000       0.87500000000000000        0.0000000000000000     
  0.56250000000000000       0.87500000000000000        0.0000000000000000     
  0.59375000000000000       0.87500000000000000        0.0000000000000000     
  0.62500000000000000       0.87500000000000000        0.0000000000000000     
  0.62500000000000000       0.75000000000000000        0.0000000000000000     
  0.65625000000000000       0.75000000000000000        0.0000000000000000     
  0.68750000000000000       0.75000000000000000        0.0000000000000000     
  0.71875000000000000       0.75000000000000000        0.0000000000000000     
  0.75000000000000000       0.75000000000000000        0.0000000000000000     
  0.62500000000000000       0.78125000000000000        0.0000000000000000     
  0.65625000000000000       0.78125000000000000        0.0000000000000000     
  0.68750000000000000       0.78125000000000000        0.0000000000000000     
  0.71875000000000000       0.78125000000000000        0.0000000000000000     
  0.75000000000000000       0.78125000000000000        0.0000000000000000     
  0.62500000000000000       0.81250000000000000        0.0000000000000000     
  0.65625000000000000       0.81250000000000000        0.0000000000000000     
  0.68750000000000000       0.81250000000000000        0.0000000000000000     
  0.71875000000000000       0.81250000000000000        0.0000000000000000     
  0.75000000000000000       0.81250000000000000        0.0000000000000000     
  0.62500000000000000       0.84375000000000000        0.0000000000000000     
  0.65625000000000000       0.84375000000000000        0.0000000000000000     
  0.68750000000000000       0.84375000000000000        0.0000000000000000     
  0.71875000000000000       0.84375000000000000        0.0000000000000000     
  0.75000000000000000       0.84375000000000000        0.0000000000000000     
  0.62500000000000000       0.87500000000000000        0.0000000000000000     
  0.65625000000000000       0.87500000000000000        0.0000000000000000     
  0.68750000000000000       0.87500000000000000        0.0000000000000000     
  0.71875000000000000       0.87500000000000000        0.0000000000000000     
  0.75000000000000000       0.87500000000000000        0.0000000000000000     
  0.75000000000000000       0.75000000000000000        0.0000000000000000     
  0.78125000000000000       0.75000000000000000        0.0000000000000000     
  0.81250000000000000       0.75000000000000000        0.0000000000000000     
  0.84375000000000000       0.75000000000000000        0.0000000000000000     
  0.87500000000000000       0.75000000000000000        0.0000000000000000     
  0.75000000000000000       0.78125000000000000        0.0000000000000000     
  0.78125000000000000       0.78125000000000000        0.0000000000000000     
  0.81250000000000000       0.78125000000000000        0.0000000000000000     
  0.84375000000000000       0.78125000000000000        0.0000000000000000     
  0.87500000000000000       0.78125000000000000        0.0000000000000000     
  0.75000000000000000       0.81250000000000000        0.0000000000000000     
  0.78125000000000000       0.81250000000000000        0.0000000000000000     
  0.81250000000000000       0.81250000000000000        0.0000000000000000     
  0.84375000000000000       0.81250000000000000        0.0000000000000000     
  0.87500000000000000       0.81250000000000000        0.0000000000000000     
  0.75000000000000000       0.84375000000000000        0.0000000000000000     
  0.78125000000000000       0.84375000000000000        0.0000000000000000     
  0.81250000000000000       0.84375000000000000        0.0000000000000000     
  0.84375000000000000       0.84375000000000000        0.0000000000000000     
  0.87500000000000000       0.84375000000000000        0.0000000000000000     
  0.75000000000000000       0.87500000000000000        0.0000000000000000     
  0.78125000000000000       0.87500000000000000        0.0000000000000000     
  0.81250000000000000       0.87500000000000000        0.0000000000000000     
  0.84375000000000000       0.87500000000000000        0.0000000000000000     
  0.87500000000000000       0.87500000000000000        0.0000000000000000     
  0.87500000000000000       0.75000000000000000        0.0000000000000000     
  0.90625000000000000       0.75000000000000000        0.0000000000000000     
  0.93750000000000000       0.75000000000000000        0.0000000000000000     
  0.96875000000000000       0.75000000000000000        0.0000000000000000     
   1.0000000000000000       0.75000000000000000        0.0000000000000000     
  0.87500000000000000       0.78125000000000000        0.0000000000000000     
  0.90625000000000000       0.78125000000000000        0.0000000000000000     
  0.93750000000000000       0.78125000000000000        0.0000000000000000     
  0.96875000000000000       0.78125000000000000        0.0000000000000000     
   1.0000000000000000       0.78125000000000000        0.0000000000000000     
  0.87500000000000000       0.81250000000000000        0.0000000000000000     
  0.90625000000000000       0.81250000000000000        0.0000000000000000     
  0.93750000000000000       0.81250000000000000        0.0000000000000000     
  0.96875000000000000       0.81250000000000000        0.0000000000000000     
   1.0000000000000000       0.81250000000000000        0.0000000000000000     
  0.87500000000000000       0.84375000000000000        0.0000000000000000     
  0.90625000000000000       0.84375000000000000        0.0000000000000000     
  0.93750000000000000       0.84375000000000000        0.0000000000000000     
  0.96875000000000000       0.84375000000000000        0.0000000000000000     
   1.0000000000000000       0.84375000000000000        0.0000000000000000     
  0.87500000000000000       0.87500000000000000        0.0000000000000000     
  0.90625000000000000       0.87500000000000000        0.0000000000000000     
  0.93750000000000000       0.87500000000000000        0.0000000000000000     
  0.96875000000000000       0.87500000000000000        0.0000000000000000     
   1.0000000000000000       0.87500000000000000        0.0000000000000000     
   0.0000000000000000       0.87500000000000000        0.0000000000000000     
   3.1250000000000000E-002  0.87500000000000000        0.0000000000000000     
   6.2500000000000000E-002  0.87500000000000000        0.0000000000000000     
   9.3750000000000000E-002  0.87500000000000000        0.0000000000000000     
  0.12500000000000000       0.87500000000000000        0.0000000000000000     
   0.0000000000000000       0.90625000000000000        0.0000000000000000     
   3.1250000000000000E-002  0.90625000000000000        0.0000000000000000     
   6.2500000000000000E-002  0.90625000000000000        0.0000000000000000     
   9.3750000000000000E-002  0.90625000000000000        0.0000000000000000     
  0.12500000000000000       0.90625000000000000        0.0000000000000000     
   0.0000000000000000       0.93750000000000000        0.0000000000000000     
   3.1250000000000000E-002  0.93750000000000000        0.0000000000000000     
   6.2500000000000000E-002  0.93750000000000000        0.0000000000000000     
   9.3750000000000000E-002  0.93750000000000000        0.0000000000000000     
  0.12500000000000000       0.93750000000000000        0.0000000000000000     
   0.0000000000000000       0.96875000000000000        0.0000000000000000     
   3.1250000000000000E-002  0.96875000000000000        0.0000000000000000     
   6.2500000000000000E-002  0.96875000000000000        0.0000000000000000     
   9.3750000000000000E-002  0.96875000000000000        0.0000000000000000     
  0.12500000000000000       0.96875000000000000        0.0000000000000000     
   0.0000000000000000        1.0000000000000000        0.0000000000000000     
   3.1250000000000000E-002   1.0000000000000000        0.0000000000000000     
   6.2500000000000000E-002   1.0000000000000000        0.0000000000000000     
   9.3750000000000000E-002   1.0000000000000000        0.0000000000000000     
  0.12500000000000000        1.0000000000000000        0.0000000000000000     
  0.12500000000000000       0.87500000000000000        0.0000000000000000     
  0.15625000000000000       0.87500000000000000        0.0000000000000000     
  0.18750000000000000       0.87500000000000000        0.0000000000000000     
  0.21875000000000000       0.87500000000000000        0.0000000000000000     
  0.25000000000000000       0.87500000000000000        0.0000000000000000     
  0.12500000000000000       0.90625000000000000        0.0000000000000000     
  0.15625000000000000       0.90625000000000000        0.0000000000000000     
  0.18750000000000000       0.90625000000000000        0.0000000000000000     
  0.21875000000000000       0.90625000000000000        0.0000000000000000     
  0.25000000000000000       0.90625000000000000        0.0000000000000000     
  0.12500000000000000       0.93750000000000000        0.0000000000000000     
  0.15625000000000000       0.93750000000000000        0.0000000000000000     
  0.18750000000000000       0.93750000000000000        0.0000000000000000     
  0.21875000000000000       0.93750000000000000        0.0000000000000000     
  0.25000000000000000       0.93750000000000000        0.0000000000000000     
  0.12500000000000000       0.96875000000000000        0.0000000000000000     
  0.15625000000000000       0.96875000000000000        0.0000000000000000     
  0.18750000000000000       0.96875000000000000        0.0000000000000000     
  0.21875000000000000       0.96875000000000000        0.0000000000000000     
  0.25000000000000000       0.96875000000000000        0.0000000000000000     
  0.12500000000000000        1.0000000000000000        0.0000000000000000     
  0.15625000000000000        1.0000000000000000        0.0000000000000000     
  0.18750000000000000        1.0000000000000000        0.0000000000000000     
  0.21875000000000000        1.0000000000000000        0.0000000000000000     
  0.25000000000000000        1.0000000000000000        0.0000000000000000     
  0.25000000000000000       0.87500000000000000        0.0000000000000000     
  0.28125000000000000       0.87500000000000000        0.0000000000000000     
  0.31250000000000000       0.87500000000000000        0.0000000000000000     
  0.34375000000000000       0.87500000000000000        0.0000000000000000     
  0.37500000000000000       0.87500000000000000        0.0000000000000000     
  0.25000000000000000       0.90625000000000000        0.0000000000000000     
  0.28125000000000000       0.90625000000000000        0.0000000000000000     
  0.31250000000000000       0.90625000000000000        0.0000000000000000     
  0.34375000000000000       0.90625000000000000        0.0000000000000000     
  0.37500000000000000       0.90625000000000000        0.0000000000000000     
  0.25000000000000000       0.93750000000000000        0.0000000000000000     
  0.28125000000000000       0.93750000000000000        0.0000000000000000     
  0.31250000000000000       0.93750000000000000        0.0000000000000000     
  0.34375000000000000       0.93750000000000000        0.0000000000000000     
  0.37500000000000000       0.93750000000000000        0.0000000000000000     
  0.25000000000000000       0.96875000000000000        0.0000000000000000     
  0.28125000000000000       0.96875000000000000        0.0000000000000000     
  0.31250000000000000       0.96875000000000000        0.0000000000000000     
  0.34375000000000000       0.96875000000000000        0.0000000000000000     
  0.37500000000000000       0.96875000000000000        0.0000000000000000     
  0.25000000000000000        1.0000000000000000        0.0000000000000000     
  0.28125000000000000        1.0000000000000000        0.0000000000000000     
  0.31250000000000000        1.0000000000000000        0.0000000000000000     
  0.34375000000000000        1.0000000000000000        0.0000000000000000     
  0.37500000000000000        1.0000000000000000        0.0000000000000000     
  0.37500000000000000       0.87500000000000000        0.0000000000000000     
  0.40625000000000000       0.87500000000000000        0.0000000000000000     
  0.43750000000000000       0.87500000000000000        0.0000000000000000     
  0.46875000000000000       0.87500000000000000        0.0000000000000000     
  0.50000000000000000       0.87500000000000000        0.0000000000000000     
  0.37500000000000000       0.90625000000000000        0.0000000000000000     
  0.40625000000000000       0.90625000000000000        0.0000000000000000     
  0.43750000000000000       0.90625000000000000        0.0000000000000000     
  0.46875000000000000       0.90625000000000000        0.0000000000000000     
  0.50000000000000000       0.90625000000000000        0.0000000000000000     
  0.37500000000000000       0.93750000000000000        0.0000000000000000     
  0.40625000000000000       0.93750000000000000        0.0000000000000000     
  0.43750000000000000       0.93750000000000000        0.0000000000000000     
  0.46875000000000000       0.93750000000000000        0.0000000000000000     
  0.50000000000000000       0.93750000000000000        0.0000000000000000     
  0.37500000000000000       0.96875000000000000        0.0000000000000000     
  0.40625000000000000       0.96875000000000000        0.0000000000000000     
  0.43750000000000000       0.96875000000000000        0.0000000000000000     
  0.46875000000000000       0.96875000000000000        0.0000000000000000     
  0.50000000000000000       0.96875000000000000        0.0000000000000000     
  0.37500000000000000        1.0000000000000000        0.0000000000000000     
  0.40625000000000000        1.0000000000000000        0.0000000000000000     
  0.43750000000000000        1.0000000000000000        0.0000000000000000     
  0.46875000000000000        1.0000000000000000        0.0000000000000000     
  0.50000000000000000        1.0000000000000000        0.0000000000000000     
  0.50000000000000000       0.87500000000000000        0.0000000000000000     
  0.53125000000000000       0.87500000000000000        0.0000000000000000     
  0.56250000000000000       0.87500000000000000        0.0000000000000000     
  0.59375000000000000       0.87500000000000000        0.0000000000000000     
  0.62500000000000000       0.87500000000000000        0.0000000000000000     
  0.50000000000000000       0.90625000000000000        0.0000000000000000     
  0.53125000000000000       0.90625000000000000        0.0000000000000000     
  0.56250000000000000       0.90625000000000000        0.0000000000000000     
  0.59375000000000000       0.90625000000000000        0.0000000000000000     
  0.62500000000000000       0.90625000000000000        0.0000000000000000     
  0.50000000000000000       0.93750000000000000        0.0000000000000000     
  0.53125000000000000       0.93750000000000000        0.0000000000000000     
  0.56250000000000000       0.93750000000000000        0.0000000000000000     
  0.59375000000000000       0.93750000000000000        0.0000000000000000     
  0.62500000000000000       0.93750000000000000        0.0000000000000000     
  0.50000000000000000       0.96875000000000000        0.0000000000000000     
  0.53125000000000000       0.96875000000000000        0.0000000000000000     
  0.56250000000000000       0.96875000000000000        0.0000000000000000     
  0.59375000000000000       0.96875000000000000        0.0000000000000000     
  0.62500000000000000       0.96875000000000000        0.0000000000000000     
  0.50000000000000000        1.0000000000000000        0.0000000000000000     
  0.53125000000000000        1.0000000000000000        0.0000000000000000     
  0.56250000000000000        1.0000000000000000        0.0000000000000000     
  0.59375000000000000        1.0000000000000000        0.0000000000000000     
  0.62500000000000000        1.0000000000000000        0.0000000000000000     
  0.62500000000000000       0.87500000000000000        0.0000000000000000     
  0.65625000000000000       0.87500000000000000        0.0000000000000000     
  0.68750000000000000       0.87500000000000000        0.0000000000000000     
  0.71875000000000000       0.87500000000000000        0.0000000000000000     
  0.75000000000000000       0.87500000000000000        0.0000000000000000     
  0.62500000000000000       0.90625000000000000        0.0000000000000000     
  0.65625000000000000       0.90625000000000000        0.0000000000000000     
  0.68750000000000000       0.90625000000000000        0.0000000000000000     
  0.71875000000000000       0.90625000000000000        0.0000000000000000     
  0.75000000000000000       0.90625000000000000        0.0000000000000000     
  0.62500000000000000       0.93750000000000000        0.0000000000000000     
  0.65625000000000000       0.93750000000000000        0.0000000000000000     
  0.68750000000000000       0.93750000000000000        0.0000000000000000     
  0.71875000000000000       0.93750000000000000        0.0000000000000000     
  0.75000000000000000       0.93750000000000000        0.0000000000000000     
  0.62500000000000000       0.96875000000000000        0.0000000000000000     
  0.65625000000000000       0.96875000000000000        0.0000000000000000     
  0.68750000000000000       0.96875000000000000        0.0000000000000000     
  0.71875000000000000       0.96875000000000000        0.0000000000000000     
  0.75000000000000000       0.96875000000000000        0.0000000000000000     
  0.62500000000000000        1.0000000000000000        0.0000000000000000     
  0.65625000000000000        1.0000000000000000        0.0000000000000000     
  0.68750000000000000        1.0000000000000000        0.0000000000000000     
  0.71875000000000000        1.0000000000000000        0.0000000000000000     
  0.75000000000000000        1.0000000000000000        0.0000000000000000     
  0.75000000000000000       0.87500000000000000        0.0000000000000000     
  0.78125000000000000       0.87500000000000000        0.0000000000000000     
  0.81250000000000000       0.87500000000000000        0.0000000000000000     
  0.84375000000000000       0.87500000000000000        0.0000000000000000     
  0.87500000000000000       0.87500000000000000        0.0000000000000000     
  0.75000000000000000       0.90625000000000000        0.0000000000000000     
  0.78125000000000000       0.90625000000000000        0.0000000000000000     
  0.81250000000000000       0.90625000000000000        0.0000000000000000     
  0.84375000000000000       0.90625000000000000        0.0000000000000000     
  0.87500000000000000       0.90625000000000000        0.0000000000000000     
  0.75000000000000000       0.93750000000000000        0.0000000000000000     
  0.78125000000000000       0.93750000000000000        0.0000000000000000     
  0.81250000000000000       0.93750000000000000        0.0000000000000000     
  0.84375000000000000       0.93750000000000000        0.0000000000000000     
  0.87500000000000000       0.93750000000000000        0.0000000000000000     
  0.75000000000000000       0.96875000000000000        0.0000000000000000     
  0.78125000000000000       0.96875000000000000        0.0000000000000000     
  0.81250000000000000       0.96875000000000000        0.0000000000000000     
  0.84375000000000000       0.96875000000000000        0.0000000000000000     
  0.87500000000000000       0.96875000000000000        0.0000000000000000     
  0.75000000000000000        1.0000000000000000        0.0000000000000000     
  0.78125000000000000        1.0000000000000000        0.0000000000000000     
  0.81250000000000000        1.0000000000000000        0.0000000000000000     
  0.84375000000000000        1.0000000000000000        0.0000000000000000     
  0.87500000000000000        1.0000000000000000        0.0000000000000000     
  0.87500000000000000       0.87500000000000000        0.0000000000000000     
  0.90625000000000000       0.87500000000000000        0.0000000000000000     
  0.93750000000000000       0.87500000000000000        0.0000000000000000     
  0.96875000000000000       0.87500000000000000        0.0000000000000000     
   1.0000000000000000       0.87500000000000000        0.0000000000000000     
  0.87500000000000000       0.90625000000000000        0.0000000000000000     
  0.90625000000000000       0.90625000000000000        0.0000000000000000     
  0.93750000000000000       0.90625000000000000        0.0000000000000000     
  0.96875000000000000       0.90625000000000000        0.0000000000000000     
   1.0000000000000000       0.90625000000000000        0.0000000000000000     
  0.87500000000000000       0.93750000000000000        0.0000000000000000     
  0.90625000000000000       0.93750000000000000        0.0000000000000000     
  0.93750000000000000       0.93750000000000000        0.0000000000000000     
  0.96875000000000000       0.93750000000000000        0.0000000000000000     
   1.0000000000000000       0.93750000000000000        0.0000000000000000     
  0.87500000000000000       0.96875000000000000        0.0000000000000000     
  0.90625000000000000       0.96875000000000000        0.0000000000000000     
  0.93750000000000000       0.96875000000000000        0.0000000000000000     
  0.96875000000000000       0.96875000000000000        0.0000000000000000     
   1.0000000000000000       0.96875000000000000        0.0000000000000000     
  0.87500000000000000        1.0000000000000000        0.0000000000000000     
  0.90625000000000000        1.0000000000000000        0.0000000000000000     
  0.93750000000000000        1.0000000000000000        0.0000000000000000     
  0.96875000000000000        1.0000000000000000        0.0000000000000000     
   1.0000000000000000        1.0000000000000000        0.0000000000000000     
 </DataArray>
 </Points>
 <Cells>
 <DataArray  type="Int32"  Name="connectivity"  format="ascii">
           0           1           6           5
           1           2           7           6
           2           3           8           7
           3           4           9           8
           5           6          11          10
           6           7          12          11
           7           8          13          12
           8           9          14          13
          10          11          16          15
          11          12          17          16
          12          13          18          17
          13          14          19          18
          15          16          21          20
          16          17          22          21
          17          18          23          22
          18          19          24          23
          25          26          31          30
          26          27          32          31
          27          28          33          32
          28          29          34          33
          30          31          36          35
          31          32          37          36
          32          33          38          37
          33          34          39          38
          35          36          41          40
          36          37          42          41
          37          38          43          42
          38          39          44          43
          40          41          46          45
          41          42          47          46
          42          43          48          47
          43          44          49          48
          50          51          56          55
          51          52          57          56
          52          53          58          57
          53          54          59          58
          55          56          61          60
          56          57          62          61
          57          58          63          62
          58          59          64          63
          60          61          66          65
          61          62          67          66
          62          63          68          67
          63          64          69          68
          65          66          71          70
          66          67          72          71
          67          68          73          72
          68          69          74          73
          75          76          81          80
          76          77          82          81
          77          78          83          82
          78          79          84          83
          80          81          86          85
          81          82          87          86
          82          83          88          87
          83          84          89          88
          85          86          91          90
          86          87          92          91
          87          88          93          92
          88          89          94          93
          90          91          96          95
          91          92          97          96
          92          93          98          97
          93          94          99          98
         100         101         106         105
         101         102         107         106
         102         103         108         107
         103         104         109         108
         105         106         111         110
         106         107         112         111
         107         108         113         112
         108         109         114         113
         110         111         116         115
         111         112         117         116
         112         113         118         117
         113         114         119         118
         115         116         121         120
         116         117         122         121
         117         118         123         122
         118         119         124         123
         125         126         131         130
         126         127         132         131
         127         128         133         132
         128         129         134         133
         130         131         136         135
         131         132         137         136
         132         133         138         137
         133         134         139         138
         135         136         141         140
         136         137         142         141
         137         138         143         142
         138         139         144         143
         140         141         146         145
         141         142         147         146
         142         143         148         147
         143         144         149         148
         150         151         156         155
         151         152         157         156
         152         153         158         157
         153         154         159         158
         155         156         161         160
         156         157         162         161
         157         158         163         162
         158         159         164         163
         160         161         166         165
         161         162         167         166
         162         163         168         167
         163         164         169         168
         165         166         171         170
         166         167         172         171
         167         168         173         172
         168         169         174         173
         175         176         181         180
         176         177         182         181
         177         178         183         182
         178         179         184         183
         180         181         186         185
         181         182         187         186
         182         183         188         187
         183         184         189         188
         185         186         191         190
         186         187         192         191
         187         188         193         192
         188         189         194         193
         190         191         196         195
         191         192         197         196
         192         193         198         197
         193         194         199         198
         200         201         206         205
         201         202         207         206
         202         203         208         207
         203         204         209         208
         205         206         211         210
         206         207         212         211
         207         208         213         212
         208         209         214         213
         210         211         216         215
         211         212         217         216
         212         213         218         217
         213         214         219         218
         215         216         221         220
         216         217         222         221
         217         218         223         222
         218         219         224         223
         225         226         231         230
         226         227         232         231
         227         228         233         232
         228         229         234         233
         230         231         236         235
         231         232         237         236
         232         233         238         237
         233         234         239         238
         235         236         241         240
         236         237         242         241
         237         238         243         242
         238         239         244         243
         240         241         246         245
         241         242         247         246
         242         243         248         247
         243         244         249         248
         250         251         256         255
         251         252         257         256
         252         253         258         257
         253         254         259         258
         255         256         261         260
         256         257         262         261
         257         258         263         262
         258         259         264         263
         260         261         266         265
         261         262         267         266
         262         263         268         267
         263         264         269         268
         265         266         271         270
         266         267         272         271
         267         268         273         272
         268         269         274         273
         275         276         281         280
         276         277         282         281
         277         278         283         282
         278         279         284         283
         280         281         286         285
         281         282         287         286
         282         283         288         287
         283         284         289         288
         285         286         291         290
         286         287         292         291
         287         288         293         292
         288         289         294         293
         290         291         296         295
         291         292         297         296
         292         293         298         297
         293         294         299         298
         300         301         306         305
         301         302         307         306
         302         303         308         307
         303         304         309         308
         305         306         311         310
         306         307         312         311
         307         308         313         312
         308         309         314         313
         310         311         316         315
         311         312         317         316
         312         313         318         317
         313         314         319         318
         315         316         321         320
         316         317         322         321
         317         318         323         322
         318         319         324         323
         325         326         331         330
         326         327         332         331
         327         328         333         332
         328         329         334         333
         330         331         336         335
         331         332         337         336
         332         333         338         337
         333         334         339         338
         335         336         341         340
         336         337         342         341
         337         338         343         342
         338         339         344         343
         340         341         346         345
         341         342         347         346
         342         343         348         347
         343         344         349         348
         350         351         356         355
         351         352         357         356
         352         353         358         357
         353         354         359         358
         355         356         361         360
         356         357         362         361
         357         358         363         362
         358         359         364         363
         360         361         366         365
         361         362         367         366
         362         363         368         367
         363         364         369         368
         365         366         371         370
         366         367         372         371
         367         368         373         372
         368         369         374         373
         375         376         381         380
         376         377         382         381
         377         378         383         382
         378         379         384         383
         380         381         386         385
         381         382         387         386
         382         383         388         387
         383         384         389         388
         385         386         391         390
         386         387         392         391
         387         388         393         392
         388         389         394         393
         390         391         396         395
         391         392         397         396
         392         393         398         397
         393         394         399         398
         400         401         406         405
         401         402         407         406
         402         403         408         407
         403         404         409         408
         405         406         411         410
         406         407         412         411
         407         408         413         412
         408         409         414         413
         410         411         416         415
         411         412         417         416
         412         413         418         417
         413         414         419         418
         415         416         421         420
         416         417         422         421
         417         418         423         422
         418         419         424         423
         425         426         431         430
         426         427         432         431
         427         428         433         432
         428         429         434         433
         430         431         436         435
         431         432         437         436
         432         433         438         437
         433         434         439         438
         435         436         441         440
         436         437         442         441
         437         438         443         442
         438         439         444         443
         440         441         446         445
         441         442         447         446
         442         443         448         447
         443         444         449         448
         450         451         456         455
         451         452         457         456
         452         453         458         457
         453         454         459         458
         455         456         461         460
         456         457         462         461
         457         458         463         462
         458         459         464         463
         460         461         466         465
         461         462         467         466
         462         463         468         467
         463         464         469         468
         465         466         471         470
         466         467         472         471
         467         468         473         472
         468         469         474         473
         475         476         481         480
         476         477         482         481
         477         478         483         482
         478         479         484         483
         480         481         486         485
         481         482         487         486
         482         483         488         487
         483         484         489         488
         485         486         491         490
         486         487         492         491
         487         488         493         492
         488         489         494         493
         490         491         496         495
         491         492         497         496
         492         493         498         497
         493         494         499         498
         500         501         506         505
         501         502         507         506
         502         503         508         507
         503         504         509         508
         505         506         511         510
         506         507         512         511
         507         508         513         512
         508         509         514         513
         510         511         516         515
         511         512         517         516
         512         513         518         517
         513         514         519         518
         515         516         521         520
         516         517         522         521
         517         518         523         522
         518         519         524         523
         525         526         531         530
         526         527         532         531
         527         528         533         532
         528         529         534         533
         530         531         536         535
         531         532         537         536
         532         533         538         537
         533         534         539         538
         535         536         541         540
         536         537         542         541
         537         538         543         542
         538         539         544         543
         540         541         546         545
         541         542         547         546
         542         543         548         547
         543         544         549         548
         550         551         556         555
         551         552         557         556
         552         553         558         557
         553         554         559         558
         555         556         561         560
         556         557         562         561
         557         558         563         562
         558         559         564         563
         560         561         566         565
         561         562         567         566
         562         563         568         567
         563         564         569         568
         565         566         571         570
         566         567         572         571
         567         568         573         572
         568         569         574         573
         575         576         581         580
         576         577         582         581
         577         578         583         582
         578         579         584         583
         580         581         586         585
         581         582         587         586
         582         583         588         587
         583         584         589         588
         585         586         591         590
         586         587         592         591
         587         588         593         592
         588         589         594         593
         590         591         596         595
         591         592         597         596
         592         593         598         597
         593         594         599         598
         600         601         606         605
         601         602         607         606
         602         603         608         607
         603         604         609         608
         605         606         611         610
         606         607         612         611
         607         608         613         612
         608         609         614         613
         610         611         616         615
         611         612         617         616
         612         613         618         617
         613         614         619         618
         615         616         621         620
         616         617         622         621
         617         618         623         622
         618         619         624         623
         625         626         631         630
         626         627         632         631
         627         628         633         632
         628         629         634         633
         630         631         636         635
         631         632         637         636
         632         633         638         637
         633         634         639         638
         635         636         641         640
         636         637         642         641
         637         638         643         642
         638         639         644         643
         640         641         646         645
         641         642         647         646
         642         643         648         647
         643         644         649         648
         650         651         656         655
         651         652         657         656
         652         653         658         657
         653         654         659         658
         655         656         661         660
         656         657         662         661
         657         658         663         662
         658         659         664         663
         660         661         666         665
         661         662         667         666
         662         663         668         667
         663         664         669         668
         665         666         671         670
         666         667         672         671
         667         668         673         672
         668         669         674         673
         675         676         681         680
         676         677         682         681
         677         678         683         682
         678         679         684         683
         680         681         686         685
         681         682         687         686
         682         683         688         687
         683         684         689         688
         685         686         691         690
         686         687         692         691
         687         688         693         692
         688         689         694         693
         690         691         696         695
         691         692         697         696
         692         693         698         697
         693         694         699         698
         700         701         706         705
         701         702         707         706
         702         703         708         707
         703         704         709         708
         705         706         711         710
         706         707         712         711
         707         708         713         712
         708         709         714         713
         710         711         716         715
         711         712         717         716
         712         713         718         717
         713         714         719         718
         715         716         721         720
         716         717         722         721
         717         718         723         722
         718         719         724         723
         725         726         731         730
         726         727         732         731
         727         728         733         732
         728         729         734         733
         730         731         736         735
         731         732         737         736
         732         733         738         737
         733         734         739         738
         735         736         741         740
         736         737         742         741
         737         738         743         742
         738         739         744         743
         740         741         746         745
         741         742         747         746
         742         743         748         747
         743         744         749         748
         750         751         756         755
         751         752         757         756
         752         753         758         757
         753         754         759         758
         755         756         761         760
         756         757         762         761
         757         758         763         762
         758         759         764         763
         760         761         766         765
         761         762         767         766
         762         763         768         767
         763         764         769         768
         765         766         771         770
         766         767         772         771
         767         768         773         772
         768         769         774         773
         775         776         781         780
         776         777         782         781
         777         778         783         782
         778         779         784         783
         780         781         786         785
         781         782         787         786
         782         783         788         787
         783         784         789         788
         785         786         791         790
         786         787         792         791
         787         788         793         792
         788         789         794         793
         790         791         796         795
         791         792         797         796
         792         793         798         797
         793         794         799         798
         800         801         806         805
         801         802         807         806
         802         803         808         807
         803         804         809         808
         805         806         811         810
         806         807         812         811
         807         808         813         812
         808         809         814         813
         810         811         816         815
         811         812         817         816
         812         813         818         817
         813         814         819         818
         815         816         821         820
         816         817         822         821
         817         818         823         822
         818         819         824         823
         825         826         831         830
         826         827         832         831
         827         828         833         832
         828         829         834         833
         830         831         836         835
         831         832         837         836
         832         833         838         837
         833         834         839         838
         835         836         841         840
         836         837         842         841
         837         838         843         842
         838         839         844         843
         840         841         846         845
         841         842         847         846
         842         843         848         847
         843         844         849         848
         850         851         856         855
         851         852         857         856
         852         853         858         857
         853         854         859         858
         855         856         861         860
         856         857         862         861
         857         858         863         862
         858         859         864         863
         860         861         866         865
         861         862         867         866
         862         863         868         867
         863         864         869         868
         865         866         871         870
         866         867         872         871
         867         868         873         872
         868         869         874         873
         875         876         881         880
         876         877         882         881
         877         878         883         882
         878         879         884         883
         880         881         886         885
         881         882         887         886
         882         883         888         887
         883         884         889         888
         885         886         891         890
         886         887         892         891
         887         888         893         892
         888         889         894         893
         890         891         896         895
         891         892         897         896
         892         893         898         897
         893         894         899         898
         900         901         906         905
         901         902         907         906
         902         903         908         907
         903         904         909         908
         905         906         911         910
         906         907         912         911
         907         908         913         912
         908         909         914         913
         910         911         916         915
         911         912         917         916
         912         913         918         917
         913         914         919         918
         915         916         921         920
         916         917         922         921
         917         918         923         922
         918         919         924         923
         925         926         931         930
         926         927         932         931
         927         928         933         932
         928         929         934         933
         930         931         936         935
         931         932         937         936
         932         933         938         937
         933         934         939         938
         935         936         941         940
         936         937         942         941
         937         938         943         942
         938         939         944         943
         940         941         946         945
         941         942         947         946
         942         943         948         947
         943         944         949         948
         950         951         956         955
         951         952         957         956
         952         953         958         957
         953         954         959         958
         955         956         961         960
         956         957         962         961
         957         958         963         962
         958         959         964         963
         960         961         966         965
         961         962         967         966
         962         963         968         967
         963         964         969         968
         965         966         971         970
         966         967         972         971
         967         968         973         972
         968         969         974         973
         975         976         981         980
         976         977         982         981
         977         978         983         982
         978         979         984         983
         980         981         986         985
         981         982         987         986
         982         983         988         987
         983         984         989         988
         985         986         991         990
         986         987         992         991
         987         988         993         992
         988         989         994         993
         990         991         996         995
         991         992         997         996
         992         993         998         997
         993         994         999         998
        1000        1001        1006        1005
        1001        1002        1007        1006
        1002        1003        1008        1007
        1003        1004        1009        1008
        1005        1006        1011        1010
        1006        1007        1012        1011
        1007        1008        1013        1012
        1008        1009        1014        1013
        1010        1011        1016        1015
        1011        1012        1017        1016
        1012        1013        1018        1017
        1013        1014        1019        1018
        1015        1016        1021        1020
        1016        1017        1022        1021
        1017        1018        1023        1022
        1018        1019        1024        1023
        1025        1026        1031        1030
        1026        1027        1032        1031
        1027        1028        1033        1032
        1028        1029        1034        1033
        1030        1031        1036        1035
        1031        1032        1037        1036
        1032        1033        1038        1037
        1033        1034        1039        1038
        1035        1036        1041        1040
        1036        1037        1042        1041
        1037        1038        1043        1042
        1038        1039        1044        1043
        1040        1041        1046        1045
        1041        1042        1047        1046
        1042        1043        1048        1047
        1043        1044        1049        1048
        1050        1051        1056        1055
        1051        1052        1057        1056
        1052        1053        1058        1057
        1053        1054        1059        1058
        1055        1056        1061        1060
        1056        1057        1062        1061
        1057        1058        1063        1062
        1058        1059        1064        1063
        1060        1061        1066        1065
        1061        1062        1067        1066
        1062        1063        1068        1067
        1063        1064        1069        1068
        1065        1066        1071        1070
        1066        1067        1072        1071
        1067        1068        1073        1072
        1068        1069        1074        1073
        1075        1076        1081        1080
        1076        1077        1082        1081
        1077        1078        1083        1082
        1078        1079        1084        1083
        1080        1081        1086        1085
        1081        1082        1087        1086
        1082        1083        1088        1087
        1083        1084        1089        1088
        1085        1086        1091        1090
        1086        1087        1092        1091
        1087        1088        1093        1092
        1088        1089        1094        1093
        1090        1091        1096        1095
        1091        1092        1097        1096
        1092        1093        1098        1097
        1093        1094        1099        1098
        1100        1101        1106        1105
        1101        1102        1107        1106
        1102        1103        1108        1107
        1103        1104        1109        1108
        1105        1106        1111        1110
        1106        1107        1112        1111
        1107        1108        1113        1112
        1108        1109        1114        1113
        1110        1111        1116        1115
        1111        1112        1117        1116
        1112        1113        1118        1117
        1113        1114        1119        1118
        1115        1116        1121        1120
        1116        1117        1122        1121
        1117        1118        1123        1122
        1118        1119        1124        1123
        1125        1126        1131        1130
        1126        1127        1132        1131
        1127        1128        1133        1132
        1128        1129        1134        1133
        1130        1131        1136        1135
        1131        1132        1137        1136
        1132        1133        1138        1137
        1133        1134        1139        1138
        1135        1136        1141        1140
        1136        1137        1142        1141
        1137        1138        1143        1142
        1138        1139        1144        1143
        1140        1141        1146        1145
        1141        1142        1147        1146
        1142        1143        1148        1147
        1143        1144        1149        1148
        1150        1151        1156        1155
        1151        1152        1157        1156
        1152        1153        1158        1157
        1153        1154        1159        1158
        1155        1156        1161        1160
        1156        1157        1162        1161
        1157        1158        1163        1162
        1158        1159        1164        1163
        1160        1161        1166        1165
        1161        1162        1167        1166
        1162        1163        1168        1167
        1163        1164        1169        1168
        1165        1166        1171        1170
        1166        1167        1172        1171
        1167        1168        1173        1172
        1168        1169        1174        1173
        1175        1176        1181        1180
        1176        1177        1182        1181
        1177        1178        1183        1182
        1178        1179        1184        1183
        1180        1181        1186        1185
        1181        1182        1187        1186
        1182        1183        1188        1187
        1183        1184        1189        1188
        1185        1186        1191        1190
        1186        1187        1192        1191
        1187        1188        1193        1192
        1188        1189        1194        1193
        1190        1191        1196        1195
        1191        1192        1197        1196
        1192        1193        1198        1197
        1193        1194        1199        1198
        1200        1201        1206        1205
        1201        1202        1207        1206
        1202        1203        1208        1207
        1203        1204        1209        1208
        1205        1206        1211        1210
        1206        1207        1212        1211
        1207        1208        1213        1212
        1208        1209        1214        1213
        1210        1211        1216        1215
        1211        1212        1217        1216
        1212        1213        1218        1217
        1213        1214        1219        1218
        1215        1216        1221        1220
        1216        1217        1222        1221
        1217        1218        1223        1222
        1218        1219        1224        1223
        1225        1226        1231        1230
        1226        1227        1232        1231
        1227        1228        1233        1232
        1228        1229        1234        1233
        1230        1231        1236        1235
        1231        1232        1237        1236
        1232        1233        1238        1237
        1233        1234        1239        1238
        1235        1236        1241        1240
        1236        1237        1242        1241
        1237        1238        1243        1242
        1238        1239        1244        1243
        1240        1241        1246        1245
        1241        1242        1247        1246
        1242        1243        1248        1247
        1243        1244        1249        1248
        1250        1251        1256        1255
        1251        1252        1257        1256
        1252        1253        1258        1257
        1253        1254        1259        1258
        1255        1256        1261        1260
        1256        1257        1262        1261
        1257        1258        1263        1262
        1258        1259        1264        1263
        1260        1261        1266        1265
        1261        1262        1267        1266
        1262        1263        1268        1267
        1263        1264        1269        1268
        1265        1266        1271        1270
        1266        1267        1272        1271
        1267        1268        1273        1272
        1268        1269        1274        1273
        1275        1276        1281        1280
        1276        1277        1282        1281
        1277        1278        1283        1282
        1278        1279        1284        1283
        1280        1281        1286        1285
        1281        1282        1287        1286
        1282        1283        1288        1287
        1283        1284        1289        1288
        1285        1286        1291        1290
        1286        1287        1292        1291
        1287        1288        1293        1292
        1288        1289        1294        1293
        1290        1291        1296        1295
        1291        1292        1297        1296
        1292        1293        1298        1297
        1293        1294        1299        1298
        1300        1301        1306        1305
        1301        1302        1307        1306
        1302        1303        1308        1307
        1303        1304        1309        1308
        1305        1306        1311        1310
        1306        1307        1312        1311
        1307        1308        1313        1312
        1308        1309        1314        1313
        1310        1311        1316        1315
        1311        1312        1317        1316
        1312        1313        1318        1317
        1313        1314        1319        1318
        1315        1316        1321        1320
        1316        1317        1322        1321
        1317        1318        1323        1322
        1318        1319        1324        1323
        1325        1326        1331        1330
        1326        1327        1332        1331
        1327        1328        1333        1332
        1328        1329        1334        1333
        1330        1331        1336        1335
        1331        1332        1337        1336
        1332        1333        1338        1337
        1333        1334        1339        1338
        1335        1336        1341        1340
        1336        1337        1342        1341
        1337        1338        1343        1342
        1338        1339        1344        1343
        1340        1341        1346        1345
        1341        1342        1347        1346
        1342        1343        1348        1347
        1343        1344        1349        1348
        1350        1351        1356        1355
        1351        1352        1357        1356
        1352        1353        1358        1357
        1353        1354        1359        1358
        1355        1356        1361        1360
        1356        1357        1362        1361
        1357        1358        1363        1362
        1358        1359        1364        1363
        1360        1361        1366        1365
        1361        1362        1367        1366
        1362        1363        1368        1367
        1363        1364        1369        1368
        1365        1366        1371        1370
        1366        1367        1372        1371
        1367        1368        1373        1372
        1368        1369        1374        1373
        1375        1376        1381        1380
        1376        1377        1382        1381
        1377        1378        1383        1382
        1378        1379        1384        1383
        1380        1381        1386        1385
        1381        1382        1387        1386
        1382        1383        1388        1387
        1383        1384        1389        1388
        1385        1386        1391        1390
        1386        1387        1392        1391
        1387        1388        1393        1392
        1388        1389        1394        1393
        1390        1391        1396        1395
        1391        1392        1397        1396
        1392        1393        1398        1397
        1393        1394        1399        1398
        1400        1401        1406        1405
        1401        1402        1407        1406
        1402        1403        1408        1407
        1403        1404        1409        1408
        1405        1406        1411        1410
        1406        1407        1412        1411
        1407        1408        1413        1412
        1408        1409        1414        1413
        1410        1411        1416        1415
        1411        1412        1417        1416
        1412        1413        1418        1417
        1413        1414        1419        1418
        1415        1416        1421        1420
        1416        1417        1422        1421
        1417        1418        1423        1422
        1418        1419        1424        1423
        1425        1426        1431        1430
        1426        1427        1432        1431
        1427        1428        1433        1432
        1428        1429        1434        1433
        1430        1431        1436        1435
        1431        1432        1437        1436
        1432        1433        1438        1437
        1433        1434        1439        1438
        1435        1436        1441        1440
        1436        1437        1442        1441
        1437        1438        1443        1442
        1438        1439        1444        1443
        1440        1441        1446        1445
        1441        1442        1447        1446
        1442        1443        1448        1447
        1443        1444        1449        1448
        1450        1451        1456        1455
        1451        1452        1457        1456
        1452        1453        1458        1457
        1453        1454        1459        1458
        1455        1456        1461        1460
        1456        1457        1462        1461
        1457        1458        1463        1462
        1458        1459        1464        1463
        1460        1461        1466        1465
        1461        1462        1467        1466
        1462        1463        1468        1467
        1463        1464        1469        1468
        1465        1466        1471        1470
        1466        1467        1472        1471
        1467        1468        1473        1472
        1468        1469        1474        1473
        1475        1476        1481        1480
        1476        1477        1482        1481
        1477        1478        1483        1482
        1478        1479        1484        1483
        1480        1481        1486        1485
        1481        1482        1487        1486
        1482        1483        1488        1487
        1483        1484        1489        1488
        1485        1486        1491        1490
        1486        1487        1492        1491
        1487        1488        1493        1492
        1488        1489        1494        1493
        1490        1491        1496        1495
        1491        1492        1497        1496
        1492        1493        1498        1497
        1493        1494        1499        1498
        1500        1501        1506        1505
        1501        1502        1507        1506
        1502        1503        1508        1507
        1503        1504        1509        1508
        1505        1506        1511        1510
        1506        1507        1512        1511
        1507        1508        1513        1512
        1508        1509        1514        1513
        1510        1511        1516        1515
        1511        1512        1517        1516
        1512        1513        1518        1517
        1513        1514        1519        1518
        1515        1516        1521        1520
        1516        1517        1522        1521
        1517        1518        1523        1522
        1518        1519        1524        1523
        1525        1526        1531        1530
        1526        1527        1532        1531
        1527        1528        1533        1532
        1528        1529        1534        1533
        1530        1531        1536        1535
        1531        1532        1537        1536
        1532        1533        1538        1537
        1533        1534        1539        1538
        1535        1536        1541        1540
        1536        1537        1542        1541
        1537        1538        1543        1542
        1538        1539        1544        1543
        1540        1541        1546        1545
        1541        1542        1547        1546
        1542        1543        1548        1547
        1543        1544        1549        1548
        1550        1551        1556        1555
        1551        1552        1557        1556
        1552        1553        1558        1557
        1553        1554        1559        1558
        1555        1556        1561        1560
        1556        1557        1562        1561
        1557        1558        1563        1562
        1558        1559        1564        1563
        1560        1561        1566        1565
        1561        1562        1567        1566
        1562        1563        1568        1567
        1563        1564        1569        1568
        1565        1566        1571        1570
        1566        1567        1572        1571
        1567        1568        1573        1572
        1568        1569        1574        1573
        1575        1576        1581        1580
        1576        1577        1582        1581
        1577        1578        1583        1582
        1578        1579        1584        1583
        1580        1581        1586        1585
        1581        1582        1587        1586
        1582        1583        1588        1587
        1583        1584        1589        1588
        1585        1586        1591        1590
        1586        1587        1592        1591
        1587        1588        1593        1592
        1588        1589        1594        1593
        1590        1591        1596        1595
        1591        1592        1597        1596
        1592        1593        1598        1597
        1593        1594        1599        1598
 </DataArray>
 <DataArray  type="Int32"  Name="offsets"  format="ascii"> 
           4
           8
          12
          16
          20
          24
          28
          32
          36
          40
          44
          48
          52
          56
          60
          64
          68
          72
          76
          80
          84
          88
          92
          96
         100
         104
         108
         112
         116
         120
         124
         128
         132
         136
         140
         144
         148
         152
         156
         160
         164
         168
         172
         176
         180
         184
         188
         192
         196
         200
         204
         208
         212
         216
         220
         224
         228
         232
         236
         240
         244
         248
         252
         256
         260
         264
         268
         272
         276
         280
         284
         288
         292
         296
         300
         304
         308
         312
         316
         320
         324
         328
         332
         336
         340
         344
         348
         352
         356
         360
         364
         368
         372
         376
         380
         384
         388
         392
         396
         400
         404
         408
         412
         416
         420
         424
         428
         432
         436
         440
         444
         448
         452
         456
         460
         464
         468
         472
         476
         480
         484
         488
         492
         496
         500
         504
         508
         512
         516
         520
         524
         528
         532
         536
         540
         544
         548
         552
         556
         560
         564
         568
         572
         576
         580
         584
         588
         592
         596
         600
         604
         608
         612
         616
         620
         624
         628
         632
         636
         640
         644
         648
         652
         656
         660
         664
         668
         672
         676
         680
         684
         688
         692
         696
         700
         704
         708
         712
         716
         720
         724
         728
         732
         736
         740
         744
         748
         752
         756
         760
         764
         768
         772
         776
         780
         784
         788
         792
         796
         800
         804
         808
         812
         816
         820
         824
         828
         832
         836
         840
         844
         848
         852
         856
         860
         864
         868
         872
         876
         880
         884
         888
         892
         896
         900
         904
         908
         912
         916
         920
         924
         928
         932
         936
         940
         944
         948
         952
         956
         960
         964
         968
         972
         976
         980
         984
         988
         992
         996
        1000
        1004
        1008
        1012
        1016
        1020
        1024
        1028
        1032
        1036
        1040
        1044
        1048
        1052
        1056
        1060
        1064
        1068
        1072
        1076
        1080
        1084
        1088
        1092
        1096
        1100
        1104
        1108
        1112
        1116
        1120
        1124
        1128
        1132
        1136
        1140
        1144
        1148
        1152
        1156
        1160
        1164
        1168
        1172
        1176
        1180
        1184
        1188
        1192
        1196
        1200
        1204
        1208
        1212
        1216
        1220
        1224
        1228
        1232
        1236
        1240
        1244
        1248
        1252
        1256
        1260
        1264
        1268
        1272
        1276
        1280
        1284
        1288
        1292
        1296
        1300
        1304
        1308
        1312
        1316
        1320
        1324
        1328
        1332
        1336
        1340
        1344
        1348
        1352
        1356
        1360
        1364
        1368
        1372
        1376
        1380
        1384
        1388
        1392
        1396
        1400
        1404
        1408
        1412
        1416
        1420
        1424
        1428
        1432
        1436
        1440
        1444
        1448
        1452
        1456
        1460
        1464
        1468
        1472
        1476
        1480
        1484
        1488
        1492
        1496
        1500
        1504
        1508
        1512
        1516
        1520
        1524
        1528
        1532
        1536
        1540
        1544
        1548
        1552
        1556
        1560
        1564
        1568
        1572
        1576
        1580
        1584
        1588
        1592
        1596
        1600
        1604
        1608
        1612
        1616
        1620
        1624
        1628
        1632
        1636
        1640
        1644
        1648
        1652
        1656
        1660
        1664
        1668
        1672
        1676
        1680
        1684
        1688
        1692
        1696
        1700
        1704
        1708
        1712
        1716
        1720
        1724
        1728
        1732
        1736
        1740
        1744
        1748
        1752
        1756
        1760
        1764
        1768
        1772
        1776
        1780
        1784
        1788
        1792
        1796
        1800
        1804
        1808
        1812
        1816
        1820
        1824
        1828
        1832
        1836
        1840
        1844
        1848
        1852
        1856
        1860
        1864
        1868
        1872
        1876
        1880
        1884
        1888
        1892
        1896
        1900
        1904
        1908
        1912
        1916
        1920
        1924
        1928
        1932
        1936
        1940
        1944
        1948
        1952
        1956
        1960
        1964
        1968
        1972
        1976
        1980
        1984
        1988
        1992
        1996
        2000
        2004
        2008
        2012
        2016
        2020
        2024
        2028
        2032
        2036
        2040
        2044
        2048
        2052
        2056
        2060
        2064
        2068
        2072
        2076
        2080
        2084
        2088
        2092
        2096
        2100
        2104
        2108
        2112
        2116
        2120
        2124
        2128
        2132
        2136
        2140
        2144
        2148
        2152
        2156
        2160
        2164
        2168
        2172
        2176
        2180
        2184
        2188
        2192
        2196
        2200
        2204
        2208
        2212
        2216
        2220
        2224
        2228
        2232
        2236
        2240
        2244
        2248
        2252
        2256
        2260
        2264
        2268
        2272
        2276
        2280
        2284
        2288
        2292
        2296
        2300
        2304
        2308
        2312
        2316
        2320
        2324
        2328
        2332
        2336
        2340
        2344
        2348
        2352
        2356
        2360
        2364
        2368
        2372
        2376
        2380
        2384
        2388
        2392
        2396
        2400
        2404
        2408
        2412
        2416
        2420
        2424
        2428
        2432
        2436
        2440
        2444
        2448
        2452
        2456
        2460
        2464
        2468
        2472
        2476
        2480
        2484
        2488
        2492
        2496
        2500
        2504
        2508
        2512
        2516
        2520
        2524
        2528
        2532
        2536
        2540
        2544
        2548
        2552
        2556
        2560
        2564
        2568
        2572
        2576
        2580
        2584
        2588
        2592
        2596
        2600
        2604
        2608
        2612
        2616
        2620
        2624
        2628
        2632
        2636
        2640
        2644
        2648
        2652
        2656
        2660
        2664
        2668
        2672
        2676
        2680
        2684
        2688
        2692
        2696
        2700
        2704
        2708
        2712
        2716
        2720
        2724
        2728
        2732
        2736
        2740
        2744
        2748
        2752
        2756
        2760
        2764
        2768
        2772
        2776
        2780
        2784
        2788
        2792
        2796
        2800
        2804
        2808
        2812
        2816
        2820
        2824
        2828
        2832
        2836
        2840
        2844
        2848
        2852
        2856
        2860
        2864
        2868
        2872
        2876
        2880
        2884
        2888
        2892
        2896
        2900
        2904
        2908
        2912
        2916
        2920
        2924
        2928
        2932
        2936
        2940
        2944
        2948
        2952
        2956
        2960
        2964
        2968
        2972
        2976
        2980
        2984
        2988
        2992
        2996
        3000
        3004
        3008
        3012
        3016
        3020
        3024
        3028
        3032
        3036
        3040
        3044
        3048
        3052
        3056
        3060
        3064
        3068
        3072
        3076
        3080
        3084
        3088
        3092
        3096
        3100
        3104
        3108
        3112
        3116
        3120
        3124
        3128
        3132
        3136
        3140
        3144
        3148
        3152
        3156
        3160
        3164
        3168
        3172
        3176
        3180
        3184
        3188
        3192
        3196
        3200
        3204
        3208
        3212
        3216
        3220
        3224
        3228
        3232
        3236
        3240
        3244
        3248
        3252
        3256
        3260
        3264
        3268
        3272
        3276
        3280
        3284
        3288
        3292
        3296
        3300
        3304
        3308
        3312
        3316
        3320
        3324
        3328
        3332
        3336
        3340
        3344
        3348
        3352
        3356
        3360
        3364
        3368
        3372
        3376
        3380
        3384
        3388
        3392
        3396
        3400
        3404
        3408
        3412
        3416
        3420
        3424
        3428
        3432
        3436
        3440
        3444
        3448
        3452
        3456
        3460
        3464
        3468
        3472
        3476
        3480
        3484
        3488
        3492
        3496
        3500
        3504
        3508
        3512
        3516
        3520
        3524
        3528
        3532
        3536
        3540
        3544
        3548
        3552
        3556
        3560
        3564
        3568
        3572
        3576
        3580
        3584
        3588
        3592
        3596
        3600
        3604
        3608
        3612
        3616
        3620
        3624
        3628
        3632
        3636
        3640
        3644
        3648
        3652
        3656
        3660
        3664
        3668
        3672
        3676
        3680
        3684
        3688
        3692
        3696
        3700
        3704
        3708
        3712
        3716
        3720
        3724
        3728
        3732
        3736
        3740
        3744
        3748
        3752
        3756
        3760
        3764
        3768
        3772
        3776
        3780
        3784
        3788
        3792
        3796
        3800
        3804
        3808
        3812
        3816
        3820
        3824
        3828
        3832
        3836
        3840
        3844
        3848
        3852
        3856
        3860
        3864
        3868
        3872
        3876
        3880
        3884
        3888
        3892
        3896
        3900
        3904
        3908
        3912
        3916
        3920
        3924
        3928
        3932
        3936
        3940
        3944
        3948
        3952
        3956
        3960
        3964
        3968
        3972
        3976
        3980
        3984
        3988
        3992
        3996
        4000
        4004
        4008
        4012
        4016
        4020
        4024
        4028
        4032
        4036
        4040
        4044
        4048
        4052
        4056
        4060
        4064
        4068
        4072
        4076
        4080
        4084
        4088
        4092
        4096
 </DataArray>
 <DataArray  type="UInt8"  Name="types"  format="ascii">
 9
 9
 9
 9
 9
 9
 9
 9
 9
 9
 9
 9
 9
 9
 9
 9
 9
 9
 9
 9
 9
 9
 9
 9
 9
 9
 9
 9
 9
 9
 9
 9
 9
 9
 9
 9
 9
 9
 9
 9
 9
 9
 9
 9
 9
 9
 9
 9
 9
 9
 9
 9
 9
 9
 9
 9
 9
 9
 9
 9
 9
 9
 9
 9
 9
 9
 9
 9
 9
 9
 9
 9
 9
 9
 9
 9
 9
 9
 9
 9
 9
 9
 9
 9
 9
 9
 9
 9
 9
 9
 9
 9
 9
 9
 9
 9
 9
 9
 9
 9
 9
 9
 9
 9
 9
 9
 9
 9
 9
 9
 9
 9
 9
 9
 9
 9
 9
 9
 9
 9
 9
 9
 9
 9
 9
 9
 9
 9
 9
 9
 9
 9
 9
 9
 9
 9
 9
 9
 9
 9
 9
 9
 9
 9
 9
 9
 9
 9
 9
 9
 9
 9
 9
 9
 9
 9
 9
 9
 9
 9
 9
 9
 9
 9
 9
 9
 9
 9
 9
 9
 9
 9
 9
 9
 9
 9
 9
 9
 9
 9
 9
 9
 9
 9
 9
 9
 9
 9
 9
 9
 9
 9
 9
 9
 9
 9
 9
 9
 9
 9
 9
 9
 9
 9
 9
 9
 9
 9
 9
 9
 9
 9
 9
 9
 9
 9
 9
 9
 9
 9
 9
 9
 9
 9
 9
 9
 9
 9
 9
 9
 9
 9
 9
 9
 9
 9
 9
 9
 9
 9
 9
 9
 9
 9
 9
 9
 9
 9
 9
 9
 9
 9
 9
 9
 9
 9
 9
 9
 9
 9
 9
 9
 9
 9
 9
 9
 9
 9
 9
 9
 9
 9
 9
 9
 9
 9
 9
 9
 9
 9
 9
 9
 9
 9
 9
 9
 9
 9
 9
 9
 9
 9
 9
 9
 9
 9
 9
 9
 9
 9
 9
 9
 9
 9
 9
 9
 9
 9
 9
 9
 9
 9
 9
 9
 9
 9
 9
 9
 9
 9
 9
 9
 9
 9
 9
 9
 9
 9
 9
 9
 9
 9
 9
 9
 9
 9
 9
 9
 9
 9
 9
 9
 9
 9
 9
 9
 9
 9
 9
 9
 9
 9
 9
 9
 9
 9
 9
 9
 9
 9
 9
 9
 9
 9
 9
 9
 9
 9
 9
 9
 9
 9
 9
 9
 9
 9
 9
 9
 9
 9
 9
 9
 9
 9
 9
 9
 9
 9
 9
 9
 9
 9
 9
 9
 9
 9
 9
 9
 9
 9
 9
 9
 9
 9
 9
 9
 9
 9
 9
 9
 9
 9
 9
 9
 9
 9
 9
 9
 9
 9
 9
 9
 9
 9
 9
 9
 9
 9
 9
 9
 9
 9
 9
 9
 9
 9
 9
 9
 9
 9
 9
 9
 9
 9
 9
 9
 9
 9
 9
 9
 9
 9
 9
 9
 9
 9
 9
 9
 9
 9
 9
 9
 9
 9
 9
 9
 9
 9
 9
 9
 9
 9
 9
 9
 9
 9
 9
 9
 9
 9
 9
 9
 9
 9
 9
 9
 9
 9
 9
 9
 9
 9
 9
 9
 9
 9
 9
 9
 9
 9
 9
 9
 9
 9
 9
 9
 9
 9
 9
 9
 9
 9
 9
 9
 9
 9
 9
 9
 9
 9
 9
 9
 9
 9
 9
 9
 9
 9
 9
 9
 9
 9
 9
 9
 9
 9
 9
 9
 9
 9
 9
 9
 9
 9
 9
 9
 9
 9
 9
 9
 9
 9
 9
 9
 9
 9
 9
 9
 9
 9
 9
 9
 9
 9
 9
 9
 9
 9
 9
 9
 9
 9
 9
 9
 9
 9
 9
 9
 9
 9
 9
 9
 9
 9
 9
 9
 9
 9
 9
 9
 9
 9
 9
 9
 9
 9
 9
 9
 9
 9
 9
 9
 9
 9
 9
 9
 9
 9
 9
 9
 9
 9
 9
 9
 9
 9
 9
 9
 9
 9
 9
 9
 9
 9
 9
 9
 9
 9
 9
 9
 9
 9
 9
 9
 9
 9
 9
 9
 9
 9
 9
 9
 9
 9
 9
 9
 9
 9
 9
 9
 9
 9
 9
 9
 9
 9
 9
 9
 9
 9
 9
 9
 9
 9
 9
 9
 9
 9
 9
 9
 9
 9
 9
 9
 9
 9
 9
 9
 9
 9
 9
 9
 9
 9
 9
 9
 9
 9
 9
 9
 9
 9
 9
 9
 9
 9
 9
 9
 9
 9
 9
 9
 9
 9
 9
 9
 9
 9
 9
 9
 9
 9
 9
 9
 9
 9
 9
 9
 9
 9
 9
 9
 9
 9
 9
 9
 9
 9
 9
 9
 9
 9
 9
 9
 9
 9
 9
 9
 9
 9
 9
 9
 9
 9
 9
 9
 9
 9
 9
 9
 9
 9
 9
 9
 9
 9
 9
 9
 9
 9
 9
 9
 9
 9
 9
 9
 9
 9
 9
 9
 9
 9
 9
 9
 9
 9
 9
 9
 9
 9
 9
 9
 9
 9
 9
 9
 9
 9
 9
 9
 9
 9
 9
 9
 9
 9
 9
 9
 9
 9
 9
 9
 9
 9
 9
 9
 9
 9
 9
 9
 9
 9
 9
 9
 9
 9
 9
 9
 9
 9
 9
 9
 9
 9
 9
 9
 9
 9
 9
 9
 9
 9
 9
 9
 9
 9
 9
 9
 9
 9
 9
 9
 9
 9
 9
 9
 9
 9
 9
 9
 9
 9
 9
 9
 9
 9
 9
 9
 9
 9
 9
 9
 9
 9
 9
 9
 9
 9
 9
 9
 9
 9
 9
 9
 9
 9
 9
 9
 9
 9
 9
 9
 9
 9
 9
 9
 9
 9
 9
 9
 9
 9
 9
 9
 9
 9
 9
 9
 9
 9
 9
 9
 9
 9
 9
 9
 9
 9
 9
 9
 9
 9
 9
 9
 9
 9
 9
 9
 9
 9
 9
 9
 9
 9
 9
 9
 9
 9
 9
 9
 9
 9
 9
 9
 9
 9
 9
 9
 9
 9
 9
 9
 9
 9
 9
 9
 9
 9
 9
 9
 9
 9
 9
 9
 9
 9
 9
 9
 9
 9
 9
 9
 9
 9
 9
 9
 9
 9
 9
 9
 9
 9
 9
 9
 9
 9
 9
 9
 9
 9
 9
 9
 9
 9
 9
 9
 9
 9
 9
 9
 9
 9
 9
 9
 9
 9
 9
 9
 9
 9
 9
 9
 9
 9
 9
 9
 9
 9
 9
 9
 9
 9
 9
 9
 9
 9
 9
 9
 9
 9
 9
 9
 9
 9
 </DataArray>
 </Cells> 
 <PointData>
 <DataArray  type="Float64" Name="disp" NumberOfComponents="3" format="ascii">
   0.0000000000000000        0.0000000000000000        0.0000000000000000     
   6.0941312326786359E-003   3.7898672118983319E-003   0.0000000000000000     
   1.1663587416111284E-002   7.3226861066338529E-003   0.0000000000000000     
   1.6708368550297940E-002   1.0598456684206562E-002   0.0000000000000000     
   2.1228474635238609E-002   1.3617178944616460E-002   0.0000000000000000     
   0.0000000000000000        0.0000000000000000        0.0000000000000000     
   4.8905643203706051E-003   3.0220009489777813E-003   0.0000000000000000     
   9.5726534245817313E-003   6.0599346917790719E-003   0.0000000000000000     
   1.4046267312633382E-002   9.1138012284038734E-003   0.0000000000000000     
   1.8311405984525554E-002   1.2183600558852183E-002   0.0000000000000000     
   0.0000000000000000        0.0000000000000000        0.0000000000000000     
   3.9536899743525004E-003   2.4252180676452087E-003   0.0000000000000000     
   7.9104770565837472E-003   5.0626741664847041E-003   0.0000000000000000     
   1.1870361246693741E-002   7.9123682965184881E-003   0.0000000000000000     
   1.5833342544682476E-002   1.0974300457746557E-002   0.0000000000000000     
   0.0000000000000000        0.0000000000000000        0.0000000000000000     
   3.2835081946243241E-003   1.9995185679006142E-003   0.0000000000000000     
   6.6770583121173281E-003   4.3309045307507489E-003   0.0000000000000000     
   1.0180650352479014E-002   6.9941578885504068E-003   0.0000000000000000     
   1.3794284315709379E-002   9.9892786412995871E-003   0.0000000000000000     
   0.0000000000000000        0.0000000000000000        0.0000000000000000     
   2.8800189811860749E-003   1.7449024497439975E-003   0.0000000000000000     
   5.8723971911824775E-003   3.8646257845772070E-003   0.0000000000000000     
   8.9771346299892061E-003   6.3591700044996289E-003   0.0000000000000000     
   1.2194231297606261E-002   9.2285351095112624E-003   0.0000000000000000     
   2.1228474635238609E-002   1.3617178944616460E-002   0.0000000000000000     
   2.5435161716397498E-002   1.6609928633262369E-002   0.0000000000000000     
   2.9539685839238817E-002   1.9807781495543110E-002   0.0000000000000000     
   3.3542047003762579E-002   2.3210737531458688E-002   0.0000000000000000     
   3.7442245209968764E-002   2.6818796741009093E-002   0.0000000000000000     
   1.8311405984525554E-002   1.2183600558852183E-002   0.0000000000000000     
   2.2406150331146589E-002   1.5338390915670618E-002   0.0000000000000000     
   2.6368581243384814E-002   1.8647230531405788E-002   0.0000000000000000     
   3.0198698721240237E-002   2.2110119406057699E-002   0.0000000000000000     
   3.3896502764712858E-002   2.5727057539626352E-002   0.0000000000000000     
   1.5833342544682476E-002   1.0974300457746557E-002   0.0000000000000000     
   1.9728264259862082E-002   1.4208013176978751E-002   0.0000000000000000     
   2.3483969701544670E-002   1.7573048981024901E-002   0.0000000000000000     
   2.7100458869730247E-002   2.1069407869885010E-002   0.0000000000000000     
   3.0577731764418806E-002   2.4697089843559075E-002   0.0000000000000000     
   1.3794284315709379E-002   9.9892786412995871E-003   0.0000000000000000     
   1.7401503502543984E-002   1.3218795417186768E-002   0.0000000000000000     
   2.0885851213718394E-002   1.6585236844400445E-002   0.0000000000000000     
   2.4247327449232598E-002   2.0088602922940617E-002   0.0000000000000000     
   2.7485932209086600E-002   2.3728893652807278E-002   0.0000000000000000     
   1.2194231297606261E-002   9.2285351095112624E-003   0.0000000000000000     
   1.5425868059192299E-002   1.2370737636294675E-002   0.0000000000000000     
   1.8574225779905976E-002   1.5683794121532427E-002   0.0000000000000000     
   2.1639304459747301E-002   1.9167704565224521E-002   0.0000000000000000     
   2.4621104098716255E-002   2.2822468967370953E-002   0.0000000000000000     
   3.7442245209968764E-002   2.6818796741009093E-002   0.0000000000000000     
   4.1247823495900754E-002   3.0624344509164986E-002   0.0000000000000000     
   4.4966324899601916E-002   3.4619766220897012E-002   0.0000000000000000     
   4.8597749421072242E-002   3.8805061876205166E-002   0.0000000000000000     
   5.2142097060311726E-002   4.3180231475089467E-002   0.0000000000000000     
   3.3896502764712858E-002   2.5727057539626352E-002   0.0000000000000000     
   3.7485491290047926E-002   2.9523967519379461E-002   0.0000000000000000     
   4.0989162213490693E-002   3.3526771932584763E-002   0.0000000000000000     
   4.4407515535041166E-002   3.7735470779242254E-002   0.0000000000000000     
   4.7740551254699330E-002   4.2150064059351927E-002   0.0000000000000000     
   3.0577731764418806E-002   2.4697089843559075E-002   0.0000000000000000     
   3.3944268068150443E-002   2.8498202202585407E-002   0.0000000000000000     
   3.7228547463465239E-002   3.2514852247502300E-002   0.0000000000000000     
   4.0430569950363197E-002   3.6747039978309755E-002   0.0000000000000000     
   4.3550335528844325E-002   4.1194765395007778E-002   0.0000000000000000     
   2.7485932209086600E-002   2.3728893652807278E-002   0.0000000000000000     
   3.0624153830208292E-002   2.7547048558782820E-002   0.0000000000000000     
   3.3684480649525540E-002   3.1584007165649630E-002   0.0000000000000000     
   3.6666912667038365E-002   3.5839769473407682E-002   0.0000000000000000     
   3.9571449882746738E-002   4.0314335482057012E-002   0.0000000000000000     
   2.4621104098716255E-002   2.2822468967370953E-002   0.0000000000000000     
   2.7525148576221483E-002   2.6670506587971706E-002   0.0000000000000000     
   3.0356961771671610E-002   3.0734236687026732E-002   0.0000000000000000     
   3.3116543685066627E-002   3.5013659264536041E-002   0.0000000000000000     
   3.5803894316406550E-002   3.9508774320499630E-002   0.0000000000000000     
   5.2142097060311726E-002   4.3180231475089467E-002   0.0000000000000000     
   5.5593476448142061E-002   4.7760283591281372E-002   0.0000000000000000     
   5.8945996215384884E-002   5.2560226798512390E-002   0.0000000000000000     
   6.2199656362040230E-002   5.7580061096782501E-002   0.0000000000000000     
   6.5354456888108065E-002   6.2819786486091725E-002   0.0000000000000000     
   4.7740551254699330E-002   4.2150064059351927E-002   0.0000000000000000     
   5.0985069073535852E-002   4.6772607450679932E-002   0.0000000000000000     
   5.4137868692621383E-002   5.1605156630992383E-002   0.0000000000000000     
   5.7198950111955922E-002   5.6647711600289287E-002   0.0000000000000000     
   6.0168313331539477E-002   6.1900272358570652E-002   0.0000000000000000     
   4.3550335528844325E-002   4.1194765395007778E-002   0.0000000000000000     
   4.6585010941580088E-002   4.5851859212579865E-002   0.0000000000000000     
   4.9531762931241931E-002   5.0712152146009562E-002   0.0000000000000000     
   5.2390591497829854E-002   5.5775644195296827E-002   0.0000000000000000     
   5.5161496641343878E-002   6.1042335360441694E-002   0.0000000000000000     
   3.9571449882746738E-002   4.0314335482057012E-002   0.0000000000000000     
   4.2393302052274762E-002   4.4998038876981214E-002   0.0000000000000000     
   4.5127678931246536E-002   4.9881213343563928E-002   0.0000000000000000     
   4.7774580519662019E-002   5.4963858881805133E-002   0.0000000000000000     
   5.0334006817521260E-002   6.0245975491704851E-002   0.0000000000000000     
   3.5803894316406550E-002   3.9508774320499630E-002   0.0000000000000000     
   3.8409942405619887E-002   4.4211146443883964E-002   0.0000000000000000     
   4.0925616692635183E-002   4.9112340223655480E-002   0.0000000000000000     
   4.3350917177452430E-002   5.4212355659814200E-002   0.0000000000000000     
   4.5685843860071629E-002   5.9511192752360109E-002   0.0000000000000000     
   6.5354456888108065E-002   6.2819786486091725E-002   0.0000000000000000     
   6.8415327063097844E-002   6.8249043224821532E-002   0.0000000000000000     
   7.1387196156518992E-002   7.3837471571353452E-002   0.0000000000000000     
   7.4270064168371522E-002   7.9585071525687459E-002   0.0000000000000000     
   7.7063931098655419E-002   8.5491843087823566E-002   0.0000000000000000     
   6.0168313331539477E-002   6.1900272358570652E-002   0.0000000000000000     
   6.3052280955269116E-002   6.7343412456764340E-002   0.0000000000000000     
   6.5857175587041905E-002   7.2957705445798229E-002   0.0000000000000000     
   6.8582997226857845E-002   7.8743151325672334E-002   0.0000000000000000     
   7.1229745874716963E-002   8.4699750096386625E-002   0.0000000000000000     
   5.5161496641343878E-002   6.1042335360441694E-002   0.0000000000000000     
   5.7854200631067443E-002   6.6500340438810021E-002   0.0000000000000000     
   6.0478425736284029E-002   7.2137774227767709E-002   0.0000000000000000     
   6.3034171956993623E-002   7.7954636727314730E-002   0.0000000000000000     
   6.5521439293196232E-002   8.3950927937451111E-002   0.0000000000000000     
   5.0334006817521260E-002   6.0245975491704851E-002   0.0000000000000000     
   5.2821086090492832E-002   6.5719827170958561E-002   0.0000000000000000     
   5.5250946604245343E-002   7.1377677917261836E-002   0.0000000000000000     
   5.7623588358778823E-002   7.7219527730614676E-002   0.0000000000000000     
   5.9939011354093241E-002   8.3245376611017011E-002   0.0000000000000000     
   4.5685843860071629E-002   5.9511192752360109E-002   0.0000000000000000     
   4.7952937333545283E-002   6.5001872653210002E-002   0.0000000000000000     
   5.0174738190925890E-002   7.0677416514280667E-002   0.0000000000000000     
   5.2351246432213470E-002   7.6537824335572102E-002   0.0000000000000000     
   5.4482462057407990E-002   8.2583096117084337E-002   0.0000000000000000     
   7.7063931098655419E-002   8.5491843087823566E-002   0.0000000000000000     
   7.9752845449456169E-002   9.1560248021090515E-002   0.0000000000000000     
   8.2320855722859201E-002   9.7792748088817077E-002   0.0000000000000000     
   8.4767961918864543E-002  0.10418934329100327        0.0000000000000000     
   8.7094164037472166E-002  0.11075003362764904        0.0000000000000000     
   7.1229745874716963E-002   8.4699750096386625E-002   0.0000000000000000     
   7.3766664790191727E-002   9.0814804593922646E-002   0.0000000000000000     
   7.6162997232854704E-002   9.7075617654261884E-002   0.0000000000000000     
   7.8418743202705851E-002  0.10348218927740430        0.0000000000000000     
   8.0533902699745211E-002  0.11003451946334994        0.0000000000000000     
   6.5521439293196232E-002   8.3950927937451111E-002   0.0000000000000000     
   6.7902891756123684E-002   9.0104944668893586E-002   0.0000000000000000     
   7.0141193357007858E-002   9.6394983732358858E-002   0.0000000000000000     
   7.2236344095848712E-002  0.10282104512784694        0.0000000000000000     
   7.4188343972646287E-002  0.10938312885535781        0.0000000000000000     
   5.9939011354093241E-002   8.3245376611017011E-002   0.0000000000000000     
   6.2161526347252034E-002   8.9430668246003348E-002   0.0000000000000000     
   6.4255444095318651E-002   9.5750846323108055E-002   0.0000000000000000     
   6.6220764598293097E-002  0.10220591084233115        0.0000000000000000     
   6.8057487856175380E-002  0.10879586180367268        0.0000000000000000     
   5.4482462057407990E-002   8.2583096117084337E-002   0.0000000000000000     
   5.6542568563576791E-002   8.8791975325251918E-002   0.0000000000000000     
   5.8505749447787136E-002   9.5143205426509489E-002   0.0000000000000000     
   6.0372004710039048E-002  0.10163678642085702        0.0000000000000000     
   6.2141334350332519E-002  0.10827271830829453        0.0000000000000000     
   8.7094164037472166E-002  0.11075003362764904        0.0000000000000000     
   8.9356074139909272E-002  0.11748962363374932        0.0000000000000000     
   9.1610304287402980E-002  0.12442291784429894        0.0000000000000000     
   9.3856854479953303E-002  0.13154991625929796        0.0000000000000000     
   9.6095724717560255E-002  0.13887061887874630        0.0000000000000000     
   8.0533902699745211E-002  0.11003451946334994        0.0000000000000000     
   8.2603735747335510E-002  0.11676157858348513        0.0000000000000000     
   8.4723502368839548E-002  0.12369233700919620        0.0000000000000000     
   8.6893202564257269E-002  0.13082679474048314        0.0000000000000000     
   8.9112836333588727E-002  0.13816495177734597        0.0000000000000000     
   7.4188343972646287E-002  0.10938312885535781        0.0000000000000000     
   7.6097201664412778E-002  0.11611453092816852        0.0000000000000000     
   7.8062925848160422E-002  0.12304854735955607        0.0000000000000000     
   8.0085516523889233E-002  0.13018517814952044        0.0000000000000000     
   8.2164973691599197E-002  0.13752442329806167        0.0000000000000000     
   6.8057487856175380E-002  0.10879586180367268        0.0000000000000000     
   6.9836471891141033E-002  0.11554848066779952        0.0000000000000000     
   7.1628574725365629E-002  0.12249154889537858        0.0000000000000000     
   7.3433796358849168E-002  0.12962506648640987        0.0000000000000000     
   7.5252136791591651E-002  0.13694903344089340        0.0000000000000000     
   6.2141334350332519E-002  0.10827271830829453        0.0000000000000000     
   6.3821546427520304E-002  0.11506342780237808        0.0000000000000000     
   6.5420449000455169E-002  0.12202134161666370        0.0000000000000000     
   6.6938042069137102E-002  0.12914645975115141        0.0000000000000000     
   6.8374325633566102E-002  0.13643878220584121        0.0000000000000000     
   9.6095724717560255E-002  0.13887061887874630        0.0000000000000000     
   9.8232236944256215E-002  0.14626717159469821        0.0000000000000000     
  0.10017171310407366       0.15362172029920776        0.0000000000000000     
  0.10191415319701254       0.16093426499227506        0.0000000000000000     
  0.10345955722307287       0.16820480567389998        0.0000000000000000     
   8.9112836333588727E-002  0.13816495177734597        0.0000000000000000     
   9.1210269783359277E-002  0.14559958362410524        0.0000000000000000     
   9.3013369020094314E-002  0.15302346578508161        0.0000000000000000     
   9.4522134043793823E-002  0.16043659826027495        0.0000000000000000     
   9.5736564854457806E-002  0.16783898104968539        0.0000000000000000     
   8.2164973691599197E-002  0.13752442329806167        0.0000000000000000     
   8.4139430786517880E-002  0.14497898132528431        0.0000000000000000     
   8.5847021243872876E-002  0.15246155075129289        0.0000000000000000     
   8.7287745063664171E-002  0.15997213157608747        0.0000000000000000     
   8.8461602245891766E-002  0.16751072379966803        0.0000000000000000     
   7.5252136791591651E-002  0.13694903344089340        0.0000000000000000     
   7.7019719953732052E-002  0.14440536469823534        0.0000000000000000     
   7.8672669775409376E-002  0.15193597519784172        0.0000000000000000     
   8.0210986256623623E-002  0.15954086493971253        0.0000000000000000     
   8.1634669397374765E-002  0.16722003392384793        0.0000000000000000     
   6.8374325633566102E-002  0.13643878220584121        0.0000000000000000     
   6.9851137285001808E-002  0.14387873374295831        0.0000000000000000     
   7.1490314614703815E-002  0.15144673912472803        0.0000000000000000     
   7.3291857622672124E-002  0.15914279835115028        0.0000000000000000     
   7.5255766308906777E-002  0.16696691142222508        0.0000000000000000     
   0.0000000000000000        0.0000000000000000        0.0000000000000000     
   2.8800189811860749E-003   1.7449024497439975E-003   0.0000000000000000     
   5.8723971911824775E-003   3.8646257845772070E-003   0.0000000000000000     
   8.9771346299892061E-003   6.3591700044996289E-003   0.0000000000000000     
   1.2194231297606261E-002   9.2285351095112624E-003   0.0000000000000000     
   0.0000000000000000        0.0000000000000000        0.0000000000000000     
   2.6097821737341297E-003   1.5888407804166809E-003   0.0000000000000000     
   5.2889553725393593E-003   3.5566604020639036E-003   0.0000000000000000     
   8.0375195964156876E-003   5.9034588649416681E-003   0.0000000000000000     
   1.0855474845363118E-002   8.6292361690499756E-003   0.0000000000000000     
   0.0000000000000000        0.0000000000000000        0.0000000000000000     
   2.3393576119648636E-003   1.4588046271599862E-003   0.0000000000000000     
   4.7191945349481451E-003   3.2998308573106649E-003   0.0000000000000000     
   7.1395107689498430E-003   5.5230786904520365E-003   0.0000000000000000     
   9.6003063139699571E-003   8.1285481265841019E-003   0.0000000000000000     
   0.0000000000000000        0.0000000000000000        0.0000000000000000     
   2.0687452958782783E-003   1.3547939899739134E-003   0.0000000000000000     
   4.1631146784088333E-003   3.0941371503174909E-003   0.0000000000000000     
   6.2831081475916654E-003   5.2180294810307325E-003   0.0000000000000000     
   8.4287257034267749E-003   7.7264709821136379E-003   0.0000000000000000     
   0.0000000000000000        0.0000000000000000        0.0000000000000000     
   1.7979452254743718E-003   1.2768088688584625E-003   0.0000000000000000     
   3.6207158029214247E-003   2.9395792810843814E-003   0.0000000000000000     
   5.4683117323411582E-003   4.9883112366777569E-003   0.0000000000000000     
   7.3407330137335736E-003   7.4230047356385886E-003   0.0000000000000000     
   1.2194231297606261E-002   9.2285351095112624E-003   0.0000000000000000     
   1.5425868059192299E-002   1.2370737636294675E-002   0.0000000000000000     
   1.8574225779905976E-002   1.5683794121532427E-002   0.0000000000000000     
   2.1639304459747301E-002   1.9167704565224521E-002   0.0000000000000000     
   2.4621104098716255E-002   2.2822468967370953E-002   0.0000000000000000     
   1.0855474845363118E-002   8.6292361690499756E-003   0.0000000000000000     
   1.3688558021106710E-002   1.1651356763332297E-002   0.0000000000000000     
   1.6482506025371529E-002   1.4887185096732102E-002   0.0000000000000000     
   1.9237318858157566E-002   1.8336721169249393E-002   0.0000000000000000     
   2.1952996519464831E-002   2.1999964980884169E-002   0.0000000000000000     
   9.6003063139699571E-003   8.1285481265841019E-003   0.0000000000000000     
   1.2076773479586916E-002   1.1048169727329466E-002   0.0000000000000000     
   1.4544104575379139E-002   1.4213874054310729E-002   0.0000000000000000     
   1.7002299601346634E-002   1.7625661107527901E-002   0.0000000000000000     
   1.9451358557489390E-002   2.1283530886980977E-002   0.0000000000000000     
   8.4287257034267749E-003   7.7264709821136379E-003   0.0000000000000000     
   1.0590514434632910E-002   1.0561176528286177E-002   0.0000000000000000     
   1.2759021429928817E-002   1.3663860994268312E-002   0.0000000000000000     
   1.4934246689314494E-002   1.7034524380060048E-002   0.0000000000000000     
   1.7116190212789945E-002   2.0673166685661382E-002   0.0000000000000000     
   7.3407330137335736E-003   7.4230047356385886E-003   0.0000000000000000     
   9.2297808862446973E-003   1.0190377166202434E-002   0.0000000000000000     
   1.1127256589020557E-002   1.3237145916604850E-002   0.0000000000000000     
   1.3033160122061155E-002   1.6563310986845832E-002   0.0000000000000000     
   1.4947491485366487E-002   2.0168872376925384E-002   0.0000000000000000     
   2.4621104098716255E-002   2.2822468967370953E-002   0.0000000000000000     
   2.7525148576221483E-002   2.6670506587971706E-002   0.0000000000000000     
   3.0356961771671610E-002   3.0734236687026732E-002   0.0000000000000000     
   3.3116543685066627E-002   3.5013659264536041E-002   0.0000000000000000     
   3.5803894316406550E-002   3.9508774320499630E-002   0.0000000000000000     
   2.1952996519464831E-002   2.1999964980884169E-002   0.0000000000000000     
   2.4616388074174270E-002   2.5875896628320474E-002   0.0000000000000000     
   2.7214342587166825E-002   2.9963496208242350E-002   0.0000000000000000     
   2.9746860058442504E-002   3.4262763720649798E-002   0.0000000000000000     
   3.2213940488001302E-002   3.8773699165542824E-002   0.0000000000000000     
   1.9451358557489390E-002   2.1283530886980977E-002   0.0000000000000000     
   2.1867008092050885E-002   2.5170539017997550E-002   0.0000000000000000     
   2.4224974853274572E-002   2.9269741125905208E-002   0.0000000000000000     
   2.6525258841160457E-002   3.3581137210703944E-002   0.0000000000000000     
   2.8767860055708538E-002   3.8104727272393786E-002   0.0000000000000000     
   1.7116190212789945E-002   2.0673166685661382E-002   0.0000000000000000     
   1.9277008629851346E-002   2.4554433757002930E-002   0.0000000000000000     
   2.1388858569994857E-002   2.8652971440015291E-002   0.0000000000000000     
   2.3451740033220494E-002   3.2968779734698479E-002   0.0000000000000000     
   2.5465653019528245E-002   3.7501858641052488E-002   0.0000000000000000     
   1.4947491485366487E-002   2.0168872376925384E-002   0.0000000000000000     
   1.6846389687575635E-002   2.4027580845336613E-002   0.0000000000000000     
   1.8705993737327675E-002   2.8113187150572618E-002   0.0000000000000000     
   2.0526303634622614E-002   3.2425691292633403E-002   0.0000000000000000     
   2.2307319379460441E-002   3.6965093271518965E-002   0.0000000000000000     
   3.5803894316406550E-002   3.9508774320499630E-002   0.0000000000000000     
   3.8409942405619887E-002   4.4211146443883964E-002   0.0000000000000000     
   4.0925616692635183E-002   4.9112340223655480E-002   0.0000000000000000     
   4.3350917177452430E-002   5.4212355659814200E-002   0.0000000000000000     
   4.5685843860071629E-002   5.9511192752360109E-002   0.0000000000000000     
   3.2213940488001302E-002   3.8773699165542824E-002   0.0000000000000000     
   3.4602443870692258E-002   4.3490253023284485E-002   0.0000000000000000     
   3.6899230201364416E-002   4.8406375774237863E-002   0.0000000000000000     
   3.9104299480017764E-002   5.3522067418402958E-002   0.0000000000000000     
   4.1217651706652314E-002   5.8837327955779749E-002   0.0000000000000000     
   2.8767860055708538E-002   3.8104727272393786E-002   0.0000000000000000     
   3.0938318316568673E-002   4.2834429725179202E-002   0.0000000000000000     
   3.3022173443390750E-002   4.7764162983264712E-002   0.0000000000000000     
   3.5019425436174742E-002   5.2893927046650330E-002   0.0000000000000000     
   3.6930074294920671E-002   5.8223721915336042E-002   0.0000000000000000     
   2.5465653019528245E-002   3.7501858641052488E-002   0.0000000000000000     
   2.7417565743249134E-002   4.2243676549568086E-002   0.0000000000000000     
   2.9294446418714173E-002   4.7185701850736027E-002   0.0000000000000000     
   3.1096295045923362E-002   5.2327934544556323E-002   0.0000000000000000     
   3.2823111624876701E-002   5.7670374631028969E-002   0.0000000000000000     
   2.2307319379460441E-002   3.6965093271518965E-002   0.0000000000000000     
   2.4040186150733642E-002   4.1717993496451153E-002   0.0000000000000000     
   2.5716049127334703E-002   4.6670992376651815E-002   0.0000000000000000     
   2.7334908309263613E-002   5.1824089912120938E-002   0.0000000000000000     
   2.8896763696520382E-002   5.7177286102858535E-002   0.0000000000000000     
   4.5685843860071629E-002   5.9511192752360109E-002   0.0000000000000000     
   4.7952937333545283E-002   6.5001872653210002E-002   0.0000000000000000     
   5.0174738190925890E-002   7.0677416514280667E-002   0.0000000000000000     
   5.2351246432213470E-002   7.6537824335572102E-002   0.0000000000000000     
   5.4482462057407990E-002   8.2583096117084337E-002   0.0000000000000000     
   4.1217651706652314E-002   5.8837327955779749E-002   0.0000000000000000     
   4.3267585465892815E-002   6.4344635875358241E-002   0.0000000000000000     
   4.5282399342364020E-002   7.0036469666128393E-002   0.0000000000000000     
   4.7262093336065937E-002   7.5912829328090195E-002   0.0000000000000000     
   4.9206667446998545E-002   8.1973714861243663E-002   0.0000000000000000     
   3.6930074294920671E-002   5.8223721915336042E-002   0.0000000000000000     
   3.8782861593203481E-002   6.3746275827197205E-002   0.0000000000000000     
   4.0606528904598128E-002   6.9454317020109180E-002   0.0000000000000000     
   4.2401076229104613E-002   7.5347845494072002E-002   0.0000000000000000     
   4.4166503566722921E-002   8.1426861249085616E-002   0.0000000000000000     
   3.2823111624876701E-002   5.7670374631028969E-002   0.0000000000000000     
   3.4498765715477282E-002   6.3206792508726906E-002   0.0000000000000000     
   3.6147126877628208E-002   6.8930958576223111E-002   0.0000000000000000     
   3.7768195111329492E-002   7.4842872833517510E-002   0.0000000000000000     
   3.9361970416581127E-002   8.0942535280610198E-002   0.0000000000000000     
   2.8896763696520382E-002   5.7177286102858535E-002   0.0000000000000000     
   3.0415297832714204E-002   6.2726185919947344E-002   0.0000000000000000     
   3.1904193261454272E-002   6.8466394334470104E-002   0.0000000000000000     
   3.3363449982740587E-002   7.4397911346426773E-002   0.0000000000000000     
   3.4793067996573161E-002   8.0520736955817393E-002   0.0000000000000000     
   5.4482462057407990E-002   8.2583096117084337E-002   0.0000000000000000     
   5.6542568563576791E-002   8.8791975325251918E-002   0.0000000000000000     
   5.8505749447787136E-002   9.5143205426509489E-002   0.0000000000000000     
   6.0372004710039048E-002  0.10163678642085702        0.0000000000000000     
   6.2141334350332519E-002  0.10827271830829453        0.0000000000000000     
   4.9206667446998545E-002   8.1973714861243663E-002   0.0000000000000000     
   5.1100925401486176E-002   8.8202630747021310E-002   0.0000000000000000     
   5.2929670925853177E-002   9.4583081466855665E-002   0.0000000000000000     
   5.4692904020099513E-002  0.10111506702074673        0.0000000000000000     
   5.6390624684225218E-002  0.10779858740869448        0.0000000000000000     
   4.4166503566722921E-002   8.1426861249085616E-002   0.0000000000000000     
   4.5891503857368468E-002   8.7676399351693510E-002   0.0000000000000000     
   4.7564770040956668E-002   9.4081494868439142E-002   0.0000000000000000     
   4.9186302117487514E-002  0.10064214779932255        0.0000000000000000     
   5.0756100086961013E-002  0.10735835814434364        0.0000000000000000     
   3.9361970416581127E-002   8.0942535280610198E-002   0.0000000000000000     
   4.0914303931223646E-002   8.7213281139268545E-002   0.0000000000000000     
   4.2411046793097623E-002   9.3638445631259948E-002   0.0000000000000000     
   4.3852199002203038E-002  0.10021802875658443        0.0000000000000000     
   4.5237760558539904E-002  0.10695203051524201        0.0000000000000000     
   3.4793067996573161E-002   8.0520736955817393E-002   0.0000000000000000     
   3.6169325623051730E-002   8.6813276109746360E-002   0.0000000000000000     
   3.7468501182276036E-002   9.3253933755318055E-002   0.0000000000000000     
   3.8690594674246098E-002   9.9842709892532452E-002   0.0000000000000000     
   3.9835606098961890E-002  0.10657960452138959        0.0000000000000000     
   6.2141334350332519E-002  0.10827271830829453        0.0000000000000000     
   6.3821546427520304E-002  0.11506342780237808        0.0000000000000000     
   6.5420449000455169E-002  0.12202134161666370        0.0000000000000000     
   6.6938042069137102E-002  0.12914645975115141        0.0000000000000000     
   6.8374325633566102E-002  0.13643878220584121        0.0000000000000000     
   5.6390624684225218E-002  0.10779858740869448        0.0000000000000000     
   5.7971921161240600E-002  0.11463043679440570        0.0000000000000000     
   5.9385881694155998E-002  0.12160740934158706        0.0000000000000000     
   6.0632506282971399E-002  0.12872950505023867        0.0000000000000000     
   6.1711794927686810E-002  0.13599672392036041        0.0000000000000000     
   5.0756100086961013E-002  0.10735835814434364        0.0000000000000000     
   5.2207091979991946E-002  0.11422057210638380        0.0000000000000000     
   5.3472205827195092E-002  0.12121923588832433        0.0000000000000000     
   5.4551441628570473E-002  0.12835434949016522        0.0000000000000000     
   5.5444799384118053E-002  0.13562591291190651        0.0000000000000000     
   4.5237760558539904E-002  0.10695203051524201        0.0000000000000000     
   4.6527058883774342E-002  0.11383383373831242        0.0000000000000000     
   4.7679421399572479E-002  0.12085682125687547        0.0000000000000000     
   4.8694848105934309E-002  0.12802099307093112        0.0000000000000000     
   4.9573339002859845E-002  0.13532634918047939        0.0000000000000000     
   3.9835606098961890E-002  0.10657960452138959        0.0000000000000000     
   4.0931821872587801E-002  0.11347022169019158        0.0000000000000000     
   4.2007528411288131E-002  0.12052016544724049        0.0000000000000000     
   4.3062725715062922E-002  0.12772943579253632        0.0000000000000000     
   4.4097413783912159E-002  0.13509803272607912        0.0000000000000000     
   6.8374325633566102E-002  0.13643878220584121        0.0000000000000000     
   6.9851137285001808E-002  0.14387873374295831        0.0000000000000000     
   7.1490314614703815E-002  0.15144673912472803        0.0000000000000000     
   7.3291857622672124E-002  0.15914279835115028        0.0000000000000000     
   7.5255766308906777E-002  0.16696691142222508        0.0000000000000000     
   6.1711794927686810E-002  0.13599672392036041        0.0000000000000000     
   6.2912039073368203E-002  0.14342131156364549        0.0000000000000000     
   6.4521530165081525E-002  0.15101551359178689        0.0000000000000000     
   6.6540268202826769E-002  0.15877933000478475        0.0000000000000000     
   6.8968253186603962E-002  0.16671276080263894        0.0000000000000000     
   5.5444799384118053E-002  0.13562591291190651        0.0000000000000000     
   5.6480781611872366E-002  0.14305532126448897        0.0000000000000000     
   5.7987890829867869E-002  0.15066396965885356        0.0000000000000000     
   5.9966127038104569E-002  0.15845185809500020        0.0000000000000000     
   6.2415490236582480E-002  0.16641898657292895        0.0000000000000000     
   4.9573339002859845E-002  0.13532634918047939        0.0000000000000000     
   5.0557364900514275E-002  0.14278076284548882        0.0000000000000000     
   5.1889396609062846E-002  0.15039210732592787        0.0000000000000000     
   5.3569434128505518E-002  0.15816038262179663        0.0000000000000000     
   5.5597477458842311E-002  0.16608558873309506        0.0000000000000000     
   4.4097413783912159E-002  0.13509803272607912        0.0000000000000000     
   4.5141788939293957E-002  0.14259763630664496        0.0000000000000000     
   4.6226047502666449E-002  0.15019992659300993        0.0000000000000000     
   4.7350189474029608E-002  0.15790490358517406        0.0000000000000000     
   4.8514214853383461E-002  0.16571256728313732        0.0000000000000000     
   0.0000000000000000        0.0000000000000000        0.0000000000000000     
   1.7979452254743718E-003   1.2768088688584625E-003   0.0000000000000000     
   3.6207158029214247E-003   2.9395792810843814E-003   0.0000000000000000     
   5.4683117323411582E-003   4.9883112366777569E-003   0.0000000000000000     
   7.3407330137335736E-003   7.4230047356385886E-003   0.0000000000000000     
   0.0000000000000000        0.0000000000000000        0.0000000000000000     
   1.5350113711615917E-003   1.2176913525863888E-003   0.0000000000000000     
   3.0991445617396009E-003   2.8215873657167091E-003   0.0000000000000000     
   4.6923995717340281E-003   4.8116880393909607E-003   0.0000000000000000     
   6.3147764011448719E-003   7.1879933736091446E-003   0.0000000000000000     
   0.0000000000000000        0.0000000000000000        0.0000000000000000     
   1.2879977033483847E-003   1.1702835299304474E-003   0.0000000000000000     
   2.6055476081170447E-003   2.7255915203198461E-003   0.0000000000000000     
   3.9526497143059815E-003   4.6659239711681951E-003   0.0000000000000000     
   5.3293040219151936E-003   6.9912808824754953E-003   0.0000000000000000     
   0.0000000000000000        0.0000000000000000        0.0000000000000000     
   1.0569042220347502E-003   1.1345854008906388E-003   0.0000000000000000     
   2.1399249420537563E-003   2.6515917448937929E-003   0.0000000000000000     
   3.2490621600570189E-003   4.5510190320094618E-003   0.0000000000000000     
   4.3843158760445370E-003   6.8328672622376451E-003   0.0000000000000000     
   0.0000000000000000        0.0000000000000000        0.0000000000000000     
   8.4173092722068842E-004   1.1105969654669626E-003   0.0000000000000000     
   1.7022765635497355E-003   2.5995880394385487E-003   0.0000000000000000     
   2.5816369089871408E-003   4.4669732219147582E-003   0.0000000000000000     
   3.4798119635329047E-003   6.7127525128955921E-003   0.0000000000000000     
   7.3407330137335736E-003   7.4230047356385886E-003   0.0000000000000000     
   9.2297808862446973E-003   1.0190377166202434E-002   0.0000000000000000     
   1.1127256589020557E-002   1.3237145916604850E-002   0.0000000000000000     
   1.3033160122061155E-002   1.6563310986845832E-002   0.0000000000000000     
   1.4947491485366487E-002   2.0168872376925384E-002   0.0000000000000000     
   6.3147764011448719E-003   7.1879933736091446E-003   0.0000000000000000     
   7.9537196272003036E-003   9.9001512855470888E-003   0.0000000000000000     
   9.5966738271284890E-003   1.2897809692380626E-002   0.0000000000000000     
   1.1243639000929430E-002   1.6180968594109751E-002   0.0000000000000000     
   1.2894615148603124E-002   1.9749627990734469E-002   0.0000000000000000     
   5.3293040219151936E-003   6.9912808824754953E-003   0.0000000000000000     
   6.7214774502777543E-003   9.6548785307889930E-003   0.0000000000000000     
   8.1151369187267373E-003   1.2609933192655931E-002   0.0000000000000000     
   9.5102824272621390E-003   1.5856444868076310E-002   0.0000000000000000     
   1.0906913975883966E-002   1.9394413557050127E-002   0.0000000000000000     
   4.3843158760445370E-003   6.8328672622376451E-003   0.0000000000000000     
   5.5330543554770514E-003   9.4545589019281451E-003   0.0000000000000000     
   6.6826458638153032E-003   1.2373516417430766E-002   0.0000000000000000     
   7.8330904010592908E-003   1.5589739808745499E-002   0.0000000000000000     
   8.9843879672090125E-003   1.9103229075872360E-002   0.0000000000000000     
   3.4798119635329047E-003   6.7127525128955921E-003   0.0000000000000000     
   4.3884503427981964E-003   9.2991923989645467E-003   0.0000000000000000     
   5.2992006623941877E-003   1.2188559366705128E-002   0.0000000000000000     
   6.2120629223208768E-003   1.5380853416117331E-002   0.0000000000000000     
   7.1270371225782645E-003   1.8876074547201159E-002   0.0000000000000000     
   1.4947491485366487E-002   2.0168872376925384E-002   0.0000000000000000     
   1.6846389687575635E-002   2.4027580845336613E-002   0.0000000000000000     
   1.8705993737327675E-002   2.8113187150572618E-002   0.0000000000000000     
   2.0526303634622614E-002   3.2425691292633403E-002   0.0000000000000000     
   2.2307319379460441E-002   3.6965093271518965E-002   0.0000000000000000     
   1.2894615148603124E-002   1.9749627990734469E-002   0.0000000000000000     
   1.4532634507449890E-002   2.3579799221638203E-002   0.0000000000000000     
   1.6140729314770036E-002   2.7647493626204386E-002   0.0000000000000000     
   1.7718899570563565E-002   3.1952711204433007E-002   0.0000000000000000     
   1.9267145274830477E-002   3.6495451956324067E-002   0.0000000000000000     
   1.0906913975883966E-002   1.9394413557050127E-002   0.0000000000000000     
   1.2293226331700227E-002   2.3200907824547323E-002   0.0000000000000000     
   1.3657414261818939E-002   2.7252996235537806E-002   0.0000000000000000     
   1.4999477766240102E-002   3.1550678790021588E-002   0.0000000000000000     
   1.6319416844963713E-002   3.6093955487998666E-002   0.0000000000000000     
   8.9843879672090125E-003   1.9103229075872360E-002   0.0000000000000000     
   1.0128165160326651E-002   2.2890906654063944E-002   0.0000000000000000     
   1.1256048578474391E-002   2.6929694978572876E-002   0.0000000000000000     
   1.2368038221652224E-002   3.1219594049399151E-002   0.0000000000000000     
   1.3464134089860160E-002   3.5760603866542763E-002   0.0000000000000000     
   7.1270371225782645E-003   1.8876074547201159E-002   0.0000000000000000     
   8.0374509933291635E-003   2.2649795710188089E-002   0.0000000000000000     
   8.9366322647363890E-003   2.6677589855309596E-002   0.0000000000000000     
   9.8245809367999374E-003   3.0959456982565685E-002   0.0000000000000000     
   1.0701297009519809E-002   3.5495397091956357E-002   0.0000000000000000     
   2.2307319379460441E-002   3.6965093271518965E-002   0.0000000000000000     
   2.4040186150733642E-002   4.1717993496451153E-002   0.0000000000000000     
   2.5716049127334703E-002   4.6670992376651815E-002   0.0000000000000000     
   2.7334908309263613E-002   5.1824089912120938E-002   0.0000000000000000     
   2.8896763696520382E-002   5.7177286102858535E-002   0.0000000000000000     
   1.9267145274830477E-002   3.6495451956324067E-002   0.0000000000000000     
   2.0780981358828512E-002   4.1257066257942128E-002   0.0000000000000000     
   2.2255922753815421E-002   4.6218904485351750E-002   0.0000000000000000     
   2.3691969459791195E-002   5.1380966638552940E-002   0.0000000000000000     
   2.5089121476755842E-002   5.6743252717545697E-002   0.0000000000000000     
   1.6319416844963713E-002   3.6093955487998666E-002   0.0000000000000000     
   1.7614753187340060E-002   4.0860580526154759E-002   0.0000000000000000     
   1.8883008482719420E-002   4.5828308101175566E-002   0.0000000000000000     
   2.0124182731101791E-002   5.0997138213061108E-002   0.0000000000000000     
   2.1338275932487175E-002   5.6367070861811377E-002   0.0000000000000000     
   1.3464134089860160E-002   3.5760603866542763E-002   0.0000000000000000     
   1.4541501636268285E-002   4.0528536301089026E-002   0.0000000000000000     
   1.5597306314046700E-002   4.5499203224123264E-002   0.0000000000000000     
   1.6631548123195398E-002   5.0672604635645435E-002   0.0000000000000000     
   1.7644227063714390E-002   5.6048740535655582E-002   0.0000000000000000     
   1.0701297009519809E-002   3.5495397091956357E-002   0.0000000000000000     
   1.1561226705613190E-002   4.0260933582744955E-002   0.0000000000000000     
   1.2398816247797258E-002   4.5231589854194815E-002   0.0000000000000000     
   1.3214065636072022E-002   5.0407365906305936E-002   0.0000000000000000     
   1.4006974870437476E-002   5.5788261739078318E-002   0.0000000000000000     
   2.8896763696520382E-002   5.7177286102858535E-002   0.0000000000000000     
   3.0415297832714204E-002   6.2726185919947344E-002   0.0000000000000000     
   3.1904193261454272E-002   6.8466394334470104E-002   0.0000000000000000     
   3.3363449982740587E-002   7.4397911346426773E-002   0.0000000000000000     
   3.4793067996573161E-002   8.0520736955817393E-002   0.0000000000000000     
   2.5089121476755842E-002   5.6743252717545697E-002   0.0000000000000000     
   2.6450532980673493E-002   6.2303161971983191E-002   0.0000000000000000     
   2.7779358147508277E-002   6.8058093651518645E-002   0.0000000000000000     
   2.9075596977260199E-002   7.4008047756152037E-002   0.0000000000000000     
   3.0339249469929264E-002   8.0153024285883376E-002   0.0000000000000000     
   2.1338275932487175E-002   5.6367070861811377E-002   0.0000000000000000     
   2.2522546195114377E-002   6.1936426575959144E-002   0.0000000000000000     
   2.3674251627222184E-002   6.7703525884037233E-002   0.0000000000000000     
   2.4793392228810624E-002   7.3668368786045588E-002   0.0000000000000000     
   2.5879967999879662E-002   7.9830955281984278E-002   0.0000000000000000     
   1.7644227063714390E-002   5.6048740535655582E-002   0.0000000000000000     
   1.8631337476036857E-002   6.1625979731875197E-002   0.0000000000000000     
   1.9588873700596011E-002   6.7402691032025827E-002   0.0000000000000000     
   2.0516835737391846E-002   7.3378874436107452E-002   0.0000000000000000     
   2.1415223586424361E-002   7.9554529944120073E-002   0.0000000000000000     
   1.4006974870437476E-002   5.5788261739078318E-002   0.0000000000000000     
   1.4776906823440940E-002   6.1371821439731356E-002   0.0000000000000000     
   1.5523224367629743E-002   6.7155589095484455E-002   0.0000000000000000     
   1.6245927503003882E-002   7.3139564706337604E-002   0.0000000000000000     
   1.6945016229563362E-002   7.9323748272290800E-002   0.0000000000000000     
   3.4793067996573161E-002   8.0520736955817393E-002   0.0000000000000000     
   3.6169325623051730E-002   8.6813276109746360E-002   0.0000000000000000     
   3.7468501182276036E-002   9.3253933755318055E-002   0.0000000000000000     
   3.8690594674246098E-002   9.9842709892532452E-002   0.0000000000000000     
   3.9835606098961890E-002  0.10657960452138959        0.0000000000000000     
   3.0339249469929264E-002   8.0153024285883376E-002   0.0000000000000000     
   3.1537577425410086E-002   8.6465709178839750E-002   0.0000000000000000     
   3.2637842643597287E-002   9.2918788373148264E-002   0.0000000000000000     
   3.3640045124490862E-002   9.9512261868808891E-002   0.0000000000000000     
   3.4544184868090813E-002  0.10624612966582164        0.0000000000000000     
   2.5879967999879662E-002   7.9830955281984278E-002   0.0000000000000000     
   2.6900067830856109E-002   8.6159905262261458E-002   0.0000000000000000     
   2.7819780612166729E-002   9.2623838617285376E-002   0.0000000000000000     
   2.8639106343811536E-002   9.9222755347055991E-002   0.0000000000000000     
   2.9358045025790511E-002  0.10595665545157337        0.0000000000000000     
   2.1415223586424361E-002   7.9554529944120073E-002   0.0000000000000000     
   2.2256796839389793E-002   8.5895864360011481E-002   0.0000000000000000     
   2.3014315087984377E-002   9.2369084487729389E-002   0.0000000000000000     
   2.3687778332208104E-002   9.8974190327273823E-002   0.0000000000000000     
   2.4277186572060985E-002  0.10571118187864474        0.0000000000000000     
   1.6945016229563362E-002   7.9323748272290800E-002   0.0000000000000000     
   1.7607764451011150E-002   8.5673586472089780E-002   0.0000000000000000     
   1.8221446071050220E-002   9.2154525984480290E-002   0.0000000000000000     
   1.8786061089680579E-002   9.8766566809462303E-002   0.0000000000000000     
   1.9301609506902222E-002  0.10550970894703585        0.0000000000000000     
   3.9835606098961890E-002  0.10657960452138959        0.0000000000000000     
   4.0931821872587801E-002  0.11347022169019158        0.0000000000000000     
   4.2007528411288131E-002  0.12052016544724049        0.0000000000000000     
   4.3062725715062922E-002  0.12772943579253632        0.0000000000000000     
   4.4097413783912159E-002  0.13509803272607912        0.0000000000000000     
   3.4544184868090813E-002  0.10624612966582164        0.0000000000000000     
   3.5447366635479483E-002  0.11313987289521028        0.0000000000000000     
   3.6446695187739173E-002  0.12021297268799859        0.0000000000000000     
   3.7542170524869904E-002  0.12746542904418656        0.0000000000000000     
   3.8733792646871670E-002  0.13489724196377420        0.0000000000000000     
   2.9358045025790511E-002  0.10595665545157337        0.0000000000000000     
   3.0099678861496601E-002  0.11285292428655765        0.0000000000000000     
   3.0987090054322708E-002  0.11993894720772902        0.0000000000000000     
   3.2020278604268856E-002  0.12721472421508753        0.0000000000000000     
   3.3199244511335026E-002  0.13468025530863317        0.0000000000000000     
   2.4277186572060985E-002  0.10571118187864474        0.0000000000000000     
   2.4888758550639153E-002  0.11260937586423363        0.0000000000000000     
   2.5628713011038747E-002  0.11969808900643179        0.0000000000000000     
   2.6497049953259771E-002  0.12697732130523923        0.0000000000000000     
   2.7493769377302232E-002  0.13444707276065607        0.0000000000000000     
   1.9301609506902222E-002  0.10550970894703585        0.0000000000000000     
   1.9814605702907131E-002  0.11240922762823824        0.0000000000000000     
   2.0371564057887273E-002  0.11949039808410686        0.0000000000000000     
   2.0972484571842656E-002  0.12675322031464170        0.0000000000000000     
   2.1617367244773276E-002  0.13419769431984280        0.0000000000000000     
   4.4097413783912159E-002  0.13509803272607912        0.0000000000000000     
   4.5141788939293957E-002  0.14259763630664496        0.0000000000000000     
   4.6226047502666449E-002  0.15019992659300993        0.0000000000000000     
   4.7350189474029608E-002  0.15790490358517406        0.0000000000000000     
   4.8514214853383461E-002  0.16571256728313732        0.0000000000000000     
   3.8733792646871670E-002  0.13489724196377420        0.0000000000000000     
   3.9838995097341491E-002  0.14244457589266513        0.0000000000000000     
   4.0675211419876373E-002  0.15004359527676292        0.0000000000000000     
   4.1242441614476343E-002  0.15769430011606766        0.0000000000000000     
   4.1540685681141387E-002  0.16539669041057925        0.0000000000000000     
   3.3199244511335026E-002  0.13468025530863317        0.0000000000000000     
   3.4253924743786947E-002  0.14226021584825704        0.0000000000000000     
   3.4914256269890337E-002  0.14987928119385016        0.0000000000000000     
   3.5180239089645189E-002  0.15753745134541258        0.0000000000000000     
   3.5051873203051531E-002  0.16523472630294431        0.0000000000000000     
   2.7493769377302232E-002  0.13444707276065607        0.0000000000000000     
   2.8386577878630335E-002  0.14204455617342066        0.0000000000000000     
   2.8943182052708318E-002  0.14970698434427163        0.0000000000000000     
   2.9163581899536176E-002  0.15743435727320887        0.0000000000000000     
   2.9047777419113904E-002  0.16522667496023258        0.0000000000000000     
   2.1617367244773276E-002  0.13419769431984280        0.0000000000000000     
   2.2236954501871659E-002  0.14179759686815599        0.0000000000000000     
   2.2761988768330323E-002  0.14952670472802726        0.0000000000000000     
   2.3192470044149271E-002  0.15738501789945661        0.0000000000000000     
   2.3528398329328501E-002  0.16537253638244398        0.0000000000000000     
   0.0000000000000000        0.0000000000000000        0.0000000000000000     
   8.4173092722068842E-004   1.1105969654669626E-003   0.0000000000000000     
   1.7022765635497355E-003   2.5995880394385487E-003   0.0000000000000000     
   2.5816369089871408E-003   4.4669732219147582E-003   0.0000000000000000     
   3.4798119635329047E-003   6.7127525128955921E-003   0.0000000000000000     
   0.0000000000000000        0.0000000000000000        0.0000000000000000     
   6.3374516999754632E-004   1.0947028679987917E-003   0.0000000000000000     
   1.2782121654633608E-003   2.5636588818804895E-003   0.0000000000000000     
   1.9334009863974434E-003   4.4068680416450932E-003   0.0000000000000000     
   2.5993116327997939E-003   6.6243303472926021E-003   0.0000000000000000     
   0.0000000000000000        0.0000000000000000        0.0000000000000000     
   4.2421430145667051E-004   1.0832877528254990E-003   0.0000000000000000     
   8.5334144065301177E-004   2.5378827501459891E-003   0.0000000000000000     
   1.2873814175890239E-003   4.3637849919614721E-003   0.0000000000000000     
   1.7263342322647068E-003   6.5609944782719469E-003   0.0000000000000000     
   0.0000000000000000        0.0000000000000000        0.0000000000000000     
   2.1313832159806104E-004   1.0763516199470843E-003   0.0000000000000000     
   4.2766438911868851E-004   2.5222596442350492E-003   0.0000000000000000     
   6.4357820256188243E-004   4.3377240728638966E-003   0.0000000000000000     
   8.6087976192764277E-004   6.5227449058336238E-003   0.0000000000000000     
   0.0000000000000000        0.0000000000000000        0.0000000000000000     
   5.1723042171787485E-007   1.0738944693635477E-003   0.0000000000000000     
   1.1810108603908212E-006   2.5167895641476689E-003   0.0000000000000000     
   1.9913413160187036E-006   4.3286852843523642E-003   0.0000000000000000     
   2.9482217886017930E-006   6.5095816299776330E-003   0.0000000000000000     
   3.4798119635329047E-003   6.7127525128955921E-003   0.0000000000000000     
   4.3884503427981964E-003   9.2991923989645467E-003   0.0000000000000000     
   5.2992006623941877E-003   1.2188559366705128E-002   0.0000000000000000     
   6.2120629223208768E-003   1.5380853416117331E-002   0.0000000000000000     
   7.1270371225782645E-003   1.8876074547201159E-002   0.0000000000000000     
   2.5993116327997939E-003   6.6243303472926021E-003   0.0000000000000000     
   3.2724033744789167E-003   9.1828227069747984E-003   0.0000000000000000     
   3.9491354812433155E-003   1.2049122028843458E-002   0.0000000000000000     
   4.6295079530929905E-003   1.5223228312898580E-002   0.0000000000000000     
   5.3135207900279428E-003   1.8705141559140166E-002   0.0000000000000000     
   1.7263342322647068E-003   6.5609944782719469E-003   0.0000000000000000     
   2.1696514127569435E-003   9.0994935110354919E-003   0.0000000000000000     
   2.6167844871426153E-003   1.1949264392210186E-002   0.0000000000000000     
   3.0677334554217233E-003   1.5110307121796030E-002   0.0000000000000000     
   3.5224983175942679E-003   1.8582621699793023E-002   0.0000000000000000     
   8.6087976192764277E-004   6.5227449058336238E-003   0.0000000000000000     
   1.0801944576322752E-003   9.0492048111466324E-003   0.0000000000000000     
   1.3021476800920858E-003   1.1888986456805316E-002   0.0000000000000000     
   1.5267394293070741E-003   1.5042089842809679E-002   0.0000000000000000     
   1.7539697052772404E-003   1.8508514969159721E-002   0.0000000000000000     
   2.9482217886017930E-006   6.5095816299776330E-003   0.0000000000000000     
   4.0325091049132471E-006   9.0319566073082131E-003   0.0000000000000000     
   5.2250600917268131E-006   1.1868288222628845E-002   0.0000000000000000     
   6.5258747490422791E-006   1.5018576475939531E-002   0.0000000000000000     
   7.9349530768601855E-006   1.8482821367240266E-002   0.0000000000000000     
   7.1270371225782645E-003   1.8876074547201159E-002   0.0000000000000000     
   8.0374509933291635E-003   2.2649795710188089E-002   0.0000000000000000     
   8.9366322647363890E-003   2.6677589855309596E-002   0.0000000000000000     
   9.8245809367999374E-003   3.0959456982565685E-002   0.0000000000000000     
   1.0701297009519809E-002   3.5495397091956357E-002   0.0000000000000000     
   5.3135207900279428E-003   1.8705141559140166E-002   0.0000000000000000     
   5.9955720511619837E-003   2.2468724638024882E-002   0.0000000000000000     
   6.6700597956089284E-003   2.6487840420009404E-002   0.0000000000000000     
   7.3369840233687743E-003   3.0762488905093713E-002   0.0000000000000000     
   7.9963447344415257E-003   3.5292670093277821E-002   0.0000000000000000     
   3.5224983175942679E-003   1.8582621699793023E-002   0.0000000000000000     
   3.9770165542793341E-003   2.2338843082679478E-002   0.0000000000000000     
   4.4272256460960065E-003   2.6351606226933711E-002   0.0000000000000000     
   4.8731255930442863E-003   3.0620911132555727E-002   0.0000000000000000     
   5.3147163951241735E-003   3.5146757799545514E-002   0.0000000000000000     
   1.7539697052772404E-003   1.8508514969159721E-002   0.0000000000000000     
   1.9817845026812138E-003   2.2260151044151862E-002   0.0000000000000000     
   2.2081298161976239E-003   2.6268887276082533E-002   0.0000000000000000     
   2.4330056458264698E-003   3.0534723664951715E-002   0.0000000000000000     
   2.6564119915677520E-003   3.5057660210759435E-002   0.0000000000000000     
   7.9349530768601855E-006   1.8482821367240266E-002   0.0000000000000000     
   9.8758963676241784E-006   2.2232648522442045E-002   0.0000000000000000     
   1.2772305913779069E-005   2.6239683567455856E-002   0.0000000000000000     
   1.6624181715324796E-005   3.0503926502281700E-002   0.0000000000000000     
   2.1431523772261381E-005   3.5025377326919578E-002   0.0000000000000000     
   1.0701297009519809E-002   3.5495397091956357E-002   0.0000000000000000     
   1.1561226705613190E-002   4.0260933582744955E-002   0.0000000000000000     
   1.2398816247797258E-002   4.5231589854194815E-002   0.0000000000000000     
   1.3214065636072022E-002   5.0407365906305936E-002   0.0000000000000000     
   1.4006974870437476E-002   5.5788261739078318E-002   0.0000000000000000     
   7.9963447344415257E-003   3.5292670093277821E-002   0.0000000000000000     
   8.6400076338086582E-003   4.0054350672381805E-002   0.0000000000000000     
   9.2598384264516512E-003   4.5023497330225766E-002   0.0000000000000000     
   9.8558371123705062E-003   5.0200110066809675E-002   0.0000000000000000     
   1.0428003691565223E-002   5.5584188882133567E-002   0.0000000000000000     
   5.3147163951241735E-003   3.5146757799545514E-002   0.0000000000000000     
   5.7439236592885809E-003   3.9905365871258876E-002   0.0000000000000000     
   6.1526729924904237E-003   4.4872954991051643E-002   0.0000000000000000     
   6.5409643947297010E-003   5.0049525158923788E-002   0.0000000000000000     
   6.9087978660064119E-003   5.5435076374875325E-002   0.0000000000000000     
   2.6564119915677520E-003   3.5057660210759435E-002   0.0000000000000000     
   2.8729747820529583E-003   3.9813979179376173E-002   0.0000000000000000     
   3.0773199459135751E-003   4.4779962836672453E-002   0.0000000000000000     
   3.2694474831496036E-003   4.9955611182648255E-002   0.0000000000000000     
   3.4493573937610426E-003   5.5340924217303598E-002   0.0000000000000000     
   2.1431523772261381E-005   3.5025377326919578E-002   0.0000000000000000     
   2.7161002101788951E-005   3.9780190596733676E-002   0.0000000000000000     
   3.3779286721106767E-005   4.4744520867088168E-002   0.0000000000000000     
   4.1286377630215263E-005   4.9918368137983074E-002   0.0000000000000000     
   4.9682274829114222E-005   5.5301732409418380E-002   0.0000000000000000     
   1.4006974870437476E-002   5.5788261739078318E-002   0.0000000000000000     
   1.4776906823440940E-002   6.1371821439731356E-002   0.0000000000000000     
   1.5523224367629743E-002   6.7155589095484455E-002   0.0000000000000000     
   1.6245927503003882E-002   7.3139564706337604E-002   0.0000000000000000     
   1.6945016229563362E-002   7.9323748272290800E-002   0.0000000000000000     
   1.0428003691565223E-002   5.5584188882133567E-002   0.0000000000000000     
   1.0980166337679394E-002   6.1172195101513116E-002   0.0000000000000000     
   1.1516153224356620E-002   6.6960590050264043E-002   0.0000000000000000     
   1.2035964351596892E-002   7.2949373728386349E-002   0.0000000000000000     
   1.2539599719400218E-002   7.9138546135880006E-002   0.0000000000000000     
   6.9087978660064119E-003   5.5435076374875325E-002   0.0000000000000000     
   7.2620281191049891E-003   6.1025344119205988E-002   0.0000000000000000     
   7.6065098668098626E-003   6.6816063872215545E-002   0.0000000000000000     
   7.9422431091210315E-003   7.2807235633903955E-002   0.0000000000000000     
   8.2692278460384967E-003   7.8998859404271260E-002   0.0000000000000000     
   3.4493573937610426E-003   5.5340924217303598E-002   0.0000000000000000     
   3.6224921677177231E-003   6.0931268492809991E-002   0.0000000000000000     
   3.7942942949894761E-003   6.6722010561338946E-002   0.0000000000000000     
   3.9647637755762999E-003   7.2713150422890477E-002   0.0000000000000000     
   4.1339006094781965E-003   7.8904688077464535E-002   0.0000000000000000     
   4.9682274829114222E-005   5.5301732409418380E-002   0.0000000000000000     
   6.1558483517597782E-005   6.0889968222325098E-002   0.0000000000000000     
   7.9506508895458780E-005   6.6678430117634260E-002   0.0000000000000000     
   1.0352635096269873E-004   7.2667118095345845E-002   0.0000000000000000     
   1.3361800971931699E-004   7.8856032155459888E-002   0.0000000000000000     
   1.6945016229563362E-002   7.9323748272290800E-002   0.0000000000000000     
   1.7607764451011150E-002   8.5673586472089780E-002   0.0000000000000000     
   1.8221446071050220E-002   9.2154525984480290E-002   0.0000000000000000     
   1.8786061089680579E-002   9.8766566809462303E-002   0.0000000000000000     
   1.9301609506902222E-002  0.10550970894703585        0.0000000000000000     
   1.2539599719400218E-002   7.9138546135880006E-002   0.0000000000000000     
   1.3028454892450081E-002   8.5493633878979916E-002   0.0000000000000000     
   1.3503925435429970E-002   9.1980163563920900E-002   0.0000000000000000     
   1.3966011348339885E-002   9.8598135190702985E-002   0.0000000000000000     
   1.4414712631179827E-002  0.10534754875932612        0.0000000000000000     
   8.2692278460384967E-003   7.8998859404271260E-002   0.0000000000000000     
   8.5943523904365125E-003   8.5356568861165300E-002   0.0000000000000000     
   8.9245050551893350E-003   9.1845997682433983E-002   0.0000000000000000     
   9.2596858402969624E-003   9.8467145868077255E-002   0.0000000000000000     
   9.5998947457593929E-003  0.10522001341809514        0.0000000000000000     
   4.1339006094781965E-003   7.8904688077464535E-002   0.0000000000000000     
   4.3054569449704405E-003   8.5262391418645986E-002   0.0000000000000000     
   4.4831849303283086E-003   9.1752028340019512E-002   0.0000000000000000     
   4.6670845655518000E-003   9.8373598841585128E-002   0.0000000000000000     
   4.8571558506409172E-003  0.10512710292334285        0.0000000000000000     
   1.3361800971931699E-004   7.8856032155459888E-002   0.0000000000000000     
   1.6176855605186478E-004   8.5211101551421906E-002   0.0000000000000000     
   1.7996506084689434E-004   9.1698255536677500E-002   0.0000000000000000     
   1.8820752410440633E-004   9.8317494111226617E-002   0.0000000000000000     
   1.8649594582440063E-004  0.10506881727506931        0.0000000000000000     
   1.9301609506902222E-002  0.10550970894703585        0.0000000000000000     
   1.9814605702907131E-002  0.11240922762823824        0.0000000000000000     
   2.0371564057887273E-002  0.11949039808410686        0.0000000000000000     
   2.0972484571842656E-002  0.12675322031464170        0.0000000000000000     
   2.1617367244773276E-002  0.13419769431984280        0.0000000000000000     
   1.4414712631179827E-002  0.10534754875932612        0.0000000000000000     
   1.4832966485051795E-002  0.11224828512279486        0.0000000000000000     
   1.5203710111057787E-002  0.11932022513411365        0.0000000000000000     
   1.5526943509197809E-002  0.12656336879328248        0.0000000000000000     
   1.5802666679471854E-002  0.13397771610030140        0.0000000000000000     
   9.5998947457593929E-003  0.10522001341809514        0.0000000000000000     
   9.8995870638244089E-003  0.11212235389212684        0.0000000000000000     
   1.0113218086739791E-002  0.11919192084981151        0.0000000000000000     
   1.0240787814505537E-002  0.12642871429114919        0.0000000000000000     
   1.0282296247121646E-002  0.13383273421613986        0.0000000000000000     
   4.8571558506409172E-003  0.10512710292334285        0.0000000000000000     
   5.0144674392249705E-003  0.11203143393623416        0.0000000000000000     
   5.1000879849332778E-003  0.11910548523120049        0.0000000000000000     
   5.1140174877658384E-003  0.12634925680824180        0.0000000000000000     
   5.0562559477226494E-003  0.13376274866735816        0.0000000000000000     
   1.8649594582440063E-004  0.10506881727506931        0.0000000000000000     
   1.7760761125347989E-004  0.11197552525511684        0.0000000000000000     
   1.6431980563824959E-004  0.11906091827828051        0.0000000000000000     
   1.4663252897871080E-004  0.12632499634456035        0.0000000000000000     
   1.2454578127486272E-004  0.13376775945395630        0.0000000000000000     
   2.1617367244773276E-002  0.13419769431984280        0.0000000000000000     
   2.2236954501871659E-002  0.14179759686815599        0.0000000000000000     
   2.2761988768330323E-002  0.14952670472802726        0.0000000000000000     
   2.3192470044149271E-002  0.15738501789945661        0.0000000000000000     
   2.3528398329328501E-002  0.16537253638244398        0.0000000000000000     
   1.5802666679471854E-002  0.13397771610030140        0.0000000000000000     
   1.6135185972006132E-002  0.14157105789270186        0.0000000000000000     
   1.6628807736926834E-002  0.14935118500801534        0.0000000000000000     
   1.7283531974233969E-002  0.15731809744624189        0.0000000000000000     
   1.8099358683927529E-002  0.16547179520738148        0.0000000000000000     
   1.0282296247121646E-002  0.13383273421613986        0.0000000000000000     
   1.0411403647528961E-002  0.14141665920729699        0.0000000000000000     
   1.0801770278668322E-002  0.14919316784713405        0.0000000000000000     
   1.1453396140539729E-002  0.15716226013565104        0.0000000000000000     
   1.2366281233143182E-002  0.16532393607284795        0.0000000000000000     
   5.0562559477226494E-003  0.13376274866735816        0.0000000000000000     
   5.0656075284401525E-003  0.14133440081194140        0.0000000000000000     
   5.2808763935547898E-003  0.14905265324538330        0.0000000000000000     
   5.7020625430665587E-003  0.15691750596768397        0.0000000000000000     
   6.3291659769754618E-003  0.16492895897884338        0.0000000000000000     
   1.2454578127486272E-004  0.13376775945395630        0.0000000000000000     
   9.7797614739705049E-005  0.14132428270663505        0.0000000000000000     
   6.6126081586236475E-005  0.14892964120276322        0.0000000000000000     
   2.9531181814458602E-005  0.15658383494234079        0.0000000000000000     
  -1.1987084575628380E-005  0.16428686392536779        0.0000000000000000     
   0.0000000000000000        0.0000000000000000        0.0000000000000000     
   5.1723042171787485E-007   1.0738944693635477E-003   0.0000000000000000     
   1.1810108603908212E-006   2.5167895641476689E-003   0.0000000000000000     
   1.9913413160187036E-006   4.3286852843523642E-003   0.0000000000000000     
   2.9482217886017930E-006   6.5095816299776330E-003   0.0000000000000000     
   0.0000000000000000        0.0000000000000000        0.0000000000000000     
  -2.1213224868992946E-004   1.0759597981418307E-003   0.0000000000000000     
  -4.2536739684712657E-004   2.5215421142884219E-003   0.0000000000000000     
  -6.3970544447159133E-004   4.3367469484397753E-003   0.0000000000000000     
  -8.5514639156332396E-004   6.5215743005958889E-003   0.0000000000000000     
   0.0000000000000000        0.0000000000000000        0.0000000000000000     
  -4.2329339235445127E-004   1.0825911033488741E-003   0.0000000000000000     
  -8.5123953672910869E-004   2.5365868990618831E-003   0.0000000000000000     
  -1.2838384331239723E-003   4.3619873871390269E-003   0.0000000000000000     
  -1.7210900815390420E-003   6.5587925675803065E-003   0.0000000000000000     
   0.0000000000000000        0.0000000000000000        0.0000000000000000     
  -6.3296620057184776E-004   1.0937883849846781E-003   0.0000000000000000     
  -1.2764354087855558E-003   2.5619239184680510E-003   0.0000000000000000     
  -1.9304076246411241E-003   4.4044066004501189E-003   0.0000000000000000     
  -2.5948828481385522E-003   6.6212364309308838E-003   0.0000000000000000     
   0.0000000000000000        0.0000000000000000        0.0000000000000000     
  -8.4115067334211886E-004   1.1095516430492426E-003   0.0000000000000000     
  -1.7009550130164675E-003   2.5975531725069270E-003   0.0000000000000000     
  -2.5794130190230466E-003   4.4640045883730531E-003   0.0000000000000000     
  -3.4765246913618553E-003   6.7089058906476210E-003   0.0000000000000000     
   2.9482217886017930E-006   6.5095816299776330E-003   0.0000000000000000     
   4.0325091049132471E-006   9.0319566073082131E-003   0.0000000000000000     
   5.2250600917268131E-006   1.1868288222628845E-002   0.0000000000000000     
   6.5258747490422791E-006   1.5018576475939531E-002   0.0000000000000000     
   7.9349530768601855E-006   1.8482821367240266E-002   0.0000000000000000     
  -8.5514639156332396E-004   6.5215743005958889E-003   0.0000000000000000     
  -1.0723577203262374E-003   9.0478237715528112E-003   0.0000000000000000     
  -1.2920069129642448E-003   1.1887294962106599E-002   0.0000000000000000     
  -1.5140939694773467E-003   1.5039987872257242E-002   0.0000000000000000     
  -1.7386188898655423E-003   1.8505902502004748E-002   0.0000000000000000     
  -1.7210900815390420E-003   6.5587925675803065E-003   0.0000000000000000     
  -2.1624995181622714E-003   9.0968811759130006E-003   0.0000000000000000     
  -2.6075717791816128E-003   1.1946131947664388E-002   0.0000000000000000     
  -3.0563068645970684E-003   1.5106544882834477E-002   0.0000000000000000     
  -3.5087047744086354E-003   1.8578119981423256E-002   0.0000000000000000     
  -2.5948828481385522E-003   6.6212364309308838E-003   0.0000000000000000     
  -3.2663928844031877E-003   9.1791288203887707E-003   0.0000000000000000     
  -3.9414695385603781E-003   1.2044799179302221E-002   0.0000000000000000     
  -4.6201128106101224E-003   1.5218247507671225E-002   0.0000000000000000     
  -5.3023227005524198E-003   1.8699473805495793E-002   0.0000000000000000     
  -3.4765246913618553E-003   6.7089058906476210E-003   0.0000000000000000     
  -4.3840378190489878E-003   9.2945667049801339E-003   0.0000000000000000     
  -5.2937001911005392E-003   1.2183296657020093E-002   0.0000000000000000     
  -6.2055118075165089E-003   1.5375095746767497E-002   0.0000000000000000     
  -7.1194726682968952E-003   1.8869963974222352E-002   0.0000000000000000     
   7.9349530768601855E-006   1.8482821367240266E-002   0.0000000000000000     
   9.8758963676241784E-006   2.2232648522442045E-002   0.0000000000000000     
   1.2772305913779069E-005   2.6239683567455856E-002   0.0000000000000000     
   1.6624181715324796E-005   3.0503926502281700E-002   0.0000000000000000     
   2.1431523772261381E-005   3.5025377326919578E-002   0.0000000000000000     
  -1.7386188898655423E-003   1.8505902502004748E-002   0.0000000000000000     
  -1.9627284013986803E-003   2.2256854059173797E-002   0.0000000000000000     
  -2.1835692313466083E-003   2.6264657751589069E-002   0.0000000000000000     
  -2.4011413797093272E-003   3.0529313579250570E-002   0.0000000000000000     
  -2.6154448464868370E-003   3.5050821542158300E-002   0.0000000000000000     
  -3.5087047744086354E-003   1.8578119981423256E-002   0.0000000000000000     
  -3.9600475273549431E-003   2.2333286195970890E-002   0.0000000000000000     
  -4.4056171421746216E-003   2.6344472479017556E-002   0.0000000000000000     
  -4.8454136188676661E-003   3.0611678830563233E-002   0.0000000000000000     
  -5.2794369574340827E-003   3.5134905250607938E-002   0.0000000000000000     
  -5.3023227005524198E-003   1.8699473805495793E-002   0.0000000000000000     
  -5.9820814815011690E-003   2.2461944932833346E-002   0.0000000000000000     
  -6.6533714265702574E-003   2.6479127749741305E-002   0.0000000000000000     
  -7.3161925357596944E-003   3.0751022256219691E-002   0.0000000000000000     
  -7.9705448090694742E-003   3.5277628452268492E-002   0.0000000000000000     
  -7.1194726682968952E-003   1.8869963974222352E-002   0.0000000000000000     
  -8.0288302638373502E-003   2.2642830269761133E-002   0.0000000000000000     
  -8.9268320845335199E-003   2.6668623563760329E-002   0.0000000000000000     
  -9.8134781303854078E-003   3.0947343856219934E-002   0.0000000000000000     
  -1.0688768401393010E-002   3.5478991147139954E-002   0.0000000000000000     
   2.1431523772261381E-005   3.5025377326919578E-002   0.0000000000000000     
   2.7161002101788951E-005   3.9780190596733676E-002   0.0000000000000000     
   3.3779286721106767E-005   4.4744520867088168E-002   0.0000000000000000     
   4.1286377630215263E-005   4.9918368137983074E-002   0.0000000000000000     
   4.9682274829114222E-005   5.5301732409418380E-002   0.0000000000000000     
  -2.6154448464868370E-003   3.5050821542158300E-002   0.0000000000000000     
  -2.8212102855416166E-003   3.9805310581181565E-002   0.0000000000000000     
  -3.0131683507361451E-003   4.4768909637189658E-002   0.0000000000000000     
  -3.1913190420704250E-003   4.9941618710182586E-002   0.0000000000000000     
  -3.3556623595444547E-003   5.5323437800160337E-002   0.0000000000000000     
  -5.2794369574340827E-003   3.5134905250607938E-002   0.0000000000000000     
  -5.6998316858539472E-003   3.9890649590569989E-002   0.0000000000000000     
  -6.0987423321073458E-003   4.4855409701867716E-002   0.0000000000000000     
  -6.4761688961942785E-003   5.0029185584501111E-002   0.0000000000000000     
  -6.8321113781147462E-003   5.5411977238470189E-002   0.0000000000000000     
  -7.9705448090694742E-003   3.5277628452268492E-002   0.0000000000000000     
  -8.6087031988352040E-003   4.0036207624898956E-002   0.0000000000000000     
  -9.2229426573924925E-003   4.5004021061122348E-002   0.0000000000000000     
  -9.8132631847413498E-003   5.0181068760938655E-002   0.0000000000000000     
  -1.0379664780881759E-002   5.5567350724347875E-002   0.0000000000000000     
  -1.0688768401393010E-002   3.5478991147139954E-002   0.0000000000000000     
  -1.1547824824485386E-002   4.0241984684168466E-002   0.0000000000000000     
  -1.2385769326591592E-002   4.5214743714953542E-002   0.0000000000000000     
  -1.3202601907711628E-002   5.0397268239495217E-002   0.0000000000000000     
  -1.3998322567845493E-002   5.5789558257793456E-002   0.0000000000000000     
   4.9682274829114222E-005   5.5301732409418380E-002   0.0000000000000000     
   6.1558483517597782E-005   6.0889968222325098E-002   0.0000000000000000     
   7.9506508895458780E-005   6.6678430117634260E-002   0.0000000000000000     
   1.0352635096269873E-004   7.2667118095345845E-002   0.0000000000000000     
   1.3361800971931699E-004   7.8856032155459888E-002   0.0000000000000000     
  -3.3556623595444547E-003   5.5323437800160337E-002   0.0000000000000000     
  -3.5068526084207933E-003   6.0909588709061602E-002   0.0000000000000000     
  -3.6455440939619993E-003   6.6695293238824990E-002   0.0000000000000000     
  -3.7717368161680745E-003   7.2680551389450523E-002   0.0000000000000000     
  -3.8854307750390183E-003   7.8865363160938187E-002   0.0000000000000000     
  -6.8321113781147462E-003   5.5411977238470189E-002   0.0000000000000000     
  -7.1688207830228542E-003   6.0998275354329758E-002   0.0000000000000000     
  -7.4885481160727151E-003   6.6782570622634652E-002   0.0000000000000000     
  -7.7912933772643252E-003   7.2764863043384864E-002   0.0000000000000000     
  -8.0770565665976863E-003   7.8945152616580389E-002   0.0000000000000000     
  -1.0379664780881759E-002   5.5567350724347875E-002   0.0000000000000000     
  -1.0924346040288585E-002   6.1156028158129559E-002   0.0000000000000000     
  -1.1449505557436682E-002   6.6940262269063230E-002   0.0000000000000000     
  -1.1955143332326052E-002   7.2920053057148881E-002   0.0000000000000000     
  -1.2441259364956688E-002   7.9095400522386464E-002   0.0000000000000000     
  -1.3998322567845493E-002   5.5789558257793456E-002   0.0000000000000000     
  -1.4773428380217987E-002   6.1382847120461034E-002   0.0000000000000000     
  -1.5528416418053907E-002   6.7168368178110727E-002   0.0000000000000000     
  -1.6263286681353253E-002   7.3146121430742519E-002   0.0000000000000000     
  -1.6978039170116022E-002   7.9316106878356454E-002   0.0000000000000000     
   1.3361800971931699E-004   7.8856032155459888E-002   0.0000000000000000     
   1.6176855605186478E-004   8.5211101551421906E-002   0.0000000000000000     
   1.7996506084689434E-004   9.1698255536677500E-002   0.0000000000000000     
   1.8820752410440633E-004   9.8317494111226617E-002   0.0000000000000000     
   1.8649594582440063E-004  0.10506881727506931        0.0000000000000000     
  -3.8854307750390183E-003   7.8865363160938187E-002   0.0000000000000000     
  -4.0054112805736550E-003   8.5216338109356290E-002   0.0000000000000000     
  -4.1504636427708132E-003   9.1700085790773128E-002   0.0000000000000000     
  -4.3205878616304916E-003   9.8316606205188686E-002   0.0000000000000000     
  -4.5157839371526912E-003  0.10506589935260295        0.0000000000000000     
  -8.0770565665976863E-003   7.8945152616580389E-002   0.0000000000000000     
  -8.3647810691605644E-003   8.5291739942312289E-002   0.0000000000000000     
  -8.6734102700407236E-003   9.1772925620671575E-002   0.0000000000000000     
  -9.0029441692381657E-003   9.8388709651658260E-002   0.0000000000000000     
  -9.3533827667528890E-003  0.10513909203527234        0.0000000000000000     
  -1.2441259364956688E-002   7.9095400522386464E-002   0.0000000000000000     
  -1.2916340809708863E-002   8.5437307050289860E-002   0.0000000000000000     
  -1.3388874820962838E-002   9.1916775026372813E-002   0.0000000000000000     
  -1.3858861398718612E-002   9.8533804450635337E-002   0.0000000000000000     
  -1.4326300542976192E-002  0.10528839532307745        0.0000000000000000     
  -1.6978039170116022E-002   7.9316106878356454E-002   0.0000000000000000     
  -1.7660090502218548E-002   8.5653039433289058E-002   0.0000000000000000     
  -1.8296857295537153E-002   9.2131634007876897E-002   0.0000000000000000     
  -1.8888339550071836E-002   9.8751890602119932E-002   0.0000000000000000     
  -1.9434537265822605E-002  0.10551380921601825        0.0000000000000000     
   1.8649594582440063E-004  0.10506881727506931        0.0000000000000000     
   1.7760761125347989E-004  0.11197552525511684        0.0000000000000000     
   1.6431980563824959E-004  0.11906091827828051        0.0000000000000000     
   1.4663252897871080E-004  0.12632499634456035        0.0000000000000000     
   1.2454578127486272E-004  0.13376775945395630        0.0000000000000000     
  -4.5157839371526912E-003  0.10506589935260295        0.0000000000000000     
  -4.6911256222243077E-003  0.11197618495340536        0.0000000000000000     
  -4.8016866697322396E-003  0.11907568272798522        0.0000000000000000     
  -4.8474670796764879E-003  0.12636439267634256        0.0000000000000000     
  -4.8284668520570508E-003  0.13384231479847736        0.0000000000000000     
  -9.3533827667528890E-003  0.10513909203527234        0.0000000000000000     
  -9.6718654633426333E-003  0.11205497013573018        0.0000000000000000     
  -9.9055316597651370E-003  0.11916724131724812        0.0000000000000000     
  -1.0054381356020400E-002  0.12647590557982619        0.0000000000000000     
  -1.0118414552108428E-002  0.13398096292346437        0.0000000000000000     
  -1.4326300542976192E-002  0.10528839532307745        0.0000000000000000     
  -1.4764611912101495E-002  0.11221188080209134        0.0000000000000000     
  -1.5147215164460439E-002  0.11933559404606928        0.0000000000000000     
  -1.5474110300053035E-002  0.12665953505501126        0.0000000000000000     
  -1.5745297318879272E-002  0.13418370382891726        0.0000000000000000     
  -1.9434537265822605E-002  0.10551380921601825        0.0000000000000000     
  -1.9969364968500897E-002  0.11244691695248878        0.0000000000000000     
  -2.0526737183818158E-002  0.11958074091444862        0.0000000000000000     
  -2.1106653911774378E-002  0.12691528110189776        0.0000000000000000     
  -2.1709115152369583E-002  0.13445053751483615        0.0000000000000000     
   1.2454578127486272E-004  0.13376775945395630        0.0000000000000000     
   9.7797614739705049E-005  0.14132428270663505        0.0000000000000000     
   6.6126081586236475E-005  0.14892964120276322        0.0000000000000000     
   2.9531181814458602E-005  0.15658383494234079        0.0000000000000000     
  -1.1987084575628380E-005  0.16428686392536779        0.0000000000000000     
  -4.8284668520570508E-003  0.13384231479847736        0.0000000000000000     
  -4.8855242975279481E-003  0.14139047195100726        0.0000000000000000     
  -5.1594777267432055E-003  0.14888988699054981        0.0000000000000000     
  -5.6503271397028180E-003  0.15634055991710508        0.0000000000000000     
  -6.3580725364067881E-003  0.16374249073067298        0.0000000000000000     
  -1.0118414552108428E-002  0.13398096292346437        0.0000000000000000     
  -1.0277856412318376E-002  0.14153713560468717        0.0000000000000000     
  -1.0712932100939408E-002  0.14899914588001922        0.0000000000000000     
  -1.1423641617971519E-002  0.15636699374946045        0.0000000000000000     
  -1.2409984963414720E-002  0.16364067921301090        0.0000000000000000     
  -1.5745297318879272E-002  0.13418370382891726        0.0000000000000000     
  -1.6079198729631577E-002  0.14176427366767483        0.0000000000000000     
  -1.6594237041002366E-002  0.14925741787117139        0.0000000000000000     
  -1.7290412252991650E-002  0.15666313643940694        0.0000000000000000     
  -1.8167724365599418E-002  0.16398142937238150        0.0000000000000000     
  -2.1709115152369583E-002  0.13445053751483615        0.0000000000000000     
  -2.2289551249467545E-002  0.14207188613997024        0.0000000000000000     
  -2.2803392546932092E-002  0.14966470296400633        0.0000000000000000     
  -2.3250639044763193E-002  0.15722898798694451        0.0000000000000000     
  -2.3631290742960883E-002  0.16476474120878476        0.0000000000000000     
   0.0000000000000000        0.0000000000000000        0.0000000000000000     
  -8.4115067334211886E-004   1.1095516430492426E-003   0.0000000000000000     
  -1.7009550130164675E-003   2.5975531725069270E-003   0.0000000000000000     
  -2.5794130190230466E-003   4.4640045883730531E-003   0.0000000000000000     
  -3.4765246913618553E-003   6.7089058906476210E-003   0.0000000000000000     
   0.0000000000000000        0.0000000000000000        0.0000000000000000     
  -1.0565412828922524E-003   1.1334741260646021E-003   0.0000000000000000     
  -2.1390997686378632E-003   2.6493772296666330E-003   0.0000000000000000     
  -3.2476754572368319E-003   4.5477093108060923E-003   0.0000000000000000     
  -4.3822683486891582E-003   6.8284703694829812E-003   0.0000000000000000     
   0.0000000000000000        0.0000000000000000        0.0000000000000000     
  -1.2878325014492366E-003   1.1691490825527903E-003   0.0000000000000000     
  -2.6051710948657614E-003   2.7232986584352914E-003   0.0000000000000000     
  -3.9520157802495721E-003   4.6624487276475035E-003   0.0000000000000000     
  -5.3283665576006707E-003   6.9865992901894276E-003   0.0000000000000000     
   0.0000000000000000        0.0000000000000000        0.0000000000000000     
  -1.5350243290130716E-003   1.2165765125138070E-003   0.0000000000000000     
  -3.0991689917001606E-003   2.8193174588129026E-003   0.0000000000000000     
  -4.6924339880612658E-003   4.8082228388972876E-003   0.0000000000000000     
  -6.3148193180963888E-003   7.1832926527669603E-003   0.0000000000000000     
   0.0000000000000000        0.0000000000000000        0.0000000000000000     
  -1.7981167655837572E-003   1.2757564159476527E-003   0.0000000000000000     
  -3.6210934591410626E-003   2.9374336307994666E-003   0.0000000000000000     
  -5.4689300806719156E-003   4.9850316445554411E-003   0.0000000000000000     
  -7.3416266301763186E-003   7.4185504572155773E-003   0.0000000000000000     
  -3.4765246913618553E-003   6.7089058906476210E-003   0.0000000000000000     
  -4.3840378190489878E-003   9.2945667049801339E-003   0.0000000000000000     
  -5.2937001911005392E-003   1.2183296657020093E-002   0.0000000000000000     
  -6.2055118075165089E-003   1.5375095746767497E-002   0.0000000000000000     
  -7.1194726682968952E-003   1.8869963974222352E-002   0.0000000000000000     
  -4.3822683486891582E-003   6.8284703694829812E-003   0.0000000000000000     
  -5.5303702495576442E-003   9.4492489247251458E-003   0.0000000000000000     
  -6.6794729664050884E-003   1.2367633495560439E-002   0.0000000000000000     
  -7.8295764992314942E-003   1.5583624081988851E-002   0.0000000000000000     
  -8.9806808480368591E-003   1.9097220684010385E-002   0.0000000000000000     
  -5.3283665576006707E-003   6.9865992901894276E-003   0.0000000000000000     
  -6.7203261033871283E-003   9.6492295746618828E-003   0.0000000000000000     
  -8.1139970940770217E-003   1.2603818809665686E-002   0.0000000000000000     
  -9.5093795296703459E-003   1.5850366995200840E-002   0.0000000000000000     
  -1.0906473410167110E-002   1.9388874131267345E-002   0.0000000000000000     
  -6.3148193180963888E-003   7.1832926527669603E-003   0.0000000000000000     
  -7.9539053805374425E-003   9.8945086547903380E-003   0.0000000000000000     
  -9.5972725741163330E-003   1.2891852599335840E-002   0.0000000000000000     
  -1.1244920898833066E-002   1.6175324486403467E-002   0.0000000000000000     
  -1.2896850354687642E-002   1.9744924315993215E-002   0.0000000000000000     
  -7.3416266301763186E-003   7.4185504572155773E-003   0.0000000000000000     
  -9.2311080810085835E-003   1.0185086165110517E-002   0.0000000000000000     
  -1.1129299406523028E-002   1.3231734864570901E-002   0.0000000000000000     
  -1.3036200606719657E-002   1.6558496555596734E-002   0.0000000000000000     
  -1.4951811681598462E-002   2.0165371238188009E-002   0.0000000000000000     
  -7.1194726682968952E-003   1.8869963974222352E-002   0.0000000000000000     
  -8.0288302638373502E-003   2.2642830269761133E-002   0.0000000000000000     
  -8.9268320845335199E-003   2.6668623563760329E-002   0.0000000000000000     
  -9.8134781303854078E-003   3.0947343856219934E-002   0.0000000000000000     
  -1.0688768401393010E-002   3.5478991147139954E-002   0.0000000000000000     
  -8.9806808480368591E-003   1.9097220684010385E-002   0.0000000000000000     
  -1.0124632585408203E-002   2.2884461561131390E-002   0.0000000000000000     
  -1.1253278283932553E-002   2.6921384972858200E-002   0.0000000000000000     
  -1.2366617943609904E-002   3.1207990919190819E-002   0.0000000000000000     
  -1.3464651564440256E-002   3.5744279400129246E-002   0.0000000000000000     
  -1.0906473410167110E-002   1.9388874131267345E-002   0.0000000000000000     
  -1.2293827157258444E-002   2.3195358161321223E-002   0.0000000000000000     
  -1.3659989192635504E-002   2.7245837028818502E-002   0.0000000000000000     
  -1.5004959516298280E-002   3.1540310733759194E-002   0.0000000000000000     
  -1.6328738128246777E-002   3.6078779276143280E-002   0.0000000000000000     
  -1.2896850354687642E-002   1.9744924315993215E-002   0.0000000000000000     
  -1.4536413979388070E-002   2.3575520070330622E-002   0.0000000000000000     
  -1.6146964810642369E-002   2.7641979731641241E-002   0.0000000000000000     
  -1.7728502848450539E-002   3.1944303299925050E-002   0.0000000000000000     
  -1.9281028092812572E-002   3.6482490775182071E-002   0.0000000000000000     
  -1.4951811681598462E-002   2.0165371238188009E-002   0.0000000000000000     
  -1.6852393051797081E-002   2.4024947288159612E-002   0.0000000000000000     
  -1.8714205137953150E-002   2.8109813081326408E-002   0.0000000000000000     
  -2.0537247940066672E-002   3.2419968617688408E-002   0.0000000000000000     
  -2.2321521458137632E-002   3.6955413897245604E-002   0.0000000000000000     
  -1.0688768401393010E-002   3.5478991147139954E-002   0.0000000000000000     
  -1.1547824824485386E-002   4.0241984684168466E-002   0.0000000000000000     
  -1.2385769326591592E-002   4.5214743714953542E-002   0.0000000000000000     
  -1.3202601907711628E-002   5.0397268239495217E-002   0.0000000000000000     
  -1.3998322567845493E-002   5.5789558257793456E-002   0.0000000000000000     
  -1.3464651564440256E-002   3.5744279400129246E-002   0.0000000000000000     
  -1.4545466038364060E-002   4.0510493813099999E-002   0.0000000000000000     
  -1.5607148257321757E-002   4.5486877555529590E-002   0.0000000000000000     
  -1.6649698221313351E-002   5.0673430627418026E-002   0.0000000000000000     
  -1.7673115930338833E-002   5.6070153028765314E-002   0.0000000000000000     
  -1.6328738128246777E-002   3.6078779276143280E-002   0.0000000000000000     
  -1.7629896316030787E-002   4.0844248056415046E-002   0.0000000000000000     
  -1.8907005367200108E-002   4.5819722475018740E-002   0.0000000000000000     
  -2.0160065281754725E-002   5.1005202531954341E-002   0.0000000000000000     
  -2.1389076059694659E-002   5.6400688227221905E-002   0.0000000000000000     
  -1.9281028092812572E-002   3.6482490775182071E-002   0.0000000000000000     
  -2.0801115657485571E-002   4.1243247414113601E-002   0.0000000000000000     
  -2.2285340656226636E-002   4.6213278473420959E-002   0.0000000000000000     
  -2.3733703089035770E-002   5.1392583953104178E-002   0.0000000000000000     
  -2.5146202955912966E-002   5.6781163853163202E-002   0.0000000000000000     
  -2.2321521458137632E-002   3.6955413897245604E-002   0.0000000000000000     
  -2.4059124062728407E-002   4.1707491886195672E-002   0.0000000000000000     
  -2.5742154124401354E-002   4.6667545550736309E-002   0.0000000000000000     
  -2.7370611643156469E-002   5.1835574890867493E-002   0.0000000000000000     
  -2.8944496618993759E-002   5.7211579906589226E-002   0.0000000000000000     
  -1.3998322567845493E-002   5.5789558257793456E-002   0.0000000000000000     
  -1.4773428380217987E-002   6.1382847120461034E-002   0.0000000000000000     
  -1.5528416418053907E-002   6.7168368178110727E-002   0.0000000000000000     
  -1.6263286681353253E-002   7.3146121430742519E-002   0.0000000000000000     
  -1.6978039170116022E-002   7.9316106878356454E-002   0.0000000000000000     
  -1.7673115930338833E-002   5.6070153028765314E-002   0.0000000000000000     
  -1.8676759543814279E-002   6.1666319469603714E-002   0.0000000000000000     
  -1.9659987221155733E-002   6.7451204659965514E-002   0.0000000000000000     
  -2.0622798962363215E-002   7.3424808599850705E-002   0.0000000000000000     
  -2.1565194767436707E-002   7.9587131289259289E-002   0.0000000000000000     
  -2.1389076059694659E-002   5.6400688227221905E-002   0.0000000000000000     
  -2.2595031272080662E-002   6.1994032433837158E-002   0.0000000000000000     
  -2.3778924489973517E-002   6.7773088024815908E-002   0.0000000000000000     
  -2.4940755713373217E-002   7.3737855000158128E-002   0.0000000000000000     
  -2.6080524942279752E-002   7.9888333359863867E-002   0.0000000000000000     
  -2.5146202955912966E-002   5.6781163853163202E-002   0.0000000000000000     
  -2.6528243565017151E-002   6.2365986013161345E-002   0.0000000000000000     
  -2.7885228224507244E-002   6.8134018272661911E-002   0.0000000000000000     
  -2.9217156934383252E-002   7.4085260631664859E-002   0.0000000000000000     
  -3.0524029694645165E-002   8.0219713090170230E-002   0.0000000000000000     
  -2.8944496618993759E-002   5.7211579906589226E-002   0.0000000000000000     
  -3.0476396422623737E-002   6.2782180207576310E-002   0.0000000000000000     
  -3.1978898424756930E-002   6.8533995403503536E-002   0.0000000000000000     
  -3.3452002625393336E-002   7.4467025494370870E-002   0.0000000000000000     
  -3.4895709024532942E-002   8.0581270480178352E-002   0.0000000000000000     
  -1.6978039170116022E-002   7.9316106878356454E-002   0.0000000000000000     
  -1.7660090502218548E-002   8.5653039433289058E-002   0.0000000000000000     
  -1.8296857295537153E-002   9.2131634007876897E-002   0.0000000000000000     
  -1.8888339550071836E-002   9.8751890602119932E-002   0.0000000000000000     
  -1.9434537265822605E-002  0.10551380921601825        0.0000000000000000     
  -2.1565194767436707E-002   7.9587131289259289E-002   0.0000000000000000     
  -2.2453937960224008E-002   8.5916828915583790E-002   0.0000000000000000     
  -2.3255791864572883E-002   9.2392557666216735E-002   0.0000000000000000     
  -2.3970756480483354E-002   9.9014317541158095E-002   0.0000000000000000     
  -2.4598831807955402E-002  0.10578210854040794        0.0000000000000000     
  -2.6080524942279752E-002   7.9888333359863867E-002   0.0000000000000000     
  -2.7155790997259611E-002   8.6206567321447991E-002   0.0000000000000000     
  -2.8124112698879242E-002   9.2674601102425300E-002   0.0000000000000000     
  -2.8985490047138660E-002   9.9292434702795904E-002   0.0000000000000000     
  -2.9739923042037861E-002  0.10606006812255973        0.0000000000000000     
  -3.0524029694645165E-002   8.0219713090170230E-002   0.0000000000000000     
  -3.1765649613325363E-002   8.6522254650881605E-002   0.0000000000000000     
  -3.2901819798456244E-002   9.2977764316502648E-002   0.0000000000000000     
  -3.3932540250037765E-002   9.9586242087033303E-002   0.0000000000000000     
  -3.4857810968069981E-002  0.10634768796247360        0.0000000000000000     
  -3.4895709024532942E-002   8.0581270480178352E-002   0.0000000000000000     
  -3.6283513808421285E-002   8.6863890903884716E-002   0.0000000000000000     
  -3.7588913163303858E-002   9.3302047308448710E-002   0.0000000000000000     
  -3.8811907089180697E-002   9.9895739693870320E-002   0.0000000000000000     
  -3.9952495586051760E-002  0.10664496806014957        0.0000000000000000     
  -1.9434537265822605E-002  0.10551380921601825        0.0000000000000000     
  -1.9969364968500897E-002  0.11244691695248878        0.0000000000000000     
  -2.0526737183818158E-002  0.11958074091444862        0.0000000000000000     
  -2.1106653911774378E-002  0.12691528110189776        0.0000000000000000     
  -2.1709115152369583E-002  0.13445053751483615        0.0000000000000000     
  -2.4598831807955402E-002  0.10578210854040794        0.0000000000000000     
  -2.5232233412191107E-002  0.11272196325656395        0.0000000000000000     
  -2.5963176858392532E-002  0.11985991428222385        0.0000000000000000     
  -2.6791662146559675E-002  0.12719596161738764        0.0000000000000000     
  -2.7717689276692537E-002  0.13473010526205534        0.0000000000000000     
  -2.9739923042037861E-002  0.10606006812255973        0.0000000000000000     
  -3.0499326022822390E-002  0.11299890438395817        0.0000000000000000     
  -3.1375613328737811E-002  0.12013034650923254        0.0000000000000000     
  -3.2368784959784139E-002  0.12745439449838289        0.0000000000000000     
  -3.3478840915961337E-002  0.13497104835140916        0.0000000000000000     
  -3.4857810968069981E-002  0.10634768796247360        0.0000000000000000     
  -3.5770642800394756E-002  0.11327774033467146        0.0000000000000000     
  -3.6764046594854015E-002  0.12039203759547477        0.0000000000000000     
  -3.7838022351447766E-002  0.12769057974488349        0.0000000000000000     
  -3.8992570070175980E-002  0.13517336678289771        0.0000000000000000     
  -3.9952495586051760E-002  0.10664496806014957        0.0000000000000000     
  -4.1046183744908198E-002  0.11355847110870383        0.0000000000000000     
  -4.2128476656741139E-002  0.12064498754095046        0.0000000000000000     
  -4.3199374321550549E-002  0.12790451735688949        0.0000000000000000     
  -4.4258876739336449E-002  0.13533706055652089        0.0000000000000000     
  -2.1709115152369583E-002  0.13445053751483615        0.0000000000000000     
  -2.2289551249467545E-002  0.14207188613997024        0.0000000000000000     
  -2.2803392546932092E-002  0.14966470296400633        0.0000000000000000     
  -2.3250639044763193E-002  0.15722898798694451        0.0000000000000000     
  -2.3631290742960883E-002  0.16476474120878476        0.0000000000000000     
  -2.7717689276692537E-002  0.13473010526205534        0.0000000000000000     
  -2.8540198679781376E-002  0.14238256325894288        0.0000000000000000     
  -2.9058130786816433E-002  0.15007355365076613        0.0000000000000000     
  -2.9271485597797714E-002  0.15780307643752511        0.0000000000000000     
  -2.9180263112725209E-002  0.16557113161921994        0.0000000000000000     
  -3.3478840915961337E-002  0.13497104835140916        0.0000000000000000     
  -3.4462425728528145E-002  0.14261889526196223        0.0000000000000000     
  -3.5076183928743281E-002  0.15033652242369275        0.0000000000000000     
  -3.5320115516606729E-002  0.15812392983660081        0.0000000000000000     
  -3.5194220492118483E-002  0.16598111750068639        0.0000000000000000     
  -3.8992570070175980E-002  0.13517336678289771        0.0000000000000000     
  -4.0056232395707866E-002  0.14278088214902826        0.0000000000000000     
  -4.0857551972712618E-002  0.15045360928278620        0.0000000000000000     
  -4.1396528801190227E-002  0.15819154818417144        0.0000000000000000     
  -4.1673162881140695E-002  0.16599469885318402        0.0000000000000000     
  -4.4258876739336449E-002  0.13533706055652089        0.0000000000000000     
  -4.5321618681320522E-002  0.14286852392014110        0.0000000000000000     
  -4.6402234918724444E-002  0.15042481422804646        0.0000000000000000     
  -4.7500725451548223E-002  0.15800593148023706        0.0000000000000000     
  -4.8617090279791858E-002  0.16561187567671287        0.0000000000000000     
   0.0000000000000000        0.0000000000000000        0.0000000000000000     
  -1.7981167655837572E-003   1.2757564159476527E-003   0.0000000000000000     
  -3.6210934591410626E-003   2.9374336307994666E-003   0.0000000000000000     
  -5.4689300806719156E-003   4.9850316445554411E-003   0.0000000000000000     
  -7.3416266301763186E-003   7.4185504572155773E-003   0.0000000000000000     
   0.0000000000000000        0.0000000000000000        0.0000000000000000     
  -2.0690548890238488E-003   1.3538253336472144E-003   0.0000000000000000     
  -4.1637991605312057E-003   3.0921719357832290E-003   0.0000000000000000     
  -6.2842328145220694E-003   5.2150398064080448E-003   0.0000000000000000     
  -8.4303558509964422E-003   7.7224289455216609E-003   0.0000000000000000     
   0.0000000000000000        0.0000000000000000        0.0000000000000000     
  -2.3397837771959020E-003   1.4579198064053789E-003   0.0000000000000000     
  -4.7201407592133270E-003   3.2980571351524375E-003   0.0000000000000000     
  -7.1410709460522758E-003   5.5204119862411749E-003   0.0000000000000000     
  -9.6025743377127493E-003   8.1249843596715911E-003   0.0000000000000000     
   0.0000000000000000        0.0000000000000000        0.0000000000000000     
  -2.6103034300999162E-003   1.5880398342221469E-003   0.0000000000000000     
  -5.2901182551874284E-003   3.5550892289070899E-003   0.0000000000000000     
  -8.0394444752625357E-003   5.9011481840548314E-003   0.0000000000000000     
  -1.0858282090325242E-002   8.6262166996653681E-003   0.0000000000000000     
   0.0000000000000000        0.0000000000000000        0.0000000000000000     
  -2.8806138477358917E-003   1.7441854170975174E-003   0.0000000000000000     
  -5.8737316484535080E-003   3.8632682170471888E-003   0.0000000000000000     
  -8.9793534021528482E-003   6.3572483998490144E-003   0.0000000000000000     
  -1.2197479108833916E-002   9.2261259655029917E-003   0.0000000000000000     
  -7.3416266301763186E-003   7.4185504572155773E-003   0.0000000000000000     
  -9.2311080810085835E-003   1.0185086165110517E-002   0.0000000000000000     
  -1.1129299406523028E-002   1.3231734864570901E-002   0.0000000000000000     
  -1.3036200606719657E-002   1.6558496555596734E-002   0.0000000000000000     
  -1.4951811681598462E-002   2.0165371238188009E-002   0.0000000000000000     
  -8.4303558509964422E-003   7.7224289455216609E-003   0.0000000000000000     
  -1.0592812880425741E-002   1.0556443210496137E-002   0.0000000000000000     
  -1.2762248513281397E-002   1.3659186458703523E-002   0.0000000000000000     
  -1.4938662749563398E-002   1.7030658690143832E-002   0.0000000000000000     
  -1.7122055589271754E-002   2.0670859904817051E-002   0.0000000000000000     
  -9.6025743377127493E-003   8.1249843596715911E-003   0.0000000000000000     
  -1.2079898454414111E-002   1.1044060895820914E-002   0.0000000000000000     
  -1.4548290816375726E-002   1.4209928235066366E-002   0.0000000000000000     
  -1.7007751423597589E-002   1.7622586377407948E-002   0.0000000000000000     
  -1.9458280276079706E-002   2.1282035322845658E-002   0.0000000000000000     
  -1.0858282090325242E-002   8.6262166996653681E-003   0.0000000000000000     
  -1.3692364802973684E-002   1.1647939221084848E-002   0.0000000000000000     
  -1.6487426315806013E-002   1.4883960193659423E-002   0.0000000000000000     
  -1.9243466628822228E-002   1.8334279617389090E-002   0.0000000000000000     
  -2.1960485742022320E-002   2.1998897492273843E-002   0.0000000000000000     
  -1.2197479108833916E-002   9.2261259655029917E-003   0.0000000000000000     
  -1.5430211926104467E-002   1.2368078186287948E-002   0.0000000000000000     
  -1.8579655011572264E-002   1.5681282334482696E-002   0.0000000000000000     
  -2.1645808365237308E-002   1.9165738410087250E-002   0.0000000000000000     
  -2.4628671987099591E-002   2.2821446413101593E-002   0.0000000000000000     
  -1.4951811681598462E-002   2.0165371238188009E-002   0.0000000000000000     
  -1.6852393051797081E-002   2.4024947288159612E-002   0.0000000000000000     
  -1.8714205137953150E-002   2.8109813081326408E-002   0.0000000000000000     
  -2.0537247940066672E-002   3.2419968617688408E-002   0.0000000000000000     
  -2.2321521458137632E-002   3.6955413897245604E-002   0.0000000000000000     
  -1.7122055589271754E-002   2.0670859904817051E-002   0.0000000000000000     
  -1.9284482180726762E-002   2.4553331101480388E-002   0.0000000000000000     
  -2.1397997672248720E-002   2.8651613278891038E-002   0.0000000000000000     
  -2.3462602063837636E-002   3.2965706437049005E-002   0.0000000000000000     
  -2.5478295355493501E-002   3.7495610575954297E-002   0.0000000000000000     
  -1.9458280276079706E-002   2.1282035322845658E-002   0.0000000000000000     
  -2.1875399172418385E-002   2.5170362796965176E-002   0.0000000000000000     
  -2.4234629911209952E-002   2.9269656525352173E-002   0.0000000000000000     
  -2.6535972492454388E-002   3.3579916508006652E-002   0.0000000000000000     
  -2.8779426916151710E-002   3.8101142744928602E-002   0.0000000000000000     
  -2.1960485742022320E-002   2.1998897492273843E-002   0.0000000000000000     
  -2.4625144026871968E-002   2.5876042374613984E-002   0.0000000000000000     
  -2.7224101854836837E-002   2.9963942820709803E-002   0.0000000000000000     
  -2.9757359225916935E-002   3.4262598830561312E-002   0.0000000000000000     
  -3.2224916140112254E-002   3.8772010404168479E-002   0.0000000000000000     
  -2.4628671987099591E-002   2.2821446413101593E-002   0.0000000000000000     
  -2.7533716744087493E-002   2.6670369834426801E-002   0.0000000000000000     
  -3.0366413503129384E-002   3.0734472164963934E-002   0.0000000000000000     
  -3.3126762264225271E-002   3.5013753404712987E-002   0.0000000000000000     
  -3.5814763027375136E-002   3.9508213553673968E-002   0.0000000000000000     
  -2.2321521458137632E-002   3.6955413897245604E-002   0.0000000000000000     
  -2.4059124062728407E-002   4.1707491886195672E-002   0.0000000000000000     
  -2.5742154124401354E-002   4.6667545550736309E-002   0.0000000000000000     
  -2.7370611643156469E-002   5.1835574890867493E-002   0.0000000000000000     
  -2.8944496618993759E-002   5.7211579906589226E-002   0.0000000000000000     
  -2.5478295355493501E-002   3.7495610575954297E-002   0.0000000000000000     
  -2.7432815901393202E-002   4.2236600817054305E-002   0.0000000000000000     
  -2.9313902055713600E-002   4.7183952281796421E-002   0.0000000000000000     
  -3.1121553818454707E-002   5.2337664970180643E-002   0.0000000000000000     
  -3.2855771189616516E-002   5.7697738882206973E-002   0.0000000000000000     
  -2.8779426916151710E-002   3.8101142744928602E-002   0.0000000000000000     
  -3.0951085543113838E-002   4.2830193551082536E-002   0.0000000000000000     
  -3.3037040734152714E-002   4.7763927241433003E-002   0.0000000000000000     
  -3.5037292489268332E-002   5.2902343815979969E-002   0.0000000000000000     
  -3.6951840808460701E-002   5.8245443274723453E-002   0.0000000000000000     
  -3.2224916140112254E-002   3.8772010404168479E-002   0.0000000000000000     
  -3.4613932987890339E-002   4.3488270088280385E-002   0.0000000000000000     
  -3.6911570159718708E-002   4.8407470429646035E-002   0.0000000000000000     
  -3.9117827655597376E-002   5.3529611428265463E-002   0.0000000000000000     
  -4.1232705475526335E-002   5.8854693084138626E-002   0.0000000000000000     
  -3.5814763027375136E-002   3.9508213553673968E-002   0.0000000000000000     
  -3.8421358235722680E-002   4.4210830428647832E-002   0.0000000000000000     
  -4.0937490332411564E-002   4.9114581846435551E-002   0.0000000000000000     
  -4.3363159317441807E-002   5.4219467807037111E-002   0.0000000000000000     
  -4.5698365190813398E-002   5.9525488310452540E-002   0.0000000000000000     
  -2.8944496618993759E-002   5.7211579906589226E-002   0.0000000000000000     
  -3.0476396422623737E-002   6.2782180207576310E-002   0.0000000000000000     
  -3.1978898424756930E-002   6.8533995403503536E-002   0.0000000000000000     
  -3.3452002625393336E-002   7.4467025494370870E-002   0.0000000000000000     
  -3.4895709024532942E-002   8.0581270480178352E-002   0.0000000000000000     
  -3.2855771189616516E-002   5.7697738882206973E-002   0.0000000000000000     
  -3.4536004244594590E-002   6.3250927615429858E-002   0.0000000000000000     
  -3.6181703058784494E-002   6.8983984767403750E-002   0.0000000000000000     
  -3.7792867632186221E-002   7.4896910338128633E-002   0.0000000000000000     
  -3.9369497964799771E-002   8.0989704327604509E-002   0.0000000000000000     
  -3.6951840808460701E-002   5.8245443274723453E-002   0.0000000000000000     
  -3.8803581430623867E-002   6.3780540835069843E-002   0.0000000000000000     
  -4.0615410094651860E-002   6.9494951714425532E-002   0.0000000000000000     
  -4.2387326800544696E-002   7.5388675912790581E-002   0.0000000000000000     
  -4.4119331548302373E-002   8.1461713430164936E-002   0.0000000000000000     
  -4.1232705475526335E-002   5.8854693084138626E-002   0.0000000000000000     
  -4.3279127980711561E-002   6.4371019866496224E-002   0.0000000000000000     
  -4.5280019532359043E-002   7.0066896244568924E-002   0.0000000000000000     
  -4.7235380130468754E-002   7.5942322218356728E-002   0.0000000000000000     
  -4.9145209775040721E-002   8.1997297787859635E-002   0.0000000000000000     
  -4.5698365190813398E-002   5.9525488310452540E-002   0.0000000000000000     
  -4.7962643894857694E-002   6.5022364709709041E-002   0.0000000000000000     
  -5.0175531371906036E-002   7.0699818357833885E-002   0.0000000000000000     
  -5.2337027621958417E-002   7.6557849254827087E-002   0.0000000000000000     
  -5.4447132645014842E-002   8.2596457400688605E-002   0.0000000000000000     
  -3.4895709024532942E-002   8.0581270480178352E-002   0.0000000000000000     
  -3.6283513808421285E-002   8.6863890903884716E-002   0.0000000000000000     
  -3.7588913163303858E-002   9.3302047308448710E-002   0.0000000000000000     
  -3.8811907089180697E-002   9.9895739693870320E-002   0.0000000000000000     
  -3.9952495586051760E-002  0.10664496806014957        0.0000000000000000     
  -3.9369497964799771E-002   8.0989704327604509E-002   0.0000000000000000     
  -4.0900067902564965E-002   8.7250717458113664E-002   0.0000000000000000     
  -4.2373051291421625E-002   9.3668300451938358E-002   0.0000000000000000     
  -4.3788448131369735E-002  0.10024245330907867        0.0000000000000000     
  -4.5146258422409304E-002  0.10697317602953453        0.0000000000000000     
  -4.4119331548302373E-002   8.1461713430164936E-002   0.0000000000000000     
  -4.5805996215774088E-002   8.7701975691224843E-002   0.0000000000000000     
  -4.7441892680809047E-002   9.4097374120646546E-002   0.0000000000000000     
  -4.9027020943407253E-002  0.10064790871843005        0.0000000000000000     
  -5.0561381003568710E-002  0.10735357948457536        0.0000000000000000     
  -4.9145209775040721E-002   8.1997297787859635E-002   0.0000000000000000     
  -5.1001298748048617E-002   8.8217665603218240E-002   0.0000000000000000     
  -5.2795437331466126E-002   9.4589268314573205E-002   0.0000000000000000     
  -5.4527625525293229E-002  0.10111210592192449        0.0000000000000000     
  -5.6197863329529960E-002  0.10778617842527209        0.0000000000000000     
  -5.4447132645014842E-002   8.2596457400688605E-002   0.0000000000000000     
  -5.6485975499388573E-002   8.8797787194093883E-002   0.0000000000000000     
  -5.8433685243392847E-002   9.5143983033718335E-002   0.0000000000000000     
  -6.0290261877027677E-002  0.10163504491956196        0.0000000000000000     
  -6.2055705400293065E-002  0.10827097285162474        0.0000000000000000     
  -3.9952495586051760E-002  0.10664496806014957        0.0000000000000000     
  -4.1046183744908198E-002  0.11355847110870383        0.0000000000000000     
  -4.2128476656741139E-002  0.12064498754095046        0.0000000000000000     
  -4.3199374321550549E-002  0.12790451735688949        0.0000000000000000     
  -4.4258876739336449E-002  0.13533706055652089        0.0000000000000000     
  -4.5146258422409304E-002  0.10697317602953453        0.0000000000000000     
  -4.6422793399133522E-002  0.11386396363344202        0.0000000000000000     
  -4.7594364296135588E-002  0.12091831114093719        0.0000000000000000     
  -4.8660971113415490E-002  0.12813621855202006        0.0000000000000000     
  -4.9622613850973239E-002  0.13551768586669066        0.0000000000000000     
  -5.0561381003568710E-002  0.10735357948457536        0.0000000000000000     
  -5.1997316305841514E-002  0.11421708483627273        0.0000000000000000     
  -5.3287170294773797E-002  0.12124112319071247        0.0000000000000000     
  -5.4430942970365562E-002  0.12842569454789451        0.0000000000000000     
  -5.5428634332616800E-002  0.13577079890781890        0.0000000000000000     
  -5.6197863329529960E-002  0.10778617842527209        0.0000000000000000     
  -5.7769752465032187E-002  0.11461783471719604        0.0000000000000000     
  -5.9206894652655787E-002  0.12161342369027628        0.0000000000000000     
  -6.0509289892400779E-002  0.12877294534451278        0.0000000000000000     
  -6.1676938184267144E-002  0.13609639967990561        0.0000000000000000     
  -6.2055705400293065E-002  0.10827097285162474        0.0000000000000000     
  -6.3740101876705507E-002  0.11506621327621190        0.0000000000000000     
  -6.5353537369781528E-002  0.12203521263962860        0.0000000000000000     
  -6.6896011879521100E-002  0.12917797094187494        0.0000000000000000     
  -6.8367525405924279E-002  0.13649448818295079        0.0000000000000000     
  -4.4258876739336449E-002  0.13533706055652089        0.0000000000000000     
  -4.5321618681320522E-002  0.14286852392014110        0.0000000000000000     
  -4.6402234918724444E-002  0.15042481422804646        0.0000000000000000     
  -4.7500725451548223E-002  0.15800593148023706        0.0000000000000000     
  -4.8617090279791858E-002  0.16561187567671287        0.0000000000000000     
  -4.9622613850973239E-002  0.13551768586669066        0.0000000000000000     
  -5.0682464277795068E-002  0.14297097792189362        0.0000000000000000     
  -5.2043694162867242E-002  0.15040435955457351        0.0000000000000000     
  -5.3706303506189754E-002  0.15781783076473047        0.0000000000000000     
  -5.5670292307762603E-002  0.16521139155236439        0.0000000000000000     
  -5.5428634332616800E-002  0.13577079890781890        0.0000000000000000     
  -5.6562648877560441E-002  0.14317740150087874        0.0000000000000000     
  -5.8115391101229458E-002  0.15054646755746726        0.0000000000000000     
  -6.0086861003623836E-002  0.15787799707758438        0.0000000000000000     
  -6.2477058584743568E-002  0.16517199006123010        0.0000000000000000     
  -6.1676938184267144E-002  0.13609639967990561        0.0000000000000000     
  -6.2962172480616668E-002  0.14348779465709657        0.0000000000000000     
  -6.4617325733811112E-002  0.15085113823672763        0.0000000000000000     
  -6.6642397943850462E-002  0.15818643041879876        0.0000000000000000     
  -6.9037389110734759E-002  0.16549367120330993        0.0000000000000000     
  -6.8367525405924279E-002  0.13649448818295079        0.0000000000000000     
  -6.9881035086963708E-002  0.14390215739054710        0.0000000000000000     
  -7.1549498060612171E-002  0.15131837159235473        0.0000000000000000     
  -7.3372914326869668E-002  0.15874313078837368        0.0000000000000000     
  -7.5351283885736156E-002  0.16617643497860396        0.0000000000000000     
   0.0000000000000000        0.0000000000000000        0.0000000000000000     
  -2.8806138477358917E-003   1.7441854170975174E-003   0.0000000000000000     
  -5.8737316484535080E-003   3.8632682170471888E-003   0.0000000000000000     
  -8.9793534021528482E-003   6.3572483998490144E-003   0.0000000000000000     
  -1.2197479108833916E-002   9.2261259655029917E-003   0.0000000000000000     
   0.0000000000000000        0.0000000000000000        0.0000000000000000     
  -3.2841654644011464E-003   1.9989085941733110E-003   0.0000000000000000     
  -6.6785272385204032E-003   4.3297884278773969E-003   0.0000000000000000     
  -1.0183085322357767E-002   6.9926395011122560E-003   0.0000000000000000     
  -1.3797839715913245E-002   9.9874618138778900E-003   0.0000000000000000     
   0.0000000000000000        0.0000000000000000        0.0000000000000000     
  -3.9544087143929983E-003   2.4247614045913466E-003   0.0000000000000000     
  -7.9120513248969477E-003   5.0618441897023764E-003   0.0000000000000000     
  -1.1872927831511849E-002   7.9112483553330885E-003   0.0000000000000000     
  -1.5837038234237703E-002   1.0972973901483486E-002   0.0000000000000000     
   0.0000000000000000        0.0000000000000000        0.0000000000000000     
  -4.8913435977114474E-003   3.0217438483516250E-003   0.0000000000000000     
  -9.5743039075831451E-003   6.0594355025221300E-003   0.0000000000000000     
  -1.4048880929615091E-002   9.1130749625115137E-003   0.0000000000000000     
  -1.8315074663807284E-002   1.2182662228319777E-002   0.0000000000000000     
   0.0000000000000000        0.0000000000000000        0.0000000000000000     
  -6.0949701143564947E-003   3.7898559254541456E-003   0.0000000000000000     
  -1.1665284986578992E-002   7.3225623663366549E-003   0.0000000000000000     
  -1.6710944616667493E-002   1.0598119322647530E-002   0.0000000000000000     
  -2.1231949004621994E-002   1.3616526794386765E-002   0.0000000000000000     
  -1.2197479108833916E-002   9.2261259655029917E-003   0.0000000000000000     
  -1.5430211926104467E-002   1.2368078186287948E-002   0.0000000000000000     
  -1.8579655011572264E-002   1.5681282334482696E-002   0.0000000000000000     
  -2.1645808365237308E-002   1.9165738410087250E-002   0.0000000000000000     
  -2.4628671987099591E-002   2.2821446413101593E-002   0.0000000000000000     
  -1.3797839715913245E-002   9.9874618138778900E-003   0.0000000000000000     
  -1.7406204258163860E-002   1.3216839212538757E-002   0.0000000000000000     
  -2.0891592788086638E-002   1.6583355543459320E-002   0.0000000000000000     
  -2.4254005305681586E-002   2.0087010806639577E-002   0.0000000000000000     
  -2.7493441810948697E-002   2.3727805002079522E-002   0.0000000000000000     
  -1.5837038234237703E-002   1.0972973901483486E-002   0.0000000000000000     
  -1.9733106233509268E-002   1.4206583720945834E-002   0.0000000000000000     
  -2.3489855529761305E-002   1.7571640706512407E-002   0.0000000000000000     
  -2.7107286122993811E-002   2.1068144858183202E-002   0.0000000000000000     
  -3.0585398013206797E-002   2.4696096175958228E-002   0.0000000000000000     
  -1.8315074663807284E-002   1.2182662228319777E-002   0.0000000000000000     
  -2.2410917852140687E-002   1.5337311711509172E-002   0.0000000000000000     
  -2.6374443236596257E-002   1.8646137823641964E-002   0.0000000000000000     
  -3.0205650817173999E-002   2.2109140564718133E-002   0.0000000000000000     
  -3.3904540593873912E-002   2.5726319934737705E-002   0.0000000000000000     
  -2.1231949004621994E-002   1.3616526794386765E-002   0.0000000000000000     
  -2.5439639114058124E-002   1.6609023184228782E-002   0.0000000000000000     
  -2.9545355908591503E-002   1.9806846894847983E-002   0.0000000000000000     
  -3.3549099388222127E-002   2.3209997926244372E-002   0.0000000000000000     
  -3.7450869552950010E-002   2.6818476278417956E-002   0.0000000000000000     
  -2.4628671987099591E-002   2.2821446413101593E-002   0.0000000000000000     
  -2.7533716744087493E-002   2.6670369834426801E-002   0.0000000000000000     
  -3.0366413503129384E-002   3.0734472164963934E-002   0.0000000000000000     
  -3.3126762264225271E-002   3.5013753404712987E-002   0.0000000000000000     
  -3.5814763027375136E-002   3.9508213553673968E-002   0.0000000000000000     
  -2.7493441810948697E-002   2.3727805002079522E-002   0.0000000000000000     
  -3.0632470438593035E-002   2.7546493953990156E-002   0.0000000000000000     
  -3.3693659323319664E-002   3.1583833486582460E-002   0.0000000000000000     
  -3.6677008465128599E-002   3.5839823599856449E-002   0.0000000000000000     
  -3.9582517864019832E-002   4.0314464293812094E-002   0.0000000000000000     
  -3.0585398013206797E-002   2.4696096175958228E-002   0.0000000000000000     
  -3.3952758224916640E-002   2.8497563510890559E-002   0.0000000000000000     
  -3.7237933782639780E-002   3.2514615714033288E-002   0.0000000000000000     
  -4.0440924686376160E-002   3.6747252785386410E-002   0.0000000000000000     
  -4.3561730936125816E-002   4.1195474724949936E-002   0.0000000000000000     
  -3.3904540593873912E-002   2.5726319934737705E-002   0.0000000000000000     
  -3.7494580103058346E-002   2.9523578505128011E-002   0.0000000000000000     
  -4.0999236881089682E-002   3.3526818847316411E-002   0.0000000000000000     
  -4.4418510927967947E-002   3.7736040961302897E-002   0.0000000000000000     
  -4.7752402243693100E-002   4.2151244847087474E-002   0.0000000000000000     
  -3.7450869552950010E-002   2.6818476278417956E-002   0.0000000000000000     
  -4.1257936073018114E-002   3.0624538936702514E-002   0.0000000000000000     
  -4.4977568618669431E-002   3.4620442886431825E-002   0.0000000000000000     
  -4.8609767189903931E-002   3.8806188127605903E-002   0.0000000000000000     
  -5.2154531786721650E-002   4.3181774660224721E-002   0.0000000000000000     
  -3.5814763027375136E-002   3.9508213553673968E-002   0.0000000000000000     
  -3.8421358235722680E-002   4.4210830428647832E-002   0.0000000000000000     
  -4.0937490332411564E-002   4.9114581846435551E-002   0.0000000000000000     
  -4.3363159317441807E-002   5.4219467807037111E-002   0.0000000000000000     
  -4.5698365190813398E-002   5.9525488310452540E-002   0.0000000000000000     
  -3.9582517864019832E-002   4.0314464293812094E-002   0.0000000000000000     
  -4.2405228561416985E-002   4.4998911422230788E-002   0.0000000000000000     
  -4.5140181598743702E-002   4.9884320838893853E-002   0.0000000000000000     
  -4.7787376975999975E-002   5.4970692543801353E-002   0.0000000000000000     
  -5.0346814693185818E-002   6.0258026536953210E-002   0.0000000000000000     
  -4.3561730936125816E-002   4.1195474724949936E-002   0.0000000000000000     
  -4.6597411239779389E-002   4.5853549919075143E-002   0.0000000000000000     
  -4.9545024305227531E-002   5.0715746754113333E-002   0.0000000000000000     
  -5.2404570132470234E-002   5.5782065230064529E-002   0.0000000000000000     
  -5.5176048721507484E-002   6.1052505346928694E-002   0.0000000000000000     
  -4.7752402243693100E-002   4.2151244847087474E-002   0.0000000000000000     
  -5.0997906270809870E-002   4.6774745919180918E-002   0.0000000000000000     
  -5.4152018451863029E-002   5.1608859592093985E-002   0.0000000000000000     
  -5.7214738786852543E-002   5.6653585865826681E-002   0.0000000000000000     
  -6.0186067275778438E-002   6.1908924740379005E-002   0.0000000000000000     
  -5.2154531786721650E-002   4.3181774660224721E-002   0.0000000000000000     
  -5.5606713654508456E-002   4.7762499422548094E-002   0.0000000000000000     
  -5.8961164038650218E-002   5.2563659352835773E-002   0.0000000000000000     
  -6.2217882939146950E-002   5.7585254451087801E-002   0.0000000000000000     
  -6.5376870355998623E-002   6.2827284717304144E-002   0.0000000000000000     
  -4.5698365190813398E-002   5.9525488310452540E-002   0.0000000000000000     
  -4.7962643894857694E-002   6.5022364709709041E-002   0.0000000000000000     
  -5.0175531371906036E-002   7.0699818357833885E-002   0.0000000000000000     
  -5.2337027621958417E-002   7.6557849254827087E-002   0.0000000000000000     
  -5.4447132645014842E-002   8.2596457400688605E-002   0.0000000000000000     
  -5.0346814693185818E-002   6.0258026536953210E-002   0.0000000000000000     
  -5.2833202888526561E-002   6.5736014857135538E-002   0.0000000000000000     
  -5.5261249700247581E-002   7.1394349543134450E-002   0.0000000000000000     
  -5.7630955128348850E-002   7.7233030594949917E-002   0.0000000000000000     
  -5.9942319172830397E-002   8.3252058012581939E-002   0.0000000000000000     
  -5.5176048721507484E-002   6.1052505346928694E-002   0.0000000000000000     
  -5.7869878677182504E-002   6.6513409801203016E-002   0.0000000000000000     
  -6.0496478604338433E-002   7.2151121289384612E-002   0.0000000000000000     
  -6.3055848502975284E-002   7.7965639811473489E-002   0.0000000000000000     
  -6.5547988373093058E-002   8.3956965367469688E-002   0.0000000000000000     
  -6.0186067275778438E-002   6.1908924740379005E-002   0.0000000000000000     
  -6.3072671260825511E-002   6.7354549541911418E-002   0.0000000000000000     
  -6.5881218084178600E-002   7.2970133596584358E-002   0.0000000000000000     
  -6.8611707745837719E-002   7.8755676904397859E-002   0.0000000000000000     
  -7.1264140245802826E-002   8.4711179465351893E-002   0.0000000000000000     
  -6.5376870355998623E-002   6.2827284717304144E-002   0.0000000000000000     
  -6.8441580639455574E-002   6.8259434079260786E-002   0.0000000000000000     
  -7.1415468139768068E-002   7.3851386464733743E-002   0.0000000000000000     
  -7.4298532856936134E-002   7.9603141873722985E-002   0.0000000000000000     
  -7.7090774790959743E-002   8.5514700306228514E-002   0.0000000000000000     
  -5.4447132645014842E-002   8.2596457400688605E-002   0.0000000000000000     
  -5.6485975499388573E-002   8.8797787194093883E-002   0.0000000000000000     
  -5.8433685243392847E-002   9.5143983033718335E-002   0.0000000000000000     
  -6.0290261877027677E-002  0.10163504491956196        0.0000000000000000     
  -6.2055705400293065E-002  0.10827097285162474        0.0000000000000000     
  -5.9942319172830397E-002   8.3252058012581939E-002   0.0000000000000000     
  -6.2163613371745183E-002   8.9431307089696876E-002   0.0000000000000000     
  -6.4263109263146198E-002   9.5750653119961171E-002   0.0000000000000000     
  -6.6240806847033457E-002  0.10221009610337477        0.0000000000000000     
  -6.8096706123406930E-002  0.10880963603993769        0.0000000000000000     
  -6.5547988373093058E-002   8.3956965367469688E-002   0.0000000000000000     
  -6.7937799267069707E-002   9.0107191915872437E-002   0.0000000000000000     
  -7.0190182237283141E-002   9.6398413415180947E-002   0.0000000000000000     
  -7.2305137283733417E-002  0.10283062986539525        0.0000000000000000     
  -7.4282664406420479E-002  0.10940384126651533        0.0000000000000000     
  -7.1264140245802826E-002   8.4711179465351893E-002   0.0000000000000000     
  -7.3808533185362152E-002   9.0825441672620466E-002   0.0000000000000000     
  -7.6214904165803718E-002   9.7087263919377637E-002   0.0000000000000000     
  -7.8483253187127566E-002  0.10349664620562342        0.0000000000000000     
  -8.0613580249333683E-002  0.11005358853135774        0.0000000000000000     
  -7.7090774790959743E-002   8.5514700306228514E-002   0.0000000000000000     
  -7.9775815126622476E-002   9.1586056359941062E-002   0.0000000000000000     
  -8.2337275048707845E-002   9.7817204632551294E-002   0.0000000000000000     
  -8.4775154557215890E-002  0.10420814512405924        0.0000000000000000     
  -8.7089453652146584E-002  0.11075887783446486        0.0000000000000000     
  -6.2055705400293065E-002  0.10827097285162474        0.0000000000000000     
  -6.3740101876705507E-002  0.11506621327621190        0.0000000000000000     
  -6.5353537369781528E-002  0.12203521263962860        0.0000000000000000     
  -6.6896011879521100E-002  0.12917797094187494        0.0000000000000000     
  -6.8367525405924279E-002  0.13649448818295079        0.0000000000000000     
  -6.8096706123406930E-002  0.10880963603993769        0.0000000000000000     
  -6.9892514486573562E-002  0.11557165187033779        0.0000000000000000     
  -7.1689939330840183E-002  0.12251852253526296        0.0000000000000000     
  -7.3488980656206862E-002  0.12965024803471323        0.0000000000000000     
  -7.5289638462673544E-002  0.13696682836868856        0.0000000000000000     
  -7.4282664406420479E-002  0.10940384126651533        0.0000000000000000     
  -7.6211140240348321E-002  0.11614358185659120        0.0000000000000000     
  -7.8178941420520912E-002  0.12307538587367277        0.0000000000000000     
  -8.0186067946938250E-002  0.13019925331776003        0.0000000000000000     
  -8.2232519819600308E-002  0.13751518418885306        0.0000000000000000     
  -8.0613580249333683E-002  0.11005358853135774        0.0000000000000000     
  -8.2695979138029854E-002  0.11678200323497212        0.0000000000000000     
  -8.4820543638823701E-002  0.12370580265485798        0.0000000000000000     
  -8.6987273751715305E-002  0.13082498679101534        0.0000000000000000     
  -8.9196169476704612E-002  0.13813955564344427        0.0000000000000000     
  -8.7089453652146584E-002  0.11075887783446486        0.0000000000000000     
  -8.9347031179618092E-002  0.11748691600548057        0.0000000000000000     
  -9.1614745985748564E-002  0.12440977287881869        0.0000000000000000     
  -9.3892598070538000E-002  0.13152744845447922        0.0000000000000000     
  -9.6180587433986386E-002  0.13883994273246220        0.0000000000000000     
  -6.8367525405924279E-002  0.13649448818295079        0.0000000000000000     
  -6.9881035086963708E-002  0.14390215739054710        0.0000000000000000     
  -7.1549498060612171E-002  0.15131837159235473        0.0000000000000000     
  -7.3372914326869668E-002  0.15874313078837368        0.0000000000000000     
  -7.5351283885736156E-002  0.16617643497860396        0.0000000000000000     
  -7.5289638462673544E-002  0.13696682836868856        0.0000000000000000     
  -7.7044489253166482E-002  0.14439631944385939        0.0000000000000000     
  -7.8706109530611898E-002  0.15186677716689609        0.0000000000000000     
  -8.0274499295009780E-002  0.15937820153779869        0.0000000000000000     
  -8.1749658546360113E-002  0.16693059255656723        0.0000000000000000     
  -8.2232519819600308E-002  0.13751518418885306        0.0000000000000000     
  -8.4177787535789833E-002  0.14494611055966253        0.0000000000000000     
  -8.5881361592789432E-002  0.15241496450289932        0.0000000000000000     
  -8.7343241990599160E-002  0.15992174601856343        0.0000000000000000     
  -8.8563428729218963E-002  0.16746645510665475        0.0000000000000000     
  -8.9196169476704612E-002  0.13813955564344427        0.0000000000000000     
  -9.1280929934833735E-002  0.14555153073795662        0.0000000000000000     
  -9.3075254247144801E-002  0.15296293360036448        0.0000000000000000     
  -9.4579142413637782E-002  0.16037376423066785        0.0000000000000000     
  -9.5792594434312706E-002  0.16778402262886657        0.0000000000000000     
  -9.6180587433986386E-002  0.13883994273246220        0.0000000000000000     
  -9.8353916450298243E-002  0.14621257997874160        0.0000000000000000     
 -0.10028778749367800       0.15351068445929150        0.0000000000000000     
 -0.10198220056412571       0.16073425617411188        0.0000000000000000     
 -0.10343715566164134       0.16788329512320271        0.0000000000000000     
 </DataArray>
 <DataArray  type="Float64" Name="stress" NumberOfComponents="3" format="ascii">
   13411450564.856188        4023435169.4568563        2893581319.7388830     
   11764264767.172810        1890736159.0199273        1716502048.8841333     
   10314133663.477781        414886128.54415989        811555888.88033009     
   9061057253.7710972       -404114921.97044754        178742839.72747397     
   8005035538.0527639       -566266992.52389002       -181937098.57443693     
   10538483189.697426        3161544956.9092278        2225748592.2949119     
   9666734433.0258942        1589957151.4247689        1447197575.4287765     
   8943507070.1201229        513440658.49285460        863516278.11638951     
   8368801100.9801140       -68004521.886517525        474704700.35775191     
   7942616525.6058683       -154378389.71334648        280762842.15286136     
   8338584095.8167076        2501575228.7450123        1712565453.8201098     
   8021519833.5935965        1424872864.2439988        1275920507.3495719     
   7804443664.9136610        681464144.88690853        956881889.13558435     
   7687355589.7769051        271349070.67374325        755449599.17814851     
   7670255608.1833267        194527641.60450315        671623637.47726214     
   6811753283.2140303        2043525984.9642091        1354031904.3144763     
   6828620968.8759184        1395483297.4776130        1202670844.6465194     
   6896943447.8583984        918956587.72632241        1091652721.9379158     
   7016720720.1614704        613945855.71033788        1020977536.1886648     
   7187952785.7851334        480451101.42965841        990645287.39876676     
   5957990751.8893967        1787397225.5668190        1150147943.7780120     
   6088037838.8728619        1501788451.1256139        1227448587.3196199     
   6221006418.9543343        1225917987.0110955        1267828776.5233824     
   6356896492.1338100        959785833.22326398        1271288511.3893003     
   6495708058.4112949        703391989.76212025        1237827791.9173729     
   8005035538.0527639       -566266992.52389002       -181937098.57443693     
   7918354897.3452616       -201359528.31647968       -80693735.461506128     
   7790393548.7533245        25945576.276161671       -10299082.163284475     
   7621151492.2769575        115648321.25402403        29246861.320233297     
   7410628727.9161568        67748706.617121696        37944094.989038229     
   7942616525.6058683       -154378389.71334648        280762842.15286136     
   7739710546.2584696        16074325.845266342        279408928.99133319     
   7513454384.9545736        108693101.54889059        264373791.76354620     
   7263848041.6941805        123477937.39752436        235657430.46950191     
   6990891516.4772892        60428833.391167641        193259845.10919651     
   7670255608.1833267        194527641.60450315        671623637.47726214     
   7400174249.4773159        185240596.29870081        588591394.95719862     
   7124673234.7427454        157888030.89769602        509045414.11932528     
   6843752563.9796143        112469945.40148401        432985694.96364397     
   6557412237.1879196        48986339.810067415        360412237.49015754     
   7187952785.7851334        480451101.42965841        990645287.39876676     
   6899746007.0017986        306139283.04382873        846853662.43609083     
   6624050098.1178398        173530364.32257795        723715784.90405679     
   6360865059.1332560        82624345.265908003        621231654.80266535     
   6110190890.0480433        33421225.873816490        539401272.13191628     
   6495708058.4112949        703391989.76212025        1237827791.9173729     
   6238425818.8319225        378770386.08064580        1054195731.4280112     
   6011584975.0798597        155620101.82353711        908384904.11774063     
   5815185527.1551046        33941136.990791559        800395309.98656213     
   5649227475.0576601        13733491.582410336        730226949.03447652     
   7410628727.9161568        67748706.617121696        37944094.989038229     
   7217374938.5822182       -19138544.885349274        20380092.637628522     
   7036279881.7215252       -65496688.143654346        3634729.3779635909     
   6867343557.3340874       -71325723.157783031       -12291994.789965050     
   6710565965.4198980       -36625649.927752495       -27400079.866150517     
   6990891516.4772892        60428833.391167641        193259845.10919651     
   6809477018.1668167        1746491.1336498260        183197156.38452509     
   6636184671.2701426       -29862013.077877045        174914150.29887259     
   6471014475.7872629       -34396679.243420124        168410826.85222980     
   6313966431.7181787       -11857507.362967968        163687186.04460704     
   6557412237.1879196        48986339.810067415        360412237.49015754     
   6390582868.6074123        19332658.409449816        353141517.82286114     
   6227839070.3812418        3297544.8566384315        348611524.34185624     
   6069180842.5094213        880999.15164494514        346822257.04713935     
   5914608184.9919453        12083021.294463396        347773715.93871176     
   6110190890.0480433        33421225.873816490        539401272.13191628     
   5960692489.9039917        33619956.942042589        530213176.95263594     
   5811243079.0548363        33981985.659903765        524726851.50691849     
   5661842657.5005665        34507312.027402639        522942295.79476357     
   5512491225.2411909        35195936.044538021        524859509.81617290     
   5649227475.0576601        13733491.582410336        730226949.03447652     
   5519805882.0565701        44608386.731436014        714412133.77384937     
   5386396697.2909145        62191309.331917763        703260131.79405463     
   5248999920.7606983        66482259.383856773        696770943.09509945     
   5107615552.4659176        57481236.887255430        694944567.67698133     
   6710565965.4198980       -36625649.927752495       -27400079.866150517     
   6531391753.8059301       -1171450.2143378258       -16677662.193208799     
   6344986136.5714302        10178064.097302198        554104.09478839056     
   6151349113.7164097       -2577106.9927885532        24295218.997848414     
   5950480685.2408648       -39436963.484632015        54545682.515959419     
   6313966431.7181787       -11857507.362967968        163687186.04460704     
   6144833537.7353182        11362657.767152309        164908454.79820821     
   5970417908.7499523        16973706.222268820        170167704.17220807     
   5790719544.7620821        4975638.0023684502        179464934.16661185     
   5605738445.7717171       -24631546.892515182        192800144.78141272     
   5914608184.9919453        12083021.294463396        347773715.93871176     
   5748455557.2268887        20950836.417310715        341767284.82733607     
   5578968865.0773497        18705103.591887951        337327466.34170073     
   5406148108.5433340        5345822.8182132244        334454260.48180693     
   5229993287.6248446       -19127005.903722286        333147667.24766427     
   5512491225.2411909        35195936.044538021        524859509.81617290     
   5342257812.2806339        27593085.736111879        513898827.89417225     
   5170639005.5536213        15372256.206169605        502033390.60326487     
   4997634805.0601578       -1466552.5452764034        489263197.94344103     
   4823245210.8002377       -22923340.518246174        475588249.91470903     
   5107615552.4659176        57481236.887255430        694944567.67698133     
   4926240302.8965607        31289405.723570585        681303083.99872482     
   4745428330.1787739        6975164.0651242733        664285476.95690262     
   4565179634.3125572       -15461488.088095903        643891746.55150807     
   4385494215.2979078       -36020550.736087322        620121892.78254783     
   5950480685.2408648       -39436963.484632015        54545682.515959419     
   5771175225.5427675       -67514907.105756044        46754616.360821918     
   5600626241.0723267       -66404599.968026400        46049148.255706571     
   5438833731.8295536       -36106042.071412802        52429278.200615950     
   5285797697.8144350        23380766.584061146        65895006.195548780     
   5605738445.7717171       -24631546.892515182        192800144.78141272     
   5448001497.7044106       -44354225.259743690        183251688.07280865     
   5296675588.7609806       -42706773.214031219        181280657.97158054     
   5151760718.9414301       -19689190.755392075        186887054.47772202     
   5013256888.2457609        24698522.116178751        200070877.59123436     
   5229993287.6248446       -19127005.903722286        333147667.24766427     
   5095230075.6378908       -30072851.682170153        319105477.86451620     
   4964532466.6710377       -27466687.393630028        313132543.64609122     
   4837900460.7242813       -11308513.038088799        315228864.59238631     
   4715334057.7976332        18401671.384459972        325394440.70340925     
   4823245210.8002377       -22923340.518246174        475588249.91470903     
   4712860959.3432140       -24670786.373054028        454315985.73593867     
   4604196874.8025112       -20684342.506793022        441604805.27924591     
   4497252957.1781244       -10964008.919476032        437454708.54462188     
   4392029206.4700584        4490214.3889005184        441865695.53207392     
   4385494215.2979078       -36020550.736087322        620121892.78254783     
   4300894148.8203821       -28148029.332375765        588883211.68707967     
   4215668813.1553965       -22359738.553541899        566697442.87103713     
   4129818208.3029456       -18655678.399580002        553564586.33441925     
   4043342334.2630358       -17035848.870486259        549484642.07721412     
   5285797697.8144350        23380766.584061146        65895006.195548780     
   5062663930.2977495        53387636.873730659        76111774.991354495     
   4825201851.3015270        35633468.898297071        65473357.198545180     
   4573411460.8257809       -29881737.342227459        33979752.817125313     
   4307292758.8705111       -143157981.84782982       -18369038.152903188     
   5013256888.2457609        24698522.116178751        200070877.59123436     
   4743729602.6148529        26027662.675393820        194183580.75424203     
   4465317737.7511997       -2258460.8745391369        180082086.50964731     
   4178021293.6548052       -60159848.533624887        157766394.85745078     
   3881840270.3256531       -147676500.30188107        127236505.79764417     
   4715334057.7976332        18401671.384459972        325394440.70340925     
   4435530365.9982452        1888215.7969450951        309754099.18820047     
   4152285827.2128935       -26094729.743775368        298540549.44639587     
   3865600441.4415765       -65547165.237724543        291753791.47799009     
   3575474208.6842990       -116469090.68487477        289393825.28298420     
   4392029206.4700584        4490214.3889005184        441865695.53207392     
   4138066220.4479218       -19030703.761622190        422823330.29322106     
   3886106119.6866031       -35875337.709419966        420848746.00878346     
   3636148904.1861129       -46043687.454474449        435941942.67875421     
   3388194573.9464259       -49535752.996826887        468102920.30313444     
   4043342334.2630358       -17035848.870486259        549484642.07721412     
   3851337165.9638863       -36729096.000296354        533391274.06931096     
   3666778615.1723399       -31600284.771432638        547006676.19681573     
   3489666681.8883877       -1649415.1839256287        590330848.45974338     
   3320001366.1120377        53123512.762266040        663363790.85808218     
   4307292758.8705111       -143157981.84782982       -18369038.152903188     
   4277816968.3917551       -192258905.13937688       -28651155.008711901     
   4258174400.0108285       -208582421.43815613        22324944.198445559     
   4248365053.7277393       -192128530.74414229        134559259.46854740     
   4248388929.5424976       -142897233.05731320        308051790.80162311     
   3881840270.3256531       -147676500.30188107        127236505.79764417     
   3984603278.1574583       -124708013.91032052        147302795.20606595     
   4090186202.8999329       -92339804.483179331        191201618.86355358     
   4198589044.5530772       -50571872.020471334        258932976.77009875     
   4309811803.1168995        595783.47781491280        350496868.92570847     
   3575474208.6842990       -116469090.68487477        289393825.28298420     
   3703545495.3583751       -53510350.450681686        331626331.57062101     
   3827423393.7559595       -4529571.1381330490        360265690.29342389     
   3947107903.8770494        30473247.252776623        375311901.45137715     
   4062599025.7216525        51498104.722051620        376764965.04450130     
   3388194573.9464259       -49535752.996826887        468102920.30313444     
   3434643619.9944954        21334085.239511967        524319454.08495253     
   3469885972.5789046        54848278.596985817        529517158.48803687     
   3493921631.6996598        51006827.075615644        483696033.51238084     
   3506750597.3567605        9809730.6753792763        386856079.15798551     
   3320001366.1120377        53123512.762266040        663363790.85808218     
   3177897652.0658212        99825293.160269380        725382162.74906123     
   3017573939.3687778        85793744.722194195        698956023.44740462     
   2839030228.0209136        11028867.448040843        584085372.95310640     
   2642266518.0222254       -124469338.66217542        380770211.26617116     
   4248388929.5424976       -142897233.05731320        308051790.80162311     
   3862512424.7483616       -168121421.01505518        279152837.39519209     
   3494043112.2771168       -135321634.56314516        132335601.91760474     
   3142980992.1287727       -44497873.701588511       -132399915.63112874     
   2809326064.3033128        104349861.56961167       -515053715.25103909     
   4309811803.1168995        595783.47781491280        350496868.92570847     
   3707156682.9166594       -124515653.76233530        282722898.46053225     
   3126660285.9534850       -175764680.21224356        189165332.66545257     
   2568322612.2274137       -153151295.87183118        69824171.540464267     
   2032143661.7384245       -56675500.741144657       -75300584.914414704     
   4062599025.7216525        51498104.722051620        376764965.04450130     
   3506407252.2331810       -94527993.165184736        275659430.25379169     
   2977125732.8959942       -150853243.88147211        240904986.87443945     
   2474754467.7100778       -117477647.42685974        272501634.90643871     
   1999293456.6754370        5598796.1986826658        370449374.34980077     
   3506750597.3567605        9809730.6753792763        386856079.15798551     
   3260264132.6979547       -78158439.223540545        257962432.77496701     
   3045439453.1046228       -60587325.570892334        287554564.54456306     
   2862276558.5767517        62523071.633304596        475632474.46678364     
   2710775449.1143594        291172752.38908958        822196162.54162848     
   2642266518.0222254       -124469338.66217542        380770211.26617116     
   2968727324.3109727       -75406991.937433004        229631906.02406839     
   3331601446.5793800        95033074.719520450        329114065.67584449     
   3730888884.8274565        386850861.30869329        679216690.22149849     
   4166589639.0551858        800046367.83005428        1279939779.6610358     
   5957990751.8893967        1787397225.5668190        1150147943.7780120     
   6088037838.8728619        1501788451.1256139        1227448587.3196199     
   6221006418.9543343        1225917987.0110955        1267828776.5233824     
   6356896492.1338100        959785833.22326398        1271288511.3893003     
   6495708058.4112949        703391989.76212025        1237827791.9173729     
   5433149878.5728273        1629944963.5718482        1033367158.0071951     
   5489012071.1358128        1372049711.6600931        1113599642.8957632     
   5547216468.9247608        1121961810.5015478        1167291850.4457805     
   5607763071.9396734        879681260.09621298        1194443780.6572468     
   5670651880.1805477        645208060.44408822        1195055433.5301607     
   4893084039.9943495        1467925211.9983051        936143132.79850340     
   4904418986.7062664        1246640777.1868231        1018631623.1833158     
   4917516850.7721014        1031232733.5550741        1084960013.2288704     
   4932377632.1918573        821701081.10305822        1135128302.9351673     
   4949001330.9655342        618045819.83077610        1169136492.3022070     
   4337793236.1539640        1301337970.8461893        858475868.15193713     
   4334258585.5842209        1125561647.7058036        942544528.18227661     
   4331907564.4963541        953730756.17167377        1020833264.8726519     
   4330740172.8903637        785845296.24380040        1093342078.2230635     
   4330756410.7662506        621905267.92218375        1160070968.2335105     
   3767277467.0516706        1130183240.1155012        800365364.06749606     
   3778530867.7696776        1008812323.2170346        885338357.89264572     
   3790388610.0975194        889455878.35134768        974911605.37712514     
   3802850694.0351949        772113905.51843977        1069085106.5209342     
   3815917119.5827031        656786404.71831155        1167858861.3240716     
   6495708058.4112949        703391989.76212025        1237827791.9173729     
   6238425818.8319225        378770386.08064580        1054195731.4280112     
   6011584975.0798597        155620101.82353711        908384904.11774063     
   5815185527.1551046        33941136.990791559        800395309.98656213     
   5649227475.0576601        13733491.582410336        730226949.03447652     
   5670651880.1805477        645208060.44408822        1195055433.5301607     
   5517637774.7539454        385626139.81957984        1074038528.5206430     
   5388432334.2955751        205406435.75584388        980397489.74409556     
   5283035558.8054342        104548948.25287461        914132317.20051801     
   5201447448.2835255        83053677.310678005        875243010.88990998     
   4949001330.9655342        618045819.83077610        1169136492.3022070     
   4870411454.1313543        414550410.59513092        1102996556.7702746     
   4808997511.4063282        268308115.05666018        1053787120.5251920     
   4764759502.7904539        179318933.21536565        1021508183.5669572     
   4737697428.2837343        147582865.07124567        1006159745.8955700     
   4330756410.7662506        621905267.92218375        1160070968.2335105     
   4296746856.9641476        465543198.40729582        1141069816.1769063     
   4273280506.4121189        344325139.72598875        1128553796.4610305     
   4260357359.1101623        258251091.87826180        1122522909.0858798     
   4257977415.0582824        207321054.86411691        1122977154.0514569     
   3815917119.5827031        656786404.71831155        1167858861.3240716     
   3796643983.2523270        538604503.25607777        1188258306.7405381     
   3781281319.3129473        433457509.76382768        1204697517.5516098     
   3769829127.7645621        341345424.24156725        1217176493.7572858     
   3762287408.6071739        262268246.68929005        1225695235.3575683     
   5649227475.0576601        13733491.582410336        730226949.03447652     
   5519805882.0565701        44608386.731436014        714412133.77384937     
   5386396697.2909145        62191309.331917763        703260131.79405463     
   5248999920.7606983        66482259.383856773        696770943.09509945     
   5107615552.4659176        57481236.887255430        694944567.67698133     
   5201447448.2835255        83053677.310678005        875243010.88990998     
   5075716005.3201733        82745934.420862913        851221197.48464656     
   4948877344.2796783        78747464.607239246        832571141.14423072     
   4820931465.1620388        71058267.869803190        819292841.86866450     
   4691878367.9672585        59678344.208558798        811386299.65794635     
   4737697428.2837343        147582865.07124567        1006159745.8955700     
   4617681689.0267258        116700150.24317384        977291370.31432688     
   4499439105.3799953        91727954.116023540        954503695.58194566     
   4382969677.3435392        72666276.689795732        937796721.69842315     
   4268273404.9173622        59515117.964488268        927170448.66376472     
   4257977415.0582824        207321054.86411691        1122977154.0514569     
   4145702933.1762252        146471034.19836855        1092622652.2628906     
   4038081980.5918674        101132777.85827732        1069057795.1071957     
   3935114557.3052049        71306285.843836784        1052282582.5843762     
   3836800663.3162379        56991558.155048847        1042297014.6944294     
   3762287408.6071739        262268246.68929005        1225695235.3575683     
   3659779737.7686777        172058586.28645086        1197215043.3303339     
   3564805969.9152966        106961935.83399725        1176233439.7199855     
   3477366105.0470319        66978295.331929326        1162750424.5265226     
   3397460143.1638818        52107664.780243278        1156765997.7499461     
   5107615552.4659176        57481236.887255430        694944567.67698133     
   4926240302.8965607        31289405.723570585        681303083.99872482     
   4745428330.1787739        6975164.0651242733        664285476.95690262     
   4565179634.3125572       -15461488.088095903        643891746.55150807     
   4385494215.2979078       -36020550.736087322        620121892.78254783     
   4691878367.9672585        59678344.208558798        811386299.65794635     
   4507015065.7600203        30456469.771434307        797927084.17618024     
   4322534439.2526913        2510181.0006723404        785860115.39964104     
   4138436488.4452667       -24160522.103734732        775185393.32832193     
   3954721213.3377542       -49555639.541781187        765902917.96222687     
   4268273404.9173622        59515117.964488268        927170448.66376472     
   4093545964.5545015        31350374.598602772        913682800.03488684     
   3919020598.7398868        3859213.0602025986        906355768.18002212     
   3744697307.4735203       -22958366.650708675        905189353.09916890     
   3570576090.7553978       -49102364.534134626        910183554.79233110     
   3836800663.3162379        56991558.155048847        1042297014.6944294     
   3685832999.2800131        33971120.205077887        1028570231.5748340     
   3534886808.6403723        11022260.243722439        1025772435.2980411     
   3383962091.3973150       -11855021.729024172        1033903625.8640515     
   3233058847.5508432       -34660725.713148952        1052963803.2728665     
   3397460143.1638818        52107664.780243278        1156765997.7499461     
   3283876169.9365501        38318706.590866685        1142589378.7960284     
   3170133068.9541388        23999322.551222444        1144110116.7537019     
   3056230840.2166533        9149512.6613303423        1161328211.6229699     
   2942169483.7240887       -6230723.0788216591        1194243663.4038303     
   4385494215.2979078       -36020550.736087322        620121892.78254783     
   4300894148.8203821       -28148029.332375765        588883211.68707967     
   4215668813.1553965       -22359738.553541899        566697442.87103713     
   4129818208.3029456       -18655678.399580002        553564586.33441925     
   4043342334.2630358       -17035848.870486259        549484642.07721412     
   3954721213.3377542       -49555639.541781187        765902917.96222687     
   3890709719.1115985       -38160037.238802671        749193588.92560136     
   3826895495.6536279       -26106865.708531380        738455692.21077704     
   3763278542.9638491       -13396124.950952768        733689227.81775403     
   3699858861.0422630       -27814.966079473495        734894195.74652910     
   3570576090.7553978       -49102364.534134626        910183554.79233110     
   3518348940.3302569       -36824949.866997719        908963207.76281226     
   3467141600.6289582       -21148166.120390415        910632813.09746909     
   3416954071.6515036       -2072013.2943084240        915192370.79630065     
   3367786353.3978872        20403508.611243248        922641880.85931337     
   3233058847.5508432       -34660725.713148952        1052963803.2728665     
   3183811812.4763689       -24142767.216958880        1068192068.1987107     
   3136407128.0813890       -7483639.7891229391        1083228805.5311100     
   3090844794.3659015        15316656.570361495        1098074015.2700629     
   3047124811.3299088        44258121.861488223        1112727697.4155705     
   2942169483.7240887       -6230723.0788216591        1194243663.4038303     
   2887098335.5499306       -113489.28868031502        1226880170.2333007     
   2834692078.0109177        14886713.285279512        1256243669.5117011     
   2784950711.1070514        38769884.643061996        1282334161.2390349     
   2737874234.8383288        71536024.784652829        1305151645.4152977     
   4043342334.2630358       -17035848.870486259        549484642.07721412     
   3851337165.9638863       -36729096.000296354        533391274.06931096     
   3666778615.1723399       -31600284.771432638        547006676.19681573     
   3489666681.8883877       -1649415.1839256287        590330848.45974338     
   3320001366.1120377        53123512.762266040        663363790.85808218     
   3699858861.0422630       -27814.966079473495        734894195.74652910     
   3574502702.5446444        1397876.1473274231        723065316.70290041     
   3453326190.2687364        16755721.333110809        727922535.46890199     
   3336329324.2145376        46045720.591251373        749465852.04453659     
   3223512104.3820462        89267873.921755672        787695266.42980731     
   3367786353.3978872        20403508.611243248        922641880.85931337     
   3271871569.4852719        31785847.402913570        911266024.27975655     
   3176869460.5084834        46210435.980658889        903553593.18404722     
   3082780026.4675102        63677274.344461560        899504587.57218754     
   2989603267.3623586        84186362.494339585        899119007.44417775     
   3047124811.3299088        44258121.861488223        1112727697.4155705     
   2943443766.7857790        54434817.766467810        1097993396.7998803     
   2837408425.8915792        56763859.171211839        1073899849.3422568     
   2729018788.6473107        51245246.075734496        1040447055.0426977     
   2618274855.0529680        37878978.480011344        997635013.90120876     
   2737874234.8383288        71536024.784652829        1305151645.4152977     
   2589219294.4461541        69344787.237974286        1283247434.2632713     
   2434943086.4180226        48415990.904771686        1238961303.9435303     
   2275045610.7539315        8749635.7850357294        1172293254.4560723     
   2109526867.4538825       -49654278.121225953        1083243285.8008914     
   3320001366.1120377        53123512.762266040        663363790.85808218     
   3177897652.0658212        99825293.160269380        725382162.74906123     
   3017573939.3687778        85793744.722194195        698956023.44740462     
   2839030228.0209136        11028867.448040843        584085372.95310640     
   2642266518.0222254       -124469338.66217542        380770211.26617116     
   3223512104.3820462        89267873.921755672        787695266.42980731     
   2893081636.3595562        58783022.753370047        810227994.59602547     
   2552917875.9338779       -4146136.4256223440        794150799.71922505     
   2203020823.1050191       -99519603.615226746        739463681.79940176     
   1843390477.8729823       -227337378.81542420        646166640.83655620     
   2989603267.3623586        84186362.494339585        899119007.44417775     
   2613230582.9339142        19230241.030653715        892067249.17456043     
   2235611312.3499331       -49881167.618162870        896240156.01153600     
   1856745455.6104081       -123147863.45211935        911637727.95510185     
   1476633012.7153487       -200569846.47119510        938259965.00526130     
   2618274855.0529680        37878978.480011344        997635013.90120876     
   2338344491.7889085       -18833052.007869840        970899926.48466456     
   2065654248.6169450       -51411348.855412602        1005224092.3243269     
   1800204125.5370829       -59855912.062624693        1100607511.4201980     
   1541994122.5493252       -44166741.629480660        1257050183.7722733     
   2109526867.4538825       -49654278.121225953        1083243285.8008914     
   2068423362.9245274       -55406856.362207532        1046726026.5263337     
   2043046684.7349160       -8736680.1373733282        1121102608.6576061     
   2033396832.8850386        90356250.553249002        1306373032.1946926     
   2039473807.3749197        241871935.70971930        1602537297.1376057     
   2642266518.0222254       -124469338.66217542        380770211.26617116     
   2968727324.3109727       -75406991.937433004        229631906.02406839     
   3331601446.5793800        95033074.719520450        329114065.67584449     
   3730888884.8274565        386850861.30869329        679216690.22149849     
   4166589639.0551858        800046367.83005428        1279939779.6610358     
   1843390477.8729823       -227337378.81542420        646166640.83655620     
   2703519817.6920357        20579965.977046490        608652553.21737432     
   3579848745.1740518        322495936.31272674        685142642.32737625     
   4472377260.3190470        678410532.19164920        875636908.16656625     
   5381105363.1269913        1088323753.6137776        1180135350.7349489     
   1476633012.7153487       -200569846.47119510        938259965.00526130     
   2480098634.1655941        129102820.81926274        990787411.97285235     
   3479550114.9621110        445395019.26395571        1020702747.5049371     
   4474987455.1048965        748306748.86288631        1028005971.6015196     
   5466410654.5939541        1037838009.6160549        1012697084.2626097     
   1541994122.5493252       -44166741.629480660        1257050183.7722733     
   2298463773.7316418        250161572.58921820        1376036482.2904930     
   3030705555.9435368        463730323.57317823        1335794381.2085190     
   3738719469.1850200        596539511.32240677        1136323880.5263638     
   4422505513.4560566        648589135.83686769        777624980.24400640     
   2039473807.3749197        241871935.70971930        1602537297.1376057     
   2158615236.3901968        383756221.28693932        1764399764.1703093     
   2233315068.1183596        377501849.24044639        1630417543.4381337     
   2263573302.5593972        223108819.57020217        1200590634.9410694     
   2249389939.7133179       -79422867.723765731        474919038.67913866     
   3767277467.0516706        1130183240.1155012        800365364.06749606     
   3778530867.7696776        1008812323.2170346        885338357.89264572     
   3790388610.0975194        889455878.35134768        974911605.37712514     
   3802850694.0351949        772113905.51843977        1069085106.5209342     
   3815917119.5827031        656786404.71831155        1167858861.3240716     
   3207983391.1983461        962395017.35950387        756619585.70911241     
   3235713716.1085148        868449789.46166003        853528557.63349736     
   3263147469.7245626        773515990.58341479        952182827.81545568     
   3290284652.0464902        677593620.72476816        1052582396.2549876     
   3317125263.0742974        580682679.88572025        1154727262.9520929     
   2686357667.1048722        805907300.13146162        722046498.24071777     
   2722407900.7736120        736940656.60416365        829840383.20972466     
   2757260650.2442780        663982399.08328366        936524611.03454876     
   2790915915.5168691        587032527.56882143        1042099181.7151905     
   2823373696.5913849        506091042.06077677        1146564095.2516499     
   2202400294.7712464        660720088.43137395        696646101.66231239     
   2238613421.7649698        614284924.64454532        814273834.62132812     
   2272728151.6566639        560855103.85095382        927936955.03440475     
   2304744484.4463291        500430626.05059934        1037635462.9015431     
   2334662420.1339660        433011491.24348140        1143369358.2227423     
   1756111274.1974702        526833382.25924104        680418395.97389603     
   1784330279.0825875        500482593.58280522        806828911.86830711     
   1809549973.9617217        464134104.88642538        926419859.81502306     
   1831770358.8348725        417787916.17010170        1039191239.8140444     
   1850991433.7020407        361444027.43383402        1145143051.8653712     
   3815917119.5827031        656786404.71831155        1167858861.3240716     
   3796643983.2523270        538604503.25607777        1188258306.7405381     
   3781281319.3129473        433457509.76382768        1204697517.5516098     
   3769829127.7645621        341345424.24156725        1217176493.7572858     
   3762287408.6071739        262268246.68929005        1225695235.3575683     
   3317125263.0742974        580682679.88572025        1154727262.9520929     
   3292744969.1705499        473744800.75426185        1182097064.4201372     
   3272181686.0249147        379530290.81651342        1206903743.3608036     
   3255435413.6373944        298039150.07247710        1229147299.7740922     
   3242506152.0079861        229271378.52215028        1248827733.6600034     
   2823373696.5913849        506091042.06077677        1146564095.2516499     
   2797877993.9085999        411594709.89839500        1180795214.1995759     
   2776105840.3510447        329510208.15344751        1213860322.6981416     
   2758057235.9187212        259837536.82593679        1245759420.7473462     
   2743732180.6116266        202576695.91585946        1276492508.3471892     
   2334662420.1339660        433011491.24348140        1143369358.2227423     
   2312043057.4664779        352154230.68847662        1184352756.0788536     
   2293053782.2913384        283397261.77463162        1225567255.5636218     
   2277694594.6085453        226740584.50194472        1267012856.6770449     
   2265965494.4181008        182184198.87041783        1308689559.4191246     
   1850991433.7020407        361444027.43383402        1145143051.8653712     
   1835240159.8441837        295423363.12450582        1192769690.0579712     
   1823025511.8457916        241191451.68006206        1242024541.9572439     
   1814347489.7068646        198748293.10050213        1292907607.5631907     
   1809206093.4274032        168093887.38582587        1345418886.8758099     
   3762287408.6071739        262268246.68929005        1225695235.3575683     
   3659779737.7686777        172058586.28645086        1197215043.3303339     
   3564805969.9152966        106961935.83399725        1176233439.7199855     
   3477366105.0470319        66978295.331929326        1162750424.5265226     
   3397460143.1638818        52107664.780243278        1156765997.7499461     
   3242506152.0079861        229271378.52215028        1248827733.6600034     
   3162843702.7834258        155247010.87730622        1234966995.5425866     
   3089098326.4385738        100946219.49815154        1227445848.8440838     
   3021270022.9734287        66369004.384687662        1226264293.5644941     
   2959358792.3879905        51515365.536909819        1231422329.7038174     
   2743732180.6116266        202576695.91585946        1276492508.3471892     
   2683603533.0067983        143744195.03074753        1275364922.3499475     
   2627775128.1762691        99245836.726630569        1279417930.7736454     
   2576246966.1200371        69081621.003508449        1288651533.6182861     
   2529019046.8381042        53251547.861381412        1303065730.8838663     
   2265965494.4181008        182184198.87041783        1308689559.4191246     
   2222059228.4387956        137550138.74677742        1318408823.7524145     
   2180836375.1283817        101860787.51943612        1332149685.5086718     
   2142296934.4868562        75116145.188395023        1349912144.6878974     
   2106440906.5142212        57316211.753651261        1371696201.2900929     
   1809206093.4274032        168093887.38582587        1345418886.8758099     
   1778210789.0794163        136664842.02539301        1364098699.7499869     
   1748282067.2949111        108791071.87656653        1385641113.0491605     
   1719419928.0738862        84472576.939342320        1410046126.7733302     
   1691624371.4163437        63709357.213724494        1437313740.9224961     
   3397460143.1638818        52107664.780243278        1156765997.7499461     
   3283876169.9365501        38318706.590866685        1142589378.7960284     
   3170133068.9541388        23999322.551222444        1144110116.7537019     
   3056230840.2166533        9149512.6613303423        1161328211.6229699     
   2942169483.7240887       -6230723.0788216591        1194243663.4038303     
   2959358792.3879905        51515365.536909819        1231422329.7038174     
   2881638949.8683343        41375233.475960612        1217730301.1572084     
   2804236819.3263922        32294141.340728641        1215086671.7521956     
   2727152400.7621670        24272089.131214380        1223491441.4887810     
   2650385694.1756554        17309076.847415447        1242944610.3669617     
   2529019046.8381042        53251547.861381412        1303065730.8838663     
   2473880598.5404196        42775420.983152270        1290414605.7661564     
   2419536701.9532452        34947799.806614399        1284162922.0200493     
   2365987357.0765772        29768684.331771493        1284310679.6455412     
   2313232563.9104161        27238074.558617353        1290857878.6426337     
   2106440906.5142212        57316211.753651261        1371696201.2900929     
   2060601115.9528074        42519269.112431765        1360642292.6228747     
   2016032716.8346913        31960297.948879242        1351338867.5572605     
   1972735709.1598773        25639298.262991786        1343785926.0932517     
   1930710092.9283617        23556270.054771423        1337983468.2308471     
   1691624371.4163437        63709357.213724494        1437313740.9224961     
   1641800502.1054935        40606777.863802671        1428413361.7273607     
   1593724863.9707365        23331635.767522812        1416614508.3638339     
   1547397457.0120707        11883930.924883723        1401917180.8319125     
   1502818281.2294979        6263663.3358826637        1384321379.1315997     
   2942169483.7240887       -6230723.0788216591        1194243663.4038303     
   2887098335.5499306       -113489.28868031502        1226880170.2333007     
   2834692078.0109177        14886713.285279512        1256243669.5117011     
   2784950711.1070514        38769884.643061996        1282334161.2390349     
   2737874234.8383288        71536024.784652829        1305151645.4152977     
   2650385694.1756554        17309076.847415447        1242944610.3669617     
   2588106058.0810323        18262847.195647597        1263540663.2762315     
   2527862992.3061295        26005185.276286364        1283056301.5151107     
   2469656496.8509555        40536091.089356184        1301491525.0836034     
   2413486571.7155089        61855564.634842753        1318846333.9817066     
   2313232563.9104161        27238074.558617353        1290857878.6426337     
   2250008990.9829788        24907746.791218996        1298680437.2637117     
   2188193668.0598497        27271585.704849601        1307615174.0950835     
   2127786595.1410263        34329591.299503922        1317662089.1367497     
   2068787772.2265167        46081763.575188875        1328821182.3887072     
   1930710092.9283617        23556270.054771423        1337983468.2308471     
   1872807134.2557738        19821209.498046517        1332299492.1957459     
   1815684105.2720783        18685914.570963502        1329920287.2516201     
   1759341005.9772689        20150385.273504734        1330845853.3984704     
   1703777836.3713524        24214621.605681300        1335076190.6362901     
   1502818281.2294979        6263663.3358826637        1384321379.1315997     
   1456500487.8994193        3003235.3161360621        1364397828.0723350     
   1410334303.9428144        248171.87463051081        1349971640.9847240     
   1364319729.3596759       -2001526.9886499047        1341042817.8687680     
   1318456764.1500130       -3745861.2736824155        1337611358.7244635     
   2737874234.8383288        71536024.784652829        1305151645.4152977     
   2589219294.4461541        69344787.237974286        1283247434.2632713     
   2434943086.4180226        48415990.904771686        1238961303.9435303     
   2275045610.7539315        8749635.7850357294        1172293254.4560723     
   2109526867.4538825       -49654278.121225953        1083243285.8008914     
   2413486571.7155089        61855564.634842753        1318846333.9817066     
   2218108398.5117011        38196505.968004346        1291017708.9486487     
   2018573177.3232236        680620.68558955193        1254584167.3328576     
   1814880908.1500757       -50692091.212387443        1209545709.1343346     
   1607031590.9922612       -115921629.72591937        1155902334.3530793     
   2068787772.2265167        46081763.575188875        1328821182.3887072     
   1866049230.7396011        12763743.146726251        1296776399.7344513     
   1660617860.9193091       -29530371.726330042        1269903703.0824513     
   1452493662.7656372       -80800581.043985367        1248203092.4327002     
   1241676636.2785895       -141046884.80622810        1231674567.7852077     
   1703777836.3713524        24214621.605681300        1335076190.6362901     
   1533041791.1298621       -6953501.2258331180        1300523506.6206775     
   1361077137.2062826       -42216986.330985129        1284919911.1923041     
   1187883874.6006174       -81575833.709747612        1288265404.3511713     
   1013462003.3128617       -125030043.36215526        1310559986.0972786     
   1318456764.1500130       -3745861.2736824155        1337611358.7244635     
   1219086079.6824780       -20955227.149692655        1302259029.6073320     
   1119951006.1841440       -37379223.128367245        1299632791.6624272     
   1021051543.6550105       -53017849.209706068        1329732644.8897467     
   922387692.09508014       -67871105.393698573        1392558589.2892885     
   2109526867.4538825       -49654278.121225953        1083243285.8008914     
   2068423362.9245274       -55406856.362207532        1046726026.5263337     
   2043046684.7349160       -8736680.1373733282        1121102608.6576061     
   2033396832.8850386        90356250.553249002        1306373032.1946926     
   2039473807.3749197        241871935.70971930        1602537297.1376057     
   1607031590.9922612       -115921629.72591937        1155902334.3530793     
   1811679400.6767542       -49101687.285560966        1157427696.4008977     
   2025957011.9071541        49817593.641154051        1220351184.7424760     
   2249864424.6834536        180836213.05420566        1344672799.3777997     
   2483401639.0056581        343954170.95360160        1530392540.3068805     
   1241676636.2785895       -141046884.80622810        1231674567.7852077     
   1550659431.2853096       -44079320.352008224        1264129355.5625873     
   1863175003.0440912        64664166.609088302        1308486554.5216558     
   2179223351.5549383        185183576.07706678        1364746164.6624043     
   2498804476.8178477        317478908.05191940        1432908185.9848392     
   1013462003.3128617       -125030043.36215526        1310559986.0972786     
   1285363454.7501862       -40339755.561561227        1366831004.0114057     
   1554700658.1457305        35803038.766444564        1385508717.9951503     
   1821473613.4994984        103398339.62185210        1366593128.0485089     
   2085682320.8114879        162446147.00467223        1310084234.1714904     
   922387692.09508014       -67871105.393698573        1392558589.2892885     
   1015791471.0713825       -37882992.914220035        1465532641.7473507     
   1100533977.2120624       -36765789.886811376        1451417675.1629610     
   1176615210.5171342       -64519496.311431646        1350213689.5361192     
   1244035170.9865825       -121144112.18813533        1161920684.8668253     
   2039473807.3749197        241871935.70971930        1602537297.1376057     
   2158615236.3901968        383756221.28693932        1764399764.1703093     
   2233315068.1183596        377501849.24044639        1630417543.4381337     
   2263573302.5593972        223108819.57020217        1200590634.9410694     
   2249389939.7133179       -79422867.723765731        474919038.67913866     
   2483401639.0056581        343954170.95360160        1530392540.3068805     
   1941302120.9547215        258466996.23400217        1572365212.6086330     
   1379079979.6609354        105904410.70490390        1454006027.3082106     
   796735215.12428713       -113733585.63372141        1175314984.4056287     
   194267827.34479374       -400446992.78184509        736292083.90086567     
   2498804476.8178477        317478908.05191940        1432908185.9848392     
   1682643526.4513087        120774127.46070045        1383363199.9406128     
   870678926.88617790       -61942817.125821769        1308999186.4569306     
   62910678.122455567       -230671925.70763814        1209816145.5337858     
  -740661219.83985078       -385413198.28475392        1085814077.1711826     
   2085682320.8114879        162446147.00467223        1310084234.1714904     
   1382639452.8799515       -29322385.032986224        1197393726.1662588     
   708111909.79408097       -126039834.25174436        1195397020.8842838     
   62099691.553887919       -127706200.65158069        1304094118.3255544     
  -555397201.84063148       -34321484.232506871        1523485018.4900856     
   1244035170.9865825       -121144112.18813533        1161920684.8668253     
   1041289900.2406468       -191822541.24706060        1014456791.2855643     
   891378928.38464189       -86386640.672890425        1113199530.5902648     
   794302255.41858590        195163589.53444791        1458148902.7809348     
   750059881.34246421        652828149.37490308        2049304907.8575709     
   1756111274.1974702        526833382.25924104        680418395.97389603     
   1784330279.0825875        500482593.58280522        806828911.86830711     
   1809549973.9617217        464134104.88642538        926419859.81502306     
   1831770358.8348725        417787916.17010170        1039191239.8140444     
   1850991433.7020407        361444027.43383402        1145143051.8653712     
   1325821729.6107159        397746518.88321477        670210187.11926544     
   1339800687.4770162        375723362.10729980        792421756.10454333     
   1351536769.7007077        346223953.18935567        909500326.43061340     
   1361029976.2817905        309248292.12938261        1021445898.0974760     
   1368280307.2202647        264796378.92738044        1128258471.1051300     
   889862785.23815763        266958835.57144728        662868281.04221761     
   894420465.48131824        250708941.51475632        781763409.87563241     
   897491704.44524455        229504243.19395113        897212109.33832657     
   899076502.12993670        203344740.60903186        1009214379.4303001     
   899174858.53539443        172230433.75999805        1117770220.1515529     
   448234441.07979500        134470332.32393852        658392677.74275219     
   448189613.09549344        125439331.80517490        774853873.18157423     
   447414778.19533205        113974974.90021183        889555208.53816283     
   445909936.37931091        100077261.60904941        1002496683.8125176     
   443675087.64742988        83746191.931687653        1113678299.0046391     
   936697.13562802540        281009.14068840758        656783377.22086966     
   1108130.3195417903       -85467.021444660728        771693146.02236891     
   1305990.9509701668       -363851.69186231279        886529624.03012204     
   1530279.0299131996       -554144.87056437903        1001292811.2441283     
   1780994.5563707559       -656346.55755136756        1115982707.6643884     
   1850991433.7020407        361444027.43383402        1145143051.8653712     
   1835240159.8441837        295423363.12450582        1192769690.0579712     
   1823025511.8457916        241191451.68006206        1242024541.9572439     
   1814347489.7068646        198748293.10050213        1292907607.5631907     
   1809206093.4274032        168093887.38582587        1345418886.8758099     
   1368280307.2202647        264796378.92738044        1128258471.1051300     
   1360788587.6727612        216525643.88993388        1183751169.7881601     
   1355937849.2472177        177058179.25902057        1239873020.5558932     
   1353728091.9436336        146393985.03463930        1296624023.4083290     
   1354159315.7620089        124533061.21679062        1354004178.3454683     
   899174858.53539443        172230433.75999805        1117770220.1515529     
   897088231.52118683        140853289.46131516        1180084060.4645898     
   896746940.89143372        115293933.11081481        1242027991.2403600     
   898150986.64613509        95552364.708495408        1303602012.4788616     
   901300368.78529131        81628584.254358470        1364806124.1800981     
   443675087.64742988        83746191.931687653        1113678299.0046391     
   444139091.38946068        68406299.838651463        1181768362.0872602     
   445452786.77844089        55898713.235446632        1248489454.0106437     
   447616173.81437039        46223432.122072726        1313841574.7747900     
   450629252.49724871        39380456.498528853        1377824724.3796997     
   1780994.5563707559       -656346.55755136756        1115982707.6643884     
   1941167.2775824699       -815324.97805869277        1188804074.6561704     
   2055386.9082388175       -1127480.3670838620        1259257408.8667455     
   2123653.4483385500       -1592812.7246314520        1327342710.2961130     
   2145966.8978825556       -2211322.0506974366        1393059978.9442739     
   1809206093.4274032        168093887.38582587        1345418886.8758099     
   1778210789.0794163        136664842.02539301        1364098699.7499869     
   1748282067.2949111        108791071.87656653        1385641113.0491605     
   1719419928.0738862        84472576.939342320        1410046126.7733302     
   1691624371.4163437        63709357.213724494        1437313740.9224961     
   1354159315.7620089        124533061.21679062        1354004178.3454683     
   1332662734.7640283        101284298.02094197        1374374555.7487018     
   1311947481.6991916        80639961.268905759        1397301285.5735795     
   1292013556.5674973        62600050.960679293        1422784367.8200996     
   1272860959.3689485        47164567.096269071        1450823802.4882619     
   901300368.78529131        81628584.254358470        1364806124.1800981     
   888427516.84202063        66297604.934504926        1386534269.0436625     
   876050738.20155549        52620203.290669292        1410512518.3255157     
   864170032.86389613        40596379.322853357        1436740872.0256586     
   852785400.82904267        30226133.031057179        1465219330.1440916     
   450629252.49724871        39380456.498528853        1377824724.3796997     
   445505135.31339192        31704762.766080320        1400577839.6348667     
   440591836.80200356        24731797.941859320        1425274811.3049698     
   435889356.96308249        18461562.025863752        1451915639.3900084     
   431397695.79662955        12894055.018093944        1480500323.8899825     
   2145966.8978825556       -2211322.0506974366        1393059978.9442739     
   3895590.1781437993       -2494228.4843281955        1416505267.5223162     
   5570777.5005350616       -3025254.7775255633        1441588164.5119410     
   7171528.8650557930       -3804400.9302914459        1468308669.9131472     
   8697844.2717075683       -4831666.9426203510        1496666783.7259352     
   1691624371.4163437        63709357.213724494        1437313740.9224961     
   1641800502.1054935        40606777.863802671        1428413361.7273607     
   1593724863.9707365        23331635.767522812        1416614508.3638339     
   1547397457.0120707        11883930.924883723        1401917180.8319125     
   1502818281.2294979        6263663.3358826637        1384321379.1315997     
   1272860959.3689485        47164567.096269071        1450823802.4882619     
   1220385102.6612439        24770527.771743178        1444993547.3070781     
   1169131273.4441111        6449913.4157893062        1439858266.7523830     
   1119099471.7175508       -7797275.9715911150        1435417960.8241785     
   1070289697.4815624       -17971040.390397966        1431672629.5224619     
   852785400.82904267        30226133.031057179        1465219330.1440916     
   807924553.28129220        11620732.698973805        1461845294.6770823     
   763759529.53859246       -4665254.9496072531        1462759682.6314461     
   720290329.60094273       -18631829.914688140        1467962494.0071809     
   677516953.46834385       -30278992.196265280        1477453728.8042891     
   431397695.79662955        12894055.018093944        1480500323.8899825     
   404418853.96563840        1157392.6454942822        1478968603.8373749     
   377609632.25417763       -10013869.328672588        1485318756.0010219     
   350970030.66224444       -20619730.904413521        1499550780.3809230     
   324500049.18984139       -30660192.081720218        1521664676.9770796     
   8697844.2717075683       -4831666.9426203510        1496666783.7259352     
   9868004.7142825611       -6619492.3886966957        1496363474.7879553     
   10681581.590865904       -9595929.7214111835        1507535486.8611109     
   11138574.901457619       -13760978.940764431        1530182819.9454041     
   11238984.646059100       -19114640.046752486        1564305474.0408342     
   1502818281.2294979        6263663.3358826637        1384321379.1315997     
   1456500487.8994193        3003235.3161360621        1364397828.0723350     
   1410334303.9428144        248171.87463051081        1349971640.9847240     
   1364319729.3596759       -2001526.9886499047        1341042817.8687680     
   1318456764.1500130       -3745861.2736824155        1337611358.7244635     
   1070289697.4815624       -17971040.390397966        1431672629.5224619     
   1038283607.8774014       -21133145.341127038        1425792909.7087479     
   1006354757.2080780       -24037787.175731599        1425402138.8504639     
   974503145.47359002       -26684965.894217491        1430500316.9476123     
   942728772.67393792       -29074681.496584237        1441087444.0001898     
   677516953.46834385       -30278992.196265280        1477453728.8042891     
   659798524.68660510       -33349986.949023515        1485531074.7243857     
   642082964.40106857       -36411420.047772646        1499088954.5836906     
   624370272.61173296       -39463291.492519975        1518127368.3822012     
   606660449.31859851       -42505601.283261955        1542646316.1199217     
   324500049.18984139       -30660192.081720218        1521664676.9770796     
   321045238.32702959       -33647289.507553816        1543612323.1192458     
   317518925.52178490       -36872726.741495728        1571032088.1843956     
   313921110.77410525       -40336503.783553496        1603923972.1725318     
   310251794.08399349       -44038620.633719474        1642287975.0836489     
   11238984.646059100       -19114640.046752486        1564305474.0408342     
   22023748.798675977       -22025053.016716685        1600036654.8933301     
   32662640.570226993       -25421707.256901134        1641231539.6525881     
   43155659.960708261       -29304602.767316982        1687890128.3186059     
   53502806.970121711       -33673739.547960334        1740012420.8913839     
   1318456764.1500130       -3745861.2736824155        1337611358.7244635     
   1219086079.6824780       -20955227.149692655        1302259029.6073320     
   1119951006.1841440       -37379223.128367245        1299632791.6624272     
   1021051543.6550105       -53017849.209706068        1329732644.8897467     
   922387692.09508014       -67871105.393698573        1392558589.2892885     
   942728772.67393792       -29074681.496584237        1441087444.0001898     
   916979797.18935061       -29242967.330707669        1413491212.6029248     
   891426424.90645039       -28759242.492542922        1405868416.9337268     
   866068655.82523251       -27623506.982101262        1418219056.9925954     
   840906489.94570315       -25835760.799367547        1450543132.7795358     
   606660449.31859851       -42505601.283261955        1542646316.1199217     
   618097024.40508652       -36563654.599057049        1522759506.7137468     
   629689194.92574453       -30103056.467618972        1510093477.5914848     
   641436960.88056850       -23123806.888962239        1504648228.7531359     
   653340322.26956236       -15625905.863070607        1506423760.1987026     
   310251794.08399349       -44038620.633719474        1642287975.0836489     
   322437761.32968372       -42917288.954746410        1630063911.9398019     
   334739316.24202394       -41410665.053607762        1612307973.6357095     
   347156458.82101858       -39518748.930285588        1589020160.1713774     
   359689189.06666362       -37241540.584798574        1560200471.5468009     
   53502806.970121711       -33673739.547960334        1740012420.8913839     
   30002007.963137511       -48303870.397792086        1735404428.2810912     
   6576788.8552941307       -62682068.250486024        1712511905.0663977     
  -16772850.353420744       -76808333.106085822        1671334851.2473071     
  -40046909.662996411       -90682664.964554951        1611873266.8238182     
   922387692.09508014       -67871105.393698573        1392558589.2892885     
   1015791471.0713825       -37882992.914220035        1465532641.7473507     
   1100533977.2120624       -36765789.886811376        1451417675.1629610     
   1176615210.5171342       -64519496.311431646        1350213689.5361192     
   1244035170.9865825       -121144112.18813533        1161920684.8668253     
   840906489.94570315       -25835760.799367547        1450543132.7795358     
   741558180.97006404       -52931332.375929058        1498212087.0294614     
   637644505.16825461       -95244793.373063505        1497872381.2948267     
   529165462.54028440       -152776143.79073012        1449524015.5756190     
   416121053.08614337       -225525383.62896898        1353166989.8718410     
   653340322.26956236       -15625905.863070607        1506423760.1987026     
   472898094.07879215       -66307710.874634892        1533566173.2515302     
   291986405.07130432       -118554385.27525842        1551780285.3776677     
   110605255.24710235       -172365929.06492835        1561066096.5771205     
  -71245355.393815786       -227742342.24365368        1561423606.8498888     
   359689189.06666362       -37241540.584798574        1560200471.5468009     
   209811210.39757097       -78012128.410320148        1571594900.4135418     
   63559676.921210282       -106694565.59340306        1613141387.4114871     
  -79065411.362411290       -123288852.13402270        1684839932.5406258     
  -218064054.45329654       -127794988.03218736        1786690535.8009655     
  -40046909.662996411       -90682664.964554951        1611873266.8238182     
  -47702470.073600814       -88044584.982990563        1612298268.5155077     
  -47635679.282021180       -59665334.327477291        1681955687.3962824     
  -39846537.288258247       -5544912.9980207803        1820845523.4661355     
  -24335044.092303731        74316679.005407706        2028967776.7250726     
   1244035170.9865825       -121144112.18813533        1161920684.8668253     
   1041289900.2406468       -191822541.24706060        1014456791.2855643     
   891378928.38464189       -86386640.672890425        1113199530.5902648     
   794302255.41858590        195163589.53444791        1458148902.7809348     
   750059881.34246421        652828149.37490308        2049304907.8575709     
   416121053.08614337       -225525383.62896898        1353166989.8718410     
   750972932.77953577       -140408274.59080666        1310000512.0140009     
   1105883011.4741430        11569497.784737527        1398210854.3549702     
   1480851289.1699550        230407933.49762982        1617798016.8947377     
   1875877765.8669748        516107032.54788160        1968761999.6333156     
  -71245355.393815786       -227742342.24365368        1561423606.8498888     
   473118495.63273919       -85255248.840230137        1584315761.5119541     
   1004764445.7717719        14838841.604784131        1623754923.6856611     
   1523692495.0232837        72539929.091396451        1679741093.3710148     
   2029902643.3872724        87848013.619596124        1752274270.5680091     
  -218064054.45329654       -127794988.03218736        1786690535.8009655     
   207726588.80024672       -26363463.995363191        1837402539.7794139     
   588023231.27753270       -76578609.212726563        1789831738.5823450     
   922825872.97856951       -278440423.68425143        1643978132.2097621     
   1212134513.9033570       -631948907.40995002        1399841720.6616664     
  -24335044.092303731        74316679.005407706        2028967776.7250726     
  -45202787.717949919        36267079.943769187        2069260846.8163862     
  -144340632.00857395       -262682854.66779408        1896441299.0450246     
  -321748576.96418166       -822533124.82930481        1510509133.4109855     
  -577426622.58477569       -1643283730.5407677        911464349.91426706     
   936697.13562802540        281009.14068840758        656783377.22086966     
   1108130.3195417903       -85467.021444660728        771693146.02236891     
   1305990.9509701668       -363851.69186231279        886529624.03012204     
   1530279.0299131996       -554144.87056437903        1001292811.2441283     
   1780994.5563707559       -656346.55755136756        1115982707.6643884     
  -446412235.16053575       -133923670.54816073        658078921.21067083     
  -445986890.53348082       -125447298.53413099        774547012.25067806     
  -444800698.34626579       -114434767.98623443        889243053.30773354     
  -442853658.59889090       -100886078.90447119        1002167044.3818371     
  -440145771.29135561       -84801231.288840815        1113318985.4729888     
  -888194144.37488866       -266458243.31246659        662317851.44625723     
  -892368485.98813653       -250595102.42730740        781201088.18952537     
  -895047559.92857909       -229747735.96612987        896613515.76063633     
  -896231366.19621599       -203916143.92893416        1008555134.1595901     
  -895919904.79104781       -173100326.31572020        1117025943.3863869     
  -1324409030.5074308       -397322709.15222925        669500167.92762876     
  -1338036656.0444255       -375528878.70097375        791655373.83891082     
  -1349434593.7959697       -346302755.63154840        908641011.38883066     
  -1358602843.7620625       -309644339.94395351        1020457080.5773872     
  -1365541405.9427049       -265553631.63818872        1127103581.4045815     
  -1755056893.5581620       -526517068.06744856        679625870.65478539     
  -1782991400.7023480       -500248627.35513002        805909869.19883454     
  -1807961799.9484377       -464099826.98249024        925325540.19231582     
  -1829968091.2964311       -418070666.94952953        1037872883.6352289     
  -1849010274.7463281       -362161147.25624764        1143551899.5275736     
   1780994.5563707559       -656346.55755136756        1115982707.6643884     
   1941167.2775824699       -815324.97805869277        1188804074.6561704     
   2055386.9082388175       -1127480.3670838620        1259257408.8667455     
   2123653.4483385500       -1592812.7246314520        1327342710.2961130     
   2145966.8978825556       -2211322.0506974366        1393059978.9442739     
  -440145771.29135561       -84801231.288840815        1113318985.4729888     
  -440316290.97440201       -69767301.431726217        1181238880.3360705     
  -441371215.79651457       -57681388.704832450        1247766373.4514787     
  -443310545.75769418       -48543493.108162329        1312901464.8192146     
  -446134280.85793990       -42353614.641712174        1376644154.4392757     
  -895919904.79104781       -173100326.31572020        1117025943.3863869     
  -893633599.63968349       -142037233.00938430        1179066172.0641718     
  -893070151.67589593       -116716996.99497074        1240689630.0278182     
  -894229560.89968574       -97139618.272481501        1301896317.2773259     
  -897111827.31105196       -83305096.841914028        1362686233.8126934     
  -1365541405.9427049       -265553631.63818872        1127103581.4045815     
  -1358010758.7182615       -217625119.71103084        1182285949.8404753     
  -1353041420.7299054       -178234305.23749718        1238027178.5957637     
  -1350633391.9776368       -147381188.21758813        1294327267.6704473     
  -1350786672.4614558       -125065768.65130371        1351186217.0645256     
  -1849010274.7463281       -362161147.25624764        1143551899.5275736     
  -1833447768.2101364       -296530961.53666657        1190898213.6649799     
  -1821285022.9585428       -242233313.43241149        1239779019.1553152     
  -1812522038.9915466       -199268202.94348234        1290194315.9985797     
  -1807158816.3091483       -167635630.06987923        1342144104.1947734     
   2145966.8978825556       -2211322.0506974366        1393059978.9442739     
   3895590.1781437993       -2494228.4843281955        1416505267.5223162     
   5570777.5005350616       -3025254.7775255633        1441588164.5119410     
   7171528.8650557930       -3804400.9302914459        1468308669.9131472     
   8697844.2717075683       -4831666.9426203510        1496666783.7259352     
  -446134280.85793990       -42353614.641712174        1376644154.4392757     
  -437547997.63243437       -34652232.702034637        1398953289.5489557     
  -429337640.27302504       -28203936.982678741        1423041257.3495545     
  -421503208.77971101       -23008727.483640075        1448908057.8410723     
  -414044703.15249360       -19066604.204923242        1476553691.0235116     
  -897111827.31105196       -83305096.841914028        1362686233.8126934     
  -881285386.19933701       -67498377.146636873        1383507477.2277460     
  -866136360.86194515       -53949710.032436609        1406248777.6130552     
  -851664751.29887462       -42659095.499309480        1430910134.9686220     
  -837870557.51012790       -33626533.547259420        1457491549.2944450     
  -1350786672.4614558       -125065768.65130371        1351186217.0645256     
  -1327316575.5225658       -101032661.81813598        1370167830.5586867     
  -1304825384.2662270       -80262573.926804245        1391210725.3024435     
  -1283313098.6924350       -62755504.977297068        1414314901.2957928     
  -1262779718.8011942       -48511454.969625175        1439480358.5387390     
  -1807158816.3091483       -167635630.06987923        1342144104.1947734     
  -1775641565.6021211       -135255086.71653736        1358934349.5417790     
  -1745404710.4858694       -107142528.66578114        1377927100.4177175     
  -1716448250.9603920       -83297955.917604029        1399122356.8225870     
  -1688772187.0256913       -63721368.472017705        1422520118.7563903     
   8697844.2717075683       -4831666.9426203510        1496666783.7259352     
   9868004.7142825611       -6619492.3886966957        1496363474.7879553     
   10681581.590865904       -9595929.7214111835        1507535486.8611109     
   11138574.901457619       -13760978.940764431        1530182819.9454041     
   11238984.646059100       -19114640.046752486        1564305474.0408342     
  -414044703.15249360       -19066604.204923242        1476553691.0235116     
  -384617993.24668008       -9344763.8911451399        1473635227.2279205     
  -355349914.12214321       -151692.84828922153        1478321172.9867949     
  -326240465.77888274        8512608.9236464649        1490611528.3001354     
  -297289648.21689719        16648141.424663931        1510506293.1679380     
  -837870557.51012790       -33626533.547259420        1457491549.2944450     
  -791247045.16013741       -15712951.579343259        1452188875.5567455     
  -744584210.80670929        2331703.7333657146        1450619699.9168391     
  -697882054.44984150        20507432.390872687        1452784022.3747263     
  -651140576.08953571        38814234.393174022        1458681842.9304066     
  -1262779718.8011942       -48511454.969625175        1439480358.5387390     
  -1210019151.0260897       -25724055.453291714        1432024419.7744312     
  -1157021308.4628296       -2145739.9764406681        1424431067.6512432     
  -1103786191.1114199        22223491.460909307        1416700302.1691780     
  -1050313798.9718527        47383638.858784735        1408832123.3282340     
  -1688772187.0256913       -63721368.472017705        1422520118.7563903     
  -1640934310.8445349       -39378075.512985051        1413141859.8809748     
  -1592661207.0905097       -13584023.977724791        1399755276.1900086     
  -1543952875.7636161        13660786.133764684        1382360367.6834929     
  -1494809316.8638527        42356354.821485400        1360957134.3614249     
   11238984.646059100       -19114640.046752486        1564305474.0408342     
   22023748.798675977       -22025053.016716685        1600036654.8933301     
   32662640.570226993       -25421707.256901134        1641231539.6525881     
   43155659.960708261       -29304602.767316982        1687890128.3186059     
   53502806.970121711       -33673739.547960334        1740012420.8913839     
  -297289648.21689719        16648141.424663931        1510506293.1679380     
  -271531880.24560851        22515282.650783554        1529160432.7843156     
  -246479531.86514297        26031025.240825251        1551842974.3091986     
  -222132603.07550046        27195369.194789693        1578553917.7425885     
  -198491093.87668294        26008314.512672722        1609293263.0844839     
  -651140576.08953571        38814234.393174022        1458681842.9304066     
  -614510667.15173149        52228670.959728509        1459606136.2326164     
  -579145725.01450431        61426551.524357557        1463123529.4450791     
  -545045749.67785907        66407876.087048054        1469234022.5677910     
  -512210741.14178985        67172644.647818416        1477937615.6007581     
  -1050313798.9718527        47383638.858784735        1408832123.3282340     
  -1006912611.9196897        67115111.910125554        1391373765.2382302     
  -965335938.87785947        80764871.593688428        1375073205.0602221     
  -925583779.84636319        88332917.909471095        1359930442.7942133     
  -887656134.82520151        89819250.857474387        1345945478.4402001     
  -1494809316.8638527        42356354.821485400        1360957134.3614249     
  -1448737714.5494852        67174605.501969039        1324463319.8011589     
  -1405050173.4552059        84045985.448825657        1287692001.1546357     
  -1363746693.5810206        92970494.662036538        1250643178.4218543     
  -1324827274.9269192        93948133.141631961        1213316851.6028159     
   53502806.970121711       -33673739.547960334        1740012420.8913839     
   30002007.963137511       -48303870.397792086        1735404428.2810912     
   6576788.8552941307       -62682068.250486024        1712511905.0663977     
  -16772850.353420744       -76808333.106085822        1671334851.2473071     
  -40046909.662996411       -90682664.964554951        1611873266.8238182     
  -198491093.87668294        26008314.512672722        1609293263.0844839     
  -254074391.69901010        1190537.7450459749        1590710032.4760017     
  -308862124.86183113       -20975356.824227840        1568083482.4411449     
  -362854293.36515439       -40489369.195174515        1541413612.9799159     
  -416050897.20897388       -57351499.367775649        1510700424.0923107     
  -512210741.14178985        67172644.647818416        1477937615.6007581     
  -559187362.98510659        44373974.400699347        1446219129.2145140     
  -604648435.40855312        26627135.553144664        1424698534.5799215     
  -648593958.41212964        13932128.105157644        1413375831.6969781     
  -691023931.99583626        6288952.0567381978        1412251020.5656855     
  -887656134.82520151        89819250.857474387        1345945478.4402001     
  -885336905.89515281        81246439.569167852        1301931718.4966257     
  -880782142.78487051        80125408.881638527        1282357061.4827263     
  -873991845.49434459        86456158.794921160        1287221507.3985014     
  -864966014.02358615        100238689.30898082        1316525056.2439504     
  -1324827274.9269192        93948133.141631961        1213316851.6028159     
  -1232523020.4291484        111807933.25045151        1157847800.3223379     
  -1137263246.9907792        139519463.16126502        1141059063.1495590     
  -1039047954.6117996        177082722.87411356        1162950640.0844779     
  -937877143.29221916        224497712.38896501        1223522531.1270974     
  -40046909.662996411       -90682664.964554951        1611873266.8238182     
  -47702470.073600814       -88044584.982990563        1612298268.5155077     
  -47635679.282021180       -59665334.327477291        1681955687.3962824     
  -39846537.288258247       -5544912.9980207803        1820845523.4661355     
  -24335044.092303731        74316679.005407706        2028967776.7250726     
  -416050897.20897388       -57351499.367775649        1510700424.0923107     
  -276468678.74694914       -6673518.2352744192        1536114572.5979567     
  -131282158.16639537        62685469.958990872        1594470002.7817154     
   19508664.532685939        150725465.21501350        1685766714.6435816     
   175903789.35029465        257446467.53279555        1810004708.1835575     
  -691023931.99583626        6288952.0567381978        1412251020.5656855     
  -507892893.26395386        73900146.759348124        1460183258.6210198     
  -321275601.49719983        153132184.91153076        1504765642.8434927     
  -131172056.69557583        243985066.51327956        1545998173.2331069     
   62417741.140917845        346458791.56459415        1583880849.7898607     
  -864966014.02358615        100238689.30898082        1316525056.2439504     
  -741975113.62461269        153676410.00088781        1384504326.5847027     
  -617616009.27443552        211674810.53014088        1412842607.5816255     
  -491888700.97303796        274233890.89679539        1401539899.2347171     
  -364793188.72043550        341353651.10079813        1350596201.5439796     
  -937877143.29221916        224497712.38896501        1223522531.1270974     
  -978715339.82893836        232655271.48930079        1309077776.4890020     
  -1020303381.4981024        238313346.81482005        1318700896.9961064     
  -1062641268.2997074        241471938.36553532        1252391892.6484084     
  -1105729000.2337663        242131046.14140552        1110150763.4459114     
  -24335044.092303731        74316679.005407706        2028967776.7250726     
  -45202787.717949919        36267079.943769187        2069260846.8163862     
  -144340632.00857395       -262682854.66779408        1896441299.0450246     
  -321748576.96418166       -822533124.82930481        1510509133.4109855     
  -577426622.58477569       -1643283730.5407677        911464349.91426706     
   175903789.35029465        257446467.53279555        1810004708.1835575     
  -281833851.71396130        119788626.61582515        1725015937.8514626     
  -784827891.69027781       -168723877.34134322        1540072535.4728019     
  -1333078330.5786636       -608091044.33874273        1255174501.0475812     
  -1926585168.3791020       -1198312874.3763247        870321834.57579601     
   62417741.140917845        346458791.56459415        1583880849.7898607     
  -508881266.45876563        206185268.06324822        1412126224.4127626     
  -1092422971.2175937        25102754.031420887        1253574952.8052146     
  -1688207373.1355641       -196788750.53088444        1108227034.9672184     
  -2296234472.2126756       -459489245.62365627        976082470.89877582     
  -364793188.72043550        341353651.10079813        1350596201.5439796     
  -726345031.95236492        295457004.28602362        1130591706.5002806     
  -1067125870.5905175        318797039.45050746        1036948551.0422480     
  -1387135704.6348951        411373756.59424031        1069666735.1698849     
  -1686374534.0854897        573187155.71724701        1228746258.8831818     
  -1105729000.2337663        242131046.14140552        1110150763.4459114     
  -934225148.19475794        387603835.28416097        880412384.11402273     
  -708936589.80905461        712358978.91590416        890193330.18391311     
  -429863325.07665771        1216396477.0366259        1139493601.6555901     
  -97005353.997555375        1899716329.6463614        1628313198.5290368     
  -1755056893.5581620       -526517068.06744856        679625870.65478539     
  -1782991400.7023480       -500248627.35513002        805909869.19883454     
  -1807961799.9484377       -464099826.98249024        925325540.19231582     
  -1829968091.2964311       -418070666.94952953        1037872883.6352289     
  -1849010274.7463281       -362161147.25624764        1143551899.5275736     
  -2201739283.9713197       -660521785.19139588        695822501.38773239     
  -2237771115.7311287       -614117792.79593301        813302917.49889779     
  -2271729788.3773923       -560803270.02198780        926776284.14481139     
  -2303615301.9101119       -500578216.86956036        1036242601.3254732     
  -2333427656.3292866       -433442633.33865148        1141701869.0408831     
  -2686057752.1911421       -805817325.65734255        721217601.88647485     
  -2722011828.3228130       -736825257.50560713        828854995.31611288     
  -2756783694.1254907       -663892488.25722814        935346617.36581528     
  -2790373349.5991745       -587019017.91220593        1040692468.0355821     
  -2822780794.7438664       -506204846.47054070        1144892547.3254135     
  -3208012298.2176275       -962403689.46528828        755811172.15101254     
  -3235713538.4773993       -868371021.48415184        852566102.65047956     
  -3263123517.1927299       -773367481.68821096        951036539.85532725     
  -3290242234.3636198       -677393070.07746649        1051222483.7655555     
  -3317069689.9900684       -580447786.65191698        1153123934.3811643     
  -3767602922.0507774       -1130280876.6152332        799603212.18134570     
  -3778876246.1948905       -1008755084.7315679        884436239.50199819     
  -3790749257.5791140       -889228250.31493735        973846051.61334753     
  -3803221956.2034473       -771700373.36534095        1067832648.5153934     
  -3816294342.0678902       -656171453.88277960        1166396030.2081363     
  -1849010274.7463281       -362161147.25624764        1143551899.5275736     
  -1833447768.2101364       -296530961.53666657        1190898213.6649799     
  -1821285022.9585428       -242233313.43241149        1239779019.1553152     
  -1812522038.9915466       -199268202.94348234        1290194315.9985797     
  -1807158816.3091483       -167635630.06987923        1342144104.1947734     
  -2333427656.3292866       -433442633.33865148        1141701869.0408831     
  -2311179699.4933510       -352877554.95352584        1182599941.5652850     
  -2292447933.7636976       -284033113.58933949        1223659663.1214352     
  -2277232359.1403265       -226909309.24609125        1264881033.7093332     
  -2265532975.6232357       -181506141.92378044        1306264053.3289793     
  -2822780794.7438664       -506204846.47054070        1144892547.3254135     
  -2797769794.2401338       -411881597.40945631        1179206543.4448466     
  -2776391414.6643667       -329667084.77492166        1212309346.2748473     
  -2758645656.0165634       -259561308.56693637        1244200955.8154144     
  -2744532518.2967262       -201564268.78550184        1274881372.0665491     
  -3317069689.9900684       -580447786.65191698        1153123934.3811643     
  -3293218052.4504828       -473543088.90445530        1180718019.3036652     
  -3273115465.6605487       -379135226.98915780        1205728068.6155519     
  -3256761929.6202621       -297224200.90602160        1228154082.3168249     
  -3244157444.3296227       -227810010.65504587        1247996060.4074836     
  -3816294342.0678902       -656171453.88277960        1166396030.2081363     
  -3797524474.1244016       -537862029.43852687        1187134369.1417398     
  -3782620086.7522430       -432437540.23204720        1203915830.1435490     
  -3771581179.9514170       -339897986.26334143        1216740413.2135623     
  -3764407753.7219238       -260243367.53240931        1225608118.3517814     
  -1807158816.3091483       -167635630.06987923        1342144104.1947734     
  -1775641565.6021211       -135255086.71653736        1358934349.5417790     
  -1745404710.4858694       -107142528.66578114        1377927100.4177175     
  -1716448250.9603920       -83297955.917604029        1399122356.8225870     
  -1688772187.0256913       -63721368.472017705        1422520118.7563903     
  -2265532975.6232357       -181506141.92378044        1306264053.3289793     
  -2222599456.8028150       -136353061.14316010        1314154115.2344806     
  -2182492819.7108541       -100622919.45740795        1325675907.6765959     
  -2145213064.3473508       -74315716.866515756        1340829430.6553254     
  -2110760190.7123084       -57431453.370490670        1359614684.1706684     
  -2744532518.2967262       -201564268.78550184        1274881372.0665491     
  -2686099231.3409648       -142413600.57102072        1272067016.7032480     
  -2632039312.2513466       -97840825.243685126        1274313616.8842425     
  -2582352761.0278721       -67845942.803494453        1281621172.6095328     
  -2537039577.6705408       -52428953.250449419        1293989683.8791187     
  -3244157444.3296227       -227810010.65504587        1247996060.4074836     
  -3166140889.2165718       -153436705.00011778        1232673053.9480817     
  -3094044188.1073494       -98796246.024616122        1223840228.0406570     
  -3027867341.0019541       -63888633.728541255        1221497582.6852107     
  -2967610347.9003873       -48713868.111891627        1225645117.8817394     
  -3764407753.7219238       -260243367.53240931        1225608118.3517814     
  -3662724430.4296370       -169422374.43045294        1195972226.9689806     
  -3568507447.2788620       -103489181.80020082        1174255741.1458395     
  -3481756804.2695994       -62443789.641657591        1160458660.8823564     
  -3402472501.4018478       -46286197.954817295        1154580986.1785331     
  -1688772187.0256913       -63721368.472017705        1422520118.7563903     
  -1640934310.8445349       -39378075.512985051        1413141859.8809748     
  -1592661207.0905097       -13584023.977724791        1399755276.1900086     
  -1543952875.7636161        13660786.133764684        1382360367.6834929     
  -1494809316.8638527        42356354.821485400        1360957134.3614249     
  -2110760190.7123084       -57431453.370490670        1359614684.1706684     
  -2069609861.4936512       -42710121.091375232        1351579075.8849032     
  -2028383530.4753208       -27735449.480017543        1344627977.9850543     
  -1987081197.6573219       -12507438.536424041        1338761390.4711215     
  -1945702863.0396469        2973911.7394121885        1333979313.3431053     
  -2537039577.6705408       -52428953.250449419        1293989683.8791187     
  -2488025837.6959066       -42964294.335709572        1286877629.4476078     
  -2439295321.6947980       -34443715.332716584        1285942920.6034813     
  -2390848029.6672125       -26867216.241470933        1291185557.3467362     
  -2342683961.6131506       -20234797.061971545        1302605539.6773758     
  -2967610347.9003873       -48713868.111891627        1225645117.8817394     
  -2896182239.4513011       -40140595.245985866        1219037520.5690885     
  -2825396580.7489338       -33708821.535810947        1223700104.0452864     
  -2755253371.7932878       -29418546.981371760        1239632868.3103337     
  -2685752612.5843620       -27269771.582668900        1266835813.3642318     
  -3402472501.4018478       -46286197.954817295        1154580986.1785331     
  -3294079066.7598314       -34239023.822198987        1148058749.2493443     
  -3186687307.6377320       -25530768.089303613        1157899528.3104727     
  -3080297224.0355487       -20161430.756128073        1184103323.3619189     
  -2974908815.9532833       -18131011.822679281        1226670134.4036791     
  -1494809316.8638527        42356354.821485400        1360957134.3614249     
  -1448737714.5494852        67174605.501969039        1324463319.8011589     
  -1405050173.4552059        84045985.448825657        1287692001.1546357     
  -1363746693.5810206        92970494.662036538        1250643178.4218543     
  -1324827274.9269192        93948133.141631961        1213316851.6028159     
  -1945702863.0396469        2973911.7394121885        1333979313.3431053     
  -1902609965.8592334        15954911.083304763        1314257996.0630839     
  -1861580797.7537255        22056813.510845542        1295254544.6131861     
  -1822615358.7231238        21279619.022032976        1276968958.9934111     
  -1785713648.7674241        13623327.616878629        1259401239.2037528     
  -2342683961.6131506       -20234797.061971545        1302605539.6773758     
  -2299725855.5198922       -18237874.840632319        1300030440.5136471     
  -2258511146.3563552       -22052275.718361020        1299168577.0964220     
  -2219039834.1225376       -31677999.695158958        1300019949.4256978     
  -2181311918.8184423       -47115046.771025181        1302584557.5014729     
  -2685752612.5843620       -27269771.582668900        1266835813.3642318     
  -2640085383.5314622       -35403752.269847870        1281780653.1528468     
  -2595841219.2630987       -48281282.238810062        1299434098.6043448     
  -2553020119.7792673       -65902361.489549756        1319796149.7187219     
  -2511622085.0799770       -88266990.022087336        1342866806.4959784     
  -2974908815.9532833       -18131011.822679281        1226670134.4036791     
  -2923688549.8939409       -35542721.204326034        1259508633.9806850     
  -2873571016.4739509       -56630206.050479889        1296051109.1369517     
  -2824556215.6933122       -81393466.361138105        1336297559.8724766     
  -2776644147.5520253       -109832502.13630354        1380247986.1872649     
  -1324827274.9269192        93948133.141631961        1213316851.6028159     
  -1232523020.4291484        111807933.25045151        1157847800.3223379     
  -1137263246.9907792        139519463.16126502        1141059063.1495590     
  -1039047954.6117996        177082722.87411356        1162950640.0844779     
  -937877143.29221916        224497712.38896501        1223522531.1270974     
  -1785713648.7674241        13623327.616878629        1259401239.2037528     
  -1608304595.0120490        48895394.128937244        1222052633.3229733     
  -1428320061.7791493        92752392.232747138        1207470728.2088258     
  -1245760049.0687299        145194321.92829102        1215655523.8613150     
  -1060624556.8807787        206221183.21559876        1246607020.2804372     
  -2181311918.8184423       -47115046.771025181        1302584557.5014729     
  -1964265532.4942162       -8070953.8623487949        1282913017.6467974     
  -1745023706.1555498        38291272.427803516        1270094565.2176895     
  -1523586439.8024335        91971632.099449635        1264129200.2141511     
  -1299953733.4348726        152970125.15257710        1265016922.6361842     
  -2511622085.0799770       -88266990.022087336        1342866806.4959784     
  -2300405832.8756571       -59091110.723417759        1340428953.2938120     
  -2087374180.1199720       -23863896.253533483        1328930574.1761513     
  -1872527126.8129239        17414653.387563944        1308371669.1429954     
  -1655864672.9545062        64744538.199889302        1278752238.1943452     
  -2776644147.5520253       -109832502.13630354        1380247986.1872649     
  -2616725496.1563663       -104165076.45427382        1394600440.2640154     
  -2455371483.6724234       -93713113.811289787        1383978755.0842085     
  -2292582110.1001925       -78476614.207350373        1348382930.6478395     
  -2128357375.4396744       -58455577.642455459        1287812966.9549162     
  -937877143.29221916        224497712.38896501        1223522531.1270974     
  -978715339.82893836        232655271.48930079        1309077776.4890020     
  -1020303381.4981024        238313346.81482005        1318700896.9961064     
  -1062641268.2997074        241471938.36553532        1252391892.6484084     
  -1105729000.2337663        242131046.14140552        1110150763.4459114     
  -1060624556.8807787        206221183.21559876        1246607020.2804372     
  -1264614140.8312762        150523691.96122319        1309973423.0748553     
  -1471170520.5451157        86270214.829038322        1338506664.3337953     
  -1680293696.0222938        13460751.819056511        1332206744.0572588     
  -1891983667.2628143       -67904697.068727493        1291073662.2452409     
  -1299953733.4348726        152970125.15257710        1265016922.6361842     
  -1549669095.3153760        68645266.388605416        1304074707.1270745     
  -1803768203.5901148       -30292080.356151342        1349398293.4018092     
  -2062251058.2590878       -143841915.08169121        1400987681.4603858     
  -2325117659.3222938       -272004237.78800845        1458842871.3028076     
  -1655864672.9545062        64744538.199889302        1278752238.1943452     
  -1833880203.2812374       -12980005.228538156        1291381628.6456635     
  -2018096430.6330950       -111373538.74072611        1351375784.2001476     
  -2208513355.0100861       -230436062.33669013        1458734704.8577938     
  -2405130976.4122086       -370167576.01642048        1613458390.6186056     
  -2128357375.4396744       -58455577.642455459        1287812966.9549162     
  -2117247464.7288551       -94352122.890205383        1271894187.6306195     
  -2114155201.6740589       -156974160.32470232        1344439136.7288058     
  -2119080586.2752907       -246321689.94596088        1505447814.2494812     
  -2132023618.5325420       -362394711.75394505        1754920220.1926436     
  -1105729000.2337663        242131046.14140552        1110150763.4459114     
  -934225148.19475794        387603835.28416097        880412384.11402273     
  -708936589.80905461        712358978.91590416        890193330.18391311     
  -429863325.07665771        1216396477.0366259        1139493601.6555901     
  -97005353.997555375        1899716329.6463614        1628313198.5290368     
  -1891983667.2628143       -67904697.068727493        1291073662.2452409     
  -1240972772.0716984        152836925.49079299        1170673443.5631495     
  -558847732.86373472        477292361.43981838        1162235740.3462605     
   154391450.36108172        905461610.77835023        1265760552.5945730     
   898744777.60274887        1437344673.5063791        1481247880.3080871     
  -2325117659.3222938       -272004237.78800845        1458842871.3028076     
  -1559047749.3692915       -85328190.328767419        1421331823.8856926     
  -784534257.72928524        129493129.42047763        1368226481.9972022     
  -1577184.4022690803        372459721.45974404        1299526845.6373339     
   789823470.61173880        643571585.78901553        1215232914.8060966     
  -2405130976.4122086       -370167576.01642048        1613458390.6186056     
  -1888450080.0875328       -326891512.17453396        1632387525.0816443     
  -1385996164.4057019       -331038717.14211595        1508165555.1367307     
  -897769229.36671925       -382609190.91919696        1240792480.7838604     
  -423769274.97057265       -481602933.50574160        830268302.02304697     
  -2132023618.5325420       -362394711.75394505        1754920220.1926436     
  -2229179764.2264214       -571853040.04648149        1803840547.1510160     
  -2363233452.8929944       -904303178.24799085        1582052959.7648547     
  -2534184684.5322561       -1359745126.3584585        1089557458.0341737     
  -2742033459.1442089       -1938178884.3779030        326354041.95894879     
  -3767602922.0507774       -1130280876.6152332        799603212.18134570     
  -3778876246.1948905       -1008755084.7315679        884436239.50199819     
  -3790749257.5791140       -889228250.31493735        973846051.61334753     
  -3803221956.2034473       -771700373.36534095        1067832648.5153934     
  -3816294342.0678902       -656171453.88277960        1166396030.2081363     
  -4338377560.1556282       -1301513268.0466886        857770854.94361663     
  -4334927623.8001451       -1125601432.3006263        941724895.07855427     
  -4332649713.4336662       -953596349.85124815        1019877109.9157782     
  -4331543829.0561934       -785498020.69855392        1092227499.4552879     
  -4331609970.6677265       -621306444.84254491        1158776063.6970835     
  -4893884148.9972181       -1468165244.6991653        935491233.40396750     
  -4905364123.8233109       -1246763316.5950584        1017898557.8128135     
  -4918588463.3873053       -1031175937.6172848        1084125446.8355348     
  -4933557167.6891975       -821403107.76584446        1134171900.4721308     
  -4950270236.7289925       -617444827.04073858        1168037918.7226019     
  -5434122688.5755453       -1630236806.5726635        1032764347.5623987     
  -5490185746.2643900       -1372240737.6148641        1112957227.7047756     
  -5548565507.4400311       -1121967013.6130476        1166591062.3726168     
  -5609261972.1024637       -879415634.56721377        1193665851.5659218     
  -5672275140.2516937       -644586600.47736239        1194181595.2846913     
  -5959093178.8906107       -1787727953.6671832        1149590197.4189100     
  -6089392491.1233807       -1502033695.3600433        1226900904.7544403     
  -6222580845.5918407       -1225969577.8385358        1267273956.5270240     
  -6358658242.2959890       -959535601.10265994        1270709352.7366614     
  -6497624681.2358294       -702731765.15241766        1237207093.3833518     
  -3816294342.0678902       -656171453.88277960        1166396030.2081363     
  -3797524474.1244016       -537862029.43852687        1187134369.1417398     
  -3782620086.7522430       -432437540.23204720        1203915830.1435490     
  -3771581179.9514170       -339897986.26334143        1216740413.2135623     
  -3764407753.7219238       -260243367.53240931        1225608118.3517814     
  -4331609970.6677265       -621306444.84254491        1158776063.6970835     
  -4298057399.2845745       -464801478.30339265        1140172482.3789549     
  -4275050751.2851171       -343449589.70989037        1128082733.4627693     
  -4262590026.6693568       -257250779.06204128        1122506816.9485264     
  -4260675225.4372907       -206205046.35984373        1123444732.8362257     
  -4950270236.7289925       -617444827.04073858        1168037918.7226019     
  -4872018646.6669292       -413769423.83491158        1102298567.2049842     
  -4810993422.8009233       -267515241.28261495        1053543758.4230465     
  -4767194565.1309757       -178682279.38384485        1021773492.3767895     
  -4740622073.6570911       -147270538.13860631        1006987769.0662122     
  -5672275140.2516937       -644586600.47736239        1194181595.2846913     
  -5519408216.2714682       -384765866.03308773        1073512623.6198274     
  -5390448101.2996635       -204634494.95021749        980298905.02438033     
  -5285394795.3362808       -104192487.22875428        914540439.49835205     
  -5204248298.3813210       -83439842.868696213        876237227.04174209     
  -6497624681.2358294       -702731765.15241766        1237207093.3833518     
  -6240226108.0981894       -377790804.89791656        1053814651.6234832     
  -6013414786.7813349       -154807350.71270156        908348173.26677120     
  -5817190717.2852650       -33781402.596768141        800807658.31321502     
  -5651553899.6099796       -14712960.550119162        731193106.76281321     
  -3764407753.7219238       -260243367.53240931        1225608118.3517814     
  -3662724430.4296370       -169422374.43045294        1195972226.9689806     
  -3568507447.2788620       -103489181.80020082        1174255741.1458395     
  -3481756804.2695994       -62443789.641657591        1160458660.8823564     
  -3402472501.4018478       -46286197.954817295        1154580986.1785331     
  -4260675225.4372907       -206205046.35984373        1123444732.8362257     
  -4148378827.6064668       -144914759.82859540        1092091293.5825295     
  -4040615577.9197989       -98734967.111203432        1067797130.6997516     
  -3937385476.3772907       -67665668.207675457        1050562244.1878912     
  -3838688522.9789414       -51706863.118005991        1040386634.0469499     
  -4740622073.6570911       -147270538.13860631        1006987769.0662122     
  -4620170113.2555571       -116248211.76841402        977338839.27186728     
  -4501318109.0008307       -90559072.554236174        953889056.65969884     
  -4384066060.8929090       -70203120.496072531        936638421.22970760     
  -4268413968.9317894       -55180355.593921185        925586932.98189390     
  -5204248298.3813210       -83439842.868696213        876237227.04174209     
  -5078098287.3769131       -83422730.249911547        851714864.03699315     
  -4950615040.5219555       -78961498.129294157        832531519.02568030     
  -4821798557.8164511       -70056146.506845713        818687192.00780511     
  -4691648839.2603941       -56706675.382563829        810181882.98336458     
  -5651553899.6099796       -14712960.550119162        731193106.76281321     
  -5522163349.9705315       -46438315.273090601        715219367.87790787     
  -5388506372.4831762       -63942243.836383820        703724517.79769802     
  -5250582967.1479187       -67224746.239995956        696708556.52218270     
  -5108393133.9647579       -56285822.483932734        694171484.05136323     
  -3402472501.4018478       -46286197.954817295        1154580986.1785331     
  -3294079066.7598314       -34239023.822198987        1148058749.2493443     
  -3186687307.6377320       -25530768.089303613        1157899528.3104727     
  -3080297224.0355487       -20161430.756128073        1184103323.3619189     
  -2974908815.9532833       -18131011.822679281        1226670134.4036791     
  -3838688522.9789414       -51706863.118005991        1040386634.0469499     
  -3691037750.2460160       -29517726.782413244        1032509621.7070839     
  -3544429091.7125254       -10802304.444932461        1036127092.9384528     
  -3398862547.3784685        4439403.8944361210        1051239047.7410555     
  -3254338117.2438474        16207398.235692501        1077845486.1148915     
  -4268413968.9317894       -55180355.593921185        925586932.98189390     
  -4095415950.7339082       -27022284.843138456        916307966.77191389     
  -3923500485.4149742       -2472723.6888551712        913654951.71408701     
  -3752667572.9749937        18468327.868921995        917627887.80841053     
  -3582917213.4139643        35800869.830196619        928226775.05488586     
  -4691648839.2603941       -56706675.382563829        810181882.98336458     
  -4507213668.2235041       -26752698.004372120        799453784.44383538     
  -4323901488.7450809       -542025.82107710838        790483104.63737214     
  -4141712300.8251276        21925341.167326212        783269843.56398034     
  -3960646104.4636421        40649402.960831642        777814001.22365868     
  -5108393133.9647579       -56285822.483932734        694171484.05136323     
  -4926430902.7148104       -28708966.266125441        681947074.72284532     
  -4745632101.7028456       -5010210.8415951729        666611551.70831561     
  -4565996730.9288664        14810443.789644480        648164915.00777102     
  -4387524790.3928738        30752997.627602100        626607164.62121212     
  -2974908815.9532833       -18131011.822679281        1226670134.4036791     
  -2923688549.8939409       -35542721.204326034        1259508633.9806850     
  -2873571016.4739509       -56630206.050479889        1296051109.1369517     
  -2824556215.6933122       -81393466.361138105        1336297559.8724766     
  -2776644147.5520253       -109832502.13630354        1380247986.1872649     
  -3254338117.2438474        16207398.235692501        1077845486.1148915     
  -3192710696.3550825        612993.48726022243        1092576323.8879919     
  -3131685092.9037638       -16987469.385989070        1111189311.8044913     
  -3071261306.8898888       -36593990.384048939        1133684449.8643880     
  -3011439338.3134561       -58206569.506925583        1160061738.0676868     
  -3582917213.4139643        35800869.830196619        928226775.05488586     
  -3510373567.5125251        22176490.769956350        925434352.09297085     
  -3437930823.8466258        8215770.9245839119        926702253.83859420     
  -3365588982.4162574       -6081289.7058959007        932030480.29175615     
  -3293348043.2214308       -20714691.121509194        941419031.45245421     
  -3960646104.4636421        40649402.960831642        777814001.22365868     
  -3876677163.3662691        29147770.643760443        758082718.59562230     
  -3792308209.3025355        18979514.881243944        742589935.23926342     
  -3707539242.2724261        10144635.673311234        731335651.15458035     
  -3622370262.2759418        2643133.0199437141        724319866.34157443     
  -4387524790.3928738        30752997.627602100        626607164.62121212     
  -4291621483.9163203        21526833.108674765        590521423.39594746     
  -4194817249.2714949        15303762.483989716        558852356.00649393     
  -4097112086.4583826        12083785.753593683        531599962.45285916     
  -3998505995.4769988        11866902.917436361        508764242.73503977     
  -2776644147.5520253       -109832502.13630354        1380247986.1872649     
  -2616725496.1563663       -104165076.45427382        1394600440.2640154     
  -2455371483.6724234       -93713113.811289787        1383978755.0842085     
  -2292582110.1001925       -78476614.207350373        1348382930.6478395     
  -2128357375.4396744       -58455577.642455459        1287812966.9549162     
  -3011439338.3134561       -58206569.506925583        1160061738.0676868     
  -2903343708.5747476       -66441716.725902796        1165334295.5007041     
  -2795374612.9006534       -75098644.160262823        1158925415.4313200     
  -2687532051.2911725       -84177351.810003519        1140835097.8595357     
  -2579816023.7463083       -93677839.675126433        1111063342.7853525     
  -3293348043.2214308       -20714691.121509194        941419031.45245421     
  -3199096287.2706494       -31458666.880794883        935789481.23001945     
  -3106532960.5373807       -47830740.031794548        931771195.25934362     
  -3015658063.0216236       -69830910.574504614        929364173.54042673     
  -2926471594.7233868       -97459178.508937597        928568416.07326865     
  -3622370262.2759418        2643133.0199437141        724319866.34157443     
  -3503983232.2440605        784073.08105874062        705965997.45197129     
  -3388846526.5825934       -11909401.425870419        702516094.56828499     
  -3276960145.2915392       -35437290.500848174        713970157.69051683     
  -3168324088.3709011       -69799594.143882751        740328186.81866515     
  -3998505995.4769988        11866902.917436361        508764242.73503977     
  -3818004543.4949899        30286503.159663439        475863844.16655022     
  -3642315311.0362968        32665371.657512188        471160113.35813755     
  -3471438298.1009154        19003508.410980940        494653050.30980092     
  -3305373504.6888533       -10699086.579945803        546342655.02154303     
  -2128357375.4396744       -58455577.642455459        1287812966.9549162     
  -2117247464.7288551       -94352122.890205383        1271894187.6306195     
  -2114155201.6740589       -156974160.32470232        1344439136.7288058     
  -2119080586.2752907       -246321689.94596088        1505447814.2494812     
  -2132023618.5325420       -362394711.75394505        1754920220.1926436     
  -2579816023.7463083       -93677839.675126433        1111063342.7853525     
  -2374176796.9641504       -79983860.623084664        1105477864.7886875     
  -2172487405.0321217       -79455997.738127828        1149622626.6629150     
  -1974747847.9502127       -92094251.020243645        1243497628.4080477     
  -1780958125.7184308       -117898620.46944529        1387102870.0240698     
  -2926471594.7233868       -97459178.508937597        928568416.07326865     
  -2636970162.0172896       -67374808.201315403        938062021.01111591     
  -2347350751.3554168       -36897178.041109204        958552377.26827192     
  -2057613362.7377717       -6026288.0283240080        990039484.84473407     
  -1767757996.1643481        25237861.837042570        1032523343.7405044     
  -3168324088.3709011       -69799594.143882751        740328186.81866515     
  -2905627559.8882594       -56524965.624895811        769646656.29791021     
  -2638745240.6439476       -29297701.233668327        771228388.54486930     
  -2367677130.6379614        11882199.029809833        745073383.55955124     
  -2092423229.8703077        67014735.165512800        691181641.34194899     
  -3305373504.6888533       -10699086.579945803        546342655.02154303     
  -3180148990.5770712       -47434332.893829226        600231770.64906442     
  -3046670872.8977151       -56657567.315797448        587650660.49271607     
  -2904939151.6507869       -38368789.845855474        508599324.55249649     
  -2754953826.8362837        7431999.5159949064        363077762.82840526     
  -2132023618.5325420       -362394711.75394505        1754920220.1926436     
  -2229179764.2264214       -571853040.04648149        1803840547.1510160     
  -2363233452.8929944       -904303178.24799085        1582052959.7648547     
  -2534184684.5322561       -1359745126.3584585        1089557458.0341737     
  -2742033459.1442089       -1938178884.3779030        326354041.95894879     
  -1780958125.7184308       -117898620.46944529        1387102870.0240698     
  -2456352039.7426372       -440383134.41462737        1346083750.7604704     
  -3151482967.4568357       -828657693.99312031        1157057228.4302247     
  -3866350908.8610187       -1282722299.2048967        820023303.03332865     
  -4600955863.9552107       -1802576950.0500290        334981974.56978130     
  -1767757996.1643481        25237861.837042570        1032523343.7405044     
  -2670816789.1535110       -305100970.95117760        921585395.75141835     
  -3576452066.5499601       -644028085.09703231        785340555.97356272     
  -4484663828.3537073       -991543480.60053790        623788824.40693963     
  -5395452074.5647497       -1347647157.4616959        436930201.05154669     
  -2092423229.8703077        67014735.165512800        691181641.34194899     
  -2872574012.4590387       -166006549.65611398        530345482.12385613     
  -3638140750.1723723       -350414351.55973172        466902942.39487439     
  -4389123443.0103025       -486208670.54534543        500854022.15500426     
  -5125522090.9728317       -573389506.61293948        632198721.40425038     
  -2754953826.8362837        7431999.5159949064        363077762.82840526     
  -3061623709.6592288       -23099870.529452562        172364009.87778455     
  -3336549018.3240695        52183506.618777275        201744387.69415975     
  -3579729752.8308134        233282130.96068144        451218896.27752542     
  -3791165913.1794477        520196002.49626350        920787535.62788630     
  -5959093178.8906107       -1787727953.6671832        1149590197.4189100     
  -6089392491.1233807       -1502033695.3600433        1226900904.7544403     
  -6222580845.5918407       -1225969577.8385358        1267273956.5270240     
  -6358658242.2959890       -959535601.10265994        1270709352.7366614     
  -6497624681.2358294       -702731765.15241766        1237207093.3833518     
  -6812977180.5723238       -2043893154.1716971        1353543119.5627747     
  -6830088202.8366642       -1395673512.8569229        1202213007.2197993     
  -6898651850.0150146       -918962621.25552440        1091228762.0291092     
  -7018668122.1073780       -613760479.36750126        1020590383.9907048     
  -7190137019.1137581       -480067087.19285655        990297873.10458636     
  -8339956254.2505970       -2501986876.2751794        1712197450.5832655     
  -8023068921.6458406       -1424998832.4825709        1275569005.4370739     
  -7806197796.6334229       -681398147.33108306        956569950.15839982     
  -7689342879.2133379       -271184820.82071400        755200284.74724412     
  -7672504169.3855896       -194358852.95146656        671460009.20360661     
  -10540030399.925428       -3162009119.9776287        2225553190.4803829     
  -9668334647.5509148       -1590009654.2369883        1446968899.4062648     
  -8945218685.4470596       -513276156.06521082        863297520.91489649     
  -8370682513.6138630        68191374.537703514        474539055.00627840     
  -7944726132.0513287        154392937.57175255        280693501.68041104     
  -13413199617.596821       -4023959885.2790465        2893610339.2541270     
  -11765885380.551884       -1890705978.1201735        1716412689.1273715     
  -10315714516.455929       -414596647.45790863        811411474.29859841     
  -9062687025.3089581        404368106.70775080        178606694.76780874     
  -8006802907.1109686        566188284.37679911       -182001649.46500000     
  -6497624681.2358294       -702731765.15241766        1237207093.3833518     
  -6240226108.0981894       -377790804.89791656        1053814651.6234832     
  -6013414786.7813349       -154807350.71270156        908348173.26677120     
  -5817190717.2852650       -33781402.596768141        800807658.31321502     
  -5651553899.6099796       -14712960.550119162        731193106.76281321     
  -7190137019.1137581       -480067087.19285655        990297873.10458636     
  -6901663027.8076763       -305533595.07073212        846645940.49598634     
  -6625786587.3323736       -172991939.05119300        723681628.02896333     
  -6362507697.6878433       -82442119.134238243        621404935.70351791     
  -6111826358.8740883       -33884135.319862843        539815863.51965010     
  -7672504169.3855896       -194358852.95146656        671460009.20360661     
  -7402207169.2298660       -185008551.75736046        588536570.23461926     
  -7126518018.9149055       -157684416.69913530        509062408.14563137     
  -6845436718.4407110       -112386447.77679396        433037522.93664277     
  -6558963267.8072805       -49114644.990330696        360461914.60765189     
  -7944726132.0513287        154392937.57175255        280693501.68041104     
  -7741858532.3647528       -16215674.957794666        279486540.83938199     
  -7515609081.5289335       -108884783.65652418        264490513.61677444     
  -7265977779.5438681       -123614388.52443504        235705420.01258904     
  -6992964626.4095573       -60404489.561523438        193131260.02682233     
  -8006802907.1109686        566188284.37679911       -182001649.46500000     
  -7920617117.2123394        200845035.32795858       -80504147.689724192     
  -7793059775.1744537       -26593039.923361301       -10034055.557605008     
  -7624130880.9973183       -116125941.37716961        29408626.931357011     
  -7413830434.6809196       -67753669.033444881        37823899.777159907     
  -5651553899.6099796       -14712960.550119162        731193106.76281321     
  -5522163349.9705315       -46438315.273090601        715219367.87790787     
  -5388506372.4831762       -63942243.836383820        703724517.79769802     
  -5250582967.1479187       -67224746.239995956        696708556.52218270     
  -5108393133.9647579       -56285822.483932734        694171484.05136323     
  -6111826358.8740883       -33884135.319862843        539815863.51965010     
  -5962612124.2357988       -34677707.865534306        530579816.74108803     
  -5813269410.2661228       -35043015.973259449        524975766.03910136     
  -5663798216.9650631       -34980059.643031120        523003711.41368896     
  -5514198544.3326197       -34488838.874855757        524663652.86485040     
  -6558963267.8072805       -49114644.990330696        360461914.60765189     
  -6392345041.6790705       -19702343.411379337        353135953.33283055     
  -6229736284.7359934       -3654939.1162104607        348595095.40646160     
  -6071136996.9780493       -972432.10481619835        346839340.82854563     
  -5916547178.4052429       -11654822.377211094        347868689.59908324     
  -6992964626.4095573       -60404489.561523438        193131260.02682233     
  -6811362102.3003426       -1512221.9106254578        182887777.65313500     
  -6637906995.8927832        30221986.734761715        174582505.89978033     
  -6472599307.1868734        34798136.374639988        168215444.76675418     
  -6315439036.1826191        12216227.009004354        163786594.25406048     
  -7413830434.6809196       -67753669.033444881        37823899.777159907     
  -7219663306.0996208        19892656.636727333        19835289.701999988     
  -7037781543.7364931        66587761.579655170        2937997.5190501851     
  -6868185147.5915356        72331645.795357704       -12867976.771684736     
  -6710874117.6647530        37124309.283803463       -27582633.170217466     
  -5108393133.9647579       -56285822.483932734        694171484.05136323     
  -4926430902.7148104       -28708966.266125441        681947074.72284532     
  -4745632101.7028456       -5010210.8415951729        666611551.70831561     
  -4565996730.9288664        14810443.789644480        648164915.00777102     
  -4387524790.3928738        30752997.627602100        626607164.62121212     
  -5514198544.3326197       -34488838.874855757        524663652.86485040     
  -5343136233.0679655       -25930159.110165119        514635153.60924947     
  -5171128554.4928198       -14220254.977167606        503722024.15554160     
  -4998175508.6071777        640873.52416229248        491924264.50372207     
  -4824277095.4110355        18653226.393805742        479241874.65379536     
  -5916547178.4052429       -11654822.377211094        347868689.59908324     
  -5750023405.7318716       -20205904.647435904        342496364.22296125     
  -5580445468.1995268       -18576437.387748241        338465892.13663578     
  -5407813365.8082047       -6766420.5981314182        335777273.34010351     
  -5232127098.5579071        15224145.721399784        334430507.83336931     
  -6315439036.1826191        12216227.009004354        163786594.25406048     
  -6147092420.7065220       -11536202.877932787        165530706.56397986     
  -5973582842.8229675       -18078758.073353052        170843155.65159875     
  -5794910302.5319567       -7411438.5772480965        179723941.51691464     
  -5611074799.8334875        20465755.610375166        192173064.15993044     
  -6710874117.6647530        37124309.283803463       -27582633.170217466     
  -6534343277.9919147        78946.198357582092       -16261819.367694953     
  -6350540678.3631439       -12727217.033982754        853814.70042444894     
  -6159466318.7784262       -1294180.4131712914        23764269.034146827     
  -5961120199.2377787        34378056.060750246        52469543.633480825     
  -4387524790.3928738        30752997.627602100        626607164.62121212     
  -4291621483.9163203        21526833.108674765        590521423.39594746     
  -4194817249.2714949        15303762.483989716        558852356.00649393     
  -4097112086.4583826        12083785.753593683        531599962.45285916     
  -3998505995.4769988        11866902.917436361        508764242.73503977     
  -4824277095.4110355        18653226.393805742        479241874.65379536     
  -4712567714.7571726        17632973.407052994        453817190.34699196     
  -4602051544.9920778        12635350.791066647        434240678.91026294     
  -4492728586.1157522        3660358.5458407402        420512340.34361011     
  -4384598838.1282034       -9292003.3286149502        412632174.64703375     
  -5232127098.5579071        15224145.721399784        334430507.83336931     
  -5100521646.4859858        23636803.439039946        317223718.21180350     
  -4972203544.3598833        21091628.003959656        307296600.49457449     
  -4847172792.1796007        7588619.4161546230        304649154.68168080     
  -4725429389.9451351       -16872222.324384451        309281380.77312875     
  -5611074799.8334875        20465755.610375166        192173064.15993044     
  -5455483279.1027718        39538323.204641581        180741006.99038273     
  -5305273247.3749142        40672594.122687578        178020120.75943109     
  -5160444704.6499233        23868568.364516258        184010405.46707764     
  -5020997650.9277954       -10873754.069862366        198711861.11332142     
  -5961120199.2377787        34378056.060750246        52469543.633480825     
  -5777452612.6075153        65337532.703847408        44369056.682727613     
  -5601260654.0371590        71378249.147262096        46411239.704831459     
  -5432544323.5267191        52500205.390952110        58596092.699794121     
  -5271303621.0761948        8703401.4349243641        80923615.667614162     
  -3998505995.4769988        11866902.917436361        508764242.73503977     
  -3818004543.4949899        30286503.159663439        475863844.16655022     
  -3642315311.0362968        32665371.657512188        471160113.35813755     
  -3471438298.1009154        19003508.410980940        494653050.30980092     
  -3305373504.6888533       -10699086.579945803        546342655.02154303     
  -4384598838.1282034       -9292003.3286149502        412632174.64703375     
  -4143791128.3856678        13891194.391707182        386500186.96545506     
  -3904208556.5005608        32990599.253940344        377461668.84464192     
  -3665851122.4728723        48006211.258110046        385516620.28459406     
  -3428718826.3026052        58938030.404204130        410665041.28531426     
  -4725429389.9451351       -16872222.324384451        309281380.77312875     
  -4456038845.8686743        1557545.8460452557        294102732.58866519     
  -4184286357.9837518        27860460.044704437        284914355.76565921     
  -3910171926.2903605        62036520.271589756        281716250.30411071     
  -3633695550.7884974        104085726.52670884        284508416.20402014     
  -5020997650.9277954       -10873754.069862366        198711861.11332142     
  -4754747695.9440184       -6714442.4773173332        198671481.03618181     
  -4482548715.4858761        17274954.029778004        193518174.12119505     
  -4204400709.5533729        61094435.451413631        183251940.36834863     
  -3920303678.1465054        124744001.78758717        167872779.77765527     
  -5271303621.0761948        8703401.4349243641        80923615.667614162     
  -5039917678.6116915       -10924770.578379154        100206432.30800703     
  -4798995629.0069284        1234081.2091732025        103273123.91124706     
  -4548537472.2619104        45179956.797578096        90123690.477309510     
  -4288543208.3766427        120912856.18681979        60758132.006223120     
  -3305373504.6888533       -10699086.579945803        546342655.02154303     
  -3180148990.5770712       -47434332.893829226        600231770.64906442     
  -3046670872.8977151       -56657567.315797448        587650660.49271607     
  -2904939151.6507869       -38368789.845855474        508599324.55249649     
  -2754953826.8362837        7431999.5159949064        363077762.82840526     
  -3428718826.3026052        58938030.404204130        410665041.28531426     
  -3449694206.5787668       -634424.80949330330        457051617.85199350     
  -3464876518.0695109       -40896650.738479614        462717088.11177373     
  -3474265760.7748384       -61848647.382727146        427661452.06465954     
  -3477861934.6947408       -63490414.742243290        351884709.71065539     
  -3633695550.7884974        104085726.52670884        284508416.20402014     
  -3727301912.6612353        43746736.250594378        320521829.79734129     
  -3817575740.5307169       -5483807.3479819298        341563256.56074017     
  -3904517034.3969321       -43605904.269015551        347632696.49422038     
  -3988125794.2598772       -70619554.512486696        338730149.59778398     
  -3920303678.1465054        124744001.78758717        167872779.77765527     
  -4012972108.8244801        85709150.286430836        190642406.48510575     
  -4104768540.2813330        49580962.855678320        224189165.83960891     
  -4195692972.5170817        16359439.495268106        268513057.84117323     
  -4285745405.5317154       -13955419.794746637        323614082.48979414     
  -4288543208.3766427        120912856.18681979        60758132.006223120     
  -4306704795.0684700        125252817.29808998        67413347.915288821     
  -4326454917.3213463        124297659.87254047        110594815.94839023     
  -4347793575.1352692        118047383.91016889        190302536.10551873     
  -4370720768.5102243        106501989.41101193        306536508.38668489     
  -2754953826.8362837        7431999.5159949064        363077762.82840526     
  -3061623709.6592288       -23099870.529452562        172364009.87778455     
  -3336549018.3240695        52183506.618777275        201744387.69415975     
  -3579729752.8308134        233282130.96068144        451218896.27752542     
  -3791165913.1794477        520196002.49626350        920787535.62788630     
  -3477861934.6947408       -63490414.742243290        351884709.71065539     
  -3273795288.4786377        20056455.807245016        222718652.07929733     
  -3060429540.5853944        134600331.94720864        240006853.57369173     
  -2837764691.0150032        280141213.67763734        403749314.19383305     
  -2605800739.7674923        456679100.99850225        713946033.93973255     
  -3988125794.2598772       -70619554.512486696        338730149.59778398     
  -3483722252.2654195        63886166.653738737        244925402.72456235     
  -2992465081.0747795        154570651.80722141        223935043.33585012     
  -2514354280.6879735        201433900.94794226        275759071.43164527     
  -2049389851.1049907        204475914.07590473        400397487.01195449     
  -4285745405.5317154       -13955419.794746637        323614082.48979414     
  -3691404601.0195794        108389262.01002526        238984261.81358734     
  -3132655639.7922492        112094466.19880247        153528956.98064083     
  -2609498521.8497052       -2839807.2283793688        67248167.990965217     
  -2121933247.1919527       -236413558.27154833       -19858105.155445091     
  -4370720768.5102243        106501989.41101193        306536508.38668489     
  -3896842334.7411327        153565741.87606645        204895229.34636307     
  -3481001216.7377853        7171775.1219651699        28788594.508061260     
  -3123197414.5001903       -332679910.85130990       -221783396.12822217     
  -2823430928.0283632       -865989316.04380286       -546820742.56246197     
 </DataArray>
 <DataArray  type="Float64" Name="VM" NumberOfComponents="1" format="ascii">
   12931101016.624792     
   11338819418.575350     
   10210296843.145437     
   9274892068.3540020     
   8308642668.6314297     
   10129115285.183657     
   9321328621.3008518     
   8825812197.8365345     
   8443139609.0567951     
   8035648177.3390770     
   7983038846.9573431     
   7734941279.8247766     
   7668256295.9525576     
   7667804234.4142065     
   7663668853.4609146     
   6492780113.2405815     
   6586916042.0433073     
   6756436598.7138891     
   6959209578.6714773     
   7168554452.2534351     
   5657885415.8964758     
   5890375070.1110544     
   6115514821.2544708     
   6330765048.4371786     
   6535794319.1765385     
   8308642668.6314297     
   8022148127.7744827     
   7777473675.9840879     
   7564160056.6772118     
   7377280446.1916819     
   8035648177.3390770     
   7746817097.5793409     
   7473742759.1525326     
   7214458640.3760986     
   6968917600.5710602     
   7663668853.4609146     
   7380067736.8916988     
   7101998198.0598316     
   6829517699.2605829     
   6562813590.8756599     
   7168554452.2534351     
   6909371628.6458397     
   6658075718.6185102     
   6410901268.8454218     
   6164754724.9204626     
   6535794319.1765385     
   6327122463.4101324     
   6140304346.2715845     
   5961716083.8265219     
   5782393124.5679035     
   7377280446.1916819     
   7227049424.6766577     
   7069258592.8762293     
   6903315610.4910583     
   6729120904.5075932     
   6968917600.5710602     
   6815993780.3858376     
   6658062289.0140400     
   6494834832.8881798     
   6326259644.4837837     
   6562813590.8756599     
   6410187438.0874653     
   6255401167.5020914     
   6098398721.4693708     
   5939201067.2499638     
   6164754724.9204626     
   6014479617.9627981     
   5865171619.5104265     
   5716877119.1829281     
   5569669064.5673857     
   5782393124.5679035     
   5635172698.2350569     
   5492346904.1267071     
   5353869995.2600307     
   5219798130.3223515     
   6729120904.5075932     
   6532041430.3262281     
   6339903304.6074085     
   6152781973.8809710     
   5971044317.6597452     
   6326259644.4837837     
   6145801092.7245827     
   5969230196.1683054     
   5796573821.3725367     
   5628010654.9635124     
   5939201067.2499638     
   5768462525.6529484     
   5600201580.8800297     
   5434440596.4620018     
   5271260935.3002319     
   5569669064.5673857     
   5402346392.9433708     
   5235682593.5413866     
   5069696294.6664076     
   4904420178.3481932     
   5219798130.3223515     
   5050465829.4124031     
   4879535237.4280825     
   4706960629.2727184     
   4532712035.3157587     
   5971044317.6597452     
   5805791943.2491560     
   5634686573.3915424     
   5457731878.3483515     
   5275380973.5229359     
   5628010654.9635124     
   5479513942.4475508     
   5327418522.6126337     
   5171773436.8759785     
   5012945209.8133144     
   5271260935.3002319     
   5140134912.2813711     
   5007779174.6976614     
   4874241061.1291103     
   4739787811.3327541     
   4904420178.3481932     
   4790317954.0006762     
   4677535237.8395214     
   4566049951.3209658     
   4456002181.1525221     
   4532712035.3157587     
   4433947992.0934801     
   4339362018.5321493     
   4248775386.1601958     
   4162161618.2897930     
   5275380973.5229359     
   5037907467.8145237     
   4808821503.3749790     
   4588802747.8934050     
   4380742028.6591568     
   5012945209.8133144     
   4742710361.9272690     
   4477325208.0644217     
   4217285972.2627354     
   3963876411.3098598     
   4739787811.3327541     
   4466922963.3426857     
   4197367112.9965224     
   3931399646.3279524     
   3669503979.3192778     
   4456002181.1525221     
   4211774356.5872426     
   3971632433.1175623     
   3736476510.0840831     
   3508206673.3951311     
   4162161618.2897930     
   3978582898.3050966     
   3802602286.6620865     
   3637169739.2882156     
   3488411615.7236118     
   4380742028.6591568     
   4377395638.3271399     
   4366375085.1365480     
   4353856878.7713547     
   4354422907.3788748     
   3963876411.3098598     
   4056429670.8438997     
   4150362753.4624815     
   4247843787.9099956     
   4352063255.9694118     
   3669503979.3192778     
   3774548805.1599360     
   3880193428.3525925     
   3985333775.0647330     
   4089499023.7398415     
   3508206673.3951311     
   3542412967.1173882     
   3562859102.9173265     
   3568439682.3948293     
   3565384773.3332510     
   3488411615.7236118     
   3371987819.8938837     
   3212451189.6831579     
   3008715698.1278825     
   2785839908.5300617     
   4354422907.3788748     
   3978745661.7574778     
   3570995235.9285111     
   3173760350.4137416     
   2899291298.2401891     
   4352063255.9694118     
   3802618909.3360462     
   3234780484.2228584     
   2650981806.9876223     
   2065188434.0660634     
   4089499023.7398415     
   3586536681.1510897     
   3083707029.3746066     
   2579091008.2821188     
   2097071828.2136362     
   3565384773.3332510     
   3330147438.6003251     
   3116239753.4478865     
   2948941617.3027911     
   2944792139.9857979     
   2785839908.5300617     
   3033328761.4014301     
   3334206856.1517110     
   3742979270.3284035     
   4425134576.7865486     
   5657885415.8964758     
   5890375070.1110544     
   6115514821.2544708     
   6330765048.4371786     
   6535794319.1765385     
   5150111256.6761103     
   5310450921.7968731     
   5467573009.7518206     
   5618530905.8847551     
   5761797319.7624865     
   4641496129.3736801     
   4754600012.4636993     
   4868852357.0729637     
   4981581127.7972088     
   5090827598.4624405     
   4132304208.8766770     
   4223669238.6055260     
   4320862609.4180889     
   4422189749.5058250     
   4526167360.9947014     
   3624049387.6137137     
   3719494769.8536901     
   3825983802.8277841     
   3943403134.0580068     
   4071612987.4034996     
   6535794319.1765385     
   6327122463.4101324     
   6140304346.2715845     
   5961716083.8265219     
   5782393124.5679035     
   5761797319.7624865     
   5650306634.0989962     
   5554647950.9256344     
   5465891790.6393785     
   5378485392.4675426     
   5090827598.4624405     
   5052082038.1425266     
   5023898400.4330978     
   5001111248.0583820     
   4980504689.9389696     
   4526167360.9947014     
   4537021459.5091991     
   4552909970.0510502     
   4571353143.0274038     
   4590622875.2995424     
   4071612987.4034996     
   4110423848.0316963     
   4147389223.4217520     
   4181610966.9747620     
   4212344844.1365404     
   5782393124.5679035     
   5635172698.2350569     
   5492346904.1267071     
   5353869995.2600307     
   5219798130.3223515     
   5378485392.4675426     
   5246282262.1121902     
   5117362670.7114611     
   4991751667.7014599     
   4869530138.9514141     
   4980504689.9389696     
   4864464433.7097883     
   4751197096.6717091     
   4640646244.5082998     
   4532836665.4688692     
   4590622875.2995424     
   4492499744.9769039     
   4397340694.1763945     
   4304823882.9127569     
   4214827555.2049465     
   4212344844.1365404     
   4134472994.0134025     
   4060610696.1383147     
   3989939688.2439566     
   3922083583.9542046     
   5219798130.3223515     
   5050465829.4124031     
   4879535237.4280825     
   4706960629.2727184     
   4532712035.3157587     
   4869530138.9514141     
   4699671001.9335098     
   4530583659.8210917     
   4362334726.7336388     
   4195006104.2624955     
   4532836665.4688692     
   4374267480.1298227     
   4219959164.1311789     
   4070302254.1172390     
   3925818475.3150892     
   4214827555.2049465     
   4078624427.8630047     
   3951355598.3782935     
   3833839725.9669704     
   3727214691.5051403     
   3922083583.9542046     
   3817853926.0856862     
   3728431637.3083582     
   3654957904.6603312     
   3599081232.6081228     
   4532712035.3157587     
   4433947992.0934801     
   4339362018.5321493     
   4248775386.1601958     
   4162161618.2897930     
   4195006104.2624955     
   4119638459.3383746     
   4047427501.2595663     
   3978411472.7778010     
   3912705833.6503086     
   3925818475.3150892     
   3871477845.1383910     
   3818716822.5916724     
   3767677085.6813941     
   3718533405.5755291     
   3727214691.5051403     
   3692859250.1762223     
   3657968200.3155665     
   3622639143.4468946     
   3586998349.8369927     
   3599081232.6081228     
   3584880656.7424989     
   3567624702.0556355     
   3547199466.1544662     
   3523560492.1873665     
   4162161618.2897930     
   3978582898.3050966     
   3802602286.6620865     
   3637169739.2882156     
   3488411615.7236118     
   3912705833.6503086     
   3786891227.5303392     
   3668445612.5459089     
   3558747963.8600354     
   3460149486.1581659     
   3718533405.5755291     
   3618476474.6908951     
   3520945574.4087629     
   3426165490.2465234     
   3334422916.2053661     
   3586998349.8369927     
   3481862580.6905293     
   3369395957.4353952     
   3249293862.9349809     
   3121449554.2310181     
   3523560492.1873665     
   3386663302.6909099     
   3227766580.4628630     
   3046115180.0249257     
   2842105598.7285938     
   3488411615.7236118     
   3371987819.8938837     
   3212451189.6831579     
   3008715698.1278825     
   2785839908.5300617     
   3460149486.1581659     
   3189470320.3555164     
   2901726743.7839646     
   2592849449.4880590     
   2263059053.6445141     
   3334422916.2053661     
   3027613376.7246981     
   2742571826.7956223     
   2486880246.4390998     
   2271087109.7348785     
   3121449554.2310181     
   2887938332.3224573     
   2721616266.1511416     
   2643119589.8457165     
   2681105541.4909277     
   2842105598.7285938     
   2771814583.9887214     
   2821804158.4052343     
   3013132641.6258659     
   3380686517.9700680     
   2785839908.5300617     
   3033328761.4014301     
   3334206856.1517110     
   3742979270.3284035     
   4425134576.7865486     
   2263059053.6445141     
   2892261811.3512664     
   3629475900.9167738     
   4441678889.3731489     
   5335027373.1750765     
   2271087109.7348785     
   2965189392.1171961     
   3725771561.9086089     
   4517433035.8017864     
   5325614572.8710327     
   2681105541.4909277     
   3232794212.6222849     
   3653468461.3830094     
   3997159573.6317782     
   4350279954.6887856     
   3380686517.9700680     
   3649359688.1145530     
   3501700639.5986724     
   2998795106.7069612     
   2433384550.8553972     
   3624049387.6137137     
   3719494769.8536901     
   3825983802.8277841     
   3943403134.0580068     
   4071612987.4034996     
   3138062135.8758011     
   3255691384.3305058     
   3382649562.4220686     
   3518439912.5836945     
   3662581105.4201760     
   2695385366.5476894     
   2830943028.1140027     
   2973856321.2520876     
   3123038988.7713046     
   3277576957.2634063     
   2299542421.6627498     
   2450043913.2598062     
   2605452262.6372495     
   2763869621.8254809     
   2923883099.4775462     
   1955814346.6485269     
   2119955142.1024270     
   2285777545.6397052     
   2450386330.3574734     
   2611865061.9374928     
   4071612987.4034996     
   4110423848.0316963     
   4147389223.4217520     
   4181610966.9747620     
   4212344844.1365404     
   3662581105.4201760     
   3701181320.6079865     
   3738873372.8648229     
   3774764776.4026160     
   3808111051.5000482     
   3277576957.2634063     
   3320959455.7010641     
   3364662843.4155097     
   3407858281.4846635     
   3449867645.0880251     
   2923883099.4775462     
   2977152046.8469057     
   3032261497.1647625     
   3088498485.0612416     
   3145309632.5705075     
   2611865061.9374928     
   2679796109.4429069     
   2751321873.5772405     
   2825878531.6835303     
   2903071081.0504484     
   4212344844.1365404     
   4134472994.0134025     
   4060610696.1383147     
   3989939688.2439566     
   3922083583.9542046     
   3808111051.5000482     
   3756606225.3225741     
   3709549264.7299137     
   3666487565.2417688     
   3627286686.6716371     
   3449867645.0880251     
   3422908842.1720991     
   3400733280.3087401     
   3383152037.6076078     
   3370169103.2967792     
   3145309632.5705075     
   3140927917.0061564     
   3141361099.6346998     
   3146576854.0335722     
   3156627414.4445577     
   2903071081.0504484     
   2918901810.7578907     
   2939069935.6459308     
   2963610452.1398444     
   2992572800.1754909     
   3922083583.9542046     
   3817853926.0856862     
   3728431637.3083582     
   3654957904.6603312     
   3599081232.6081228     
   3627286686.6716371     
   3554564350.5313725     
   3493355620.2946210     
   3444205218.5281916     
   3407888219.3665533     
   3370169103.2967792     
   3318373582.4548516     
   3273842535.5228534     
   3236774904.6237450     
   3207447738.4604859     
   3156627414.4445577     
   3116779096.9767709     
   3078851502.5250797     
   3042868028.3685708     
   3008872765.0442419     
   2992572800.1754909     
   2958307584.8735595     
   2919539192.2608337     
   2876161730.3316360     
   2828095810.6594934     
   3599081232.6081228     
   3584880656.7424989     
   3567624702.0556355     
   3547199466.1544662     
   3523560492.1873665     
   3407888219.3665533     
   3382449606.0187187     
   3356148156.8365049     
   3329020386.8400235     
   3301139640.4978480     
   3207447738.4604859     
   3172826946.9864702     
   3139877718.5963664     
   3108747081.1504674     
   3079605525.1827197     
   3008872765.0442419     
   2965761951.1051283     
   2927318589.9031124     
   2893732446.2993412     
   2865218007.8335395     
   2828095810.6594934     
   2775206798.9099293     
   2730560967.9236321     
   2694307066.9212937     
   2666625858.1791286     
   3523560492.1873665     
   3386663302.6909099     
   3227766580.4628630     
   3046115180.0249257     
   2842105598.7285938     
   3301139640.4978480     
   3136386459.6685033     
   2965671686.4076962     
   2788792745.0548444     
   2605879640.2410808     
   3079605525.1827197     
   2916054177.1934557     
   2765054905.5840492     
   2628243098.7374854     
   2507559857.1248622     
   2865218007.8335395     
   2726721413.4052377     
   2620082318.7054048     
   2548236368.5001411     
   2514389264.5332508     
   2666625858.1791286     
   2569006025.2005544     
   2522833038.5937901     
   2530623999.0501127     
   2595316413.7634559     
   2842105598.7285938     
   2771814583.9887214     
   2821804158.4052343     
   3013132641.6258659     
   3380686517.9700680     
   2605879640.2410808     
   2718909038.4034848     
   2910983741.9479718     
   3179963760.0328789     
   3529548951.7393298     
   2507559857.1248622     
   2696091384.7513609     
   2914023520.4412346     
   3157110590.6163096     
   3422159634.2184958     
   2514389264.5332508     
   2703760110.4460006     
   2849844944.7314787     
   2956831129.2494941     
   3030942186.6813579     
   2595316413.7634559     
   2741369443.7334290     
   2751877279.7128944     
   2633198010.4032655     
   2400663652.5456100     
   3380686517.9700680     
   3649359688.1145530     
   3501700639.5986724     
   2998795106.7069612     
   2433384550.8553972     
   3529548951.7393298     
   3278825044.1957159     
   2847705614.0502396     
   2209623004.5060167     
   1379227990.0252218     
   3422159634.2184958     
   2895468364.8915300     
   2440550680.1325159     
   2112497180.1127348     
   1987118113.4879968     
   3030942186.6813579     
   2500869679.0737195     
   2212121365.7866111     
   2264968028.3394394     
   2693251151.3926406     
   2400663652.5456100     
   2099569280.2736766     
   2143982710.1830387     
   2625372485.6377916     
   3619125036.5338240     
   1955814346.6485269     
   2119955142.1024270     
   2285777545.6397052     
   2450386330.3574734     
   2611865061.9374928     
   1654149225.1712368     
   1821163426.7105155     
   1990015274.7305019     
   2158053770.1922517     
   2323552018.6928720     
   1394184040.0433238     
   1572280452.5015373     
   1751329240.9539936     
   1929353817.4862914     
   2105123337.9060290     
   1207958982.9585302     
   1400565572.9080162     
   1592514237.8165441     
   1783037993.8355618     
   1971685312.1221406     
   1137582483.5712607     
   1336612234.2772861     
   1535515104.4637768     
   1734291030.4715960     
   1932939984.3502331     
   2611865061.9374928     
   2679796109.4429069     
   2751321873.5772405     
   2825878531.6835303     
   2903071081.0504484     
   2323552018.6928720     
   2409934398.6056910     
   2498337944.3931856     
   2588345971.8471785     
   2679664209.5167332     
   2105123337.9060290     
   2208176687.9547644     
   2311267807.5600696     
   2414149875.0890174     
   2516648759.2126365     
   1971685312.1221406     
   2088369322.5561028     
   2202914061.9028664     
   2315242004.5711012     
   2425298841.6319575     
   1932939984.3502331     
   2059070518.2981782     
   2181099603.0885606     
   2299027281.5404501     
   2412853612.4994659     
   2903071081.0504484     
   2918901810.7578907     
   2939069935.6459308     
   2963610452.1398444     
   2992572800.1754909     
   2679664209.5167332     
   2705177798.6915045     
   2734824720.5215864     
   2768624885.0631933     
   2806605547.5880713     
   2516648759.2126365     
   2549947067.3476591     
   2587039332.2908139     
   2627932407.2943115     
   2672636004.0784569     
   2425298841.6319575     
   2463779664.9812837     
   2505605927.4005227     
   2550778358.4823728     
   2599298249.5443263     
   2412853612.4994659     
   2453465433.2282653     
   2496915366.3935823     
   2543203538.4707479     
   2592330111.5237360     
   2992572800.1754909     
   2958307584.8735595     
   2919539192.2608337     
   2876161730.3316360     
   2828095810.6594934     
   2806605547.5880713     
   2779162256.8758330     
   2752988235.6174798     
   2728084404.7246137     
   2704466078.2827425     
   2672636004.0784569     
   2656023992.1087298     
   2646868184.0783825     
   2645246166.6824641     
   2651239169.2236004     
   2599298249.5443263     
   2593285998.6903410     
   2600958682.1497140     
   2622365281.9804688     
   2657551453.9930673     
   2592330111.5237360     
   2591817405.3002024     
   2611187164.9109068     
   2650442434.2843404     
   2709586935.6284456     
   2828095810.6594934     
   2775206798.9099293     
   2730560967.9236321     
   2694307066.9212937     
   2666625858.1791286     
   2704466078.2827425     
   2683109748.5449076     
   2670736233.0194869     
   2667464436.7835770     
   2673423176.0983143     
   2651239169.2236004     
   2660612393.5873804     
   2679324272.7357121     
   2707428191.9669113     
   2744977789.3447609     
   2657551453.9930673     
   2695036456.0575910     
   2741953887.4556127     
   2798312402.6685700     
   2864120810.3383679     
   2709586935.6284456     
   2771607315.9293628     
   2843143744.4538226     
   2924193065.7924252     
   3014751695.4543214     
   2666625858.1791286     
   2569006025.2005544     
   2522833038.5937901     
   2530623999.0501127     
   2595316413.7634559     
   2673423176.0983143     
   2619617249.5540094     
   2598172998.6595607     
   2609367300.5449009     
   2653628235.1639552     
   2744977789.3447609     
   2713368803.6067624     
   2693977946.9772677     
   2686765234.7224965     
   2691699168.9048877     
   2864120810.3383679     
   2844463258.5464873     
   2815357532.5829215     
   2776824397.6973138     
   2728888997.1660047     
   3014751695.4543214     
   3006587465.3125286     
   2966896630.7477131     
   2895681803.7982011     
   2792955750.6538944     
   2595316413.7634559     
   2741369443.7334290     
   2751877279.7128944     
   2633198010.4032655     
   2400663652.5456100     
   2653628235.1639552     
   2706636343.7719631     
   2684633944.6400638     
   2586031730.4400163     
   2410611332.6399827     
   2691699168.9048877     
   2704600105.9720750     
   2712562189.8929443     
   2715104084.0487876     
   2711982288.1222501     
   2728888997.1660047     
   2734265175.1965485     
   2798013660.1373897     
   2920232934.4376893     
   3100452420.1709452     
   2792955750.6538944     
   2793625699.7654443     
   2913745307.0618401     
   3154018517.3824644     
   3515402449.1906767     
   2400663652.5456100     
   2099569280.2736766     
   2143982710.1830387     
   2625372485.6377916     
   3619125036.5338240     
   2410611332.6399827     
   2416075675.0416303     
   2659943111.6102557     
   3123558826.3238540     
   3800684357.8434410     
   2711982288.1222501     
   2793137071.4603839     
   2984058042.1343317     
   3268174220.7897267     
   3627849839.4984255     
   3100452420.1709452     
   3190214105.6575904     
   3163409325.7839923     
   3048619521.3556514     
   2917757205.7631044     
   3515402449.1906767     
   3584762101.2729383     
   3292626534.1054444     
   2712996047.2057872     
   2139445940.5530417     
   1137582483.5712607     
   1336612234.2772861     
   1535515104.4637768     
   1734291030.4715960     
   1932939984.3502331     
   1206912535.2523317     
   1399450857.7286766     
   1591320814.9918108     
   1781750810.0858779     
   1970287323.1347497     
   1392557715.5484843     
   1570452695.4231093     
   1749287396.6772904     
   1927072076.2765713     
   2102568202.3406692     
   1652391677.4893837     
   1819078700.6987553     
   1987579398.6274774     
   2155225181.6078477     
   2320276930.1884871     
   1954239362.2313478     
   2117980211.2338326     
   2283357577.5439892     
   2447458004.7588124     
   2608350599.7177792     
   1932939984.3502331     
   2059070518.2981782     
   2181099603.0885606     
   2299027281.5404501     
   2412853612.4994659     
   1970287323.1347497     
   2086624573.3963859     
   2200781578.4906716     
   2312680617.2175355     
   2422267864.9718781     
   2102568202.3406692     
   2205088990.6003976     
   2307572959.0130343     
   2409775831.4108791     
   2511524775.4455676     
   2320276930.1884871     
   2406120707.9362092     
   2493885330.3667159     
   2583161444.3381519     
   2673656950.1467338     
   2608350599.7177792     
   2675911614.0488091     
   2746950355.6101294     
   2820916529.8062658     
   2897418311.9285445     
   2412853612.4994659     
   2453465433.2282653     
   2496915366.3935823     
   2543203538.4707479     
   2592330111.5237360     
   2422267864.9718781     
   2459410077.9354901     
   2499631276.8132391     
   2542931336.9255729     
   2589311594.3338799     
   2511524775.4455676     
   2542442417.8552575     
   2576622175.4299450     
   2614064429.6081338     
   2654774563.1756620     
   2673656950.1467338     
   2696285262.2458782     
   2722257255.8305869     
   2751573317.4331546     
   2784244566.4614596     
   2897418311.9285445     
   2910522299.0276608     
   2926936851.5233250     
   2946656855.6627126     
   2969695523.5304523     
   2592330111.5237360     
   2591817405.3002024     
   2611187164.9109068     
   2650442434.2843404     
   2709586935.6284456     
   2589311594.3338799     
   2580547715.0766587     
   2585057088.7196832     
   2602892746.2395277     
   2634102389.9532189     
   2654774563.1756620     
   2634472157.3184977     
   2620885303.6654530     
   2614099449.6684127     
   2614196296.0438776     
   2784244566.4614596     
   2754226441.2406640     
   2724560853.6114779     
   2695271240.6643834     
   2666382536.4050236     
   2969695523.5304523     
   2936070325.8909230     
   2897078528.0896721     
   2852688077.6066413     
   2802887188.7930260     
   2709586935.6284456     
   2771607315.9293628     
   2843143744.4538226     
   2924193065.7924252     
   3014751695.4543214     
   2634102389.9532189     
   2663708881.3446436     
   2700462134.4424248     
   2744379870.4383111     
   2795480635.8472562     
   2614196296.0438776     
   2608408803.9134355     
   2607095952.2042799     
   2610292329.4272747     
   2618048384.6660433     
   2666382536.4050236     
   2625589336.2637606     
   2586279302.4622769     
   2548430886.1846704     
   2512058361.8553357     
   2802887188.7930260     
   2731900626.6936607     
   2659656108.1355133     
   2586032064.9648118     
   2510950409.0036693     
   3014751695.4543214     
   3006587465.3125286     
   2966896630.7477131     
   2895681803.7982011     
   2792955750.6538944     
   2795480635.8472562     
   2766935655.4336638     
   2732400905.4682751     
   2691928428.5847249     
   2645595153.2382922     
   2618048384.6660433     
   2571793582.5751271     
   2543954900.1395297     
   2534324021.5241728     
   2542687215.7530112     
   2512058361.8553357     
   2438735633.7226396     
   2405429107.8573236     
   2411994199.5144844     
   2458583277.2040038     
   2510950409.0036693     
   2385635019.7708669     
   2318954740.4029379     
   2313512255.7578125     
   2373096328.5285807     
   2792955750.6538944     
   2793625699.7654443     
   2913745307.0618401     
   3154018517.3824644     
   3515402449.1906767     
   2645595153.2382922     
   2674617428.3153152     
   2767019646.8928204     
   2923283521.9867678     
   3143292246.7532315     
   2542687215.7530112     
   2587924888.4657798     
   2639853032.3932371     
   2697975147.9650626     
   2761944990.8509789     
   2458583277.2040038     
   2537464141.8148422     
   2558390551.3941259     
   2518927061.4406300     
   2417943376.3837752     
   2373096328.5285807     
   2526018477.6756973     
   2560835864.0086327     
   2479832568.3943963     
   2290480198.0758548     
   3515402449.1906767     
   3584762101.2729383     
   3292626534.1054444     
   2712996047.2057872     
   2139445940.5530417     
   3143292246.7532315     
   3009082930.4945683     
   2761788117.3220658     
   2462240573.8831830     
   2260843345.3650351     
   2761944990.8509789     
   2527587337.6559887     
   2436347965.3675041     
   2498209601.0033088     
   2699433096.5588245     
   2417943376.3837752     
   2159673237.8912983     
   2192344096.3583097     
   2469122481.6513376     
   2944225350.3283315     
   2290480198.0758548     
   1926265949.8131928     
   1972915670.7159278     
   2466297651.6360826     
   3428822894.8712273     
   1954239362.2313478     
   2117980211.2338326     
   2283357577.5439892     
   2447458004.7588124     
   2608350599.7177792     
   2298293932.7319837     
   2448446462.2062812     
   2603460367.9910202     
   2761426905.8985567     
   2920924440.8179522     
   2694483331.5157986     
   2829772887.8960700     
   2972376401.0861168     
   3121200886.4108381     
   3275326896.3121209     
   3137500992.7013798     
   3254952740.2970886     
   3381699311.5414743     
   3517239567.4545169     
   3661088584.7904730     
   3623811942.6380515     
   3719168490.7167959     
   3825544913.0841169     
   3942825206.1831145     
   4070867127.9184017     
   2608350599.7177792     
   2675911614.0488091     
   2746950355.6101294     
   2820916529.8062658     
   2897418311.9285445     
   2920924440.8179522     
   2974245886.9594765     
   3029338232.6369143     
   3085501890.9159255     
   3142189256.6241484     
   3275326896.3121209     
   3319095749.7669334     
   3363157246.3290381     
   3406694630.7780294     
   3449036785.3587108     
   3661088584.7904730     
   3700315212.5686154     
   3738638190.9991803     
   3775174085.9846487     
   3809184411.7832336     
   4070867127.9184017     
   4110451009.9237518     
   4148217689.4621511     
   4183273131.0992260     
   4214875558.7018256     
   2897418311.9285445     
   2910522299.0276608     
   2926936851.5233250     
   2946656855.6627126     
   2969695523.5304523     
   3142189256.6241484     
   3136317168.0804625     
   3134651642.1092038     
   3137118033.6171603     
   3143730140.6610022     
   3449036785.3587108     
   3421598622.8902874     
   3398721590.9024105     
   3380178277.3787432     
   3365937044.9178295     
   3809184411.7832336     
   3757743644.9273562     
   3710868482.8058729     
   3668076487.5088816     
   3629206291.1577244     
   4214875558.7018256     
   4136998359.6055937     
   4063530870.1804461     
   3993633494.9922309     
   3926913008.9825177     
   2969695523.5304523     
   2936070325.8909230     
   2897078528.0896721     
   2852688077.6066413     
   2802887188.7930260     
   3143730140.6610022     
   3110789906.2052999     
   3079435674.0263815     
   3049695231.9869485     
   3021598459.3025498     
   3365937044.9178295     
   3324663039.2782135     
   3290634775.7607198     
   3264065126.1518970     
   3245229950.6294789     
   3629206291.1577244     
   3568106750.3836150     
   3518676905.8795495     
   3481565737.9269757     
   3457656693.5194435     
   3926913008.9825177     
   3833204903.5190554     
   3754525695.0963950     
   3692267096.7429724     
   3648373876.9247127     
   2802887188.7930260     
   2731900626.6936607     
   2659656108.1355133     
   2586032064.9648118     
   2510950409.0036693     
   3021598459.3025498     
   2971928238.5100255     
   2922342060.0782533     
   2872823227.2791562     
   2823395232.0637927     
   3245229950.6294789     
   3212065839.4701357     
   3180419872.5501699     
   3150397140.7765036     
   3122138448.2527723     
   3457656693.5194435     
   3436090839.5314980     
   3417744739.6101179     
   3402879725.8881993     
   3391786699.9904585     
   3648373876.9247127     
   3633784277.0326996     
   3624518158.4147453     
   3621037944.5974097     
   3623824448.9095597     
   2510950409.0036693     
   2385635019.7708669     
   2318954740.4029379     
   2313512255.7578125     
   2373096328.5285807     
   2823395232.0637927     
   2673557748.1683898     
   2560300370.3068099     
   2487434790.0335827     
   2459321464.7886672     
   3122138448.2527723     
   2963131478.4358974     
   2820073358.7091141     
   2695175143.9704838     
   2590933634.2763233     
   3391786699.9904585     
   3248026255.4358540     
   3099363964.6610889     
   2945297912.8643699     
   2785481955.4250469     
   3623824448.9095597     
   3524239270.8177867     
   3399076690.3391342     
   3246010907.5176048     
   3063379592.1998854     
   2373096328.5285807     
   2526018477.6756973     
   2560835864.0086327     
   2479832568.3943963     
   2290480198.0758548     
   2459321464.7886672     
   2638247866.2748351     
   2770108972.3588781     
   2858410491.8454251     
   2907980789.3655000     
   2590933634.2763233     
   2759419585.8442674     
   2943209933.6872211     
   3140896565.1605129     
   3351474921.2590981     
   2785481955.4250469     
   2888335305.7264738     
   3055978445.2501831     
   3287161650.1788125     
   3583451057.1882582     
   3063379592.1998854     
   3024072887.7788711     
   3095961101.7098598     
   3290641390.2473907     
   3625390391.4089179     
   2290480198.0758548     
   1926265949.8131928     
   1972915670.7159278     
   2466297651.6360826     
   3428822894.8712273     
   2907980789.3655000     
   2421666356.9348330     
   2204365734.0228767     
   2347413735.7349534     
   2857303224.2917433     
   3351474921.2590981     
   2892305744.9998446     
   2519917734.0548654     
   2281584150.7338772     
   2227121610.7284184     
   3583451057.1882582     
   3324131549.6675153     
   2897489194.6076880     
   2286390728.8131452     
   1508465981.7336593     
   3625390391.4089179     
   3712548619.7896748     
   3431360046.8576694     
   2895955785.7401962     
   2506043577.0857124     
   3623811942.6380515     
   3719168490.7167959     
   3825544913.0841169     
   3942825206.1831145     
   4070867127.9184017     
   4132349598.4484434     
   4223708403.7307715     
   4320885157.4466238     
   4422187548.1443014     
   4526134702.2004080     
   4641768216.2871885     
   4754949035.7697639     
   4869280251.6829586     
   4982096737.5078316     
   5091446996.6487637     
   5150559310.8356943     
   5311059122.6664858     
   5468353117.5476570     
   5619504742.3175678     
   5762996933.0336552     
   5658462526.3951712     
   5891196051.5050592     
   6116597813.8218842     
   6332139530.2671251     
   6537500695.6917963     
   4070867127.9184017     
   4110451009.9237518     
   4148217689.4621511     
   4183273131.0992260     
   4214875558.7018256     
   4526134702.2004080     
   4537793985.7909107     
   4554499322.7387800     
   4573768878.7141457     
   4593874766.3194103     
   5091446996.6487637     
   5053421106.0442104     
   5025939852.9010525     
   5003830672.2737761     
   4983884568.6769371     
   5762996933.0336552     
   5652036801.5785894     
   5556859923.9264488     
   5468519766.2332973     
   5381477114.3690290     
   6537500695.6917963     
   6329077633.2939100     
   6142433647.4615765     
   5963909362.1271400     
   5784553305.1364861     
   4214875558.7018256     
   4136998359.6055937     
   4063530870.1804461     
   3993633494.9922309     
   3926913008.9825177     
   4593874766.3194103     
   4495205895.6209612     
   4399766463.4677534     
   4307226520.5965014     
   4217455355.9040837     
   4983884568.6769371     
   4867029137.8494167     
   4753119340.8185520     
   4642096851.9448061     
   4533983192.8127251     
   5381477114.3690290     
   5248491914.2013521     
   5118910275.4279261     
   4992754622.9215174     
   4870104795.6663971     
   5784553305.1364861     
   5636898158.6339445     
   5493743799.9331760     
   5355033145.7448502     
   5220817995.6444292     
   3926913008.9825177     
   3833204903.5190554     
   3754525695.0963950     
   3692267096.7429724     
   3648373876.9247127     
   4217455355.9040837     
   4088264703.1269093     
   3968058005.1191931     
   3857808426.3471451     
   3758853055.2255306     
   4533983192.8127251     
   4379652427.6409235     
   4229474737.2688575     
   4083905399.1203384     
   3943559794.2740602     
   4870104795.6663971     
   4702391911.7985945     
   4535236634.1857662     
   4368707463.5542040     
   4202898012.0564857     
   5220817995.6444292     
   5052154821.8100195     
   4881637574.8443241     
   4709195600.6484327     
   4534772176.0755539     
   3648373876.9247127     
   3633784277.0326996     
   3624518158.4147453     
   3621037944.5974097     
   3623824448.9095597     
   3758853055.2255306     
   3711674574.6100283     
   3668619052.2586493     
   3630057399.5727596     
   3596400846.4435639     
   3943559794.2740602     
   3869153443.2422981     
   3797895772.9719896     
   3729986797.2409482     
   3665673079.1343575     
   4202898012.0564857     
   4106889351.2020431     
   4013509359.9214654     
   3922769083.8780427     
   3834718440.2450132     
   4534772176.0755539     
   4422330837.8811283     
   4312524818.9686346     
   4205208395.7614236     
   4100263901.9666462     
   3623824448.9095597     
   3524239270.8177867     
   3399076690.3391342     
   3246010907.5176048     
   3063379592.1998854     
   3596400846.4435639     
   3509263186.5406399     
   3411620515.9796572     
   3302756301.0033622     
   3182128205.6517882     
   3665673079.1343575     
   3572348423.3865237     
   3479775815.3516941     
   3388161309.8845057     
   3297762980.9665599     
   3834718440.2450132     
   3711577892.7865820     
   3595086935.0128269     
   3486094830.1755438     
   3386186534.9392691     
   4100263901.9666462     
   3920848016.3922572     
   3748663894.2565613     
   3584865327.7762389     
   3433032899.4542074     
   3063379592.1998854     
   3024072887.7788711     
   3095961101.7098598     
   3290641390.2473907     
   3625390391.4089179     
   3182128205.6517882     
   3019844529.7388163     
   2918611686.6526523     
   2892249392.0154052     
   2957685334.8897829     
   3297762980.9665599     
   3069261589.8684044     
   2860292697.0746388     
   2676180831.0621567     
   2523595268.8275580     
   3386186534.9392691     
   3171544421.4501114     
   2944640098.9796801     
   2701772091.2710233     
   2440521526.2764168     
   3433032899.4542074     
   3323489718.3268032     
   3185717568.1406169     
   3017400281.3363876     
   2829448183.6050234     
   3625390391.4089179     
   3712548619.7896748     
   3431360046.8576694     
   2895955785.7401962     
   2506043577.0857124     
   2957685334.8897829     
   3252951126.2730598     
   3467472011.2931066     
   3694848572.3414764     
   4057233084.7773991     
   2523595268.8275580     
   2993232208.3465352     
   3571095819.1334395     
   4220896402.1806278     
   4922257033.1306849     
   2440521526.2764168     
   2940437471.2568130     
   3569033017.0565958     
   4256681553.7149563     
   4985966036.6375551     
   2829448183.6050234     
   3064715041.8866730     
   3381049791.3698649     
   3783486238.6435561     
   4377127056.9182606     
   5658462526.3951712     
   5891196051.5050592     
   6116597813.8218842     
   6332139530.2671251     
   6537500695.6917963     
   6493488800.2765169     
   6587972720.1946354     
   6757856693.7306452     
   6960993982.1017370     
   7170694266.1766605     
   7983934361.2265682     
   7736189088.3482618     
   7669874638.3277264     
   7669764302.7977648     
   7665928000.9149485     
   10130258203.409252     
   9322726914.1140938     
   8827506449.1441040     
   8445078217.3928413     
   8037753829.5134792     
   12932553588.974598     
   11340335780.535339     
   10211961684.824207     
   9276646610.3211269     
   8310366644.6932697     
   6537500695.6917963     
   6329077633.2939100     
   6142433647.4615765     
   5963909362.1271400     
   5784553305.1364861     
   7170694266.1766605     
   6911442791.1939220     
   6660023403.7582941     
   6412658931.4331369     
   6166253248.4306288     
   7665928000.9149485     
   7382178092.9306221     
   7103929632.1431274     
   6831241816.2708273     
   6564302599.6706276     
   8037753829.5134792     
   7748898967.0316572     
   7475812062.1750927     
   7216523078.6504793     
   6970989568.2458982     
   8310366644.6932697     
   8024136939.4972620     
   7779816755.3163443     
   7566907700.7132235     
   7380477626.9906931     
   5784553305.1364861     
   5636898158.6339445     
   5493743799.9331760     
   5355033145.7448502     
   5220817995.6444292     
   6166253248.4306288     
   6015955534.4056387     
   5866720840.5793905     
   5718593576.5790529     
   5571643618.1004906     
   6564302599.6706276     
   6411757492.4203558     
   6257109064.9540167     
   6100302795.6168194     
   5941359096.9019146     
   6970989568.2458982     
   6817968869.2528400     
   6659937728.3785276     
   6496604990.5050611     
   6327918175.6910505     
   7380477626.9906931     
   7229711790.2834196     
   7071312396.0353003     
   6904671098.4964046     
   6729682652.9004431     
   5220817995.6444292     
   5052154821.8100195     
   4881637574.8443241     
   4709195600.6484327     
   4534772176.0755539     
   5571643618.1004906     
   5404236933.1475201     
   5237217353.6178617     
   5070594686.0239830     
   4904386209.5347509     
   5941359096.9019146     
   5770520279.7415133     
   5601939788.3374691     
   5435636004.7364712     
   5271676366.1256094     
   6327918175.6910505     
   6148021263.1265717     
   5971899698.9245272     
   5799568415.6243944     
   5631181545.8045654     
   6729682652.9004431     
   6534443456.2354755     
   6344186816.8505573     
   6158956873.3553925     
   5979074072.4564333     
   4534772176.0755539     
   4422330837.8811283     
   4312524818.9686346     
   4205208395.7614236     
   4100263901.9666462     
   4904386209.5347509     
   4786392388.4152441     
   4669355577.8227539     
   4553192333.8844843     
   4437887734.0807467     
   5271676366.1256094     
   5141821900.3123636     
   5011129454.8096657     
   4879585877.5412292     
   4747336517.8252192     
   5631181545.8045654     
   5484301567.5218067     
   5334644430.9729471     
   5182230328.1010122     
   5027364892.9384298     
   5979074072.4564333     
   5810905094.9657707     
   5637861824.9236612     
   5459927132.9998646     
   5277522314.5890436     
   4100263901.9666462     
   3920848016.3922572     
   3748663894.2565613     
   3584865327.7762389     
   3433032899.4542074     
   4437887734.0807467     
   4204391427.1420341     
   3974942382.7929363     
   3750016248.6885514     
   3530949694.3603625     
   4747336517.8252192     
   4485834856.3653393     
   4227189757.2854619     
   3971644321.9431939     
   3719627421.1727395     
   5027364892.9384298     
   4763838402.8066578     
   4503701265.0577383     
   4247155184.9731150     
   3994736558.8329382     
   5277522314.5890436     
   5037455071.8244419     
   4802944819.0542288     
   4573959327.5751486     
   4351532767.7641068     
   3433032899.4542074     
   3323489718.3268032     
   3185717568.1406169     
   3017400281.3363876     
   2829448183.6050234     
   3530949694.3603625     
   3539052202.7728701     
   3536617209.6498642     
   3522520709.1612048     
   3500030331.2538896     
   3719627421.1727395     
   3790244497.2442236     
   3860437297.9795194     
   3929305310.8380122     
   3996587187.6051621     
   3994736558.8329382     
   4069922998.7393870     
   4147997560.7427092     
   4229544198.0085859     
   4315342081.6509314     
   4351532767.7641068     
   4372236847.1289186     
   4394101036.7963667     
   4420309376.0399055     
   4456672195.7042313     
   2829448183.6050234     
   3064715041.8866730     
   3381049791.3698649     
   3783486238.6435561     
   4377127056.9182606     
   3500030331.2538896     
   3306449663.4247847     
   3157386723.7953124     
   3068452853.1461444     
   3117358634.1668620     
   3996587187.6051621     
   3541599806.9095678     
   3097051393.9625802     
   2664049258.7074485     
   2267556938.0212598     
   4315342081.6509314     
   3769570958.7718706     
   3201244025.4526753     
   2610679427.9594193     
   2014453106.8533077     
   4456672195.7042313     
   3991657584.0174403     
   3484949384.5298986     
   2995592862.8557401     
   2678372165.3419642     
 </DataArray>
 <DataArray  type="Float64" Name="strain" NumberOfComponents="3" format="ascii">
  0.20340700023365219        0.0000000000000000       0.12538852385535160     
  0.18661739865778054       -2.7309054518865269E-002   7.4381755451645784E-002
  0.16982779708190887       -4.4655899508319573E-002   3.5167421851480973E-002
  0.15303819550603720       -5.2040534968362945E-002   7.7455230548572063E-003
  0.13624859393016553       -4.9462960898995323E-002  -7.8839409382256004E-003
  0.15983366171041097        0.0000000000000000        9.6449105666112839E-002
  0.15316245479330770       -2.1834386308049979E-002   6.2711894935246981E-002
  0.14649124787620443       -3.6160191042386373E-002   3.7419038718376881E-002
  0.13982004095910117       -4.2977414203009198E-002   2.0570537015502582E-002
  0.13314883404199787       -4.2286055789918453E-002   1.2166389826623991E-002
  0.12646852545322007        0.0000000000000000        7.4211169665538090E-002
  0.12656763290533996       -1.6359718097234674E-002   5.5289888651814785E-002
  0.12666674035745981       -2.7664482576453164E-002   4.1464881862541991E-002
  0.12676584780957970       -3.3914293437655466E-002   3.2736149297719772E-002
  0.12686495526169961       -3.5109150680841583E-002   2.9103690957348029E-002
  0.10331159146207947        0.0000000000000000        5.8674715853627310E-002
  0.10683293299387725       -1.0885049886419378E-002   5.2115736601349175E-002
  0.11035427452567503       -1.9168774110519954E-002   4.7304951283976347E-002
  0.11387561605747283       -2.4851172672301722E-002   4.4242359901508807E-002
  0.11739695758927060       -2.7932245571764689E-002   4.2927962453946561E-002
   9.0362859736989182E-002   0.0000000000000000        4.9839744230380525E-002
   9.3958355058919640E-002  -5.4103816756040819E-003   5.3189438783850199E-002
   9.7553850380850085E-002  -1.0673065644586744E-002   5.4939246982679907E-002
  0.10114934570278053       -1.5788051906947990E-002   5.5089168826869678E-002
  0.10474484102471099       -2.0755340462687809E-002   5.3639204316419491E-002
  0.13624859393016553       -4.9462960898995323E-002  -7.8839409382256004E-003
  0.13297937926400341       -4.2947766625334297E-002  -3.4967285366652653E-003
  0.12971016459784127       -3.8519541472497254E-002  -4.4629356040899390E-004
  0.12644094993167918       -3.6178285440484390E-002   1.2673639905434429E-003
  0.12317173526551700       -3.5923998529295426E-002   1.6442441161916566E-003
  0.13314883404199787       -4.2286055789918453E-002   1.2166389826623991E-002
  0.12891480414174816       -3.8430647300537912E-002   1.2107720256291105E-002
  0.12468077424149844       -3.5755720232291358E-002   1.1456197643087002E-002
  0.12044674434124872       -3.4261274585178830E-002   1.0211821987011750E-002
  0.11621271444099898       -3.3947310359200317E-002   8.3745932880651824E-003
  0.12686495526169961       -3.5109150680841583E-002   2.9103690957348029E-002
  0.12241003450979510       -3.3913527975741563E-002   2.5505627114811941E-002
  0.11795511375789061       -3.2991898992085461E-002   2.2058634611837429E-002
  0.11350019300598614       -3.2344263729873333E-002   1.8762713448424572E-002
  0.10904527225408166       -3.1970622189105138E-002   1.5617863624573493E-002
  0.11739695758927060       -2.7932245571764689E-002   4.2927962453946561E-002
  0.11346507036814417       -2.9396408650945182E-002   3.6696992038897272E-002
  0.10953318314701778       -3.0228077751879565E-002   3.1361017345842464E-002
  0.10560129592589139       -3.0427252874567812E-002   2.6920038374782164E-002
  0.10166940870476497       -2.9993934019009939E-002   2.3374055125716373E-002
  0.10474484102471099       -2.0755340462687809E-002   5.3639204316419491E-002
  0.10207991171679548       -2.4879289326148846E-002   4.5681815028547151E-002
   9.9414982408879971E-002  -2.7464256511673679E-002   3.9363345845102093E-002
   9.6750053100964462E-002  -2.8510242019262333E-002   3.4683796766084359E-002
   9.4085123793048953E-002  -2.8017245848914796E-002   3.1643167791493981E-002
  0.12317173526551700       -3.5923998529295426E-002   1.6442441161916566E-003
  0.12038527503413038       -3.6405850441000240E-002   8.8313734763056928E-004
  0.11759881480274370       -3.6273010877668536E-002   1.5750493971175561E-004
  0.11481235457135704       -3.5525479839300156E-002  -5.3265310756515222E-004
  0.11202589433997040       -3.4163257325895369E-002  -1.1873367941998558E-003
  0.11621271444099898       -3.3947310359200317E-002   8.3745932880651824E-003
  0.11348255118044537       -3.4018276905273259E-002   7.9385434433294211E-003
  0.11075238791989177       -3.3678623574315329E-002   7.5796131796178126E-003
  0.10802222465933814       -3.2928350366326645E-002   7.2978024969299581E-003
  0.10529206139878450       -3.1767457281307032E-002   7.0931113952663050E-003
  0.10904527225408166       -3.1970622189105138E-002   1.5617863624573493E-002
  0.10641305118474295       -3.1630703369546230E-002   1.5302799105657315E-002
  0.10378083011540418       -3.1084236270962236E-002   1.5106499388147104E-002
  0.10114860904606546       -3.0331220893353023E-002   1.5028964472042704E-002
   9.8516387976726766E-002  -2.9371657236718668E-002   1.5070194357344177E-002
  0.10166940870476497       -2.9993934019009939E-002   2.3374055125716373E-002
   9.9176775047022991E-002  -2.9243129833819253E-002   2.2975904334614224E-002
   9.6684141389281081E-002  -2.8489848967609116E-002   2.2738163565299802E-002
   9.4191507731539101E-002  -2.7734091420379456E-002   2.2660832817773088E-002
   9.1698874073797149E-002  -2.6975857192130318E-002   2.2743912092034160E-002
   9.4085123793048953E-002  -2.8017245848914796E-002   3.1643167791493981E-002
   9.1773722767285654E-002  -2.6855556298092248E-002   3.0957859130200140E-002
   8.9462321741522327E-002  -2.5895461664255943E-002   3.0474605711075700E-002
   8.7150920715759014E-002  -2.5136961947405875E-002   3.0193407534120975E-002
   8.4839519689995674E-002  -2.4580057147541995E-002   3.0114264599335860E-002
  0.11202589433997040       -3.4163257325895369E-002  -1.1873367941998558E-003
  0.10886238648117053       -3.2676482939268614E-002  -7.2269869503904793E-004
  0.10569887862237065       -3.1555296281235448E-002   2.4011177440830256E-005
  0.10253537076357078       -3.0799697351795195E-002   1.0527928232400979E-003
   9.9371862904770902E-002  -3.0409686150948190E-002   2.3636462423582416E-003
  0.10529206139878450       -3.1767457281307032E-002   7.0931113952663050E-003
  0.10235707900675287       -3.0534790059224048E-002   7.1460330412556894E-003
   9.9422096614721206E-002  -2.9569194440045285E-002   7.3739338474623495E-003
   9.6487114222689518E-002  -2.8870670423770933E-002   7.7768138138865142E-003
   9.3552131830657859E-002  -2.8439218010400502E-002   8.3546729405278852E-003
   9.8516387976726766E-002  -2.9371657236718668E-002   1.5070194357344177E-002
   9.5702838438361582E-002  -2.8393097179179261E-002   1.4809915675851229E-002
   9.2889288899996383E-002  -2.7583092598855281E-002   1.4617523541473700E-002
   9.0075739361631157E-002  -2.6941643495746445E-002   1.4493017954211634E-002
   8.7262189823266015E-002  -2.6468749869852926E-002   1.4436398914065451E-002
   9.1698874073797149E-002  -2.6975857192130318E-002   2.2743912092034160E-002
   8.8899664775996673E-002  -2.6251404299134640E-002   2.2268949208747463E-002
   8.6100455478196170E-002  -2.5596990757665281E-002   2.1754780259474811E-002
   8.3301246180395666E-002  -2.5012616567722058E-002   2.1201405244215779E-002
   8.0502036882595190E-002  -2.4498281729305293E-002   2.0608824162970725E-002
   8.4839519689995674E-002  -2.4580057147541995E-002   3.0114264599335860E-002
   8.1947558019658168E-002  -2.4109711419089963E-002   2.9523133639944743E-002
   7.9055596349320620E-002  -2.3610888916475135E-002   2.8785704001465781E-002
   7.6163634678983100E-002  -2.3083589639697720E-002   2.7901975683898683E-002
   7.3271673008645566E-002  -2.2527813588757661E-002   2.6871948687243741E-002
   9.9371862904770902E-002  -3.0409686150948190E-002   2.3636462423582416E-003
   9.6523828294574898E-002  -2.9981124579476437E-002   2.0260333756356164E-003
   9.3675793684378922E-002  -2.9109874538162078E-002   1.9954630910806181E-003
   9.0827759074182959E-002  -2.7795936027004649E-002   2.2719353886933580E-003
   8.7979724463986941E-002  -2.6039309046004488E-002   2.8554502684737804E-003
   9.3552131830657859E-002  -2.8439218010400502E-002   8.3546729405278852E-003
   9.1021796088038898E-002  -2.7979244576184448E-002   7.9409064831550413E-003
   8.8491460345419826E-002  -2.7195157497372086E-002   7.8554951787684901E-003
   8.5961124602800795E-002  -2.6086956773963686E-002   8.0984390273679541E-003
   8.3430788860181793E-002  -2.4654642405959160E-002   8.6697380289534887E-003
   8.7262189823266015E-002  -2.6468749869852926E-002   1.4436398914065451E-002
   8.5070865519042374E-002  -2.5977364572892292E-002   1.3827904040795702E-002
   8.2879541214818775E-002  -2.5280440456582357E-002   1.3569076891330620E-002
   8.0688216910595134E-002  -2.4377977520922887E-002   1.3659917465670073E-002
   7.8496892606371577E-002  -2.3269975765913831E-002   1.4100425763814400E-002
   8.0502036882595190E-002  -2.4498281729305293E-002   2.0608824162970725E-002
   7.8671036587585508E-002  -2.3975484569600303E-002   1.9687026048557342E-002
   7.6840036292575825E-002  -2.3365723415792440E-002   1.9136208228767323E-002
   7.5009035997566129E-002  -2.2668998267881893E-002   1.8956370703600282E-002
   7.3178035702556460E-002  -2.1885309125868613E-002   1.9147513473056536E-002
   7.3271673008645566E-002  -2.2527813588757661E-002   2.6871948687243741E-002
   7.1822309293668257E-002  -2.1973604566308175E-002   2.5518272506440121E-002
   7.0372945578690976E-002  -2.1451006375002676E-002   2.4556889191078277E-002
   6.8923581863713668E-002  -2.0960019014841066E-002   2.3987798741158167E-002
   6.7474218148736359E-002  -2.0500642485823284E-002   2.3811001156679279E-002
   8.7979724463986941E-002  -2.6039309046004488E-002   2.8554502684737804E-003
   8.4110793987260513E-002  -2.4423525703593241E-002   3.2981769162920282E-003
   8.0241863510533973E-002  -2.3532118108202688E-002   2.8371788119369579E-003
   7.6372933033807489E-002  -2.3365086259832697E-002   1.4724559554087635E-003
   7.2504002557081004E-002  -2.3922430158483055E-002  -7.9599165329247157E-004
   8.3430788860181793E-002  -2.4654642405959160E-002   8.6697380289534887E-003
   7.8932021730203916E-002  -2.3284853635151037E-002   8.4146218326838218E-003
   7.4433254600226040E-002  -2.2364229703331656E-002   7.8035570820847167E-003
   6.9934487470248205E-002  -2.1892770610501107E-002   6.8365437771562010E-003
   6.5435720340270287E-002  -2.1870476356659618E-002   5.5135819178979140E-003
   7.8496892606371577E-002  -2.3269975765913831E-002   1.4100425763814400E-002
   7.3916065020986021E-002  -2.2146181566708806E-002   1.3422677631488689E-002
   6.9335237435600439E-002  -2.1196341298460722E-002   1.2936757142677155E-002
   6.4754409850214897E-002  -2.0420454961169957E-002   1.2642664297379570E-002
   6.0173582264829356E-002  -1.9818522554836071E-002   1.2540399095595983E-002
   7.3178035702556460E-002  -2.1885309125868613E-002   1.9147513473056536E-002
   6.9062923859606801E-002  -2.1007509498266644E-002   1.8322344312706247E-002
   6.4947812016657155E-002  -2.0028452893590017E-002   1.8236778993713950E-002
   6.0832700173707593E-002  -1.8948139311838474E-002   1.8890817516079350E-002
   5.6717588330757900E-002  -1.7766568753012579E-002   2.0284459879802492E-002
   6.7474218148736359E-002  -2.0500642485823284E-002   2.3811001156679279E-002
   6.4372598246066254E-002  -1.9868837429824371E-002   2.3113621876336810E-002
   6.1270978343396162E-002  -1.8860564488718909E-002   2.3703622635195348E-002
   5.8169358440726092E-002  -1.7475823662507366E-002   2.5581003433255547E-002
   5.5067738538055966E-002  -1.5714614951189088E-002   2.8745764270516894E-002
   7.2504002557081004E-002  -2.3922430158483055E-002  -7.9599165329247157E-004
   7.2258243998892802E-002  -2.4593399927615056E-002  -1.2415500503775156E-003
   7.2012485440704599E-002  -2.4767245690690082E-002   9.6741424859930758E-004
   7.1766726882516368E-002  -2.4443967447707736E-002   5.8309012436370544E-003
   7.1520968324328194E-002  -2.3623565198667706E-002   1.3348910934737002E-002
   6.5435720340270287E-002  -2.1870476356659618E-002   5.5135819178979140E-003
   6.7033594705509236E-002  -2.2001483289292634E-002   6.3831211255961917E-003
   6.8631469070748102E-002  -2.1989927755885985E-002   8.2854034840873225E-003
   7.0229343435986982E-002  -2.1835809756439908E-002   1.1220428993370946E-002
   7.1827217801225918E-002  -2.1539129290954251E-002   1.5188197653447366E-002
   6.0173582264829356E-002  -1.9818522554836071E-002   1.2540399095595983E-002
   6.1993310008226332E-002  -1.9409566650969906E-002   1.4370474368060243E-002
   6.3813037751623322E-002  -1.9212609821082013E-002   1.5611513246048370E-002
   6.5632765495020284E-002  -1.9227652065172306E-002   1.6263515729559676E-002
   6.7452493238417288E-002  -1.9454693383240740E-002   1.6326481818595057E-002
   5.6717588330757900E-002  -1.7766568753012579E-002   2.0284459879802492E-002
   5.7137389907044034E-002  -1.6817650012647276E-002   2.2720509677014611E-002
   5.7557191483330147E-002  -1.6435291886278090E-002   2.2945743534481599E-002
   5.7976993059616254E-002  -1.6619494373904704E-002   2.0960161452203169E-002
   5.8396794635902444E-002  -1.7370257475527479E-002   1.6763763430179372E-002
   5.5067738538055966E-002  -1.5714614951189088E-002   2.8745764270516894E-002
   5.2465834401962341E-002  -1.4225733374324617E-002   3.1433227052459323E-002
   4.9863930265868661E-002  -1.3657973951473987E-002   3.0288094349387534E-002
   4.7262026129775023E-002  -1.4011336682637220E-002   2.5310366161301279E-002
   4.4660121993681301E-002  -1.5285821567814051E-002   1.6500042488200750E-002
   7.1520968324328194E-002  -2.3623565198667706E-002   1.3348910934737002E-002
   6.5215814184214627E-002  -2.2114585807326059E-002   1.2096622953791658E-002
   5.8910660044101004E-002  -1.9725576137438000E-002   5.7345427497628720E-003
   5.2605505903987493E-002  -1.6456536189003675E-002  -5.7373296773489124E-003
   4.6300351763873815E-002  -1.2307465962023034E-002  -2.2318994327545028E-002
   7.1827217801225918E-002  -2.1539129290954251E-002   1.5188197653447366E-002
   6.2408522984089332E-002  -2.0611044310622217E-002   1.2251325599956397E-002
   5.2989828166952635E-002  -1.8562712766638151E-002   8.1971644155029444E-003
   4.3571133349816049E-002  -1.5394134659000920E-002   3.0257141000867849E-003
   3.4152438532679463E-002  -1.1105309987711198E-002  -3.2630253462913039E-003
   6.7452493238417288E-002  -1.9454693383240740E-002   1.6326481818595057E-002
   5.8912760836378947E-002  -1.9107502813918986E-002   1.1945241977664306E-002
   5.0373028434340605E-002  -1.7399849395837844E-002   1.0439216097892376E-002
   4.1833296032302264E-002  -1.4331733128998051E-002   1.1808404179279010E-002
   3.3293563630263867E-002  -9.9031540133991403E-003   1.6052806221824700E-002
   5.8396794635902444E-002  -1.7370257475527479E-002   1.6763763430179372E-002
   5.4728527741083617E-002  -1.7603961317215450E-002   1.1178372086915238E-002
   5.1060260846264846E-002  -1.6236986025037987E-002   1.2460697796931066E-002
   4.7391993951446006E-002  -1.3269331598995350E-002   2.0610740560227291E-002
   4.3723727056627207E-002  -8.7009980390869712E-003   3.5628500376803901E-002
   4.4660121993681301E-002  -1.5285821567814051E-002   1.6500042488200750E-002
   4.9855823698203378E-002  -1.6100419820512080E-002   9.9507159277096302E-003
   5.5051525402725399E-002  -1.5074122654238228E-002   1.4261609512619927E-002
   6.0247227107247475E-002  -1.2206930068992396E-002   2.9432723242931599E-002
   6.5442928811769496E-002  -7.4988420647750242E-003   5.5464057118644883E-002
   9.0362859736989182E-002   0.0000000000000000        4.9839744230380525E-002
   9.3958355058919640E-002  -5.4103816756040819E-003   5.3189438783850199E-002
   9.7553850380850085E-002  -1.0673065644586744E-002   5.4939246982679907E-002
  0.10114934570278053       -1.5788051906947990E-002   5.5089168826869678E-002
  0.10474484102471099       -2.0755340462687809E-002   5.3639204316419491E-002
   8.2402773158354550E-002   0.0000000000000000        4.4779243513645123E-002
   8.4623285960629749E-002  -4.5775651613441798E-003   4.8255984525483075E-002
   8.6843798762904947E-002  -9.0367188362646764E-003   5.0582646852650487E-002
   8.9064311565180160E-002  -1.3377461024761483E-002   5.1759230495147364E-002
   9.1284824367455358E-002  -1.7599791726834603E-002   5.1785735452973630E-002
   7.4211774606580974E-002   0.0000000000000000        4.0566202421268481E-002
   7.5507112559170322E-002  -3.7447486470842803E-003   4.4140703671277016E-002
   7.6802450511759657E-002  -7.4003720279426071E-003   4.7014933906584386E-002
   7.8097788464348991E-002  -1.0966870142574981E-002   4.9188893127190589E-002
   7.9393126416938353E-002  -1.4444242990981401E-002   5.0662581333095640E-002
   6.5789864081668453E-002   0.0000000000000000        3.7200620953250607E-002
   6.6609834854541333E-002  -2.9119321328243790E-003   4.0843596221231987E-002
   6.7429805627414199E-002  -5.7640252196205395E-003   4.4236108144481583E-002
   6.8249776400287065E-002  -8.5562792603884781E-003   4.7378156722999422E-002
   6.9069747173159932E-002  -1.1288694255128193E-002   5.0269741956785456E-002
   5.7137041583617001E-002   0.0000000000000000        3.4682499109591494E-002
   5.7931452846742795E-002  -2.0791156185644795E-003   3.8364662175347980E-002
   5.8725864109868589E-002  -4.1276784112984719E-003   4.2246169566342091E-002
   5.9520275372994383E-002  -6.1456883782019765E-003   4.6327021282573815E-002
   6.0314686636120163E-002  -8.1331455192749907E-003   5.0607217324043108E-002
  0.10474484102471099       -2.0755340462687809E-002   5.3639204316419491E-002
  0.10207991171679548       -2.4879289326148846E-002   4.5681815028547151E-002
   9.9414982408879971E-002  -2.7464256511673679E-002   3.9363345845102093E-002
   9.6750053100964462E-002  -2.8510242019262333E-002   3.4683796766084359E-002
   9.4085123793048953E-002  -2.8017245848914796E-002   3.1643167791493981E-002
   9.1284824367455358E-002  -1.7599791726834603E-002   5.1785735452973630E-002
   9.0032498880134523E-002  -2.1161086543443394E-002   4.6541669569227860E-002
   8.8780173392813688E-002  -2.3518721075547141E-002   4.2483891222244143E-002
   8.7527847905492867E-002  -2.4672695323145932E-002   3.9612400412022450E-002
   8.6275522418172046E-002  -2.4623009286239665E-002   3.7927197138562768E-002
   7.9393126416938353E-002  -1.4444242990981401E-002   5.0662581333095640E-002
   7.9100772182546922E-002  -1.7442883760737923E-002   4.7796517460045235E-002
   7.8808417948155504E-002  -1.9573185639420638E-002   4.5664108556091654E-002
   7.8516063713764073E-002  -2.0835148627029509E-002   4.4265354621234813E-002
   7.8223709479372683E-002  -2.1228772723564576E-002   4.3600255655474700E-002
   6.9069747173159932E-002  -1.1288694255128193E-002   5.0269741956785456E-002
   6.9284731624032647E-002  -1.3724680978032474E-002   4.9446358700999275E-002
   6.9499716074905363E-002  -1.5627650203294114E-002   4.8903997846644655E-002
   6.9714700525778064E-002  -1.6997601930913115E-002   4.8642659393721463E-002
   6.9929684976650780E-002  -1.7834536160889460E-002   4.8662343342229797E-002
   6.0314686636120163E-002  -8.1331455192749907E-003   5.0607217324043108E-002
   6.0584377204591734E-002  -1.0006478195327007E-002   5.1491193292089982E-002
   6.0854067773063313E-002  -1.1682114767167608E-002   5.2203559093903090E-002
   6.1123758341534870E-002  -1.3160055234796691E-002   5.2744314729482385E-002
   6.1393448910006448E-002  -1.4440299598214371E-002   5.3113460198827955E-002
   9.4085123793048953E-002  -2.8017245848914796E-002   3.1643167791493981E-002
   9.1773722767285654E-002  -2.6855556298092248E-002   3.0957859130200140E-002
   8.9462321741522327E-002  -2.5895461664255943E-002   3.0474605711075700E-002
   8.7150920715759014E-002  -2.5136961947405875E-002   3.0193407534120975E-002
   8.4839519689995674E-002  -2.4580057147541995E-002   3.0114264599335860E-002
   8.6275522418172046E-002  -2.4623009286239665E-002   3.7927197138562768E-002
   8.4181537083231894E-002  -2.3999481119586483E-002   3.6886251891001351E-002
   8.2087551748291770E-002  -2.3431928977944404E-002   3.6078082782916666E-002
   7.9993566413351633E-002  -2.2920352861313473E-002   3.5502689814308798E-002
   7.7899581078411509E-002  -2.2464752769693647E-002   3.5160072985177676E-002
   7.8223709479372683E-002  -2.1228772723564576E-002   4.3600255655474700E-002
   7.6377860732562891E-002  -2.1143405941080731E-002   4.2349292713620833E-002
   7.4532011985753141E-002  -2.0968396291632916E-002   4.1361826808550980E-002
   7.2686163238943335E-002  -2.0703743775221099E-002   4.0637857940265004E-002
   7.0840314492133599E-002  -2.0349448391845340E-002   4.0177386108763140E-002
   6.9929684976650780E-002  -1.7834536160889460E-002   4.8662343342229797E-002
   6.8362693715278589E-002  -1.8287330762574987E-002   4.7346981598058592E-002
   6.6795702453906411E-002  -1.8504863605321387E-002   4.6325837787978483E-002
   6.5228711192534233E-002  -1.8487134689128746E-002   4.5598911911989636E-002
   6.3661719931162056E-002  -1.8234144013997040E-002   4.5166203970091939E-002
   6.1393448910006448E-002  -1.4440299598214371E-002   5.3113460198827955E-002
   6.0136036031379042E-002  -1.5431255584069208E-002   5.1879318544314476E-002
   5.8878623152751629E-002  -1.6041330919009864E-002   5.0970115721199367E-002
   5.7621210274124215E-002  -1.6270525603036337E-002   5.0385851729482650E-002
   5.6363797395496809E-002  -1.6118839636148685E-002   5.0126526569164331E-002
   8.4839519689995674E-002  -2.4580057147541995E-002   3.0114264599335860E-002
   8.1947558019658168E-002  -2.4109711419089963E-002   2.9523133639944743E-002
   7.9055596349320620E-002  -2.3610888916475135E-002   2.8785704001465781E-002
   7.6163634678983100E-002  -2.3083589639697720E-002   2.7901975683898683E-002
   7.3271673008645566E-002  -2.2527813588757661E-002   2.6871948687243741E-002
   7.7899581078411509E-002  -2.2464752769693647E-002   3.5160072985177676E-002
   7.4964635413809821E-002  -2.2027467499276192E-002   3.4576840314301145E-002
   7.2029689749208148E-002  -2.1570835846252245E-002   3.4053938333984443E-002
   6.9094744084606446E-002  -2.1094857810621911E-002   3.3591367044227285E-002
   6.6159798420004814E-002  -2.0599533392385128E-002   3.3189126445029832E-002
   7.0840314492133599E-002  -2.0349448391845340E-002   4.0177386108763140E-002
   6.8069014202915348E-002  -1.9945223579462462E-002   3.9592921334845099E-002
   6.5297713913697097E-002  -1.9530782776029387E-002   3.9275416621134290E-002
   6.2526413624478888E-002  -1.9106125981546079E-002   3.9224871967630651E-002
   5.9755113335260637E-002  -1.8671253196012566E-002   3.9441287374334347E-002
   6.3661719931162056E-002  -1.8234144013997040E-002   4.5166203970091939E-002
   6.1260694386974832E-002  -1.7862979659648767E-002   4.4571376701576140E-002
   5.8859668842787594E-002  -1.7490729705806486E-002   4.4450138862915115E-002
   5.6458643298600376E-002  -1.7117394152470312E-002   4.4802490454108897E-002
   5.4057617754413131E-002  -1.6742972999640032E-002   4.5628431475157549E-002
   5.6363797395496809E-002  -1.6118839636148685E-002   5.0126526569164331E-002
   5.4539675965988174E-002  -1.5780735739834975E-002   4.9512206414494567E-002
   5.2715554536479532E-002  -1.5450676635583652E-002   4.9578105059327082E-002
   5.0891433106970904E-002  -1.5128662323394427E-002   5.0324222503662031E-002
   4.9067311677462255E-002  -1.4814692803267471E-002   5.1750558747499315E-002
   7.3271673008645566E-002  -2.2527813588757661E-002   2.6871948687243741E-002
   7.1822309293668257E-002  -2.1973604566308175E-002   2.5518272506440121E-002
   7.0372945578690976E-002  -2.1451006375002676E-002   2.4556889191078277E-002
   6.8923581863713668E-002  -2.0960019014841066E-002   2.3987798741158167E-002
   6.7474218148736359E-002  -2.0500642485823284E-002   2.3811001156679279E-002
   6.6159798420004814E-002  -2.0599533392385128E-002   3.3189126445029832E-002
   6.5035962171387324E-002  -2.0089549216204705E-002   3.2465055520109393E-002
   6.3912125922769791E-002  -1.9569591906743664E-002   3.1999746662467007E-002
   6.2788289674152245E-002  -1.9039661464001791E-002   3.1793199872102676E-002
   6.1664453425534782E-002  -1.8499757887979307E-002   3.1845415149016260E-002
   5.9755113335260637E-002  -1.8671253196012566E-002   3.9441287374334347E-002
   5.8823273754839270E-002  -1.8205493866101249E-002   3.9388405669721863E-002
   5.7891434174417923E-002  -1.7688177438484630E-002   3.9460755234223661E-002
   5.6959594593996604E-002  -1.7119303913162659E-002   3.9658336067839695E-002
   5.6027755013575244E-002  -1.6498873290135385E-002   3.9981148170570247E-002
   5.4057617754413131E-002  -1.6742972999640032E-002   4.5628431475157549E-002
   5.3184244044024283E-002  -1.6321438515997828E-002   4.6288322955277461E-002
   5.2310870333635434E-002  -1.5806762970225662E-002   4.6939914906348107E-002
   5.1437496623246551E-002  -1.5198946362323482E-002   4.7583207328369397E-002
   5.0564122912857709E-002  -1.4497988692291408E-002   4.8218200221341392E-002
   4.9067311677462255E-002  -1.4814692803267471E-002   5.1750558747499315E-002
   4.8118873038942245E-002  -1.4437383165894324E-002   5.3164807376776368E-002
   4.7170434400422234E-002  -1.3925348501966597E-002   5.4437225678840379E-002
   4.6221995761902217E-002  -1.3278588811484224E-002   5.5567813653691511E-002
   4.5273557123382213E-002  -1.2497104094447431E-002   5.6556571301329572E-002
   6.7474218148736359E-002  -2.0500642485823284E-002   2.3811001156679279E-002
   6.4372598246066254E-002  -1.9868837429824371E-002   2.3113621876336810E-002
   6.1270978343396162E-002  -1.8860564488718909E-002   2.3703622635195348E-002
   5.8169358440726092E-002  -1.7475823662507366E-002   2.5581003433255547E-002
   5.5067738538055966E-002  -1.5714614951189088E-002   2.8745764270516894E-002
   6.1664453425534782E-002  -1.8499757887979307E-002   3.1845415149016260E-002
   5.9568055661674099E-002  -1.7849215576934432E-002   3.1332830390459018E-002
   5.7471657897813389E-002  -1.6987368929125168E-002   3.1543309870319086E-002
   5.5375260133952706E-002  -1.5914217944551834E-002   3.2476853588596588E-002
   5.3278862370091995E-002  -1.4629762623214304E-002   3.4133461545291649E-002
   5.6027755013575244E-002  -1.6498873290135385E-002   3.9981148170570247E-002
   5.4372263587739965E-002  -1.5829593724044466E-002   3.9488194385456116E-002
   5.2716772161904762E-002  -1.5114173369531435E-002   3.9153989037975380E-002
   5.1061280736069525E-002  -1.4352612226596525E-002   3.8978532128128129E-002
   4.9405789310234274E-002  -1.3544910295239465E-002   3.8961823655914371E-002
   5.0564122912857709E-002  -1.4497988692291408E-002   4.8218200221341392E-002
   4.8785222024263976E-002  -1.3809971871154431E-002   4.7579713861328143E-002
   4.7006321135670256E-002  -1.3240977809937698E-002   4.6535660138164466E-002
   4.5227420247076509E-002  -1.2791006508640981E-002   4.5086039051850234E-002
   4.3448519358482748E-002  -1.2460057967264654E-002   4.3230850602385712E-002
   4.5273557123382213E-002  -1.2497104094447431E-002   5.6556571301329572E-002
   4.2806930971246035E-002  -1.1790350018264534E-002   5.5607388818075087E-002
   4.0340304819109857E-002  -1.1367782250343919E-002   5.3688323170886315E-002
   3.7873678666973679E-002  -1.1229400790685729E-002   5.0799374359763130E-002
   3.5407052514837500E-002  -1.1375205639289843E-002   4.6940542384705297E-002
   5.5067738538055966E-002  -1.5714614951189088E-002   2.8745764270516894E-002
   5.2465834401962341E-002  -1.4225733374324617E-002   3.1433227052459323E-002
   4.9863930265868661E-002  -1.3657973951473987E-002   3.0288094349387534E-002
   4.7262026129775023E-002  -1.4011336682637220E-002   2.5310366161301279E-002
   4.4660121993681301E-002  -1.5285821567814051E-002   1.6500042488200750E-002
   5.3278862370091995E-002  -1.4629762623214304E-002   3.4133461545291649E-002
   4.7924112158892418E-002  -1.3485691135908279E-002   3.5109879765827773E-002
   4.2569361947692744E-002  -1.2833691653429763E-002   3.4413201321166417E-002
   3.7214611736493118E-002  -1.2673764175778875E-002   3.2043426211307409E-002
   3.1859861525293492E-002  -1.3005908702955316E-002   2.8000554436250769E-002
   4.9405789310234274E-002  -1.3544910295239465E-002   3.8961823655914371E-002
   4.3457691843745302E-002  -1.2745648897492010E-002   3.8656247464230950E-002
   3.7509594377256365E-002  -1.2009409355385713E-002   3.8837073427166559E-002
   3.1561496910767400E-002  -1.1336191668920697E-002   3.9504301544721079E-002
   2.5613399444278456E-002  -1.0725995838096664E-002   4.0657931816894657E-002
   4.3448519358482748E-002  -1.2460057967264654E-002   4.3230850602385712E-002
   3.9066573456521154E-002  -1.2005606659075706E-002   4.2072330147668799E-002
   3.4684627554559484E-002  -1.1185127057341603E-002   4.3559710667387501E-002
   3.0302681652597838E-002  -9.9986191620624922E-003   4.7692992161541908E-002
   2.5920735750636158E-002  -8.4460829732379700E-003   5.4472174630131848E-002
   3.5407052514837500E-002  -1.1375205639289843E-002   4.6940542384705297E-002
   3.4750756997219828E-002  -1.1265564420659430E-002   4.5358127816141125E-002
   3.4094461479602128E-002  -1.0360844759297466E-002   4.8581113041829604E-002
   3.3438165961984401E-002  -8.6610466552043755E-003   5.6609498061770014E-002
   3.2781870444366729E-002  -6.1661701083792764E-003   6.9443282875962908E-002
   4.4660121993681301E-002  -1.5285821567814051E-002   1.6500042488200750E-002
   4.9855823698203378E-002  -1.6100419820512080E-002   9.9507159277096302E-003
   5.5051525402725399E-002  -1.5074122654238228E-002   1.4261609512619927E-002
   6.0247227107247475E-002  -1.2206930068992396E-002   2.9432723242931599E-002
   6.5442928811769496E-002  -7.4988420647750242E-003   5.5464057118644883E-002
   3.1859861525293492E-002  -1.3005908702955316E-002   2.8000554436250769E-002
   4.4955763798315368E-002  -1.3174599655509406E-002   2.6374943972752890E-002
   5.8051666071337230E-002  -1.2524311453991480E-002   2.9689514500852970E-002
   7.1147568344359202E-002  -1.1055044098401082E-002   3.7944266020551204E-002
   8.4243470617380967E-002  -8.7667975887386618E-003   5.1139198531847785E-002
   2.5613399444278456E-002  -1.0725995838096664E-002   4.0657931816894657E-002
   4.0689463131996929E-002  -1.0248779490506926E-002   4.2934121185490268E-002
   5.5765526819715402E-002  -9.9745002537446267E-003   4.4230452391880608E-002
   7.0841590507433855E-002  -9.9031581278097146E-003   4.4546925436065851E-002
   8.5917654195152293E-002  -1.0034753112702188E-002   4.3883540318046421E-002
   2.5920735750636158E-002  -8.4460829732379700E-003   5.4472174630131848E-002
   3.7056921699247937E-002  -7.3229593255045716E-003   5.9628247565921361E-002
   4.8193107647859723E-002  -7.4246890534980479E-003   5.7884423185702485E-002
   5.9329293596471634E-002  -8.7512721572183191E-003   4.9240701489475763E-002
   7.0465479545083282E-002  -1.1302708636665826E-002   3.3697082477240278E-002
   3.2781870444366729E-002  -6.1661701083792764E-003   6.9443282875962908E-002
   3.4058139500068585E-002  -4.3971391605019949E-003   7.6457323114046738E-002
   3.5334408555770427E-002  -4.8748778532510251E-003   7.0651426882319124E-002
   3.6610677611472277E-002  -7.5993861866269496E-003   5.2025594180779677E-002
   3.7886946667174126E-002  -1.2570664160629352E-002   2.0579825009429342E-002
   5.7137041583617001E-002   0.0000000000000000        3.4682499109591494E-002
   5.7931452846742795E-002  -2.0791156185644795E-003   3.8364662175347980E-002
   5.8725864109868589E-002  -4.1276784112984719E-003   4.2246169566342091E-002
   5.9520275372994383E-002  -6.1456883782019765E-003   4.6327021282573815E-002
   6.0314686636120163E-002  -8.1331455192749907E-003   5.0607217324043108E-002
   4.8654414766508253E-002   0.0000000000000000        3.2786848714061539E-002
   4.9586312987833614E-002  -1.7044054228482399E-003   3.6986237497451550E-002
   5.0518211209158975E-002  -3.4238041722325675E-003   4.1261255872003078E-002
   5.1450109430484330E-002  -5.1581962481529811E-003   4.5611903837716128E-002
   5.2382007651809691E-002  -6.9075816506094841E-003   5.0038181394590694E-002
   4.0743091284423896E-002   0.0000000000000000        3.1288681590431106E-002
   4.1688761729872716E-002  -1.3296952271319991E-003   3.5959749939088070E-002
   4.2634432175321549E-002  -2.7199299331666623E-003   4.0582733144830449E-002
   4.3580102620770375E-002  -4.1707041181039874E-003   4.5157631207658255E-002
   4.4525773066219201E-002  -5.6820177819439785E-003   4.9684444127571489E-002
   3.3403071137363904E-002   0.0000000000000000        3.0187997738700203E-002
   3.4238799072860100E-002  -9.5498503141575888E-004   3.5285199500257554E-002
   3.5074527008356296E-002  -2.0160556941007566E-003   4.0210601384824206E-002
   3.5910254943852492E-002  -3.1832119880549920E-003   4.4964203392400204E-002
   3.6745982879348688E-002  -4.4564539132784711E-003   4.9546005522985499E-002
   2.6634354325328298E-002   0.0000000000000000        2.9484797158868828E-002
   2.7236425016795768E-002  -5.8027483569951781E-004   3.4962586180959973E-002
   2.7838495708263238E-002  -1.3121814550348526E-003   4.0144860591984334E-002
   2.8440566399730700E-002  -2.1957198580060001E-003   4.5031620391941925E-002
   2.9042637091198174E-002  -3.2308900446129689E-003   4.9622865580832752E-002
   6.0314686636120163E-002  -8.1331455192749907E-003   5.0607217324043108E-002
   6.0584377204591734E-002  -1.0006478195327007E-002   5.1491193292089982E-002
   6.0854067773063313E-002  -1.1682114767167608E-002   5.2203559093903090E-002
   6.1123758341534870E-002  -1.3160055234796691E-002   5.2744314729482385E-002
   6.1393448910006448E-002  -1.4440299598214371E-002   5.3113460198827955E-002
   5.2382007651809691E-002  -6.9075816506094841E-003   5.0038181394590694E-002
   5.2510358815737859E-002  -8.5679781666150520E-003   5.1224206124872614E-002
   5.2638709979666014E-002  -1.0035403583182683E-002   5.2299162212301485E-002
   5.2767061143594189E-002  -1.1309857900312355E-002   5.3263049656877330E-002
   5.2895412307522351E-002  -1.2391341118004093E-002   5.4115868458600148E-002
   4.4525773066219201E-002  -5.6820177819439785E-003   4.9684444127571489E-002
   4.4573326348984685E-002  -7.1294781379030812E-003   5.1167792615314955E-002
   4.4620879631750175E-002  -8.3886923991977648E-003   5.2600613983586134E-002
   4.4668432914515666E-002  -9.4596605658279920E-003   5.3982908232384996E-002
   4.4715986197281149E-002  -1.0342382637793808E-002   5.5314675361711529E-002
   3.6745982879348688E-002  -4.4564539132784711E-003   4.9546005522985499E-002
   3.6773279804332246E-002  -5.6909781091911112E-003   5.1321952763416993E-002
   3.6800576729315811E-002  -6.7419812152128295E-003   5.3107914407756938E-002
   3.6827873654299362E-002  -7.6094632313436468E-003   5.4903890456005279E-002
   3.6855170579282927E-002  -8.2934241575835406E-003   5.6709880908162064E-002
   2.9042637091198174E-002  -3.2308900446129689E-003   4.9622865580832752E-002
   2.9110219181780531E-002  -4.2524780804791534E-003   5.1686686569178755E-002
   2.9177801272362885E-002  -5.0952700312279246E-003   5.3821063484813907E-002
   2.9245383362945236E-002  -5.7592658968592886E-003   5.6025996327738269E-002
   2.9312965453527594E-002  -6.2444656773732524E-003   5.8301485097951765E-002
   6.1393448910006448E-002  -1.4440299598214371E-002   5.3113460198827955E-002
   6.0136036031379042E-002  -1.5431255584069208E-002   5.1879318544314476E-002
   5.8878623152751629E-002  -1.6041330919009864E-002   5.0970115721199367E-002
   5.7621210274124215E-002  -1.6270525603036337E-002   5.0385851729482650E-002
   5.6363797395496809E-002  -1.6118839636148685E-002   5.0126526569164331E-002
   5.2895412307522351E-002  -1.2391341118004093E-002   5.4115868458600148E-002
   5.1937826658670569E-002  -1.3226768332628692E-002   5.3515236473512084E-002
   5.0980241009818808E-002  -1.3763054640557010E-002   5.3189320116576969E-002
   5.0022655360967047E-002  -1.4000200041789018E-002   5.3138119387794745E-002
   4.9065069712115286E-002  -1.3938204536324786E-002   5.3361634287165421E-002
   4.4715986197281149E-002  -1.0342382637793808E-002   5.5314675361711529E-002
   4.4008004574959569E-002  -1.1022281081188200E-002   5.5265813301831057E-002
   4.3300022952637997E-002  -1.1484778362104169E-002   5.5441443666857972E-002
   4.2592041330316410E-002  -1.1729874480541712E-002   5.5841566456792398E-002
   4.1884059707994831E-002  -1.1757569436500831E-002   5.6466181671634211E-002
   3.6855170579282927E-002  -8.2934241575835406E-003   5.6709880908162064E-002
   3.6346569780246044E-002  -8.8177938297476898E-003   5.7131049029271290E-002
   3.5837968981209181E-002  -9.2065020836513065E-003   5.7726486372042439E-002
   3.5329368182172298E-002  -9.4595489192943645E-003   5.8496192936475552E-002
   3.4820767383135429E-002  -9.5769343366769177E-003   5.9440168722570699E-002
   2.9312965453527594E-002  -6.2444656773732524E-003   5.8301485097951765E-002
   2.8953522274529971E-002  -6.6133065783071966E-003   5.9110943655832769E-002
   2.8594079095532354E-002  -6.9282258051984475E-003   6.0044448232130287E-002
   2.8234635916534724E-002  -7.1892233580470588E-003   6.1101998826844306E-002
   2.7875192737537108E-002  -7.3962992368529767E-003   6.2283595439974831E-002
   5.6363797395496809E-002  -1.6118839636148685E-002   5.0126526569164331E-002
   5.4539675965988174E-002  -1.5780735739834975E-002   4.9512206414494567E-002
   5.2715554536479532E-002  -1.5450676635583652E-002   4.9578105059327082E-002
   5.0891433106970904E-002  -1.5128662323394427E-002   5.0324222503662031E-002
   4.9067311677462255E-002  -1.4814692803267471E-002   5.1750558747499315E-002
   4.9065069712115286E-002  -1.3938204536324786E-002   5.3361634287165421E-002
   4.7820439663759103E-002  -1.3718607524742327E-002   5.2768313050145704E-002
   4.6575809615402898E-002  -1.3482948407619818E-002   5.2653755775928478E-002
   4.5331179567046714E-002  -1.3231227184957263E-002   5.3017962464513846E-002
   4.4086549518690510E-002  -1.2963443856754686E-002   5.3860933115901677E-002
   4.1884059707994831E-002  -1.1757569436500831E-002   5.6466181671634211E-002
   4.1017466204091232E-002  -1.1656479309649560E-002   5.5917966249866780E-002
   4.0150872700187676E-002  -1.1515220179655984E-002   5.5647059954202140E-002
   3.9284279196284098E-002  -1.1333792046520028E-002   5.5653462784640118E-002
   3.8417685692380514E-002  -1.1112194910241791E-002   5.5937174741180790E-002
   3.4820767383135429E-002  -9.5769343366769177E-003   5.9440168722570699E-002
   3.4130755586984626E-002  -9.5943510945568390E-003   5.8961166013657910E-002
   3.3440743790833796E-002  -9.5474919516921365E-003   5.8558017594147957E-002
   3.2750731994682994E-002  -9.4363569080828553E-003   5.8230723464040908E-002
   3.2060720198532171E-002  -9.2609459637289504E-003   5.7979283623336708E-002
   2.7875192737537108E-002  -7.3962992368529767E-003   6.2283595439974831E-002
   2.7160307812439215E-002  -7.5322228794640900E-003   6.1897912341518965E-002
   2.6445422887341329E-002  -7.5797637237283028E-003   6.1386628695766138E-002
   2.5730537962243429E-002  -7.5389217696456255E-003   6.0749744502716210E-002
   2.5015653037145549E-002  -7.4096970172161103E-003   5.9987259762369322E-002
   4.9067311677462255E-002  -1.4814692803267471E-002   5.1750558747499315E-002
   4.8118873038942245E-002  -1.4437383165894324E-002   5.3164807376776368E-002
   4.7170434400422234E-002  -1.3925348501966597E-002   5.4437225678840379E-002
   4.6221995761902217E-002  -1.3278588811484224E-002   5.5567813653691511E-002
   4.5273557123382213E-002  -1.2497104094447431E-002   5.6556571301329572E-002
   4.4086549518690510E-002  -1.2963443856754686E-002   5.3860933115901677E-002
   4.3043786732038965E-002  -1.2636149503811034E-002   5.4753428741970034E-002
   4.2001023945387392E-002  -1.2205895206925874E-002   5.5599106398988130E-002
   4.0958261158735812E-002  -1.1672680966098841E-002   5.6397966086956144E-002
   3.9915498372084274E-002  -1.1036506781330169E-002   5.7150007805873954E-002
   3.8417685692380514E-002  -1.1112194910241791E-002   5.5937174741180790E-002
   3.7375611115760217E-002  -1.0834915841727910E-002   5.6276152281427502E-002
   3.6333536539139913E-002  -1.0486441911885087E-002   5.6663324210786951E-002
   3.5291461962519588E-002  -1.0066773120713400E-002   5.7098690529259158E-002
   3.4249387385899333E-002  -9.5759094682127677E-003   5.7582251236843976E-002
   3.2060720198532171E-002  -9.2609459637289504E-003   5.7979283623336708E-002
   3.1114346190105995E-002  -9.0336821796447586E-003   5.7732977995148996E-002
   3.0167972181679822E-002  -8.7669886168443324E-003   5.7629879114236865E-002
   2.9221598173253625E-002  -8.4608652753279320E-003   5.7669986980600385E-002
   2.8275224164827469E-002  -8.1153121550954083E-003   5.7853301594239237E-002
   2.5015653037145549E-002  -7.4096970172161103E-003   5.9987259762369322E-002
   2.4259991955076311E-002  -7.2324485175614961E-003   5.9123905883134514E-002
   2.3504330873007087E-002  -7.0475353218035636E-003   5.8498771109338044E-002
   2.2748669790937849E-002  -6.8549574299425452E-003   5.8111855440979951E-002
   2.1993008708868625E-002  -6.6547148419781044E-003   5.7963158878060084E-002
   4.5273557123382213E-002  -1.2497104094447431E-002   5.6556571301329572E-002
   4.2806930971246035E-002  -1.1790350018264534E-002   5.5607388818075087E-002
   4.0340304819109857E-002  -1.1367782250343919E-002   5.3688323170886315E-002
   3.7873678666973679E-002  -1.1229400790685729E-002   5.0799374359763130E-002
   3.5407052514837500E-002  -1.1375205639289843E-002   4.6940542384705297E-002
   3.9915498372084274E-002  -1.1036506781330169E-002   5.7150007805873954E-002
   3.6777490778688332E-002  -1.0453933559758433E-002   5.5944100721108114E-002
   3.3639483185292446E-002  -1.0081522208522958E-002   5.4365313917757160E-002
   3.0501475591896532E-002  -9.9192727276235029E-003   5.2413647395821168E-002
   2.7363467998500618E-002  -9.9671851170599624E-003   5.0089101155300103E-002
   3.4249387385899333E-002  -9.5759094682127677E-003   5.7582251236843976E-002
   3.1037001796593053E-002  -9.1175171012525674E-003   5.6193643988492886E-002
   2.7824616207286802E-002  -8.7952621667020461E-003   5.5029160466906223E-002
   2.4612230617980544E-002  -8.6091446645612749E-003   5.4088800672083673E-002
   2.1399845028674300E-002  -8.5591645948300821E-003   5.3372564604025674E-002
   2.8275224164827469E-002  -8.1153121550954083E-003   5.7853301594239237E-002
   2.5585464024960199E-002  -7.7811006427465287E-003   5.6356018620229355E-002
   2.2895703885092968E-002  -7.5090021248811652E-003   5.5679862818333183E-002
   2.0205943745225698E-002  -7.2990166014988813E-003   5.5824834188550755E-002
   1.7516183605358473E-002  -7.1511440726002296E-003   5.6790932730882072E-002
   2.1993008708868625E-002  -6.6547148419781044E-003   5.7963158878060084E-002
   2.0422877463789763E-002  -6.4446841842406011E-003   5.6431224616317721E-002
   1.8852746218710900E-002  -6.2227420830601732E-003   5.6317420972038512E-002
   1.7282614973632038E-002  -5.9888885384368207E-003   5.7621747945222360E-002
   1.5712483728553162E-002  -5.7431235503703770E-003   6.0344205535869166E-002
   3.5407052514837500E-002  -1.1375205639289843E-002   4.6940542384705297E-002
   3.4750756997219828E-002  -1.1265564420659430E-002   4.5358127816141125E-002
   3.4094461479602128E-002  -1.0360844759297466E-002   4.8581113041829604E-002
   3.3438165961984401E-002  -8.6610466552043755E-003   5.6609498061770014E-002
   3.2781870444366729E-002  -6.1661701083792764E-003   6.9443282875962908E-002
   2.7363467998500618E-002  -9.9671851170599624E-003   5.0089101155300103E-002
   3.0440165114373710E-002  -9.8767584581431200E-003   5.0155200177372239E-002
   3.3516862230246802E-002  -9.2994918321832043E-003   5.2881884672173959E-002
   3.6593559346119867E-002  -8.2353852391805066E-003   5.8269154639704661E-002
   3.9670256461992959E-002  -6.6844386791349297E-003   6.6317010079964822E-002
   2.1399845028674300E-002  -8.5591645948300821E-003   5.3372564604025674E-002
   2.6064720456515200E-002  -8.4879524956266855E-003   5.4778938741045446E-002
   3.0729595884356080E-002  -8.2381389050689841E-003   5.6701084029271751E-002
   3.5394471312196973E-002  -7.8097238231569117E-003   5.9139000468704191E-002
   4.0059346740037867E-002  -7.2027072498905831E-003   6.2092688059343037E-002
   1.7516183605358473E-002  -7.1511440726002296E-003   5.6790932730882072E-002
   2.1624423023644243E-002  -7.0991465331102857E-003   5.9229343507160914E-002
   2.5732662441929954E-002  -7.1767859779545765E-003   6.0038711113123186E-002
   2.9840901860215714E-002  -7.3840624071332909E-003   5.9219035548768721E-002
   3.3949141278501439E-002  -7.7209758206462364E-003   5.6770316814097915E-002
   1.5712483728553162E-002  -5.7431235503703770E-003   6.0344205535869166E-002
   1.7119272815760811E-002  -5.7103405705939136E-003   6.3506414475718531E-002
   1.8526061902968433E-002  -6.1154330508405019E-003   6.2894765923728307E-002
   1.9932850990176061E-002  -6.9584009911095313E-003   5.8509259879898495E-002
   2.1339640077383717E-002  -8.2392443914018343E-003   5.0349896344229095E-002
   3.2781870444366729E-002  -6.1661701083792764E-003   6.9443282875962908E-002
   3.4058139500068585E-002  -4.3971391605019949E-003   7.6457323114046738E-002
   3.5334408555770427E-002  -4.8748778532510251E-003   7.0651426882319124E-002
   3.6610677611472277E-002  -7.5993861866269496E-003   5.2025594180779677E-002
   3.7886946667174126E-002  -1.2570664160629352E-002   2.0579825009429342E-002
   3.9670256461992959E-002  -6.6844386791349297E-003   6.6317010079964822E-002
   3.1062700368075347E-002  -5.3987273342069042E-003   6.8135825879707429E-002
   2.2455144274157735E-002  -5.1303263865562776E-003   6.3006927850022459E-002
   1.3847588180240060E-002  -5.8792358361834593E-003   5.0930315990910580E-002
   5.2400320863224548E-003  -7.6454556830880538E-003   3.1905990302370846E-002
   4.0059346740037867E-002  -7.2027072498905831E-003   6.2092688059343037E-002
   2.7440188136884980E-002  -6.4003155079115359E-003   5.9945738664093223E-002
   1.4821029533732075E-002  -5.3857749198612526E-003   5.6723298079800324E-002
   2.2018709305791171E-003  -4.1590854857395804E-003   5.2425366306464050E-002
  -1.0417287672573744E-002  -2.7202472055466442E-003   4.7051943344084579E-002
   3.3949141278501439E-002  -7.7209758206462364E-003   5.6770316814097915E-002
   2.3190602806497457E-002  -7.4019036816161954E-003   5.1887061467204544E-002
   1.2432064334493405E-002  -5.6412234531661443E-003   5.1800537571652303E-002
   1.6735258624893689E-003  -2.4389351352957847E-003   5.6510745127440691E-002
  -9.0850126095146574E-003   2.2049612719947098E-003   6.6017684134570376E-002
   2.1339640077383717E-002  -8.2392443914018343E-003   5.0349896344229095E-002
   1.8313944376912750E-002  -8.4034918553209104E-003   4.3959794289041121E-002
   1.5288248676441817E-002  -5.8966719864713829E-003   4.8238646325578144E-002
   1.2262552975970859E-002  -7.1878478485213129E-004   6.3186452453840511E-002
   9.2368572754998879E-003   7.1301697495360639E-003   8.8803212673828069E-002
   2.6634354325328298E-002   0.0000000000000000        2.9484797158868828E-002
   2.7236425016795768E-002  -5.8027483569951781E-004   3.4962586180959973E-002
   2.7838495708263238E-002  -1.3121814550348526E-003   4.0144860591984334E-002
   2.8440566399730700E-002  -2.1957198580060001E-003   4.5031620391941925E-002
   2.9042637091198174E-002  -3.2308900446129689E-003   4.9622865580832752E-002
   2.0108296232429192E-002   0.0000000000000000        2.9042441441834838E-002
   2.0451394647413773E-002  -4.3694740226341792E-004   3.4338276097863545E-002
   2.0794493062398351E-002  -9.8728462868094384E-004   3.9411680811993248E-002
   2.1137591477382929E-002  -1.6510116792525760E-003   4.4262655584223959E-002
   2.1480689892367510E-002  -2.4281285539783162E-003   4.8891200414555636E-002
   1.3496252242778724E-002   0.0000000000000000        2.8724292178496095E-002
   1.3653463050448188E-002  -2.9361996882731846E-004   3.3876414427944070E-002
   1.3810673858117654E-002  -6.6238780232703680E-004   3.8879191404660819E-002
   1.3967884665787120E-002  -1.1063035004991529E-003   4.3732623108646340E-002
   1.4125095473456584E-002  -1.6253670633436710E-003   4.8436709539900626E-002
   6.7982223563768911E-003   0.0000000000000000        2.8530349368852598E-002
   6.8426302258990162E-003  -1.5029253539121878E-004   3.3577001171201548E-002
   6.8870380954211422E-003  -3.3749097597312976E-004   3.8547392369987055E-002
   6.9314459649432681E-003  -5.6159532174573099E-004   4.3441522965209096E-002
   6.9758538344653932E-003  -8.2260557270902204E-004   4.8259392956867701E-002
   1.4206573223691718E-005   0.0000000000000000        2.8460613012904350E-002
   1.8896173766253140E-005  -6.9651019551199636E-006   3.3440036327635987E-002
   2.3585774308814344E-005  -1.2594149619222714E-005   3.8416283707971954E-002
   2.8275374851375224E-005  -1.6887142992305648E-005   4.3389355153912228E-002
   3.2964975393936103E-005  -1.9844082074376573E-005   4.8359250665456835E-002
   2.9042637091198174E-002  -3.2308900446129689E-003   4.9622865580832752E-002
   2.9110219181780531E-002  -4.2524780804791534E-003   5.1686686569178755E-002
   2.9177801272362885E-002  -5.0952700312279246E-003   5.3821063484813907E-002
   2.9245383362945236E-002  -5.7592658968592886E-003   5.6025996327738269E-002
   2.9312965453527594E-002  -6.2444656773732524E-003   5.8301485097951765E-002
   2.1480689892367510E-002  -2.4281285539783162E-003   4.8891200414555636E-002
   2.1597181575096349E-002  -3.1951822068649071E-003   5.1295884024153603E-002
   2.1713673257825191E-002  -3.8287195919190792E-003   5.3727830890755369E-002
   2.1830164940554030E-002  -4.3287407091408461E-003   5.6187041014360922E-002
   2.1946656623282865E-002  -4.6952455585302019E-003   5.8673514394970289E-002
   1.4125095473456584E-002  -1.6253670633436710E-003   4.8436709539900626E-002
   1.4247204078046537E-002  -2.1378863332506817E-003   5.1136975953465558E-002
   1.4369312682636488E-002  -2.5621691526102552E-003   5.3821212953748934E-002
   1.4491421287226441E-002  -2.8982155214224187E-003   5.6489420540750672E-002
   1.4613529891816395E-002  -3.1460254396871480E-003   5.9141598714470917E-002
   6.9758538344653932E-003  -8.2260557270902204E-004   4.8259392956867701E-002
   7.0602866906310877E-003  -1.0805904596364459E-003   5.1209962357114613E-002
   7.1447195467967822E-003  -1.2956187133014274E-003   5.4101209673794559E-002
   7.2291524029624767E-003  -1.4676903337039733E-003   5.6933134906907573E-002
   7.3135852591281678E-003  -1.5968053208440958E-003   5.9705738056453656E-002
   3.2964975393936103E-005  -1.9844082074376573E-005   4.8359250665456835E-002
   3.6429412850001296E-005  -2.3294586022223895E-005   5.1514843235100721E-002
   3.9893850306066273E-005  -2.9068273992591785E-005   5.4567821050892307E-002
   4.3358287762133092E-005  -3.7165145985550282E-005   5.7518184112831564E-002
   4.6822725218196443E-005  -4.7585202001036719E-005   6.0365932420918540E-002
   2.9312965453527594E-002  -6.2444656773732524E-003   5.8301485097951765E-002
   2.8953522274529971E-002  -6.6133065783071966E-003   5.9110943655832769E-002
   2.8594079095532354E-002  -6.9282258051984475E-003   6.0044448232130287E-002
   2.8234635916534724E-002  -7.1892233580470588E-003   6.1101998826844306E-002
   2.7875192737537108E-002  -7.3962992368529767E-003   6.2283595439974831E-002
   2.1946656623282865E-002  -4.6952455585302019E-003   5.8673514394970289E-002
   2.1704624089295764E-002  -4.9752420401377763E-003   5.9556230749110414E-002
   2.1462591555308663E-002  -5.2157380540141952E-003   6.0549722374855119E-002
   2.1220559021321559E-002  -5.4167336001594985E-003   6.1653989272204321E-002
   2.0978526487334462E-002  -5.5782286785735907E-003   6.2869031441158019E-002
   1.4613529891816395E-002  -3.1460254396871480E-003   5.9141598714470917E-002
   1.4475637256027818E-002  -3.3371775019683542E-003   6.0083151658558709E-002
   1.4337744620239245E-002  -3.5032503028299558E-003   6.1122209127439014E-002
   1.4199851984450668E-002  -3.6442438422719242E-003   6.2258771121111875E-002
   1.4061959348662091E-002  -3.7601581202942602E-003   6.3492837639577304E-002
   7.3135852591281678E-003  -1.5968053208440958E-003   5.9705738056453656E-002
   7.2665617747261300E-003  -1.6991129637989539E-003   6.0691706384177563E-002
   7.2195382903240965E-003  -1.7907625516456961E-003   6.1761908489882028E-002
   7.1725148059220561E-003  -1.8717540843843500E-003   6.2916344373567037E-002
   7.1254913215200236E-003  -1.9420875620149158E-003   6.4155014035232577E-002
   4.6822725218196443E-005  -4.7585202001036719E-005   6.0365932420918540E-002
   7.7397645390704303E-005  -6.1048425629522257E-005   6.1381894925967039E-002
   1.0797256556321216E-004  -7.8274800461434688E-005   6.2468820462184105E-002
   1.3854748573572046E-004  -9.9264326496803067E-005   6.3626709029569711E-002
   1.6912240590822789E-004  -1.2401700373554370E-004   6.4855560628123865E-002
   2.7875192737537108E-002  -7.3962992368529767E-003   6.2283595439974831E-002
   2.7160307812439215E-002  -7.5322228794640900E-003   6.1897912341518965E-002
   2.6445422887341329E-002  -7.5797637237283028E-003   6.1386628695766138E-002
   2.5730537962243429E-002  -7.5389217696456255E-003   6.0749744502716210E-002
   2.5015653037145549E-002  -7.4096970172161103E-003   5.9987259762369322E-002
   2.0978526487334462E-002  -5.5782286785735907E-003   6.2869031441158019E-002
   2.0215899072162018E-002  -5.6890833837771673E-003   6.2616387049973382E-002
   1.9453271656989575E-002  -5.7381578102907345E-003   6.2393858225936599E-002
   1.8690644241817135E-002  -5.7254519581142723E-003   6.2201444969047733E-002
   1.7928016826644695E-002  -5.6509658272477781E-003   6.2039147279306678E-002
   1.4061959348662091E-002  -3.7601581202942602E-003   6.3492837639577304E-002
   1.3407305557860001E-002  -3.8459438880902308E-003   6.3346629436006899E-002
   1.2752651767057911E-002  -3.8965518968530830E-003   6.3386252914029328E-002
   1.2097997976255820E-002  -3.9119821465828496E-003   6.3611708073644510E-002
   1.1443344185453723E-002  -3.8922346372794736E-003   6.4022994914852527E-002
   7.1254913215200236E-003  -1.9420875620149158E-003   6.4155014035232577E-002
   6.7345272695331689E-003  -2.0028043924032873E-003   6.4088639499619585E-002
   6.3435632175463238E-003  -2.0549459834154314E-003   6.4363812760044284E-002
   5.9525991655594752E-003  -2.0985123350514478E-003   6.4980533816506661E-002
   5.5616351135726241E-003  -2.1335034473112108E-003   6.5938802669006785E-002
   1.6912240590822789E-004  -1.2401700373554370E-004   6.4855560628123865E-002
   1.9756420718152617E-004  -1.5966489671635775E-004   6.4842417240811398E-002
   2.2600600845482099E-004  -2.1334006997784927E-004   6.5326537763981479E-002
   2.5444780972811581E-004  -2.8504252352002865E-004   6.6307922197634178E-002
   2.8288961100141410E-004  -3.7477225734283692E-004   6.7786570541769481E-002
   2.5015653037145549E-002  -7.4096970172161103E-003   5.9987259762369322E-002
   2.4259991955076311E-002  -7.2324485175614961E-003   5.9123905883134514E-002
   2.3504330873007087E-002  -7.0475353218035636E-003   5.8498771109338044E-002
   2.2748669790937849E-002  -6.8549574299425452E-003   5.8111855440979951E-002
   2.1993008708868625E-002  -6.6547148419781044E-003   5.7963158878060084E-002
   1.7928016826644695E-002  -5.6509658272477781E-003   6.2039147279306678E-002
   1.7410392524662324E-002  -5.5436371284057900E-003   6.1784359420712406E-002
   1.6892768222679957E-002  -5.4324035723025826E-003   6.1767426016853436E-002
   1.6375143920697589E-002  -5.3172651589382426E-003   6.1988347067729863E-002
   1.5857519618715218E-002  -5.1982218883127596E-003   6.2447122573341562E-002
   1.1443344185453723E-002  -3.8922346372794736E-003   6.4022994914852527E-002
   1.1163392012855202E-002  -3.8548257392500840E-003   6.4373013238056720E-002
   1.0883439840256671E-002  -3.8172718228015531E-003   6.4960521365293261E-002
   1.0603487667658148E-002  -3.7795728879339973E-003   6.5785519296562053E-002
   1.0323535495059620E-002  -3.7417289346473592E-003   6.6848007031863277E-002
   5.5616351135726241E-003  -2.1335034473112108E-003   6.5938802669006785E-002
   5.5189904196549285E-003  -2.1660143500943779E-003   6.6889867335167316E-002
   5.4763457257372269E-003  -2.2021400733005202E-003   6.8078057154657146E-002
   5.4337010318195218E-003  -2.2418806169297511E-003   6.9503372127476384E-002
   5.3910563379018228E-003  -2.2852359809819589E-003   7.1165812253624783E-002
   2.8288961100141410E-004  -3.7477225734283692E-004   6.7786570541769481E-002
   4.7718774506151640E-004  -4.7720296093865799E-004   6.9334921712044306E-002
   6.7148587912162216E-004  -5.8700832379948720E-004   7.1120033384945491E-002
   8.6578401318172273E-004  -7.0418834592549107E-004   7.3141905560472925E-002
   1.0600821472418302E-003  -8.2874302731661409E-004   7.5400538238626635E-002
   2.1993008708868625E-002  -6.6547148419781044E-003   5.7963158878060084E-002
   2.0422877463789763E-002  -6.4446841842406011E-003   5.6431224616317721E-002
   1.8852746218710900E-002  -6.2227420830601732E-003   5.6317420972038512E-002
   1.7282614973632038E-002  -5.9888885384368207E-003   5.7621747945222360E-002
   1.5712483728553162E-002  -5.7431235503703770E-003   6.0344205535869166E-002
   1.5857519618715218E-002  -5.1982218883127596E-003   6.2447122573341562E-002
   1.5429211456476050E-002  -5.0722817747918814E-003   6.1251285879460077E-002
   1.5000903294236888E-002  -4.9364528327413004E-003   6.0920964733794825E-002
   1.4572595131997716E-002  -4.7907350621611833E-003   6.1456159136345806E-002
   1.4144286969758557E-002  -4.6351284630513079E-003   6.2856869087113215E-002
   1.0323535495059620E-002  -3.7417289346473592E-003   6.6848007031863277E-002
   1.0484435346413395E-002  -3.6998793653430506E-003   6.5986245290929030E-002
   1.0645335197767170E-002  -3.6501635824223722E-003   6.5437384028964346E-002
   1.0806235049120951E-002  -3.5925815858855459E-003   6.5201423245969226E-002
   1.0967134900474726E-002  -3.5271333757323220E-003   6.5278362941943779E-002
   5.3910563379018228E-003  -2.2852359809819589E-003   7.1165812253624783E-002
   5.5885491336017945E-003  -2.3274769558941921E-003   7.0636102850724747E-002
   5.7860419293017714E-003  -2.3638743321035827E-003   6.9866678857547410E-002
   5.9835347250017379E-003  -2.3944281096098530E-003   6.8857540274093021E-002
   6.1810275207017200E-003  -2.4191382884132945E-003   6.7608687100361373E-002
   1.0600821472418302E-003  -8.2874302731661409E-004   7.5400538238626635E-002
   7.4155281804125228E-004  -9.5507454644555567E-004   7.5200858558847283E-002
   4.2302348884066567E-004  -1.0775850817845711E-003   7.4208849219543904E-002
   1.0449415964008339E-004  -1.1962746333343266E-003   7.2424510220716637E-002
  -2.1403516956049889E-004  -1.3111432010942670E-003   6.9847841562365454E-002
   1.5712483728553162E-002  -5.7431235503703770E-003   6.0344205535869166E-002
   1.7119272815760811E-002  -5.7103405705939136E-003   6.3506414475718531E-002
   1.8526061902968433E-002  -6.1154330508405019E-003   6.2894765923728307E-002
   1.9932850990176061E-002  -6.9584009911095313E-003   5.8509259879898495E-002
   2.1339640077383717E-002  -8.2392443914018343E-003   5.0349896344229095E-002
   1.4144286969758557E-002  -4.6351284630513079E-003   6.2856869087113215E-002
   1.2623959678047379E-002  -4.5899797777824713E-003   6.4922523771276663E-002
   1.1103632386336229E-002  -4.7756357487256651E-003   6.4907803189442489E-002
   9.5833050946250581E-003  -5.1920963758802577E-003   6.2812707341610152E-002
   8.0629778029139010E-003  -5.8393616592468667E-003   5.8637236227779777E-002
   1.0967134900474726E-002  -3.5271333757323220E-003   6.5278362941943779E-002
   8.2131734556863782E-003  -3.4696189849712095E-003   6.6454534174232971E-002
   5.4592120108980305E-003  -3.4358384466108283E-003   6.7243812366365605E-002
   2.7052505661096810E-003  -3.4257917606509841E-003   6.7646197518341888E-002
  -4.8710878678661501E-005  -3.4394789270918158E-003   6.7661689630161850E-002
   6.1810275207017200E-003  -2.4191382884132945E-003   6.7608687100361373E-002
   3.8869141486777836E-003  -2.3492581921598574E-003   6.8102445684586815E-002
   1.5928007766538533E-003  -2.0960411444961025E-003   6.9902793454497777E-002
  -7.0131259537007480E-004  -1.6594871454216550E-003   7.3009730410093787E-002
  -2.9954259673940055E-003  -1.0395961949366400E-003   7.7423256551375177E-002
  -2.1403516956049889E-004  -1.3111432010942670E-003   6.9847841562365454E-002
  -3.5481824297839415E-004  -1.2288973993485053E-003   6.9866258302338669E-002
  -4.9560131639629981E-004  -7.5624384238118236E-004   7.2884746453838911E-002
  -6.3638438981420027E-004   1.0681746980761159E-004   7.8903306016865876E-002
  -7.7716746323210073E-004   1.3602865372183137E-003   8.7921936991419813E-002
   2.1339640077383717E-002  -8.2392443914018343E-003   5.0349896344229095E-002
   1.8313944376912750E-002  -8.4034918553209104E-003   4.3959794289041121E-002
   1.5288248676441817E-002  -5.8966719864713829E-003   4.8238646325578144E-002
   1.2262552975970859E-002  -7.1878478485213129E-004   6.3186452453840511E-002
   9.2368572754998879E-003   7.1301697495360639E-003   8.8803212673828069E-002
   8.0629778029139010E-003  -5.8393616592468667E-003   5.8637236227779777E-002
   1.3218256919279629E-002  -6.0950025737444569E-003   5.6766688853940039E-002
   1.8373536035645364E-002  -5.3365900942917571E-003   6.0589137022048711E-002
   2.3528815152011100E-002  -3.5641242208892775E-003   7.0104580732105307E-002
   2.8684094268376842E-002  -7.7760495353684789E-004   8.5313019984110339E-002
  -4.8710878678661501E-005  -3.4394789270918158E-003   6.7661689630161850E-002
   8.3115845047468037E-003  -3.7865132921675315E-003   6.8653682998851343E-002
   1.6671879888172279E-002  -4.7765082021124575E-003   7.0362713359711976E-002
   2.5032175271597745E-002  -6.4094636569264774E-003   7.2788780712743972E-002
   3.3392470655023224E-002  -8.6853796566097596E-003   7.5931885057947068E-002
  -2.9954259673940055E-003  -1.0395961949366400E-003   7.7423256551375177E-002
   3.5939271333142609E-003  -1.4780240105906201E-003   7.9620776723774600E-002
   1.0183280234022511E-002  -4.2164263099331058E-003   7.7559375338568284E-002
   1.6772633334730749E-002  -9.2548030929637051E-003   7.1239052395756355E-002
   2.3361986435439030E-002  -1.6593154359682616E-002   6.0659807895338883E-002
  -7.7716746323210073E-004   1.3602865372183137E-003   8.7921936991419813E-002
  -9.3471519501801131E-004   8.3046527098590284E-004   8.9667970028710076E-002
  -1.0922629268039288E-003  -3.6563444177536986E-003   8.2179122958617734E-002
  -1.2498106585898377E-003  -1.2100142529000837E-002   6.5455395781142706E-002
  -1.4073583903757569E-003  -2.4500929062755583E-002   3.9496788496284907E-002
   1.4206573223691718E-005   0.0000000000000000        2.8460613012904350E-002
   1.8896173766253140E-005  -6.9651019551199636E-006   3.3440036327635987E-002
   2.3585774308814344E-005  -1.2594149619222714E-005   3.8416283707971954E-002
   2.8275374851375224E-005  -1.6887142992305648E-005   4.3389355153912228E-002
   3.2964975393936103E-005  -1.9844082074376573E-005   4.8359250665456835E-002
  -6.7705855666014593E-003   0.0000000000000000        2.8516753252462404E-002
  -6.8058783495540251E-003   1.3914614376522080E-004   3.3563703864196048E-002
  -6.8411711325065917E-003   3.1675735862742201E-004   3.8533865643335122E-002
  -6.8764639154591592E-003   5.3283364458660103E-004   4.3427238589879610E-002
  -6.9117566984117232E-003   7.8737500164276480E-004   4.8243822703829521E-002
  -1.3470944523019144E-002   0.0000000000000000        2.8700440229337813E-002
  -1.3619832587665739E-002   2.8525738948555939E-004   3.3852047154879432E-002
  -1.3768720652312336E-002   6.4610886687406412E-004   3.8853252349627575E-002
  -1.3917608716958929E-002   1.0825544321655112E-003   4.3704055813582242E-002
  -1.4066496781605528E-002   1.5945940853599027E-003   4.8404457546743433E-002
  -2.0086870296029367E-002   0.0000000000000000        2.9011673943530578E-002
  -2.0422966540568892E-002   4.3136863520589950E-004   3.4305066199686138E-002
  -2.0759062785108418E-002   9.7546037512070754E-004   3.9374443826849327E-002
  -2.1095159029647943E-002   1.6322752197444213E-003   4.4219806825020115E-002
  -2.1431255274187471E-002   2.4018131690770458E-003   4.8841155194198536E-002
  -2.6618362885632123E-002   0.0000000000000000        2.9450454395040702E-002
  -2.7215280208263481E-002   5.7747988092623874E-004   3.4922760998616166E-002
  -2.7812197530894842E-002   1.3048118833673510E-003   4.0097440075000351E-002
  -2.8409114853526204E-002   2.1819960073233297E-003   4.4974491624193251E-002
  -2.9006032176157562E-002   3.2090322527941802E-003   4.9553915646194859E-002
   3.2964975393936103E-005  -1.9844082074376573E-005   4.8359250665456835E-002
   3.6429412850001296E-005  -2.3294586022223895E-005   5.1514843235100721E-002
   3.9893850306066273E-005  -2.9068273992591785E-005   5.4567821050892307E-002
   4.3358287762133092E-005  -3.7165145985550282E-005   5.7518184112831564E-002
   4.6822725218196443E-005  -4.7585202001036719E-005   6.0365932420918540E-002
  -6.9117566984117232E-003   7.8737500164276480E-004   4.8243822703829521E-002
  -6.9897683424147358E-003   1.0387930976765731E-003   5.1187018147896390E-002
  -7.0677799864177467E-003   1.2454996005686985E-003   5.4069876182897408E-002
  -7.1457916304207584E-003   1.4074945103190988E-003   5.6892396808832631E-002
  -7.2238032744237702E-003   1.5247778269278298E-003   5.9654580025701953E-002
  -1.4066496781605528E-002   1.5945940853599027E-003   4.8404457546743433E-002
  -1.4183707162281137E-002   2.1008807813753458E-003   5.1092867456114112E-002
  -1.4300917542956745E-002   2.5200674751299679E-003   5.3763217301205452E-002
  -1.4418127923632356E-002   2.8521541666237374E-003   5.6415507082017452E-002
  -1.4535338304307964E-002   3.0971408558566928E-003   5.9049736798550051E-002
  -2.1431255274187471E-002   2.4018131690770458E-003   4.8841155194198536E-002
  -2.1545387046749204E-002   3.1629684650741272E-003   5.1232391159753934E-002
  -2.1659518819310938E-002   3.7946353496912406E-003   5.3647844405816429E-002
  -2.1773650591872671E-002   4.2968138229283817E-003   5.6087514932386048E-002
  -2.1887782364434411E-002   4.6695038847855506E-003   5.8551402739462778E-002
  -2.9006032176157562E-002   3.2090322527941802E-003   4.9553915646194859E-002
  -2.9074807995818939E-002   4.2250561487729059E-003   5.1605589258815796E-002
  -2.9143583815480323E-002   5.0692032242525224E-003   5.3723757496730327E-002
  -2.9212359635141696E-002   5.7414734792330269E-003   5.5908420359938454E-002
  -2.9281135454803077E-002   6.2418669137144223E-003   5.8159577848440183E-002
   4.6822725218196443E-005  -4.7585202001036719E-005   6.0365932420918540E-002
   7.7397645390704303E-005  -6.1048425629522257E-005   6.1381894925967039E-002
   1.0797256556321216E-004  -7.8274800461434688E-005   6.2468820462184105E-002
   1.3854748573572046E-004  -9.9264326496803067E-005   6.3626709029569711E-002
   1.6912240590822789E-004  -1.2401700373554370E-004   6.4855560628123865E-002
  -7.2238032744237702E-003   1.5247778269278298E-003   5.9654580025701953E-002
  -7.1192054636970660E-003   1.6102027764615945E-003   6.0621309213788083E-002
  -7.0146076529703574E-003   1.6766225849871464E-003   6.1665121151814030E-002
  -6.9100098422436498E-003   1.7240372525045536E-003   6.2786015839779802E-002
  -6.8054120315169438E-003   1.7524467790137471E-003   6.3983993277685502E-002
  -1.4535338304307964E-002   3.0971408558566928E-003   5.9049736798550051E-002
  -1.4350597884255765E-002   3.2814539785527373E-003   5.9951990679868991E-002
  -1.4165857464203568E-002   3.4315199704357821E-003   6.0937447029899061E-002
  -1.3981117044151364E-002   3.5473388315058821E-003   6.2006105848640289E-002
  -1.3796376624099167E-002   3.6289105617629824E-003   6.3157967136092619E-002
  -2.1887782364434411E-002   4.6695038847855506E-003   5.8551402739462778E-002
  -2.1616779616285414E-002   4.9527051806438948E-003   5.9373939324209757E-002
  -2.1345776868136428E-002   5.1864173558843971E-003   6.0285798096439219E-002
  -2.1074774119987434E-002   5.3706404105072249E-003   6.1286979056151020E-002
  -2.0803771371838444E-002   5.5053743445122177E-003   6.2377482203345352E-002
  -2.9281135454803077E-002   6.2418669137144223E-003   5.8159577848440183E-002
  -2.8917750659785999E-002   6.6239563827349829E-003   5.8887155146810422E-002
  -2.8554365864768918E-002   6.9413147413329955E-003   5.9710174351434421E-002
  -2.8190981069751847E-002   7.1939419895085599E-003   6.0628635462312105E-002
  -2.7827596274734769E-002   7.3818381272614947E-003   6.1642538479443579E-002
   1.6912240590822789E-004  -1.2401700373554370E-004   6.4855560628123865E-002
   1.9756420718152617E-004  -1.5966489671635775E-004   6.4842417240811398E-002
   2.2600600845482099E-004  -2.1334006997784927E-004   6.5326537763981479E-002
   2.5444780972811581E-004  -2.8504252352002865E-004   6.6307922197634178E-002
   2.8288961100141410E-004  -3.7477225734283692E-004   6.7786570541769481E-002
  -6.8054120315169438E-003   1.7524467790137471E-003   6.3983993277685502E-002
  -6.3635760679889419E-003   1.7673439013809814E-003   6.3857526513209889E-002
  -5.9217401044609416E-003   1.7742213564725627E-003   6.4060584162761114E-002
  -5.4799041409329449E-003   1.7730791442885216E-003   6.4593166226339205E-002
  -5.0380681774049394E-003   1.7639172648288848E-003   6.5455272703943981E-002
  -1.3796376624099167E-002   3.6289105617629824E-003   6.3157967136092619E-002
  -1.3108885994772241E-002   3.6943526994782996E-003   6.2928184607458970E-002
  -1.2421395365445316E-002   3.7617827829229747E-003   6.2860186996396367E-002
  -1.1733904736118388E-002   3.8312008120970856E-003   6.2953974302904808E-002
  -1.1046414106791465E-002   3.9026067870005787E-003   6.3209546526984281E-002
  -2.0803771371838444E-002   5.5053743445122177E-003   6.2377482203345352E-002
  -2.0038365573168369E-002   5.6213614975755867E-003   6.2054391523558683E-002
  -1.9272959774498291E-002   5.7493442093734699E-003   6.1725346264887203E-002
  -1.8507553975828209E-002   5.8893224799055873E-003   6.1390346427331051E-002
  -1.7742148177158135E-002   6.0412963091723421E-003   6.1049392010890144E-002
  -2.7827596274734769E-002   7.3818381272614947E-003   6.1642538479443579E-002
  -2.7152014803177322E-002   7.5483702956729223E-003   6.1236147261508903E-002
  -2.6476433331619871E-002   7.7369056358238021E-003   6.0656061968233706E-002
  -2.5800851860062424E-002   7.9474441477141583E-003   5.9902282599618023E-002
  -2.5125270388504976E-002   8.1799858313440221E-003   5.8974809155661750E-002
   2.8288961100141410E-004  -3.7477225734283692E-004   6.7786570541769481E-002
   4.7718774506151640E-004  -4.7720296093865799E-004   6.9334921712044306E-002
   6.7148587912162216E-004  -5.8700832379948720E-004   7.1120033384945491E-002
   8.6578401318172273E-004  -7.0418834592549107E-004   7.3141905560472925E-002
   1.0600821472418302E-003  -8.2874302731661409E-004   7.5400538238626635E-002
  -5.0380681774049394E-003   1.7639172648288848E-003   6.5455272703943981E-002
  -4.6381077506807266E-003   1.7329141120744351E-003   6.6263618753987008E-002
  -4.2381473239565095E-003   1.6662480800061358E-003   6.7246528886731938E-002
  -3.8381868972322893E-003   1.5639191686239971E-003   6.8404003102178840E-002
  -3.4382264705080795E-003   1.4259273779279602E-003   6.9736041400327631E-002
  -1.1046414106791465E-002   3.9026067870005787E-003   6.3209546526984281E-002
  -1.0502987807327500E-002   3.9430311850874658E-003   6.3249599236746709E-002
  -9.9595615078635277E-003   3.9195044838118143E-003   6.3402019609286764E-002
  -9.4161352083995589E-003   3.8320266831734298E-003   6.3666807644604279E-002
  -8.8727089089355900E-003   3.6805977831725900E-003   6.4043963342699517E-002
  -1.7742148177158135E-002   6.0412963091723421E-003   6.1049392010890144E-002
  -1.7117452424878790E-002   6.1531482581005416E-003   6.0292863160323312E-002
  -1.6492756672599432E-002   6.1727608876174372E-003   5.9586505552609630E-002
  -1.5868060920320077E-002   6.1001341977230013E-003   5.8930319187749242E-002
  -1.5243365168040731E-002   5.9352681884172476E-003   5.8324304065742003E-002
  -2.5125270388504976E-002   8.1799858313440221E-003   5.8974809155661750E-002
  -2.4481501603334597E-002   8.3632653311135757E-003   5.7393410524716887E-002
  -2.3837732818164224E-002   8.4260172914231227E-003   5.5799986716700875E-002
  -2.3193964032993862E-002   8.3682417122723802E-003   5.4194537731613680E-002
  -2.2550195247823479E-002   8.1899385936617941E-003   5.2577063569455351E-002
   1.0600821472418302E-003  -8.2874302731661409E-004   7.5400538238626635E-002
   7.4155281804125228E-004  -9.5507454644555567E-004   7.5200858558847283E-002
   4.2302348884066567E-004  -1.0775850817845711E-003   7.4208849219543904E-002
   1.0449415964008339E-004  -1.1962746333343266E-003   7.2424510220716637E-002
  -2.1403516956049889E-004  -1.3111432010942670E-003   6.9847841562365454E-002
  -3.4382264705080795E-003   1.4259273779279602E-003   6.9736041400327631E-002
  -4.2405258837087314E-003   1.2902142542458167E-003   6.8930768073960078E-002
  -5.0428252969093798E-003   1.1947213439053583E-003   6.7950284239116282E-002
  -5.8451247101100334E-003   1.1394486469061965E-003   6.6794589895796355E-002
  -6.6474241233106870E-003   1.1243961632486088E-003   6.5463685044000131E-002
  -8.8727089089355900E-003   3.6805977831725900E-003   6.4043963342699517E-002
  -9.5416592550886074E-003   3.5355030549371891E-003   6.2669495599295605E-002
  -1.0210609601241609E-002   3.4670277695951768E-003   6.1736936498463263E-002
  -1.0879559947394615E-002   3.4751719271466086E-003   6.1246286040202380E-002
  -1.1548510293547629E-002   3.5599355275914846E-003   6.1197544224513040E-002
  -1.5243365168040731E-002   5.9352681884172476E-003   5.8324304065742003E-002
  -1.5161847296098386E-002   5.7807918556285615E-003   5.6417041134853782E-002
  -1.5080329424156035E-002   5.7393341952849952E-003   5.5568805997584805E-002
  -1.4998811552213684E-002   5.8108952073870762E-003   5.5779598653935065E-002
  -1.4917293680271339E-002   5.9954748919342771E-003   5.7049419103904521E-002
  -2.2550195247823479E-002   8.1899385936617941E-003   5.2577063569455351E-002
  -2.1101090006738064E-002   8.0260806563199338E-003   5.0173404680634637E-002
  -1.9651984765652646E-002   8.0116406209749802E-003   4.9445892736480895E-002
  -1.8202879524567228E-002   8.1466184876275577E-003   5.0394527736994044E-002
  -1.6753774283481813E-002   8.4310142562771806E-003   5.3019309682174220E-002
  -2.1403516956049889E-004  -1.3111432010942670E-003   6.9847841562365454E-002
  -3.5481824297839415E-004  -1.2288973993485053E-003   6.9866258302338669E-002
  -4.9560131639629981E-004  -7.5624384238118236E-004   7.2884746453838911E-002
  -6.3638438981420027E-004   1.0681746980761159E-004   7.8903306016865876E-002
  -7.7716746323210073E-004   1.3602865372183137E-003   8.7921936991419813E-002
  -6.6474241233106870E-003   1.1243961632486088E-003   6.5463685044000131E-002
  -4.5744437212727803E-003   1.2711180898135055E-003   6.6564964812578120E-002
  -2.5014633192348770E-003   1.7011686234818246E-003   6.9093700120541002E-002
  -4.2848291719696854E-004   2.4145477642534621E-003   7.3049890967888539E-002
   1.6444974848409330E-003   3.4112555121284527E-003   7.8433537354620830E-002
  -1.1548510293547629E-002   3.5599355275914846E-003   6.1197544224513040E-002
  -8.8343822881959723E-003   3.7711335789755718E-003   6.3274607873577526E-002
  -6.1202542828443177E-003   4.1585810893448455E-003   6.5206511189884686E-002
  -3.4061262774926619E-003   4.7222780586992051E-003   6.6993254173434630E-002
  -6.9199827214100687E-004   5.4622244870386472E-003   6.8634836824227302E-002
  -1.4917293680271339E-002   5.9954748919342771E-003   5.7049419103904521E-002
  -1.3134633943747984E-002   6.2711490681378601E-003   5.9995187485337116E-002
  -1.1351974207224631E-002   6.6159935552078594E-003   6.1223179661870436E-002
  -9.5693144707012772E-003   7.0300083531451129E-003   6.0733395633504411E-002
  -7.7866547341779169E-003   7.5131934619488139E-003   5.8525835400239118E-002
  -1.6753774283481813E-002   8.4310142562771806E-003   5.3019309682174220E-002
  -1.7475198687928808E-002   8.7711645572997043E-003   5.6726703647856758E-002
  -1.8196623092375807E-002   9.0734060210708456E-003   5.7143705536497946E-002
  -1.8918047496822799E-002   9.3377386475907917E-003   5.4270315348097703E-002
  -1.9639471901269800E-002   9.5641624368589251E-003   4.8106533082656167E-002
  -7.7716746323210073E-004   1.3602865372183137E-003   8.7921936991419813E-002
  -9.3471519501801131E-004   8.3046527098590284E-004   8.9667970028710076E-002
  -1.0922629268039288E-003  -3.6563444177536986E-003   8.2179122958617734E-002
  -1.2498106585898377E-003  -1.2100142529000837E-002   6.5455395781142706E-002
  -1.4073583903757569E-003  -2.4500929062755583E-002   3.9496788496284907E-002
   1.6444974848409330E-003   3.4112555121284527E-003   7.8433537354620830E-002
  -5.2961739949784811E-003   3.4056463688335592E-003   7.4750690640230044E-002
  -1.2236845474797916E-002   1.1120748360956695E-003   6.6736476537154754E-002
  -1.9177516954617346E-002  -3.4694590860857265E-003   5.4390895045395182E-002
  -2.6118188434436744E-002  -1.0338955397709904E-002   3.7713946164951162E-002
  -6.9199827214100687E-004   5.4622244870386472E-003   6.8634836824227302E-002
  -9.5122807812956685E-003   5.9808274666812988E-003   6.1192136391219717E-002
  -1.8332563290450330E-002   5.8804940899449820E-003   5.4321581288225965E-002
  -2.7152845799604978E-002   5.1612243568297453E-003   4.8023171515246127E-002
  -3.5973128308759650E-002   3.8230182673357760E-003   4.2296907072280288E-002
  -7.7866547341779169E-003   7.5131934619488139E-003   5.8525835400239118E-002
  -1.3583035553969534E-002   8.5560085645288858E-003   4.8992307281678832E-002
  -1.9379416373761161E-002   1.0648913343794378E-002   4.4934437211830748E-002
  -2.5175797193552785E-002   1.3791907799745148E-002   4.6352225190695012E-002
  -3.0972178013344398E-002   1.7984991932381567E-002   5.3245671218271215E-002
  -1.9639471901269800E-002   9.5641624368589251E-003   4.8106533082656167E-002
  -1.7508438313000106E-002   1.1131189662376473E-002   3.8151203311607651E-002
  -1.5377404724730433E-002   1.5417332597643676E-002   3.8575044307969569E-002
  -1.3246371136460759E-002   2.2422591242660387E-002   4.9378056071742241E-002
  -1.1115337548191065E-002   3.2146965597427135E-002   7.0560238602924930E-002
  -2.6618362885632123E-002   0.0000000000000000        2.9450454395040702E-002
  -2.7215280208263481E-002   5.7747988092623874E-004   3.4922760998616166E-002
  -2.7812197530894842E-002   1.3048118833673510E-003   4.0097440075000351E-002
  -2.8409114853526204E-002   2.1819960073233297E-003   4.4974491624193251E-002
  -2.9006032176157562E-002   3.2090322527941802E-003   4.9553915646194859E-002
  -3.3393045806898350E-002   0.0000000000000000        3.0152308393468406E-002
  -3.4225596298205811E-002   9.5355903205675881E-004   3.5243126424952240E-002
  -3.5058146789513266E-002   2.0119277748538306E-003   4.0160305646275159E-002
  -3.5890697280820727E-002   3.1751062283912187E-003   4.4903846057437170E-002
  -3.6723247772128188E-002   4.4430943926689094E-003   4.9473747658438268E-002
  -4.0738542574898985E-002   0.0000000000000000        3.1252762748413911E-002
  -4.1682737517852182E-002   1.3296381831872802E-003   3.5917049797031558E-002
  -4.2626932460805365E-002   2.7190436663403154E-003   4.0531686752518663E-002
  -4.3571127403758549E-002   4.1682164494591086E-003   4.5096673614875224E-002
  -4.4515322346711739E-002   5.6771565325436533E-003   4.9612010384101249E-002
  -4.8654853189634022E-002   0.0000000000000000        3.2751817459877208E-002
  -4.9586703867202570E-002   1.7057173343178013E-003   3.6944531114854115E-002
  -5.0518554544771110E-002   3.4261595578267993E-003   4.1211583393730850E-002
  -5.1450405222339665E-002   5.1613266705269906E-003   4.5552974296507405E-002
  -5.2382255899908227E-002   6.9112186724183938E-003   4.9968703823183788E-002
  -5.7141977651103459E-002   0.0000000000000000        3.4649472527858313E-002
  -5.7937495346257001E-002   2.0817964854483208E-003   3.8325570378419924E-002
  -5.8733013041410549E-002   4.1332754493132815E-003   4.2199995569911726E-002
  -5.9528530736564084E-002   6.1544368915948874E-003   4.6272748102333713E-002
  -6.0324048431717611E-002   8.1452808122931264E-003   5.0543827975685907E-002
  -2.9006032176157562E-002   3.2090322527941802E-003   4.9553915646194859E-002
  -2.9074807995818939E-002   4.2250561487729059E-003   5.1605589258815796E-002
  -2.9143583815480323E-002   5.0692032242525224E-003   5.3723757496730327E-002
  -2.9212359635141696E-002   5.7414734792330269E-003   5.5908420359938454E-002
  -2.9281135454803077E-002   6.2418669137144223E-003   5.8159577848440183E-002
  -3.6723247772128188E-002   4.4430943926689094E-003   4.9473747658438268E-002
  -3.6755273883454891E-002   5.6746059149079906E-003   5.1245997467829020E-002
  -3.6787299994781600E-002   6.7283544423294974E-003   5.3025252068595527E-002
  -3.6819326106108316E-002   7.6043399749334446E-003   5.4811511460737768E-002
  -3.6851352217435025E-002   8.3025625127198383E-003   5.6604775644255770E-002
  -4.4515322346711739E-002   5.6771565325436533E-003   4.9612010384101249E-002
  -4.4570088583621617E-002   7.1241556810430640E-003   5.1098950215943351E-002
  -4.4624854820531502E-002   8.3875056604064725E-003   5.2533405005243380E-002
  -4.4679621057441381E-002   9.4672064706338797E-003   5.3915374752001297E-002
  -4.4734387294351266E-002   1.0363258111725268E-002   5.5244859456217127E-002
  -5.2382255899908227E-002   6.9112186724183938E-003   4.9968703823183788E-002
  -5.2519252096319108E-002   8.5737054471781617E-003   5.1164447503158822E-002
  -5.2656248292730023E-002   1.0046656878483448E-002   5.2248216306673922E-002
  -5.2793244489140925E-002   1.1330072966334283E-002   5.3220010233729083E-002
  -5.2930240685551820E-002   1.2423953710730684E-002   5.4079829284324289E-002
  -6.0324048431717611E-002   8.1452808122931264E-003   5.0543827975685907E-002
  -6.0602764421547391E-002   1.0023255213313226E-002   5.1442489329475392E-002
  -6.0881480411377149E-002   1.1705808096560428E-002   5.2169685972887125E-002
  -6.1160196401206915E-002   1.3192939462034727E-002   5.2725417905921036E-002
  -6.1438912391036681E-002   1.4484649309736128E-002   5.3109685128577194E-002
  -2.9281135454803077E-002   6.2418669137144223E-003   5.8159577848440183E-002
  -2.8917750659785999E-002   6.6239563827349829E-003   5.8887155146810422E-002
  -2.8554365864768918E-002   6.9413147413329955E-003   5.9710174351434421E-002
  -2.8190981069751847E-002   7.1939419895085599E-003   6.0628635462312105E-002
  -2.7827596274734769E-002   7.3818381272614947E-003   6.1642538479443579E-002
  -3.6851352217435025E-002   8.3025625127198383E-003   5.6604775644255770E-002
  -3.6361558974331111E-002   8.8404462649614053E-003   5.6946678326827496E-002
  -3.5871765731227197E-002   9.2354154409308060E-003   5.7445955999319155E-002
  -3.5381972488123269E-002   9.4874700406281584E-003   5.8102608661730767E-002
  -3.4892179245019354E-002   9.5966100640533653E-003   5.8916636314062291E-002
  -4.4734387294351266E-002   1.0363258111725268E-002   5.5244859456217127E-002
  -4.4056252519494313E-002   1.1056936147187814E-002   5.5122904057140751E-002
  -4.3378117744637346E-002   1.1529516140528646E-002   5.5220256731650506E-002
  -4.2699982969780399E-002   1.1780998091747787E-002   5.5536917479746428E-002
  -4.2021848194923439E-002   1.1811382000845215E-002   5.6072886301428482E-002
  -5.2930240685551820E-002   1.2423953710730684E-002   5.4079829284324289E-002
  -5.2001831295275608E-002   1.3273426029414229E-002   5.3415832337750206E-002
  -5.1073421904999410E-002   1.3823616840126479E-002   5.3033076548428475E-002
  -5.0145012514723190E-002   1.4074526142867414E-002   5.2931561916359136E-002
  -4.9216603124446992E-002   1.4026153937637075E-002   5.3111288441542046E-002
  -6.1438912391036681E-002   1.4484649309736128E-002   5.3109685128577194E-002
  -6.0198295301675024E-002   1.5489915911640638E-002   5.1825463168655828E-002
  -5.8957678212313361E-002   1.6117717539724297E-002   5.0884415449653039E-002
  -5.7717061122951704E-002   1.6368054193987035E-002   5.0286541971568774E-002
  -5.6476444033590041E-002   1.6240925874428949E-002   5.0031842734403101E-002
  -2.7827596274734769E-002   7.3818381272614947E-003   6.1642538479443579E-002
  -2.7152014803177322E-002   7.5483702956729223E-003   6.1236147261508903E-002
  -2.6476433331619871E-002   7.7369056358238021E-003   6.0656061968233706E-002
  -2.5800851860062424E-002   7.9474441477141583E-003   5.9902282599618023E-002
  -2.5125270388504976E-002   8.1799858313440221E-003   5.8974809155661750E-002
  -3.4892179245019354E-002   9.5966100640533653E-003   5.8916636314062291E-002
  -3.4279947086103976E-002   9.6362139559453344E-003   5.8568426621679139E-002
  -3.3667714927188598E-002   9.6796601610429807E-003   5.8267212379352354E-002
  -3.3055482768273241E-002   9.7269486793462069E-003   5.8012993587081937E-002
  -3.2443250609357842E-002   9.7780795108551033E-003   5.7805770244867896E-002
  -4.2021848194923439E-002   1.1811382000845215E-002   5.6072886301428482E-002
  -4.1252275823253234E-002   1.1724057616217708E-002   5.5764697276063008E-002
  -4.0482703451583051E-002   1.1622414686262047E-002   5.5724193226150853E-002
  -3.9713131079912853E-002   1.1506453210978214E-002   5.5951374151691900E-002
  -3.8943558708242648E-002   1.1376173190366226E-002   5.6446240052686288E-002
  -4.9216603124446992E-002   1.4026153937637075E-002   5.3111288441542046E-002
  -4.8069001014625086E-002   1.3811901276490074E-002   5.2824959224660496E-002
  -4.6921398904803173E-002   1.3565169211481154E-002   5.3027004508629079E-002
  -4.5773796794981267E-002   1.3285957742610242E-002   5.3717424293447794E-002
  -4.4626194685159354E-002   1.2974266869877328E-002   5.4896218579116710E-002
  -5.6476444033590041E-002   1.6240925874428949E-002   5.0031842734403101E-002
  -5.4730122660219531E-002   1.5899744936762508E-002   4.9749212467471590E-002
  -5.2983801286849014E-002   1.5507923736700267E-002   5.0175646226787156E-002
  -5.1237479913478504E-002   1.5065462274242276E-002   5.1311144012349819E-002
  -4.9491158540107993E-002   1.4572360549388430E-002   5.3155705824159433E-002
  -2.5125270388504976E-002   8.1799858313440221E-003   5.8974809155661750E-002
  -2.4481501603334597E-002   8.3632653311135757E-003   5.7393410524716887E-002
  -2.3837732818164224E-002   8.4260172914231227E-003   5.5799986716700875E-002
  -2.3193964032993862E-002   8.3682417122723802E-003   5.4194537731613680E-002
  -2.2550195247823479E-002   8.1899385936617941E-003   5.2577063569455351E-002
  -3.2443250609357842E-002   9.7780795108551033E-003   5.7805770244867896E-002
  -3.1789940653070413E-002   9.7789650140179124E-003   5.6951179829400303E-002
  -3.1136630696782987E-002   9.6755175472827207E-003   5.6127696933238068E-002
  -3.0483320740495562E-002   9.4677371106495021E-003   5.5335321556381142E-002
  -2.9830010784208130E-002   9.1556237041184318E-003   5.4574053698829283E-002
  -3.8943558708242648E-002   1.1376173190366226E-002   5.6446240052686288E-002
  -3.8237574884461709E-002   1.1194664696922256E-002   5.6334652422258040E-002
  -3.7531591060680783E-002   1.0925017803142426E-002   5.6297305007511622E-002
  -3.6825607236899829E-002   1.0567232509026706E-002   5.6334197808446909E-002
  -3.6119623413118911E-002   1.0121308814575125E-002   5.6445330825063825E-002
  -4.4626194685159354E-002   1.2974266869877328E-002   5.4896218579116710E-002
  -4.3824404297508460E-002   1.2610364379826513E-002   5.5543828303290028E-002
  -4.3022613909857600E-002   1.2174518059001995E-002   5.6308810939521614E-002
  -4.2220823522206706E-002   1.1666727907403841E-002   5.7191166487811286E-002
  -4.1419033134555847E-002   1.1086993925031763E-002   5.8190894948159058E-002
  -4.9491158540107993E-002   1.4572360549388430E-002   5.3155705824159433E-002
  -4.8550428892210715E-002   1.4026064062730936E-002   5.4578707472496352E-002
  -4.7609699244313450E-002   1.3424018314861758E-002   5.6162214729267912E-002
  -4.6668969596416185E-002   1.2766223305780929E-002   5.7906227594473988E-002
  -4.5728239948518906E-002   1.2052679035488401E-002   5.9810746068114817E-002
  -2.2550195247823479E-002   8.1899385936617941E-003   5.2577063569455351E-002
  -2.1101090006738064E-002   8.0260806563199338E-003   5.0173404680634637E-002
  -1.9651984765652646E-002   8.0116406209749802E-003   4.9445892736480895E-002
  -1.8202879524567228E-002   8.1466184876275577E-003   5.0394527736994044E-002
  -1.6753774283481813E-002   8.4310142562771806E-003   5.3019309682174220E-002
  -2.9830010784208130E-002   9.1556237041184318E-003   5.4574053698829283E-002
  -2.7049553554178835E-002   8.8564462105425318E-003   5.2955614110662172E-002
  -2.4269096324149558E-002   8.6874735127748653E-003   5.2323731555715791E-002
  -2.1488639094120285E-002   8.6487056108151654E-003   5.2678406033990322E-002
  -1.8708181864090973E-002   8.7401425046638725E-003   5.4019637545485610E-002
  -3.6119623413118911E-002   1.0121308814575125E-002   5.6445330825063825E-002
  -3.2697404105591861E-002   9.6868117647652685E-003   5.5592897431361227E-002
  -2.9275184798064846E-002   9.3633064045744729E-003   5.5037431159433214E-002
  -2.5852965490537807E-002   9.1507927340029951E-003   5.4778932009279885E-002
  -2.2430746183010761E-002   9.0492707530506478E-003   5.4817399980901321E-002
  -4.1419033134555847E-002   1.1086993925031763E-002   5.8190894948159058E-002
  -3.8044641660977201E-002   1.0517177318987991E-002   5.8085254642731857E-002
  -3.4670250187398534E-002   1.0039139296374303E-002   5.7586991547633228E-002
  -3.1295858713819888E-002   9.6528798571906861E-003   5.6696105662863136E-002
  -2.7921467240241214E-002   9.3583990014373536E-003   5.5412596988421624E-002
  -4.5728239948518906E-002   1.2052679035488401E-002   5.9810746068114817E-002
  -4.3091266220334740E-002   1.1347542873210603E-002   6.0432685744774006E-002
  -4.0454292492150601E-002   1.0714972188173952E-002   5.9972412720315699E-002
  -3.7817318763966462E-002   1.0154966980378457E-002   5.8429926994739714E-002
  -3.5180345035782296E-002   9.6675272498241149E-003   5.5805228568046372E-002
  -1.6753774283481813E-002   8.4310142562771806E-003   5.3019309682174220E-002
  -1.7475198687928808E-002   8.7711645572997043E-003   5.6726703647856758E-002
  -1.8196623092375807E-002   9.0734060210708456E-003   5.7143705536497946E-002
  -1.8918047496822799E-002   9.3377386475907917E-003   5.4270315348097703E-002
  -1.9639471901269800E-002   9.5641624368589251E-003   4.8106533082656167E-002
  -1.8708181864090973E-002   8.7401425046638725E-003   5.4019637545485610E-002
  -2.1829520806994053E-002   8.8317989035101019E-003   5.6765514999910394E-002
  -2.4950859749897122E-002   8.7936895165428852E-003   5.8001955454464460E-002
  -2.8072198692800178E-002   8.6258143437624099E-003   5.7728958909147879E-002
  -3.1193537635703268E-002   8.3281733851686135E-003   5.5946525363960442E-002
  -2.2430746183010761E-002   9.0492707530506478E-003   5.4817399980901321E-002
  -2.6171044587199297E-002   8.8924332497203051E-003   5.6509903975506565E-002
  -2.9911342991387823E-002   8.5139730120147167E-003   5.8473926047411737E-002
  -3.3651641395576345E-002   7.9138900399339206E-003   6.0709466196616720E-002
  -3.7391939799764858E-002   7.0921843334779966E-003   6.3216524423121659E-002
  -2.7921467240241214E-002   9.3583990014373536E-003   5.5412596988421624E-002
  -3.0499770028544596E-002   8.9530675959305500E-003   5.5959870574645416E-002
  -3.3078072816847957E-002   8.2342565074867077E-003   5.8559617315339735E-002
  -3.5656375605151322E-002   7.2019657361055960E-003   6.3211837210504399E-002
  -3.8234678393454700E-002   5.8561952817873658E-003   6.9916530260139581E-002
  -3.5180345035782296E-002   9.6675272498241149E-003   5.5805228568046372E-002
  -3.4815697131029888E-002   9.0137019421408504E-003   5.5115414797326845E-002
  -3.4451049226277466E-002   7.9545400029585878E-003   5.8259029258248246E-002
  -3.4086401321525038E-002   6.4900414322771049E-003   6.5236071950810853E-002
  -3.3721753416772637E-002   4.6202062300969571E-003   7.6046542875014556E-002
  -1.9639471901269800E-002   9.5641624368589251E-003   4.8106533082656167E-002
  -1.7508438313000106E-002   1.1131189662376473E-002   3.8151203311607651E-002
  -1.5377404724730433E-002   1.5417332597643676E-002   3.8575044307969569E-002
  -1.3246371136460759E-002   2.2422591242660387E-002   4.9378056071742241E-002
  -1.1115337548191065E-002   3.2146965597427135E-002   7.0560238602924930E-002
  -3.1193537635703268E-002   8.3281733851686135E-003   5.5946525363960442E-002
  -2.1447064161982273E-002   8.7521459518717093E-003   5.0729182554403146E-002
  -1.1700590688261337E-002   1.0749111354982313E-002   5.0363548748337955E-002
  -1.9541172145403889E-003   1.4319069594500428E-002   5.4849623945764828E-002
   7.7923562591805870E-003   1.9462020670425906E-002   6.4187408146683778E-002
  -3.7391939799764858E-002   7.0921843334779966E-003   6.3216524423121659E-002
  -2.5557488204511022E-002   6.3731022413670013E-003   6.1591045701713351E-002
  -1.3723036609257142E-002   6.0808901123210538E-003   5.9289814219878757E-002
  -1.8885850140032048E-003   6.2155479463404124E-003   5.6312829977617801E-002
   9.9458665812505696E-003   6.7770757434248985E-003   5.2660092974930850E-002
  -3.8234678393454700E-002   5.8561952817873658E-003   6.9916530260139581E-002
  -2.9839710440586212E-002   3.9940585308620991E-003   7.0736792753537919E-002
  -2.1444742487717782E-002   1.4126688696599089E-003   6.5353840722591663E-002
  -1.3049774534849337E-002  -1.8879737018196860E-003   5.3767674167300619E-002
  -4.6548065819808360E-003  -5.9078691835761643E-003   3.5978293087665369E-002
  -3.3721753416772637E-002   4.6202062300969571E-003   7.6046542875014556E-002
  -3.4293730870207956E-002   1.6150148203574188E-003   7.8166423709877364E-002
  -3.4865708323643288E-002  -3.2555523730015412E-003   6.8555628256477041E-002
  -3.5437685777078648E-002  -9.9914953499796941E-003   4.7214156514814198E-002
  -3.6009663230513966E-002  -1.8592814110577338E-002   1.4142008484887780E-002
  -5.7141977651103459E-002   0.0000000000000000        3.4649472527858313E-002
  -5.7937495346257001E-002   2.0817964854483208E-003   3.8325570378419924E-002
  -5.8733013041410549E-002   4.1332754493132815E-003   4.2199995569911726E-002
  -5.9528530736564084E-002   6.1544368915948874E-003   4.6272748102333713E-002
  -6.0324048431717611E-002   8.1452808122931264E-003   5.0543827975685907E-002
  -6.5798726329027030E-002   0.0000000000000000        3.7170070380890055E-002
  -6.6620786568499291E-002   2.9146142473236193E-003   4.0808078786737353E-002
  -6.7442846807971538E-002   5.7699760696475321E-003   4.4194674763017056E-002
  -6.8264907047443785E-002   8.5660854669717332E-003   4.7329858309729148E-002
  -6.9086967286916046E-002   1.1302942439296217E-002   5.0213629426873616E-002
  -7.4223909593124471E-002   0.0000000000000000        4.0537953447505257E-002
  -7.5522252147413232E-002   3.7474320091989179E-003   4.4108937505221921E-002
  -7.6820594701701994E-002   7.4066766899817784E-003   4.6978769362873173E-002
  -7.8118937255990742E-002   1.0977734042348582E-002   4.9147449020459005E-002
  -7.9417279810279517E-002   1.4460604066299322E-002   5.0614976477979419E-002
  -8.2417527443395769E-002   0.0000000000000000        4.4753121727703946E-002
  -8.4641892082998854E-002   4.5802497710742181E-003   4.8228146533873605E-002
  -8.6866256722601939E-002   9.0433773103160246E-003   5.0552279369480063E-002
  -8.9090621362204997E-002   1.3389382617725425E-002   5.1725520234523280E-002
  -9.1314986001808082E-002   1.7618265693302427E-002   5.1747869129003296E-002
  -9.0379579879840924E-002   0.0000000000000000        4.9815575221486101E-002
  -9.3979706375256128E-002   5.4130675329495150E-003   5.3165705872692419E-002
  -9.7579832870671332E-002   1.0680077930650275E-002   5.4915204782837714E-002
 -0.10117995936608652        1.5801031193102281E-002   5.5064071951921992E-002
 -0.10478008586150174        2.0775927320305518E-002   5.3612307379945247E-002
  -6.0324048431717611E-002   8.1452808122931264E-003   5.0543827975685907E-002
  -6.0602764421547391E-002   1.0023255213313226E-002   5.1442489329475392E-002
  -6.0881480411377149E-002   1.1705808096560428E-002   5.2169685972887125E-002
  -6.1160196401206915E-002   1.3192939462034727E-002   5.2725417905921036E-002
  -6.1438912391036681E-002   1.4484649309736128E-002   5.3109685128577194E-002
  -6.9086967286916046E-002   1.1302942439296217E-002   5.0213629426873616E-002
  -6.9310282596559289E-002   1.3743595691366333E-002   4.9407474236421375E-002
  -6.9533597906202504E-002   1.5651093927927413E-002   4.8883585116720002E-002
  -6.9756913215845734E-002   1.7025437148979427E-002   4.8641962067769474E-002
  -6.9980228525488963E-002   1.7866625354522395E-002   4.8682605089569779E-002
  -7.9417279810279517E-002   1.4460604066299322E-002   5.0614976477979419E-002
  -7.9131463658607584E-002   1.7463936169419450E-002   4.7766271245549316E-002
  -7.8845647506935651E-002   1.9596379759294368E-002   4.5653562864998679E-002
  -7.8559831355263704E-002   2.0857934835924130E-002   4.4276851336327541E-002
  -7.8274015203591812E-002   2.1248601399308682E-002   4.3636136659535862E-002
  -9.1314986001808082E-002   1.7618265693302427E-002   5.1747869129003296E-002
  -9.0066307607692367E-002   2.1184276647472546E-002   4.6518880356859187E-002
  -8.8817629213576638E-002   2.3541665590661360E-002   4.2479619217723148E-002
  -8.7568950819460908E-002   2.4690432522868833E-002   3.9630085711595257E-002
  -8.6320272425345193E-002   2.4630577444094998E-002   3.7970279838475493E-002
 -0.10478008586150174        2.0775927320305518E-002   5.3612307379945247E-002
 -0.10211481444381357        2.4904617125525670E-002   4.5665301570350939E-002
  -9.9449543026125395E-002   2.7486951422028311E-002   3.9361754174893418E-002
  -9.6784271608437250E-002   2.8522930209813526E-002   3.4701665193572651E-002
  -9.4119000190749064E-002   2.8012553488881244E-002   3.1685034626388574E-002
  -6.1438912391036681E-002   1.4484649309736128E-002   5.3109685128577194E-002
  -6.0198295301675024E-002   1.5489915911640638E-002   5.1825463168655828E-002
  -5.8957678212313361E-002   1.6117717539724297E-002   5.0884415449653039E-002
  -5.7717061122951704E-002   1.6368054193987035E-002   5.0286541971568774E-002
  -5.6476444033590041E-002   1.6240925874428949E-002   5.0031842734403101E-002
  -6.9980228525488963E-002   1.7866625354522395E-002   4.8682605089569779E-002
  -6.8415073327631470E-002   1.8326648140889079E-002   4.7323956055242949E-002
  -6.6849918129773964E-002   1.8557495104412271E-002   4.6271208996989235E-002
  -6.5284762931916471E-002   1.8559166245091865E-002   4.5524363914808623E-002
  -6.3719607734058992E-002   1.8331661562927939E-002   4.5083420808701161E-002
  -7.8274015203591812E-002   2.1248601399308682E-002   4.3636136659535862E-002
  -7.6421594162083883E-002   2.1163380370137552E-002   4.2351349701780915E-002
  -7.4569173120575996E-002   2.0997272669100217E-002   4.1335192455253619E-002
  -7.2716752079068123E-002   2.0750278296196672E-002   4.0587664919953997E-002
  -7.0864331037560208E-002   2.0422397251426923E-002   4.0108767095882070E-002
  -8.6320272425345193E-002   2.4630577444094998E-002   3.7970279838475493E-002
  -8.4217857805032326E-002   2.4000112599386038E-002   3.6907644108269702E-002
  -8.2115443184719458E-002   2.3437050233788212E-002   3.6076365824446149E-002
  -8.0013028564406619E-002   2.2941390347301492E-002   3.5476444987004890E-002
  -7.7910613944093751E-002   2.2513132939925910E-002   3.5107881595945800E-002
  -9.4119000190749064E-002   2.8012553488881244E-002   3.1685034626388574E-002
  -9.1803864256476742E-002   2.6836844828634479E-002   3.0992839274709340E-002
  -8.9488728322204350E-002   2.5876827798476151E-002   3.0494729104566912E-002
  -8.7173592387932000E-002   2.5132502398406326E-002   3.0190704115961253E-002
  -8.4858456453659636E-002   2.4603868628424910E-002   3.0080764308892408E-002
  -5.6476444033590041E-002   1.6240925874428949E-002   5.0031842734403101E-002
  -5.4730122660219531E-002   1.5899744936762508E-002   4.9749212467471590E-002
  -5.2983801286849014E-002   1.5507923736700267E-002   5.0175646226787156E-002
  -5.1237479913478504E-002   1.5065462274242276E-002   5.1311144012349819E-002
  -4.9491158540107993E-002   1.4572360549388430E-002   5.3155705824159433E-002
  -6.3719607734058992E-002   1.8331661562927939E-002   4.5083420808701161E-002
  -6.1369707203521535E-002   1.7963226638189861E-002   4.4742083607306971E-002
  -5.9019806672984093E-002   1.7542107051147084E-002   4.4898840693999624E-002
  -5.6669906142446658E-002   1.7068302801799613E-002   4.5553692068779073E-002
  -5.4320005611909250E-002   1.6541813890147444E-002   4.6706637731645295E-002
  -7.0864331037560208E-002   2.0422397251426923E-002   4.0108767095882070E-002
  -6.8121821088016107E-002   2.0026708339617234E-002   3.9706678560116268E-002
  -6.5379311138471966E-002   1.9576290365593954E-002   3.9591714574277105E-002
  -6.2636801188927838E-002   1.9071143329357002E-002   3.9763875138364456E-002
  -5.9894291239383723E-002   1.8511267230906431E-002   4.0223160252378390E-002
  -7.7910613944093751E-002   2.2513132939925910E-002   3.5107881595945800E-002
  -7.4986464313703219E-002   2.2090190041044653E-002   3.4642997325899531E-002
  -7.2062314683312631E-002   2.1610473680040786E-002   3.4254267867619460E-002
  -6.9138165052922099E-002   2.1073983856914408E-002   3.3941693221105816E-002
  -6.6214015422531525E-002   2.0480720571665403E-002   3.3705273386358543E-002
  -8.4858456453659636E-002   2.4603868628424910E-002   3.0080764308892408E-002
  -8.1963636880582877E-002   2.4153671742471960E-002   2.9551039904656629E-002
  -7.9068817307506117E-002   2.3644656994487642E-002   2.8886500574027009E-002
  -7.6173997734429330E-002   2.3076824384471742E-002   2.8087146317003413E-002
  -7.3279178161352571E-002   2.2450173912424404E-002   2.7152977133585859E-002
  -4.9491158540107993E-002   1.4572360549388430E-002   5.3155705824159433E-002
  -4.8550428892210715E-002   1.4026064062730936E-002   5.4578707472496352E-002
  -4.7609699244313450E-002   1.3424018314861758E-002   5.6162214729267912E-002
  -4.6668969596416185E-002   1.2766223305780929E-002   5.7906227594473988E-002
  -4.5728239948518906E-002   1.2052679035488401E-002   5.9810746068114817E-002
  -5.4320005611909250E-002   1.6541813890147444E-002   4.6706637731645295E-002
  -5.3214909906687681E-002   1.5973770039896418E-002   4.7344974035146314E-002
  -5.2109814201466119E-002   1.5375300974752336E-002   4.8151536844861287E-002
  -5.1004718496244564E-002   1.4746406694715294E-002   4.9126326160790143E-002
  -4.9899622791022974E-002   1.4087087199785187E-002   5.0269341982933091E-002
  -5.9894291239383723E-002   1.8511267230906431E-002   4.0223160252378390E-002
  -5.8617108579058538E-002   1.7921476017061899E-002   4.0102155257362070E-002
  -5.7339925918733346E-002   1.7326583634642859E-002   4.0157097666339084E-002
  -5.6062743258408140E-002   1.6726590083649687E-002   4.0387987479309433E-002
  -5.4785560598082969E-002   1.6121495364082000E-002   4.0794824696273019E-002
  -6.6214015422531525E-002   2.0480720571665403E-002   3.3705273386358543E-002
  -6.4757024909323294E-002   1.9869181994227353E-002   3.2850251139143631E-002
  -6.3300034396115146E-002   1.9277866294533409E-002   3.2178897193701414E-002
  -6.1843043882906991E-002   1.8706773472583982E-002   3.1691211550031816E-002
  -6.0386053369698753E-002   1.8155903528378772E-002   3.1387194208134891E-002
  -7.3279178161352571E-002   2.2450173912424404E-002   2.7152977133585859E-002
  -7.1634658897482051E-002   2.1816887971392848E-002   2.5589261680491054E-002
  -6.9990139633611531E-002   2.1229148954423967E-002   2.4216935426948069E-002
  -6.8345620369741011E-002   2.0686956861518474E-002   2.3035998372957230E-002
  -6.6701101105870492E-002   2.0190311692675600E-002   2.2046450518518390E-002
  -4.5728239948518906E-002   1.2052679035488401E-002   5.9810746068114817E-002
  -4.3091266220334740E-002   1.1347542873210603E-002   6.0432685744774006E-002
  -4.0454292492150601E-002   1.0714972188173952E-002   5.9972412720315699E-002
  -3.7817318763966462E-002   1.0154966980378457E-002   5.8429926994739714E-002
  -3.5180345035782296E-002   9.6675272498241149E-003   5.5805228568046372E-002
  -4.9899622791022974E-002   1.4087087199785187E-002   5.0269341982933091E-002
  -4.8056853225949610E-002   1.3409356597442024E-002   5.0497819471697181E-002
  -4.6214083660876239E-002   1.2725228995165552E-002   5.0220101335357203E-002
  -4.4371314095802861E-002   1.2034704392955804E-002   4.9436187573913215E-002
  -4.2528544530729503E-002   1.1337782790812767E-002   4.8146078187365271E-002
  -5.4785560598082969E-002   1.6121495364082000E-002   4.0794824696273019E-002
  -5.3160978120106853E-002   1.5471170321673333E-002   4.0550877519967513E-002
  -5.1536395642130702E-002   1.4735485802156993E-002   4.0376751794571557E-002
  -4.9911813164154537E-002   1.3914441805533041E-002   4.0272447520085158E-002
  -4.8287230686178427E-002   1.3008038331801308E-002   4.0237964696508310E-002
  -6.0386053369698753E-002   1.8155903528378772E-002   3.1387194208134891E-002
  -5.8403640902806309E-002   1.7532984045904615E-002   3.0591859889585422E-002
  -5.6421228435913871E-002   1.6745742609148458E-002   3.0442364097959015E-002
  -5.4438815969021406E-002   1.5794179218110223E-002   3.0938706833255732E-002
  -5.2456403502128941E-002   1.4678293872789794E-002   3.2080888095475490E-002
  -6.6701101105870492E-002   2.0190311692675600E-002   2.2046450518518390E-002
  -6.3784841574048151E-002   1.9594797770136008E-002   2.0620766580550509E-002
  -6.0868582042225838E-002   1.8755999416140021E-002   2.0416938245519295E-002
  -5.7952322510403498E-002   1.7673916630687594E-002   2.1434965513424706E-002
  -5.5036062978581157E-002   1.6348549413778501E-002   2.3674848384266867E-002
  -3.5180345035782296E-002   9.6675272498241149E-003   5.5805228568046372E-002
  -3.4815697131029888E-002   9.0137019421408504E-003   5.5115414797326845E-002
  -3.4451049226277466E-002   7.9545400029585878E-003   5.8259029258248246E-002
  -3.4086401321525038E-002   6.4900414322771049E-003   6.5236071950810853E-002
  -3.3721753416772637E-002   4.6202062300969571E-003   7.6046542875014556E-002
  -4.2528544530729503E-002   1.1337782790812767E-002   4.8146078187365271E-002
  -3.9169693979620418E-002   1.0537819641102675E-002   4.7904040807509790E-002
  -3.5810843428511395E-002   9.5381703961918141E-003   4.9816980488726320E-002
  -3.2451992877402330E-002   8.3388350560803376E-003   5.3884897231015402E-002
  -2.9093142326293286E-002   6.9398136207680650E-003   6.0107791034376357E-002
  -4.8287230686178427E-002   1.3008038331801308E-002   4.0237964696508310E-002
  -4.3612628659281588E-002   1.2061937340064527E-002   4.0649354243815022E-002
  -3.8938026632384728E-002   1.1121800789425262E-002   4.1537269681625119E-002
  -3.4263424605487910E-002   1.0187628679883459E-002   4.2901711009938476E-002
  -2.9588822578591016E-002   9.2594210114391173E-003   4.4742678228755189E-002
  -5.2456403502128941E-002   1.4678293872789794E-002   3.2080888095475490E-002
  -4.8144501170013176E-002   1.3586055039026365E-002   3.3351355106242778E-002
  -4.3832598837897453E-002   1.2705431182658600E-002   3.3419896836944338E-002
  -3.9520696505781737E-002   1.2036422303686636E-002   3.2286513287580552E-002
  -3.5208794173666028E-002   1.1579028402110086E-002   2.9951204458151123E-002
  -5.5036062978581157E-002   1.6348549413778501E-002   2.3674848384266867E-002
  -5.2765311511815377E-002   1.5110172737988203E-002   2.6010043394792792E-002
  -5.0494560045049597E-002   1.4289061575891951E-002   2.5464861954684365E-002
  -4.8223808578283844E-002   1.3885215927489678E-002   2.2039304063941514E-002
  -4.5953057111518036E-002   1.3898635792781333E-002   1.5733369722564228E-002
  -3.3721753416772637E-002   4.6202062300969571E-003   7.6046542875014556E-002
  -3.4293730870207956E-002   1.6150148203574188E-003   7.8166423709877364E-002
  -3.4865708323643288E-002  -3.2555523730015412E-003   6.8555628256477041E-002
  -3.5437685777078648E-002  -9.9914953499796941E-003   4.7214156514814198E-002
  -3.6009663230513966E-002  -1.8592814110577338E-002   1.4142008484887780E-002
  -2.9093142326293286E-002   6.9398136207680650E-003   6.0107791034376357E-002
  -3.8737284990304148E-002   4.9420412918027290E-003   5.8330295866287046E-002
  -4.8381427654314996E-002   1.9464532707321736E-003   5.0139146565309739E-002
  -5.8025570318325830E-002  -2.0469504424431850E-003   3.5534343131444240E-002
  -6.7669712982336705E-002  -7.0381698477244292E-003   1.4515885564690523E-002
  -2.9588822578591016E-002   9.2594210114391173E-003   4.4742678228755189E-002
  -4.2988108297802627E-002   8.2690677632479281E-003   3.9935367149228129E-002
  -5.6387394017014175E-002   7.1484589144659300E-003   3.4031424092187720E-002
  -6.9786679736225765E-002   5.8975944650929042E-003   2.7030849057634053E-002
  -8.3185965455437341E-002   4.5164744151288128E-003   1.8933642045567023E-002
  -3.5208794173666028E-002   1.1579028402110086E-002   2.9951204458151123E-002
  -4.7046200792703406E-002   1.1596094234693294E-002   2.2981637558700432E-002
  -5.8883607411740882E-002   1.2350464558199666E-002   2.0232460837111225E-002
  -7.0721014030778323E-002   1.3842139372629092E-002   2.1703674293383518E-002
  -8.2558420649815834E-002   1.6071118677981833E-002   2.7395277927517517E-002
  -4.5953057111518036E-002   1.3898635792781333E-002   1.5733369722564228E-002
  -5.0911562475006555E-002   1.4923120706138604E-002   7.4691070947039973E-003
  -5.5870067838495047E-002   1.7552470201933304E-002   8.7422568000802559E-003
  -6.0828573201983635E-002   2.1786684280165423E-002   1.9552818838692768E-002
  -6.5787078565472112E-002   2.7625762940834964E-002   3.9900793210541741E-002
  -9.0379579879840924E-002   0.0000000000000000        4.9815575221486101E-002
  -9.3979706375256128E-002   5.4130675329495150E-003   5.3165705872692419E-002
  -9.7579832870671332E-002   1.0680077930650275E-002   5.4915204782837714E-002
 -0.10117995936608652        1.5801031193102281E-002   5.5064071951921992E-002
 -0.10478008586150174        2.0775927320305518E-002   5.3612307379945247E-002
 -0.10333015390534692        0.0000000000000000        5.8653535181053568E-002
 -0.10685643581632645        1.0889215799901271E-002   5.2095896979524638E-002
 -0.11038271772730596        1.9177215562483002E-002   4.7286579687928071E-002
 -0.11390899963828548        2.4863999287745207E-002   4.4225583306263874E-002
 -0.11743528154926502        2.7949566975687849E-002   4.2912907834532076E-002
 -0.12648933652280073        0.0000000000000000        7.4195222858608176E-002
 -0.12659282119835116        1.6365364066853023E-002   5.5274656902273206E-002
 -0.12669630587390163        2.7674353194315725E-002   4.1451364506863993E-002
 -0.12679979054945206        3.3926967382388123E-002   3.2725345672380578E-002
 -0.12690327522500250        3.5123206631070172E-002   2.9096600398822954E-002
 -0.15985712773220234        0.0000000000000000        9.6440638254149932E-002
 -0.15318886252133032        2.1841512333804776E-002   6.2701985640938138E-002
 -0.14652059731045827        3.6171490826148449E-002   3.7409559239645514E-002
 -0.13985233209958622        4.2989935477031033E-002   2.0563359050272064E-002
 -0.13318406688871423        4.2296846286452514E-002   1.2163385072817813E-002
 -0.20343352753355179        0.0000000000000000       0.12538978136767884     
 -0.18664455978526387        2.7317660600756532E-002   7.4377883195519440E-002
 -0.16985559203697595        4.4668628457981176E-002   3.5161163886272599E-002
 -0.15306662428868806        5.2052903571673977E-002   7.7396234399383784E-003
 -0.13627765654040014        4.9470485941834827E-002  -7.8867381434833336E-003
 -0.10478008586150174        2.0775927320305518E-002   5.3612307379945247E-002
 -0.10211481444381357        2.4904617125525670E-002   4.5665301570350939E-002
  -9.9449543026125395E-002   2.7486951422028311E-002   3.9361754174893418E-002
  -9.6784271608437250E-002   2.8522930209813526E-002   3.4701665193572651E-002
  -9.4119000190749064E-002   2.8012553488881244E-002   3.1685034626388574E-002
 -0.11743528154926502        2.7949566975687849E-002   4.2912907834532076E-002
 -0.11350004915477428        2.9416088554526182E-002   3.6687990754826073E-002
 -0.10956481676028360        3.0245733952475321E-002   3.1359537214588409E-002
 -0.10562958436579287        3.0438503169535246E-002   2.6927547213819108E-002
 -0.10169435197130217        2.9994396205706063E-002   2.3392020752518172E-002
 -0.12690327522500250        3.5123206631070172E-002   2.9096600398822954E-002
 -0.12244507672837762        3.3927559983526659E-002   2.5503251376833500E-002
 -0.11798687823175275        3.3004516482922269E-002   2.2059371019644027E-002
 -0.11352867973512788        3.2354076129256990E-002   1.8764959327254520E-002
 -0.10907048123850302        3.1976238922530889E-002   1.5620016299664917E-002
 -0.13318406688871423        4.2296846286452514E-002   1.2163385072817813E-002
 -0.12894989716462357        3.8439031412527185E-002   1.2111083436373220E-002
 -0.12471572744053294        3.5763299013369269E-002   1.1461255590060226E-002
 -0.12048155771644230        3.4269649088978754E-002   1.0213901533878859E-002
 -0.11624738799235168        3.3958081639355736E-002   8.3690212678289681E-003
 -0.13627765654040014        4.9470485941834827E-002  -7.8867381434833336E-003
 -0.13301451046351212        4.2950502841527675E-002  -3.4885130665547152E-003
 -0.12975136438662410        3.8522081543816249E-002  -4.3480907416288371E-004
 -0.12648821830973614        3.6185222048700436E-002   1.2743738336921371E-003
 -0.12322507223284809        3.5939924356180514E-002   1.6390356570102627E-003
  -9.4119000190749064E-002   2.8012553488881244E-002   3.1685034626388574E-002
  -9.1803864256476742E-002   2.6836844828634479E-002   3.0992839274709340E-002
  -8.9488728322204350E-002   2.5876827798476151E-002   3.0494729104566912E-002
  -8.7173592387932000E-002   2.5132502398406326E-002   3.0190704115961253E-002
  -8.4858456453659636E-002   2.4603868628424910E-002   3.0080764308892408E-002
 -0.10169435197130217        2.9994396205706063E-002   2.3392020752518172E-002
  -9.9203480197935637E-002   2.9235098823420087E-002   2.2991792058780481E-002
  -9.6712608424569094E-002   2.8482296785109627E-002   2.2748949861694394E-002
  -9.4221736651202551E-002   2.7735990090774792E-002   2.2663494161259855E-002
  -9.1730864877836049E-002   2.6996178740415502E-002   2.2735424957476852E-002
 -0.10907048123850302        3.1976238922530889E-002   1.5620016299664917E-002
 -0.10644057231092760        3.1633352818205694E-002   1.5302557977755990E-002
 -0.10381066338335217        3.1087765771743124E-002   1.5105787467613336E-002
 -0.10118075445577675        3.0339477783143311E-002   1.5029704769236978E-002
  -9.8550845528201328E-002   2.9388488852406032E-002   1.5074309882626941E-002
 -0.11624738799235168        3.3958081639355736E-002   8.3690212678289681E-003
 -0.11351514059545259        3.4031606812991291E-002   7.9251370316358507E-003
 -0.11078289319855353        3.3693234758376607E-002   7.5652419223238149E-003
 -0.10805064580165442        3.2942965475511697E-002   7.2893359398926811E-003
 -0.10531839840475535        3.1780798964396506E-002   7.0974190843426212E-003
 -0.12322507223284809        3.5939924356180514E-002   1.6390356570102627E-003
 -0.12042718505151065        3.6429860807776895E-002   8.5952922041999946E-004
 -0.11762929787017316        3.6298703745010048E-002   1.2731322582550803E-004
 -0.11483141068883571        3.5546453167880299E-002  -5.5761232677300522E-004
 -0.11203352350749823        3.4173109076387154E-002  -1.1952474373760902E-003
  -8.4858456453659636E-002   2.4603868628424910E-002   3.0080764308892408E-002
  -8.1963636880582877E-002   2.4153671742471960E-002   2.9551039904656629E-002
  -7.9068817307506117E-002   2.3644656994487642E-002   2.8886500574027009E-002
  -7.6173997734429330E-002   2.3076824384471742E-002   2.8087146317003413E-002
  -7.3279178161352571E-002   2.2450173912424404E-002   2.7152977133585859E-002
  -9.1730864877836049E-002   2.6996178740415502E-002   2.2735424957476852E-002
  -8.8922619755581939E-002   2.6283511846837075E-002   2.2300856656400810E-002
  -8.6114374633327828E-002   2.5618638522844638E-002   2.1827954380073469E-002
  -8.3306129511073773E-002   2.5001558768438594E-002   2.1316718128494623E-002
  -8.0497884388819607E-002   2.4432272583618603E-002   2.0767147901664465E-002
  -9.8550845528201328E-002   2.9388488852406032E-002   1.5074309882626941E-002
  -9.5732693905627345E-002   2.8413351951202093E-002   1.4841509116328321E-002
  -9.2914542283053375E-002   2.7592620051201833E-002   1.4666855325920885E-002
  -9.0096390660479420E-002   2.6926293152405502E-002   1.4550348511404486E-002
  -8.7278239037905464E-002   2.6414371254812871E-002   1.4491988672779336E-002
 -0.10531839840475535        3.1780798964396506E-002   7.0974190843426212E-003
 -0.10239385933071904        3.0543192055567062E-002   7.1729972844391280E-003
  -9.9469320256682689E-002   2.9566601579558954E-002   7.4032034115692792E-003
  -9.6544781182646366E-002   2.8851027536372312E-002   7.7880374657329672E-003
  -9.3620242108610002E-002   2.8396469926007022E-002   8.3274994469303195E-003
 -0.11203352350749823        3.4173109076387154E-002  -1.1952474373760902E-003
 -0.10890611603085704        3.2673032159932197E-002  -7.0467883926678132E-004
 -0.10577870855421581        3.1540583107916007E-002   3.6998637018392788E-005
 -0.10265130107757457        3.0775761920339272E-002   1.0297849914796958E-003
  -9.9523893600933389E-002   3.0378568597201394E-002   2.2736802241175025E-003
  -7.3279178161352571E-002   2.2450173912424404E-002   2.7152977133585859E-002
  -7.1634658897482051E-002   2.1816887971392848E-002   2.5589261680491054E-002
  -6.9990139633611531E-002   2.1229148954423967E-002   2.4216935426948069E-002
  -6.8345620369741011E-002   2.0686956861518474E-002   2.3035998372957230E-002
  -6.6701101105870492E-002   2.0190311692675600E-002   2.2046450518518390E-002
  -8.0497884388819607E-002   2.4432272583618603E-002   2.0767147901664465E-002
  -7.8630960112988146E-002   2.3856721463903413E-002   1.9665411581702985E-002
  -7.6764035837156630E-002   2.3220846904811500E-002   1.8817096086111394E-002
  -7.4897111561325086E-002   2.2524648906342780E-002   1.8222201414889772E-002
  -7.3030187285493653E-002   2.1768127468497434E-002   1.7880727568038129E-002
  -8.7278239037905464E-002   2.6414371254812871E-002   1.4491988672779336E-002
  -8.5126878125294972E-002   2.5896554956413929E-002   1.3746361122511486E-002
  -8.2975517212684535E-002   2.5212544855198752E-002   1.3316186021431562E-002
  -8.0824156300074126E-002   2.4362340951167252E-002   1.3201463369539502E-002
  -7.8672795387463662E-002   2.3345943244319267E-002   1.3402193166835580E-002
  -9.3620242108610002E-002   2.8396469926007022E-002   8.3274994469303195E-003
  -9.1122412934402736E-002   2.7936388448924553E-002   7.8321103029165857E-003
  -8.8624583760195344E-002   2.7204242805586032E-002   7.7142052329086811E-003
  -8.6126754585987980E-002   2.6200032995991558E-002   7.9737842369066985E-003
  -8.3628925411780602E-002   2.4923759020141267E-002   8.6108473149105955E-003
  -9.9523893600933389E-002   3.0378568597201394E-002   2.2736802241175025E-003
  -9.6617564540311174E-002   2.9976221941435038E-002   1.9226591229181966E-003
  -9.3711235479688959E-002   2.9195940755973496E-002   2.0111537205426966E-003
  -9.0804906419066744E-002   2.8037725040816131E-002   2.5391640169910787E-003
  -8.7898577358444530E-002   2.6501574795963045E-002   3.5066900122632805E-003
  -6.6701101105870492E-002   2.0190311692675600E-002   2.2046450518518390E-002
  -6.3784841574048151E-002   1.9594797770136008E-002   2.0620766580550509E-002
  -6.0868582042225838E-002   1.8755999416140021E-002   2.0416938245519295E-002
  -5.7952322510403498E-002   1.7673916630687594E-002   2.1434965513424706E-002
  -5.5036062978581157E-002   1.6348549413778501E-002   2.3674848384266867E-002
  -7.3030187285493653E-002   2.1768127468497434E-002   1.7880727568038129E-002
  -6.9132641445052989E-002   2.0950475548456790E-002   1.6748341435169720E-002
  -6.5235095604612381E-002   2.0070886103401811E-002   1.6356672316601151E-002
  -6.1337549764171752E-002   1.9129359133332861E-002   1.6705720212332409E-002
  -5.7440003923731109E-002   1.8125894638249762E-002   1.7795485122363619E-002
  -7.8672795387463662E-002   2.3345943244319267E-002   1.3402193166835580E-002
  -7.4275101827041473E-002   2.2306153326777461E-002   1.2744451745508825E-002
  -6.9877408266619381E-002   2.1385772790663830E-002   1.2346288749845231E-002
  -6.5479714706197290E-002   2.0584801635978298E-002   1.2207704179844799E-002
  -6.1082021145775170E-002   1.9903239862720967E-002   1.2328698035507540E-002
  -8.3628925411780602E-002   2.4923759020141267E-002   8.6108473149105955E-003
  -7.9212222720013714E-002   2.3661831105098133E-002   8.6090975115678779E-003
  -7.4795520028246826E-002   2.2700659477925680E-002   8.3857875452517851E-003
  -7.0378817336479951E-002   2.2040244138623759E-002   7.9409174159617742E-003
  -6.5962114644713021E-002   2.1680585087192311E-002   7.2744871236983949E-003
  -8.7898577358444530E-002   2.6501574795963045E-002   3.5066900122632805E-003
  -8.3944004123969629E-002   2.5017508883418804E-002   4.3422787333469715E-003
  -7.9989430889494673E-002   2.4015546165187529E-002   4.4751687028207060E-003
  -7.6034857655019744E-002   2.3495686641269192E-002   3.9053599206834121E-003
  -7.2080284420544816E-002   2.3457930311663544E-002   2.6328523869363352E-003
  -5.5036062978581157E-002   1.6348549413778501E-002   2.3674848384266867E-002
  -5.2765311511815377E-002   1.5110172737988203E-002   2.6010043394792792E-002
  -5.0494560045049597E-002   1.4289061575891951E-002   2.5464861954684365E-002
  -4.8223808578283844E-002   1.3885215927489678E-002   2.2039304063941514E-002
  -4.5953057111518036E-002   1.3898635792781333E-002   1.5733369722564228E-002
  -5.7440003923731109E-002   1.8125894638249762E-002   1.7795485122363619E-002
  -5.7491731318931982E-002   1.7237897286068948E-002   1.9805570106919718E-002
  -5.7543458714132786E-002   1.6642771744706228E-002   2.0051073818176862E-002
  -5.7595186109333667E-002   1.6340518014162069E-002   1.8531996256135247E-002
  -5.7646913504534464E-002   1.6331136094436316E-002   1.5248337420795066E-002
  -6.1082021145775170E-002   1.9903239862720967E-002   1.2328698035507540E-002
  -6.2340432225606895E-002   1.9365621834149416E-002   1.3889279291218123E-002
  -6.3598843305438704E-002   1.8996481913520553E-002   1.4801074450965408E-002
  -6.4857254385270457E-002   1.8795820100834401E-002   1.5064083514749551E-002
  -6.6115665465102183E-002   1.8763636396091271E-002   1.4678306482570638E-002
  -6.5962114644713021E-002   2.1680585087192311E-002   7.2744871236983949E-003
  -6.7311414231840144E-002   2.1493346382229578E-002   8.2611709476879160E-003
  -6.8660713818967267E-002   2.1350192082334633E-002   9.7148638530497201E-003
  -7.0010013406094362E-002   2.1251122187506542E-002   1.1635565839784173E-002
  -7.1359312993221513E-002   2.1196136697746129E-002   1.4023276907891079E-002
  -7.2080284420544816E-002   2.3457930311663544E-002   2.6328523869363352E-003
  -7.2404677337631618E-002   2.3621070930310517E-002   2.9212450763291820E-003
  -7.2729070254718475E-002   2.3703902251149073E-002   4.7924420244302435E-003
  -7.3053463171805333E-002   2.3706424274179162E-002   8.2464432312391450E-003
  -7.3377856088892135E-002   2.3628636999401320E-002   1.3283248696756345E-002
  -4.5953057111518036E-002   1.3898635792781333E-002   1.5733369722564228E-002
  -5.0911562475006555E-002   1.4923120706138604E-002   7.4691070947039973E-003
  -5.5870067838495047E-002   1.7552470201933304E-002   8.7422568000802559E-003
  -6.0828573201983635E-002   2.1786684280165423E-002   1.9552818838692768E-002
  -6.5787078565472112E-002   2.7625762940834964E-002   3.9900793210541741E-002
  -5.7646913504534464E-002   1.6331136094436316E-002   1.5248337420795066E-002
  -5.4663537087013520E-002   1.6703250705847272E-002   9.6511415901028852E-003
  -5.1680160669492617E-002   1.7545486568713783E-002   1.0400296988193308E-002
  -4.8696784251971569E-002   1.8857843683035638E-002   1.7495803615066099E-002
  -4.5713407834450714E-002   2.0640322048812498E-002   3.0937661470721745E-002
  -6.6115665465102183E-002   1.8763636396091271E-002   1.4678306482570638E-002
  -5.8381468371025688E-002   1.8483380705556079E-002   1.0613434118064369E-002
  -5.0647271276949103E-002   1.7538502935494256E-002   9.7038518778868391E-003
  -4.2913074182872601E-002   1.5929003085905571E-002   1.1949559762037962E-002
  -3.5178877088796037E-002   1.3654881156790033E-002   1.7350557770518027E-002
  -7.1359312993221513E-002   2.1196136697746129E-002   1.4023276907891079E-002
  -6.2065356327043117E-002   2.0263510705264984E-002   1.0355984678588784E-002
  -5.2771399660864832E-002   1.7531519302274621E-002   6.6529214691611032E-003
  -4.3477442994686526E-002   1.3000162488775537E-002   2.9140872796084927E-003
  -3.4183486328508136E-002   6.6694402647672901E-003  -8.6051789006928725E-004
  -7.3377856088892135E-002   2.3628636999401320E-002   1.3283248696756345E-002
  -6.5715200955065889E-002   2.2043640704973444E-002   8.8787932716757334E-003
  -5.8052545821239587E-002   1.7524535669055014E-002   1.2475057620159880E-003
  -5.0389890687413286E-002   1.0071321891645786E-002  -9.6106138322229612E-003
  -4.2727235553587040E-002  -3.1600062725489764E-004  -2.3695565511040018E-002
 </DataArray>
 </PointData>
 </Piece>
 <Piece  NumberOfPoints="          1600 "  NumberOfCells="         1024 ">
 <Points>
 <DataArray  type="Float64" NumberOfComponents="3"  format="ascii" >
  0.50000000000000000        0.0000000000000000        0.0000000000000000     
  0.53125000000000000        0.0000000000000000        0.0000000000000000     
  0.56250000000000000        0.0000000000000000        0.0000000000000000     
  0.59375000000000000        0.0000000000000000        0.0000000000000000     
  0.62500000000000000        0.0000000000000000        0.0000000000000000     
  0.50000000000000000        3.1250000000000000E-002   0.0000000000000000     
  0.53125000000000000        3.1250000000000000E-002   0.0000000000000000     
  0.56250000000000000        3.1250000000000000E-002   0.0000000000000000     
  0.59375000000000000        3.1250000000000000E-002   0.0000000000000000     
  0.62500000000000000        3.1250000000000000E-002   0.0000000000000000     
  0.50000000000000000        6.2500000000000000E-002   0.0000000000000000     
  0.53125000000000000        6.2500000000000000E-002   0.0000000000000000     
  0.56250000000000000        6.2500000000000000E-002   0.0000000000000000     
  0.59375000000000000        6.2500000000000000E-002   0.0000000000000000     
  0.62500000000000000        6.2500000000000000E-002   0.0000000000000000     
  0.50000000000000000        9.3750000000000000E-002   0.0000000000000000     
  0.53125000000000000        9.3750000000000000E-002   0.0000000000000000     
  0.56250000000000000        9.3750000000000000E-002   0.0000000000000000     
  0.59375000000000000        9.3750000000000000E-002   0.0000000000000000     
  0.62500000000000000        9.3750000000000000E-002   0.0000000000000000     
  0.50000000000000000       0.12500000000000000        0.0000000000000000     
  0.53125000000000000       0.12500000000000000        0.0000000000000000     
  0.56250000000000000       0.12500000000000000        0.0000000000000000     
  0.59375000000000000       0.12500000000000000        0.0000000000000000     
  0.62500000000000000       0.12500000000000000        0.0000000000000000     
  0.62500000000000000        0.0000000000000000        0.0000000000000000     
  0.65625000000000000        0.0000000000000000        0.0000000000000000     
  0.68750000000000000        0.0000000000000000        0.0000000000000000     
  0.71875000000000000        0.0000000000000000        0.0000000000000000     
  0.75000000000000000        0.0000000000000000        0.0000000000000000     
  0.62500000000000000        3.1250000000000000E-002   0.0000000000000000     
  0.65625000000000000        3.1250000000000000E-002   0.0000000000000000     
  0.68750000000000000        3.1250000000000000E-002   0.0000000000000000     
  0.71875000000000000        3.1250000000000000E-002   0.0000000000000000     
  0.75000000000000000        3.1250000000000000E-002   0.0000000000000000     
  0.62500000000000000        6.2500000000000000E-002   0.0000000000000000     
  0.65625000000000000        6.2500000000000000E-002   0.0000000000000000     
  0.68750000000000000        6.2500000000000000E-002   0.0000000000000000     
  0.71875000000000000        6.2500000000000000E-002   0.0000000000000000     
  0.75000000000000000        6.2500000000000000E-002   0.0000000000000000     
  0.62500000000000000        9.3750000000000000E-002   0.0000000000000000     
  0.65625000000000000        9.3750000000000000E-002   0.0000000000000000     
  0.68750000000000000        9.3750000000000000E-002   0.0000000000000000     
  0.71875000000000000        9.3750000000000000E-002   0.0000000000000000     
  0.75000000000000000        9.3750000000000000E-002   0.0000000000000000     
  0.62500000000000000       0.12500000000000000        0.0000000000000000     
  0.65625000000000000       0.12500000000000000        0.0000000000000000     
  0.68750000000000000       0.12500000000000000        0.0000000000000000     
  0.71875000000000000       0.12500000000000000        0.0000000000000000     
  0.75000000000000000       0.12500000000000000        0.0000000000000000     
  0.75000000000000000        0.0000000000000000        0.0000000000000000     
  0.78125000000000000        0.0000000000000000        0.0000000000000000     
  0.81250000000000000        0.0000000000000000        0.0000000000000000     
  0.84375000000000000        0.0000000000000000        0.0000000000000000     
  0.87500000000000000        0.0000000000000000        0.0000000000000000     
  0.75000000000000000        3.1250000000000000E-002   0.0000000000000000     
  0.78125000000000000        3.1250000000000000E-002   0.0000000000000000     
  0.81250000000000000        3.1250000000000000E-002   0.0000000000000000     
  0.84375000000000000        3.1250000000000000E-002   0.0000000000000000     
  0.87500000000000000        3.1250000000000000E-002   0.0000000000000000     
  0.75000000000000000        6.2500000000000000E-002   0.0000000000000000     
  0.78125000000000000        6.2500000000000000E-002   0.0000000000000000     
  0.81250000000000000        6.2500000000000000E-002   0.0000000000000000     
  0.84375000000000000        6.2500000000000000E-002   0.0000000000000000     
  0.87500000000000000        6.2500000000000000E-002   0.0000000000000000     
  0.75000000000000000        9.3750000000000000E-002   0.0000000000000000     
  0.78125000000000000        9.3750000000000000E-002   0.0000000000000000     
  0.81250000000000000        9.3750000000000000E-002   0.0000000000000000     
  0.84375000000000000        9.3750000000000000E-002   0.0000000000000000     
  0.87500000000000000        9.3750000000000000E-002   0.0000000000000000     
  0.75000000000000000       0.12500000000000000        0.0000000000000000     
  0.78125000000000000       0.12500000000000000        0.0000000000000000     
  0.81250000000000000       0.12500000000000000        0.0000000000000000     
  0.84375000000000000       0.12500000000000000        0.0000000000000000     
  0.87500000000000000       0.12500000000000000        0.0000000000000000     
  0.87500000000000000        0.0000000000000000        0.0000000000000000     
  0.90625000000000000        0.0000000000000000        0.0000000000000000     
  0.93750000000000000        0.0000000000000000        0.0000000000000000     
  0.96875000000000000        0.0000000000000000        0.0000000000000000     
   1.0000000000000000        0.0000000000000000        0.0000000000000000     
  0.87500000000000000        3.1250000000000000E-002   0.0000000000000000     
  0.90625000000000000        3.1250000000000000E-002   0.0000000000000000     
  0.93750000000000000        3.1250000000000000E-002   0.0000000000000000     
  0.96875000000000000        3.1250000000000000E-002   0.0000000000000000     
   1.0000000000000000        3.1250000000000000E-002   0.0000000000000000     
  0.87500000000000000        6.2500000000000000E-002   0.0000000000000000     
  0.90625000000000000        6.2500000000000000E-002   0.0000000000000000     
  0.93750000000000000        6.2500000000000000E-002   0.0000000000000000     
  0.96875000000000000        6.2500000000000000E-002   0.0000000000000000     
   1.0000000000000000        6.2500000000000000E-002   0.0000000000000000     
  0.87500000000000000        9.3750000000000000E-002   0.0000000000000000     
  0.90625000000000000        9.3750000000000000E-002   0.0000000000000000     
  0.93750000000000000        9.3750000000000000E-002   0.0000000000000000     
  0.96875000000000000        9.3750000000000000E-002   0.0000000000000000     
   1.0000000000000000        9.3750000000000000E-002   0.0000000000000000     
  0.87500000000000000       0.12500000000000000        0.0000000000000000     
  0.90625000000000000       0.12500000000000000        0.0000000000000000     
  0.93750000000000000       0.12500000000000000        0.0000000000000000     
  0.96875000000000000       0.12500000000000000        0.0000000000000000     
   1.0000000000000000       0.12500000000000000        0.0000000000000000     
   1.0000000000000000        0.0000000000000000        0.0000000000000000     
   1.0312500000000000        0.0000000000000000        0.0000000000000000     
   1.0625000000000000        0.0000000000000000        0.0000000000000000     
   1.0937500000000000        0.0000000000000000        0.0000000000000000     
   1.1250000000000000        0.0000000000000000        0.0000000000000000     
   1.0000000000000000        3.1250000000000000E-002   0.0000000000000000     
   1.0312500000000000        3.1250000000000000E-002   0.0000000000000000     
   1.0625000000000000        3.1250000000000000E-002   0.0000000000000000     
   1.0937500000000000        3.1250000000000000E-002   0.0000000000000000     
   1.1250000000000000        3.1250000000000000E-002   0.0000000000000000     
   1.0000000000000000        6.2500000000000000E-002   0.0000000000000000     
   1.0312500000000000        6.2500000000000000E-002   0.0000000000000000     
   1.0625000000000000        6.2500000000000000E-002   0.0000000000000000     
   1.0937500000000000        6.2500000000000000E-002   0.0000000000000000     
   1.1250000000000000        6.2500000000000000E-002   0.0000000000000000     
   1.0000000000000000        9.3750000000000000E-002   0.0000000000000000     
   1.0312500000000000        9.3750000000000000E-002   0.0000000000000000     
   1.0625000000000000        9.3750000000000000E-002   0.0000000000000000     
   1.0937500000000000        9.3750000000000000E-002   0.0000000000000000     
   1.1250000000000000        9.3750000000000000E-002   0.0000000000000000     
   1.0000000000000000       0.12500000000000000        0.0000000000000000     
   1.0312500000000000       0.12500000000000000        0.0000000000000000     
   1.0625000000000000       0.12500000000000000        0.0000000000000000     
   1.0937500000000000       0.12500000000000000        0.0000000000000000     
   1.1250000000000000       0.12500000000000000        0.0000000000000000     
   1.1250000000000000        0.0000000000000000        0.0000000000000000     
   1.1562500000000000        0.0000000000000000        0.0000000000000000     
   1.1875000000000000        0.0000000000000000        0.0000000000000000     
   1.2187500000000000        0.0000000000000000        0.0000000000000000     
   1.2500000000000000        0.0000000000000000        0.0000000000000000     
   1.1250000000000000        3.1250000000000000E-002   0.0000000000000000     
   1.1562500000000000        3.1250000000000000E-002   0.0000000000000000     
   1.1875000000000000        3.1250000000000000E-002   0.0000000000000000     
   1.2187500000000000        3.1250000000000000E-002   0.0000000000000000     
   1.2500000000000000        3.1250000000000000E-002   0.0000000000000000     
   1.1250000000000000        6.2500000000000000E-002   0.0000000000000000     
   1.1562500000000000        6.2500000000000000E-002   0.0000000000000000     
   1.1875000000000000        6.2500000000000000E-002   0.0000000000000000     
   1.2187500000000000        6.2500000000000000E-002   0.0000000000000000     
   1.2500000000000000        6.2500000000000000E-002   0.0000000000000000     
   1.1250000000000000        9.3750000000000000E-002   0.0000000000000000     
   1.1562500000000000        9.3750000000000000E-002   0.0000000000000000     
   1.1875000000000000        9.3750000000000000E-002   0.0000000000000000     
   1.2187500000000000        9.3750000000000000E-002   0.0000000000000000     
   1.2500000000000000        9.3750000000000000E-002   0.0000000000000000     
   1.1250000000000000       0.12500000000000000        0.0000000000000000     
   1.1562500000000000       0.12500000000000000        0.0000000000000000     
   1.1875000000000000       0.12500000000000000        0.0000000000000000     
   1.2187500000000000       0.12500000000000000        0.0000000000000000     
   1.2500000000000000       0.12500000000000000        0.0000000000000000     
   1.2500000000000000        0.0000000000000000        0.0000000000000000     
   1.2812500000000000        0.0000000000000000        0.0000000000000000     
   1.3125000000000000        0.0000000000000000        0.0000000000000000     
   1.3437500000000000        0.0000000000000000        0.0000000000000000     
   1.3750000000000000        0.0000000000000000        0.0000000000000000     
   1.2500000000000000        3.1250000000000000E-002   0.0000000000000000     
   1.2812500000000000        3.1250000000000000E-002   0.0000000000000000     
   1.3125000000000000        3.1250000000000000E-002   0.0000000000000000     
   1.3437500000000000        3.1250000000000000E-002   0.0000000000000000     
   1.3750000000000000        3.1250000000000000E-002   0.0000000000000000     
   1.2500000000000000        6.2500000000000000E-002   0.0000000000000000     
   1.2812500000000000        6.2500000000000000E-002   0.0000000000000000     
   1.3125000000000000        6.2500000000000000E-002   0.0000000000000000     
   1.3437500000000000        6.2500000000000000E-002   0.0000000000000000     
   1.3750000000000000        6.2500000000000000E-002   0.0000000000000000     
   1.2500000000000000        9.3750000000000000E-002   0.0000000000000000     
   1.2812500000000000        9.3750000000000000E-002   0.0000000000000000     
   1.3125000000000000        9.3750000000000000E-002   0.0000000000000000     
   1.3437500000000000        9.3750000000000000E-002   0.0000000000000000     
   1.3750000000000000        9.3750000000000000E-002   0.0000000000000000     
   1.2500000000000000       0.12500000000000000        0.0000000000000000     
   1.2812500000000000       0.12500000000000000        0.0000000000000000     
   1.3125000000000000       0.12500000000000000        0.0000000000000000     
   1.3437500000000000       0.12500000000000000        0.0000000000000000     
   1.3750000000000000       0.12500000000000000        0.0000000000000000     
   1.3750000000000000        0.0000000000000000        0.0000000000000000     
   1.4062500000000000        0.0000000000000000        0.0000000000000000     
   1.4375000000000000        0.0000000000000000        0.0000000000000000     
   1.4687500000000000        0.0000000000000000        0.0000000000000000     
   1.5000000000000000        0.0000000000000000        0.0000000000000000     
   1.3750000000000000        3.1250000000000000E-002   0.0000000000000000     
   1.4062500000000000        3.1250000000000000E-002   0.0000000000000000     
   1.4375000000000000        3.1250000000000000E-002   0.0000000000000000     
   1.4687500000000000        3.1250000000000000E-002   0.0000000000000000     
   1.5000000000000000        3.1250000000000000E-002   0.0000000000000000     
   1.3750000000000000        6.2500000000000000E-002   0.0000000000000000     
   1.4062500000000000        6.2500000000000000E-002   0.0000000000000000     
   1.4375000000000000        6.2500000000000000E-002   0.0000000000000000     
   1.4687500000000000        6.2500000000000000E-002   0.0000000000000000     
   1.5000000000000000        6.2500000000000000E-002   0.0000000000000000     
   1.3750000000000000        9.3750000000000000E-002   0.0000000000000000     
   1.4062500000000000        9.3750000000000000E-002   0.0000000000000000     
   1.4375000000000000        9.3750000000000000E-002   0.0000000000000000     
   1.4687500000000000        9.3750000000000000E-002   0.0000000000000000     
   1.5000000000000000        9.3750000000000000E-002   0.0000000000000000     
   1.3750000000000000       0.12500000000000000        0.0000000000000000     
   1.4062500000000000       0.12500000000000000        0.0000000000000000     
   1.4375000000000000       0.12500000000000000        0.0000000000000000     
   1.4687500000000000       0.12500000000000000        0.0000000000000000     
   1.5000000000000000       0.12500000000000000        0.0000000000000000     
  0.50000000000000000       0.12500000000000000        0.0000000000000000     
  0.53125000000000000       0.12500000000000000        0.0000000000000000     
  0.56250000000000000       0.12500000000000000        0.0000000000000000     
  0.59375000000000000       0.12500000000000000        0.0000000000000000     
  0.62500000000000000       0.12500000000000000        0.0000000000000000     
  0.50000000000000000       0.15625000000000000        0.0000000000000000     
  0.53125000000000000       0.15625000000000000        0.0000000000000000     
  0.56250000000000000       0.15625000000000000        0.0000000000000000     
  0.59375000000000000       0.15625000000000000        0.0000000000000000     
  0.62500000000000000       0.15625000000000000        0.0000000000000000     
  0.50000000000000000       0.18750000000000000        0.0000000000000000     
  0.53125000000000000       0.18750000000000000        0.0000000000000000     
  0.56250000000000000       0.18750000000000000        0.0000000000000000     
  0.59375000000000000       0.18750000000000000        0.0000000000000000     
  0.62500000000000000       0.18750000000000000        0.0000000000000000     
  0.50000000000000000       0.21875000000000000        0.0000000000000000     
  0.53125000000000000       0.21875000000000000        0.0000000000000000     
  0.56250000000000000       0.21875000000000000        0.0000000000000000     
  0.59375000000000000       0.21875000000000000        0.0000000000000000     
  0.62500000000000000       0.21875000000000000        0.0000000000000000     
  0.50000000000000000       0.25000000000000000        0.0000000000000000     
  0.53125000000000000       0.25000000000000000        0.0000000000000000     
  0.56250000000000000       0.25000000000000000        0.0000000000000000     
  0.59375000000000000       0.25000000000000000        0.0000000000000000     
  0.62500000000000000       0.25000000000000000        0.0000000000000000     
  0.62500000000000000       0.12500000000000000        0.0000000000000000     
  0.65625000000000000       0.12500000000000000        0.0000000000000000     
  0.68750000000000000       0.12500000000000000        0.0000000000000000     
  0.71875000000000000       0.12500000000000000        0.0000000000000000     
  0.75000000000000000       0.12500000000000000        0.0000000000000000     
  0.62500000000000000       0.15625000000000000        0.0000000000000000     
  0.65625000000000000       0.15625000000000000        0.0000000000000000     
  0.68750000000000000       0.15625000000000000        0.0000000000000000     
  0.71875000000000000       0.15625000000000000        0.0000000000000000     
  0.75000000000000000       0.15625000000000000        0.0000000000000000     
  0.62500000000000000       0.18750000000000000        0.0000000000000000     
  0.65625000000000000       0.18750000000000000        0.0000000000000000     
  0.68750000000000000       0.18750000000000000        0.0000000000000000     
  0.71875000000000000       0.18750000000000000        0.0000000000000000     
  0.75000000000000000       0.18750000000000000        0.0000000000000000     
  0.62500000000000000       0.21875000000000000        0.0000000000000000     
  0.65625000000000000       0.21875000000000000        0.0000000000000000     
  0.68750000000000000       0.21875000000000000        0.0000000000000000     
  0.71875000000000000       0.21875000000000000        0.0000000000000000     
  0.75000000000000000       0.21875000000000000        0.0000000000000000     
  0.62500000000000000       0.25000000000000000        0.0000000000000000     
  0.65625000000000000       0.25000000000000000        0.0000000000000000     
  0.68750000000000000       0.25000000000000000        0.0000000000000000     
  0.71875000000000000       0.25000000000000000        0.0000000000000000     
  0.75000000000000000       0.25000000000000000        0.0000000000000000     
  0.75000000000000000       0.12500000000000000        0.0000000000000000     
  0.78125000000000000       0.12500000000000000        0.0000000000000000     
  0.81250000000000000       0.12500000000000000        0.0000000000000000     
  0.84375000000000000       0.12500000000000000        0.0000000000000000     
  0.87500000000000000       0.12500000000000000        0.0000000000000000     
  0.75000000000000000       0.15625000000000000        0.0000000000000000     
  0.78125000000000000       0.15625000000000000        0.0000000000000000     
  0.81250000000000000       0.15625000000000000        0.0000000000000000     
  0.84375000000000000       0.15625000000000000        0.0000000000000000     
  0.87500000000000000       0.15625000000000000        0.0000000000000000     
  0.75000000000000000       0.18750000000000000        0.0000000000000000     
  0.78125000000000000       0.18750000000000000        0.0000000000000000     
  0.81250000000000000       0.18750000000000000        0.0000000000000000     
  0.84375000000000000       0.18750000000000000        0.0000000000000000     
  0.87500000000000000       0.18750000000000000        0.0000000000000000     
  0.75000000000000000       0.21875000000000000        0.0000000000000000     
  0.78125000000000000       0.21875000000000000        0.0000000000000000     
  0.81250000000000000       0.21875000000000000        0.0000000000000000     
  0.84375000000000000       0.21875000000000000        0.0000000000000000     
  0.87500000000000000       0.21875000000000000        0.0000000000000000     
  0.75000000000000000       0.25000000000000000        0.0000000000000000     
  0.78125000000000000       0.25000000000000000        0.0000000000000000     
  0.81250000000000000       0.25000000000000000        0.0000000000000000     
  0.84375000000000000       0.25000000000000000        0.0000000000000000     
  0.87500000000000000       0.25000000000000000        0.0000000000000000     
  0.87500000000000000       0.12500000000000000        0.0000000000000000     
  0.90625000000000000       0.12500000000000000        0.0000000000000000     
  0.93750000000000000       0.12500000000000000        0.0000000000000000     
  0.96875000000000000       0.12500000000000000        0.0000000000000000     
   1.0000000000000000       0.12500000000000000        0.0000000000000000     
  0.87500000000000000       0.15625000000000000        0.0000000000000000     
  0.90625000000000000       0.15625000000000000        0.0000000000000000     
  0.93750000000000000       0.15625000000000000        0.0000000000000000     
  0.96875000000000000       0.15625000000000000        0.0000000000000000     
   1.0000000000000000       0.15625000000000000        0.0000000000000000     
  0.87500000000000000       0.18750000000000000        0.0000000000000000     
  0.90625000000000000       0.18750000000000000        0.0000000000000000     
  0.93750000000000000       0.18750000000000000        0.0000000000000000     
  0.96875000000000000       0.18750000000000000        0.0000000000000000     
   1.0000000000000000       0.18750000000000000        0.0000000000000000     
  0.87500000000000000       0.21875000000000000        0.0000000000000000     
  0.90625000000000000       0.21875000000000000        0.0000000000000000     
  0.93750000000000000       0.21875000000000000        0.0000000000000000     
  0.96875000000000000       0.21875000000000000        0.0000000000000000     
   1.0000000000000000       0.21875000000000000        0.0000000000000000     
  0.87500000000000000       0.25000000000000000        0.0000000000000000     
  0.90625000000000000       0.25000000000000000        0.0000000000000000     
  0.93750000000000000       0.25000000000000000        0.0000000000000000     
  0.96875000000000000       0.25000000000000000        0.0000000000000000     
   1.0000000000000000       0.25000000000000000        0.0000000000000000     
   1.0000000000000000       0.12500000000000000        0.0000000000000000     
   1.0312500000000000       0.12500000000000000        0.0000000000000000     
   1.0625000000000000       0.12500000000000000        0.0000000000000000     
   1.0937500000000000       0.12500000000000000        0.0000000000000000     
   1.1250000000000000       0.12500000000000000        0.0000000000000000     
   1.0000000000000000       0.15625000000000000        0.0000000000000000     
   1.0312500000000000       0.15625000000000000        0.0000000000000000     
   1.0625000000000000       0.15625000000000000        0.0000000000000000     
   1.0937500000000000       0.15625000000000000        0.0000000000000000     
   1.1250000000000000       0.15625000000000000        0.0000000000000000     
   1.0000000000000000       0.18750000000000000        0.0000000000000000     
   1.0312500000000000       0.18750000000000000        0.0000000000000000     
   1.0625000000000000       0.18750000000000000        0.0000000000000000     
   1.0937500000000000       0.18750000000000000        0.0000000000000000     
   1.1250000000000000       0.18750000000000000        0.0000000000000000     
   1.0000000000000000       0.21875000000000000        0.0000000000000000     
   1.0312500000000000       0.21875000000000000        0.0000000000000000     
   1.0625000000000000       0.21875000000000000        0.0000000000000000     
   1.0937500000000000       0.21875000000000000        0.0000000000000000     
   1.1250000000000000       0.21875000000000000        0.0000000000000000     
   1.0000000000000000       0.25000000000000000        0.0000000000000000     
   1.0312500000000000       0.25000000000000000        0.0000000000000000     
   1.0625000000000000       0.25000000000000000        0.0000000000000000     
   1.0937500000000000       0.25000000000000000        0.0000000000000000     
   1.1250000000000000       0.25000000000000000        0.0000000000000000     
   1.1250000000000000       0.12500000000000000        0.0000000000000000     
   1.1562500000000000       0.12500000000000000        0.0000000000000000     
   1.1875000000000000       0.12500000000000000        0.0000000000000000     
   1.2187500000000000       0.12500000000000000        0.0000000000000000     
   1.2500000000000000       0.12500000000000000        0.0000000000000000     
   1.1250000000000000       0.15625000000000000        0.0000000000000000     
   1.1562500000000000       0.15625000000000000        0.0000000000000000     
   1.1875000000000000       0.15625000000000000        0.0000000000000000     
   1.2187500000000000       0.15625000000000000        0.0000000000000000     
   1.2500000000000000       0.15625000000000000        0.0000000000000000     
   1.1250000000000000       0.18750000000000000        0.0000000000000000     
   1.1562500000000000       0.18750000000000000        0.0000000000000000     
   1.1875000000000000       0.18750000000000000        0.0000000000000000     
   1.2187500000000000       0.18750000000000000        0.0000000000000000     
   1.2500000000000000       0.18750000000000000        0.0000000000000000     
   1.1250000000000000       0.21875000000000000        0.0000000000000000     
   1.1562500000000000       0.21875000000000000        0.0000000000000000     
   1.1875000000000000       0.21875000000000000        0.0000000000000000     
   1.2187500000000000       0.21875000000000000        0.0000000000000000     
   1.2500000000000000       0.21875000000000000        0.0000000000000000     
   1.1250000000000000       0.25000000000000000        0.0000000000000000     
   1.1562500000000000       0.25000000000000000        0.0000000000000000     
   1.1875000000000000       0.25000000000000000        0.0000000000000000     
   1.2187500000000000       0.25000000000000000        0.0000000000000000     
   1.2500000000000000       0.25000000000000000        0.0000000000000000     
   1.2500000000000000       0.12500000000000000        0.0000000000000000     
   1.2812500000000000       0.12500000000000000        0.0000000000000000     
   1.3125000000000000       0.12500000000000000        0.0000000000000000     
   1.3437500000000000       0.12500000000000000        0.0000000000000000     
   1.3750000000000000       0.12500000000000000        0.0000000000000000     
   1.2500000000000000       0.15625000000000000        0.0000000000000000     
   1.2812500000000000       0.15625000000000000        0.0000000000000000     
   1.3125000000000000       0.15625000000000000        0.0000000000000000     
   1.3437500000000000       0.15625000000000000        0.0000000000000000     
   1.3750000000000000       0.15625000000000000        0.0000000000000000     
   1.2500000000000000       0.18750000000000000        0.0000000000000000     
   1.2812500000000000       0.18750000000000000        0.0000000000000000     
   1.3125000000000000       0.18750000000000000        0.0000000000000000     
   1.3437500000000000       0.18750000000000000        0.0000000000000000     
   1.3750000000000000       0.18750000000000000        0.0000000000000000     
   1.2500000000000000       0.21875000000000000        0.0000000000000000     
   1.2812500000000000       0.21875000000000000        0.0000000000000000     
   1.3125000000000000       0.21875000000000000        0.0000000000000000     
   1.3437500000000000       0.21875000000000000        0.0000000000000000     
   1.3750000000000000       0.21875000000000000        0.0000000000000000     
   1.2500000000000000       0.25000000000000000        0.0000000000000000     
   1.2812500000000000       0.25000000000000000        0.0000000000000000     
   1.3125000000000000       0.25000000000000000        0.0000000000000000     
   1.3437500000000000       0.25000000000000000        0.0000000000000000     
   1.3750000000000000       0.25000000000000000        0.0000000000000000     
   1.3750000000000000       0.12500000000000000        0.0000000000000000     
   1.4062500000000000       0.12500000000000000        0.0000000000000000     
   1.4375000000000000       0.12500000000000000        0.0000000000000000     
   1.4687500000000000       0.12500000000000000        0.0000000000000000     
   1.5000000000000000       0.12500000000000000        0.0000000000000000     
   1.3750000000000000       0.15625000000000000        0.0000000000000000     
   1.4062500000000000       0.15625000000000000        0.0000000000000000     
   1.4375000000000000       0.15625000000000000        0.0000000000000000     
   1.4687500000000000       0.15625000000000000        0.0000000000000000     
   1.5000000000000000       0.15625000000000000        0.0000000000000000     
   1.3750000000000000       0.18750000000000000        0.0000000000000000     
   1.4062500000000000       0.18750000000000000        0.0000000000000000     
   1.4375000000000000       0.18750000000000000        0.0000000000000000     
   1.4687500000000000       0.18750000000000000        0.0000000000000000     
   1.5000000000000000       0.18750000000000000        0.0000000000000000     
   1.3750000000000000       0.21875000000000000        0.0000000000000000     
   1.4062500000000000       0.21875000000000000        0.0000000000000000     
   1.4375000000000000       0.21875000000000000        0.0000000000000000     
   1.4687500000000000       0.21875000000000000        0.0000000000000000     
   1.5000000000000000       0.21875000000000000        0.0000000000000000     
   1.3750000000000000       0.25000000000000000        0.0000000000000000     
   1.4062500000000000       0.25000000000000000        0.0000000000000000     
   1.4375000000000000       0.25000000000000000        0.0000000000000000     
   1.4687500000000000       0.25000000000000000        0.0000000000000000     
   1.5000000000000000       0.25000000000000000        0.0000000000000000     
  0.50000000000000000       0.25000000000000000        0.0000000000000000     
  0.53125000000000000       0.25000000000000000        0.0000000000000000     
  0.56250000000000000       0.25000000000000000        0.0000000000000000     
  0.59375000000000000       0.25000000000000000        0.0000000000000000     
  0.62500000000000000       0.25000000000000000        0.0000000000000000     
  0.50000000000000000       0.28125000000000000        0.0000000000000000     
  0.53125000000000000       0.28125000000000000        0.0000000000000000     
  0.56250000000000000       0.28125000000000000        0.0000000000000000     
  0.59375000000000000       0.28125000000000000        0.0000000000000000     
  0.62500000000000000       0.28125000000000000        0.0000000000000000     
  0.50000000000000000       0.31250000000000000        0.0000000000000000     
  0.53125000000000000       0.31250000000000000        0.0000000000000000     
  0.56250000000000000       0.31250000000000000        0.0000000000000000     
  0.59375000000000000       0.31250000000000000        0.0000000000000000     
  0.62500000000000000       0.31250000000000000        0.0000000000000000     
  0.50000000000000000       0.34375000000000000        0.0000000000000000     
  0.53125000000000000       0.34375000000000000        0.0000000000000000     
  0.56250000000000000       0.34375000000000000        0.0000000000000000     
  0.59375000000000000       0.34375000000000000        0.0000000000000000     
  0.62500000000000000       0.34375000000000000        0.0000000000000000     
  0.50000000000000000       0.37500000000000000        0.0000000000000000     
  0.53125000000000000       0.37500000000000000        0.0000000000000000     
  0.56250000000000000       0.37500000000000000        0.0000000000000000     
  0.59375000000000000       0.37500000000000000        0.0000000000000000     
  0.62500000000000000       0.37500000000000000        0.0000000000000000     
  0.62500000000000000       0.25000000000000000        0.0000000000000000     
  0.65625000000000000       0.25000000000000000        0.0000000000000000     
  0.68750000000000000       0.25000000000000000        0.0000000000000000     
  0.71875000000000000       0.25000000000000000        0.0000000000000000     
  0.75000000000000000       0.25000000000000000        0.0000000000000000     
  0.62500000000000000       0.28125000000000000        0.0000000000000000     
  0.65625000000000000       0.28125000000000000        0.0000000000000000     
  0.68750000000000000       0.28125000000000000        0.0000000000000000     
  0.71875000000000000       0.28125000000000000        0.0000000000000000     
  0.75000000000000000       0.28125000000000000        0.0000000000000000     
  0.62500000000000000       0.31250000000000000        0.0000000000000000     
  0.65625000000000000       0.31250000000000000        0.0000000000000000     
  0.68750000000000000       0.31250000000000000        0.0000000000000000     
  0.71875000000000000       0.31250000000000000        0.0000000000000000     
  0.75000000000000000       0.31250000000000000        0.0000000000000000     
  0.62500000000000000       0.34375000000000000        0.0000000000000000     
  0.65625000000000000       0.34375000000000000        0.0000000000000000     
  0.68750000000000000       0.34375000000000000        0.0000000000000000     
  0.71875000000000000       0.34375000000000000        0.0000000000000000     
  0.75000000000000000       0.34375000000000000        0.0000000000000000     
  0.62500000000000000       0.37500000000000000        0.0000000000000000     
  0.65625000000000000       0.37500000000000000        0.0000000000000000     
  0.68750000000000000       0.37500000000000000        0.0000000000000000     
  0.71875000000000000       0.37500000000000000        0.0000000000000000     
  0.75000000000000000       0.37500000000000000        0.0000000000000000     
  0.75000000000000000       0.25000000000000000        0.0000000000000000     
  0.78125000000000000       0.25000000000000000        0.0000000000000000     
  0.81250000000000000       0.25000000000000000        0.0000000000000000     
  0.84375000000000000       0.25000000000000000        0.0000000000000000     
  0.87500000000000000       0.25000000000000000        0.0000000000000000     
  0.75000000000000000       0.28125000000000000        0.0000000000000000     
  0.78125000000000000       0.28125000000000000        0.0000000000000000     
  0.81250000000000000       0.28125000000000000        0.0000000000000000     
  0.84375000000000000       0.28125000000000000        0.0000000000000000     
  0.87500000000000000       0.28125000000000000        0.0000000000000000     
  0.75000000000000000       0.31250000000000000        0.0000000000000000     
  0.78125000000000000       0.31250000000000000        0.0000000000000000     
  0.81250000000000000       0.31250000000000000        0.0000000000000000     
  0.84375000000000000       0.31250000000000000        0.0000000000000000     
  0.87500000000000000       0.31250000000000000        0.0000000000000000     
  0.75000000000000000       0.34375000000000000        0.0000000000000000     
  0.78125000000000000       0.34375000000000000        0.0000000000000000     
  0.81250000000000000       0.34375000000000000        0.0000000000000000     
  0.84375000000000000       0.34375000000000000        0.0000000000000000     
  0.87500000000000000       0.34375000000000000        0.0000000000000000     
  0.75000000000000000       0.37500000000000000        0.0000000000000000     
  0.78125000000000000       0.37500000000000000        0.0000000000000000     
  0.81250000000000000       0.37500000000000000        0.0000000000000000     
  0.84375000000000000       0.37500000000000000        0.0000000000000000     
  0.87500000000000000       0.37500000000000000        0.0000000000000000     
  0.87500000000000000       0.25000000000000000        0.0000000000000000     
  0.90625000000000000       0.25000000000000000        0.0000000000000000     
  0.93750000000000000       0.25000000000000000        0.0000000000000000     
  0.96875000000000000       0.25000000000000000        0.0000000000000000     
   1.0000000000000000       0.25000000000000000        0.0000000000000000     
  0.87500000000000000       0.28125000000000000        0.0000000000000000     
  0.90625000000000000       0.28125000000000000        0.0000000000000000     
  0.93750000000000000       0.28125000000000000        0.0000000000000000     
  0.96875000000000000       0.28125000000000000        0.0000000000000000     
   1.0000000000000000       0.28125000000000000        0.0000000000000000     
  0.87500000000000000       0.31250000000000000        0.0000000000000000     
  0.90625000000000000       0.31250000000000000        0.0000000000000000     
  0.93750000000000000       0.31250000000000000        0.0000000000000000     
  0.96875000000000000       0.31250000000000000        0.0000000000000000     
   1.0000000000000000       0.31250000000000000        0.0000000000000000     
  0.87500000000000000       0.34375000000000000        0.0000000000000000     
  0.90625000000000000       0.34375000000000000        0.0000000000000000     
  0.93750000000000000       0.34375000000000000        0.0000000000000000     
  0.96875000000000000       0.34375000000000000        0.0000000000000000     
   1.0000000000000000       0.34375000000000000        0.0000000000000000     
  0.87500000000000000       0.37500000000000000        0.0000000000000000     
  0.90625000000000000       0.37500000000000000        0.0000000000000000     
  0.93750000000000000       0.37500000000000000        0.0000000000000000     
  0.96875000000000000       0.37500000000000000        0.0000000000000000     
   1.0000000000000000       0.37500000000000000        0.0000000000000000     
   1.0000000000000000       0.25000000000000000        0.0000000000000000     
   1.0312500000000000       0.25000000000000000        0.0000000000000000     
   1.0625000000000000       0.25000000000000000        0.0000000000000000     
   1.0937500000000000       0.25000000000000000        0.0000000000000000     
   1.1250000000000000       0.25000000000000000        0.0000000000000000     
   1.0000000000000000       0.28125000000000000        0.0000000000000000     
   1.0312500000000000       0.28125000000000000        0.0000000000000000     
   1.0625000000000000       0.28125000000000000        0.0000000000000000     
   1.0937500000000000       0.28125000000000000        0.0000000000000000     
   1.1250000000000000       0.28125000000000000        0.0000000000000000     
   1.0000000000000000       0.31250000000000000        0.0000000000000000     
   1.0312500000000000       0.31250000000000000        0.0000000000000000     
   1.0625000000000000       0.31250000000000000        0.0000000000000000     
   1.0937500000000000       0.31250000000000000        0.0000000000000000     
   1.1250000000000000       0.31250000000000000        0.0000000000000000     
   1.0000000000000000       0.34375000000000000        0.0000000000000000     
   1.0312500000000000       0.34375000000000000        0.0000000000000000     
   1.0625000000000000       0.34375000000000000        0.0000000000000000     
   1.0937500000000000       0.34375000000000000        0.0000000000000000     
   1.1250000000000000       0.34375000000000000        0.0000000000000000     
   1.0000000000000000       0.37500000000000000        0.0000000000000000     
   1.0312500000000000       0.37500000000000000        0.0000000000000000     
   1.0625000000000000       0.37500000000000000        0.0000000000000000     
   1.0937500000000000       0.37500000000000000        0.0000000000000000     
   1.1250000000000000       0.37500000000000000        0.0000000000000000     
   1.1250000000000000       0.25000000000000000        0.0000000000000000     
   1.1562500000000000       0.25000000000000000        0.0000000000000000     
   1.1875000000000000       0.25000000000000000        0.0000000000000000     
   1.2187500000000000       0.25000000000000000        0.0000000000000000     
   1.2500000000000000       0.25000000000000000        0.0000000000000000     
   1.1250000000000000       0.28125000000000000        0.0000000000000000     
   1.1562500000000000       0.28125000000000000        0.0000000000000000     
   1.1875000000000000       0.28125000000000000        0.0000000000000000     
   1.2187500000000000       0.28125000000000000        0.0000000000000000     
   1.2500000000000000       0.28125000000000000        0.0000000000000000     
   1.1250000000000000       0.31250000000000000        0.0000000000000000     
   1.1562500000000000       0.31250000000000000        0.0000000000000000     
   1.1875000000000000       0.31250000000000000        0.0000000000000000     
   1.2187500000000000       0.31250000000000000        0.0000000000000000     
   1.2500000000000000       0.31250000000000000        0.0000000000000000     
   1.1250000000000000       0.34375000000000000        0.0000000000000000     
   1.1562500000000000       0.34375000000000000        0.0000000000000000     
   1.1875000000000000       0.34375000000000000        0.0000000000000000     
   1.2187500000000000       0.34375000000000000        0.0000000000000000     
   1.2500000000000000       0.34375000000000000        0.0000000000000000     
   1.1250000000000000       0.37500000000000000        0.0000000000000000     
   1.1562500000000000       0.37500000000000000        0.0000000000000000     
   1.1875000000000000       0.37500000000000000        0.0000000000000000     
   1.2187500000000000       0.37500000000000000        0.0000000000000000     
   1.2500000000000000       0.37500000000000000        0.0000000000000000     
   1.2500000000000000       0.25000000000000000        0.0000000000000000     
   1.2812500000000000       0.25000000000000000        0.0000000000000000     
   1.3125000000000000       0.25000000000000000        0.0000000000000000     
   1.3437500000000000       0.25000000000000000        0.0000000000000000     
   1.3750000000000000       0.25000000000000000        0.0000000000000000     
   1.2500000000000000       0.28125000000000000        0.0000000000000000     
   1.2812500000000000       0.28125000000000000        0.0000000000000000     
   1.3125000000000000       0.28125000000000000        0.0000000000000000     
   1.3437500000000000       0.28125000000000000        0.0000000000000000     
   1.3750000000000000       0.28125000000000000        0.0000000000000000     
   1.2500000000000000       0.31250000000000000        0.0000000000000000     
   1.2812500000000000       0.31250000000000000        0.0000000000000000     
   1.3125000000000000       0.31250000000000000        0.0000000000000000     
   1.3437500000000000       0.31250000000000000        0.0000000000000000     
   1.3750000000000000       0.31250000000000000        0.0000000000000000     
   1.2500000000000000       0.34375000000000000        0.0000000000000000     
   1.2812500000000000       0.34375000000000000        0.0000000000000000     
   1.3125000000000000       0.34375000000000000        0.0000000000000000     
   1.3437500000000000       0.34375000000000000        0.0000000000000000     
   1.3750000000000000       0.34375000000000000        0.0000000000000000     
   1.2500000000000000       0.37500000000000000        0.0000000000000000     
   1.2812500000000000       0.37500000000000000        0.0000000000000000     
   1.3125000000000000       0.37500000000000000        0.0000000000000000     
   1.3437500000000000       0.37500000000000000        0.0000000000000000     
   1.3750000000000000       0.37500000000000000        0.0000000000000000     
   1.3750000000000000       0.25000000000000000        0.0000000000000000     
   1.4062500000000000       0.25000000000000000        0.0000000000000000     
   1.4375000000000000       0.25000000000000000        0.0000000000000000     
   1.4687500000000000       0.25000000000000000        0.0000000000000000     
   1.5000000000000000       0.25000000000000000        0.0000000000000000     
   1.3750000000000000       0.28125000000000000        0.0000000000000000     
   1.4062500000000000       0.28125000000000000        0.0000000000000000     
   1.4375000000000000       0.28125000000000000        0.0000000000000000     
   1.4687500000000000       0.28125000000000000        0.0000000000000000     
   1.5000000000000000       0.28125000000000000        0.0000000000000000     
   1.3750000000000000       0.31250000000000000        0.0000000000000000     
   1.4062500000000000       0.31250000000000000        0.0000000000000000     
   1.4375000000000000       0.31250000000000000        0.0000000000000000     
   1.4687500000000000       0.31250000000000000        0.0000000000000000     
   1.5000000000000000       0.31250000000000000        0.0000000000000000     
   1.3750000000000000       0.34375000000000000        0.0000000000000000     
   1.4062500000000000       0.34375000000000000        0.0000000000000000     
   1.4375000000000000       0.34375000000000000        0.0000000000000000     
   1.4687500000000000       0.34375000000000000        0.0000000000000000     
   1.5000000000000000       0.34375000000000000        0.0000000000000000     
   1.3750000000000000       0.37500000000000000        0.0000000000000000     
   1.4062500000000000       0.37500000000000000        0.0000000000000000     
   1.4375000000000000       0.37500000000000000        0.0000000000000000     
   1.4687500000000000       0.37500000000000000        0.0000000000000000     
   1.5000000000000000       0.37500000000000000        0.0000000000000000     
  0.50000000000000000       0.37500000000000000        0.0000000000000000     
  0.53125000000000000       0.37500000000000000        0.0000000000000000     
  0.56250000000000000       0.37500000000000000        0.0000000000000000     
  0.59375000000000000       0.37500000000000000        0.0000000000000000     
  0.62500000000000000       0.37500000000000000        0.0000000000000000     
  0.50000000000000000       0.40625000000000000        0.0000000000000000     
  0.53125000000000000       0.40625000000000000        0.0000000000000000     
  0.56250000000000000       0.40625000000000000        0.0000000000000000     
  0.59375000000000000       0.40625000000000000        0.0000000000000000     
  0.62500000000000000       0.40625000000000000        0.0000000000000000     
  0.50000000000000000       0.43750000000000000        0.0000000000000000     
  0.53125000000000000       0.43750000000000000        0.0000000000000000     
  0.56250000000000000       0.43750000000000000        0.0000000000000000     
  0.59375000000000000       0.43750000000000000        0.0000000000000000     
  0.62500000000000000       0.43750000000000000        0.0000000000000000     
  0.50000000000000000       0.46875000000000000        0.0000000000000000     
  0.53125000000000000       0.46875000000000000        0.0000000000000000     
  0.56250000000000000       0.46875000000000000        0.0000000000000000     
  0.59375000000000000       0.46875000000000000        0.0000000000000000     
  0.62500000000000000       0.46875000000000000        0.0000000000000000     
  0.50000000000000000       0.50000000000000000        0.0000000000000000     
  0.53125000000000000       0.50000000000000000        0.0000000000000000     
  0.56250000000000000       0.50000000000000000        0.0000000000000000     
  0.59375000000000000       0.50000000000000000        0.0000000000000000     
  0.62500000000000000       0.50000000000000000        0.0000000000000000     
  0.62500000000000000       0.37500000000000000        0.0000000000000000     
  0.65625000000000000       0.37500000000000000        0.0000000000000000     
  0.68750000000000000       0.37500000000000000        0.0000000000000000     
  0.71875000000000000       0.37500000000000000        0.0000000000000000     
  0.75000000000000000       0.37500000000000000        0.0000000000000000     
  0.62500000000000000       0.40625000000000000        0.0000000000000000     
  0.65625000000000000       0.40625000000000000        0.0000000000000000     
  0.68750000000000000       0.40625000000000000        0.0000000000000000     
  0.71875000000000000       0.40625000000000000        0.0000000000000000     
  0.75000000000000000       0.40625000000000000        0.0000000000000000     
  0.62500000000000000       0.43750000000000000        0.0000000000000000     
  0.65625000000000000       0.43750000000000000        0.0000000000000000     
  0.68750000000000000       0.43750000000000000        0.0000000000000000     
  0.71875000000000000       0.43750000000000000        0.0000000000000000     
  0.75000000000000000       0.43750000000000000        0.0000000000000000     
  0.62500000000000000       0.46875000000000000        0.0000000000000000     
  0.65625000000000000       0.46875000000000000        0.0000000000000000     
  0.68750000000000000       0.46875000000000000        0.0000000000000000     
  0.71875000000000000       0.46875000000000000        0.0000000000000000     
  0.75000000000000000       0.46875000000000000        0.0000000000000000     
  0.62500000000000000       0.50000000000000000        0.0000000000000000     
  0.65625000000000000       0.50000000000000000        0.0000000000000000     
  0.68750000000000000       0.50000000000000000        0.0000000000000000     
  0.71875000000000000       0.50000000000000000        0.0000000000000000     
  0.75000000000000000       0.50000000000000000        0.0000000000000000     
  0.75000000000000000       0.37500000000000000        0.0000000000000000     
  0.78125000000000000       0.37500000000000000        0.0000000000000000     
  0.81250000000000000       0.37500000000000000        0.0000000000000000     
  0.84375000000000000       0.37500000000000000        0.0000000000000000     
  0.87500000000000000       0.37500000000000000        0.0000000000000000     
  0.75000000000000000       0.40625000000000000        0.0000000000000000     
  0.78125000000000000       0.40625000000000000        0.0000000000000000     
  0.81250000000000000       0.40625000000000000        0.0000000000000000     
  0.84375000000000000       0.40625000000000000        0.0000000000000000     
  0.87500000000000000       0.40625000000000000        0.0000000000000000     
  0.75000000000000000       0.43750000000000000        0.0000000000000000     
  0.78125000000000000       0.43750000000000000        0.0000000000000000     
  0.81250000000000000       0.43750000000000000        0.0000000000000000     
  0.84375000000000000       0.43750000000000000        0.0000000000000000     
  0.87500000000000000       0.43750000000000000        0.0000000000000000     
  0.75000000000000000       0.46875000000000000        0.0000000000000000     
  0.78125000000000000       0.46875000000000000        0.0000000000000000     
  0.81250000000000000       0.46875000000000000        0.0000000000000000     
  0.84375000000000000       0.46875000000000000        0.0000000000000000     
  0.87500000000000000       0.46875000000000000        0.0000000000000000     
  0.75000000000000000       0.50000000000000000        0.0000000000000000     
  0.78125000000000000       0.50000000000000000        0.0000000000000000     
  0.81250000000000000       0.50000000000000000        0.0000000000000000     
  0.84375000000000000       0.50000000000000000        0.0000000000000000     
  0.87500000000000000       0.50000000000000000        0.0000000000000000     
  0.87500000000000000       0.37500000000000000        0.0000000000000000     
  0.90625000000000000       0.37500000000000000        0.0000000000000000     
  0.93750000000000000       0.37500000000000000        0.0000000000000000     
  0.96875000000000000       0.37500000000000000        0.0000000000000000     
   1.0000000000000000       0.37500000000000000        0.0000000000000000     
  0.87500000000000000       0.40625000000000000        0.0000000000000000     
  0.90625000000000000       0.40625000000000000        0.0000000000000000     
  0.93750000000000000       0.40625000000000000        0.0000000000000000     
  0.96875000000000000       0.40625000000000000        0.0000000000000000     
   1.0000000000000000       0.40625000000000000        0.0000000000000000     
  0.87500000000000000       0.43750000000000000        0.0000000000000000     
  0.90625000000000000       0.43750000000000000        0.0000000000000000     
  0.93750000000000000       0.43750000000000000        0.0000000000000000     
  0.96875000000000000       0.43750000000000000        0.0000000000000000     
   1.0000000000000000       0.43750000000000000        0.0000000000000000     
  0.87500000000000000       0.46875000000000000        0.0000000000000000     
  0.90625000000000000       0.46875000000000000        0.0000000000000000     
  0.93750000000000000       0.46875000000000000        0.0000000000000000     
  0.96875000000000000       0.46875000000000000        0.0000000000000000     
   1.0000000000000000       0.46875000000000000        0.0000000000000000     
  0.87500000000000000       0.50000000000000000        0.0000000000000000     
  0.90625000000000000       0.50000000000000000        0.0000000000000000     
  0.93750000000000000       0.50000000000000000        0.0000000000000000     
  0.96875000000000000       0.50000000000000000        0.0000000000000000     
   1.0000000000000000       0.50000000000000000        0.0000000000000000     
   1.0000000000000000       0.37500000000000000        0.0000000000000000     
   1.0312500000000000       0.37500000000000000        0.0000000000000000     
   1.0625000000000000       0.37500000000000000        0.0000000000000000     
   1.0937500000000000       0.37500000000000000        0.0000000000000000     
   1.1250000000000000       0.37500000000000000        0.0000000000000000     
   1.0000000000000000       0.40625000000000000        0.0000000000000000     
   1.0312500000000000       0.40625000000000000        0.0000000000000000     
   1.0625000000000000       0.40625000000000000        0.0000000000000000     
   1.0937500000000000       0.40625000000000000        0.0000000000000000     
   1.1250000000000000       0.40625000000000000        0.0000000000000000     
   1.0000000000000000       0.43750000000000000        0.0000000000000000     
   1.0312500000000000       0.43750000000000000        0.0000000000000000     
   1.0625000000000000       0.43750000000000000        0.0000000000000000     
   1.0937500000000000       0.43750000000000000        0.0000000000000000     
   1.1250000000000000       0.43750000000000000        0.0000000000000000     
   1.0000000000000000       0.46875000000000000        0.0000000000000000     
   1.0312500000000000       0.46875000000000000        0.0000000000000000     
   1.0625000000000000       0.46875000000000000        0.0000000000000000     
   1.0937500000000000       0.46875000000000000        0.0000000000000000     
   1.1250000000000000       0.46875000000000000        0.0000000000000000     
   1.0000000000000000       0.50000000000000000        0.0000000000000000     
   1.0312500000000000       0.50000000000000000        0.0000000000000000     
   1.0625000000000000       0.50000000000000000        0.0000000000000000     
   1.0937500000000000       0.50000000000000000        0.0000000000000000     
   1.1250000000000000       0.50000000000000000        0.0000000000000000     
   1.1250000000000000       0.37500000000000000        0.0000000000000000     
   1.1562500000000000       0.37500000000000000        0.0000000000000000     
   1.1875000000000000       0.37500000000000000        0.0000000000000000     
   1.2187500000000000       0.37500000000000000        0.0000000000000000     
   1.2500000000000000       0.37500000000000000        0.0000000000000000     
   1.1250000000000000       0.40625000000000000        0.0000000000000000     
   1.1562500000000000       0.40625000000000000        0.0000000000000000     
   1.1875000000000000       0.40625000000000000        0.0000000000000000     
   1.2187500000000000       0.40625000000000000        0.0000000000000000     
   1.2500000000000000       0.40625000000000000        0.0000000000000000     
   1.1250000000000000       0.43750000000000000        0.0000000000000000     
   1.1562500000000000       0.43750000000000000        0.0000000000000000     
   1.1875000000000000       0.43750000000000000        0.0000000000000000     
   1.2187500000000000       0.43750000000000000        0.0000000000000000     
   1.2500000000000000       0.43750000000000000        0.0000000000000000     
   1.1250000000000000       0.46875000000000000        0.0000000000000000     
   1.1562500000000000       0.46875000000000000        0.0000000000000000     
   1.1875000000000000       0.46875000000000000        0.0000000000000000     
   1.2187500000000000       0.46875000000000000        0.0000000000000000     
   1.2500000000000000       0.46875000000000000        0.0000000000000000     
   1.1250000000000000       0.50000000000000000        0.0000000000000000     
   1.1562500000000000       0.50000000000000000        0.0000000000000000     
   1.1875000000000000       0.50000000000000000        0.0000000000000000     
   1.2187500000000000       0.50000000000000000        0.0000000000000000     
   1.2500000000000000       0.50000000000000000        0.0000000000000000     
   1.2500000000000000       0.37500000000000000        0.0000000000000000     
   1.2812500000000000       0.37500000000000000        0.0000000000000000     
   1.3125000000000000       0.37500000000000000        0.0000000000000000     
   1.3437500000000000       0.37500000000000000        0.0000000000000000     
   1.3750000000000000       0.37500000000000000        0.0000000000000000     
   1.2500000000000000       0.40625000000000000        0.0000000000000000     
   1.2812500000000000       0.40625000000000000        0.0000000000000000     
   1.3125000000000000       0.40625000000000000        0.0000000000000000     
   1.3437500000000000       0.40625000000000000        0.0000000000000000     
   1.3750000000000000       0.40625000000000000        0.0000000000000000     
   1.2500000000000000       0.43750000000000000        0.0000000000000000     
   1.2812500000000000       0.43750000000000000        0.0000000000000000     
   1.3125000000000000       0.43750000000000000        0.0000000000000000     
   1.3437500000000000       0.43750000000000000        0.0000000000000000     
   1.3750000000000000       0.43750000000000000        0.0000000000000000     
   1.2500000000000000       0.46875000000000000        0.0000000000000000     
   1.2812500000000000       0.46875000000000000        0.0000000000000000     
   1.3125000000000000       0.46875000000000000        0.0000000000000000     
   1.3437500000000000       0.46875000000000000        0.0000000000000000     
   1.3750000000000000       0.46875000000000000        0.0000000000000000     
   1.2500000000000000       0.50000000000000000        0.0000000000000000     
   1.2812500000000000       0.50000000000000000        0.0000000000000000     
   1.3125000000000000       0.50000000000000000        0.0000000000000000     
   1.3437500000000000       0.50000000000000000        0.0000000000000000     
   1.3750000000000000       0.50000000000000000        0.0000000000000000     
   1.3750000000000000       0.37500000000000000        0.0000000000000000     
   1.4062500000000000       0.37500000000000000        0.0000000000000000     
   1.4375000000000000       0.37500000000000000        0.0000000000000000     
   1.4687500000000000       0.37500000000000000        0.0000000000000000     
   1.5000000000000000       0.37500000000000000        0.0000000000000000     
   1.3750000000000000       0.40625000000000000        0.0000000000000000     
   1.4062500000000000       0.40625000000000000        0.0000000000000000     
   1.4375000000000000       0.40625000000000000        0.0000000000000000     
   1.4687500000000000       0.40625000000000000        0.0000000000000000     
   1.5000000000000000       0.40625000000000000        0.0000000000000000     
   1.3750000000000000       0.43750000000000000        0.0000000000000000     
   1.4062500000000000       0.43750000000000000        0.0000000000000000     
   1.4375000000000000       0.43750000000000000        0.0000000000000000     
   1.4687500000000000       0.43750000000000000        0.0000000000000000     
   1.5000000000000000       0.43750000000000000        0.0000000000000000     
   1.3750000000000000       0.46875000000000000        0.0000000000000000     
   1.4062500000000000       0.46875000000000000        0.0000000000000000     
   1.4375000000000000       0.46875000000000000        0.0000000000000000     
   1.4687500000000000       0.46875000000000000        0.0000000000000000     
   1.5000000000000000       0.46875000000000000        0.0000000000000000     
   1.3750000000000000       0.50000000000000000        0.0000000000000000     
   1.4062500000000000       0.50000000000000000        0.0000000000000000     
   1.4375000000000000       0.50000000000000000        0.0000000000000000     
   1.4687500000000000       0.50000000000000000        0.0000000000000000     
   1.5000000000000000       0.50000000000000000        0.0000000000000000     
  0.50000000000000000       0.50000000000000000        0.0000000000000000     
  0.53125000000000000       0.50000000000000000        0.0000000000000000     
  0.56250000000000000       0.50000000000000000        0.0000000000000000     
  0.59375000000000000       0.50000000000000000        0.0000000000000000     
  0.62500000000000000       0.50000000000000000        0.0000000000000000     
  0.50000000000000000       0.53125000000000000        0.0000000000000000     
  0.53125000000000000       0.53125000000000000        0.0000000000000000     
  0.56250000000000000       0.53125000000000000        0.0000000000000000     
  0.59375000000000000       0.53125000000000000        0.0000000000000000     
  0.62500000000000000       0.53125000000000000        0.0000000000000000     
  0.50000000000000000       0.56250000000000000        0.0000000000000000     
  0.53125000000000000       0.56250000000000000        0.0000000000000000     
  0.56250000000000000       0.56250000000000000        0.0000000000000000     
  0.59375000000000000       0.56250000000000000        0.0000000000000000     
  0.62500000000000000       0.56250000000000000        0.0000000000000000     
  0.50000000000000000       0.59375000000000000        0.0000000000000000     
  0.53125000000000000       0.59375000000000000        0.0000000000000000     
  0.56250000000000000       0.59375000000000000        0.0000000000000000     
  0.59375000000000000       0.59375000000000000        0.0000000000000000     
  0.62500000000000000       0.59375000000000000        0.0000000000000000     
  0.50000000000000000       0.62500000000000000        0.0000000000000000     
  0.53125000000000000       0.62500000000000000        0.0000000000000000     
  0.56250000000000000       0.62500000000000000        0.0000000000000000     
  0.59375000000000000       0.62500000000000000        0.0000000000000000     
  0.62500000000000000       0.62500000000000000        0.0000000000000000     
  0.62500000000000000       0.50000000000000000        0.0000000000000000     
  0.65625000000000000       0.50000000000000000        0.0000000000000000     
  0.68750000000000000       0.50000000000000000        0.0000000000000000     
  0.71875000000000000       0.50000000000000000        0.0000000000000000     
  0.75000000000000000       0.50000000000000000        0.0000000000000000     
  0.62500000000000000       0.53125000000000000        0.0000000000000000     
  0.65625000000000000       0.53125000000000000        0.0000000000000000     
  0.68750000000000000       0.53125000000000000        0.0000000000000000     
  0.71875000000000000       0.53125000000000000        0.0000000000000000     
  0.75000000000000000       0.53125000000000000        0.0000000000000000     
  0.62500000000000000       0.56250000000000000        0.0000000000000000     
  0.65625000000000000       0.56250000000000000        0.0000000000000000     
  0.68750000000000000       0.56250000000000000        0.0000000000000000     
  0.71875000000000000       0.56250000000000000        0.0000000000000000     
  0.75000000000000000       0.56250000000000000        0.0000000000000000     
  0.62500000000000000       0.59375000000000000        0.0000000000000000     
  0.65625000000000000       0.59375000000000000        0.0000000000000000     
  0.68750000000000000       0.59375000000000000        0.0000000000000000     
  0.71875000000000000       0.59375000000000000        0.0000000000000000     
  0.75000000000000000       0.59375000000000000        0.0000000000000000     
  0.62500000000000000       0.62500000000000000        0.0000000000000000     
  0.65625000000000000       0.62500000000000000        0.0000000000000000     
  0.68750000000000000       0.62500000000000000        0.0000000000000000     
  0.71875000000000000       0.62500000000000000        0.0000000000000000     
  0.75000000000000000       0.62500000000000000        0.0000000000000000     
  0.75000000000000000       0.50000000000000000        0.0000000000000000     
  0.78125000000000000       0.50000000000000000        0.0000000000000000     
  0.81250000000000000       0.50000000000000000        0.0000000000000000     
  0.84375000000000000       0.50000000000000000        0.0000000000000000     
  0.87500000000000000       0.50000000000000000        0.0000000000000000     
  0.75000000000000000       0.53125000000000000        0.0000000000000000     
  0.78125000000000000       0.53125000000000000        0.0000000000000000     
  0.81250000000000000       0.53125000000000000        0.0000000000000000     
  0.84375000000000000       0.53125000000000000        0.0000000000000000     
  0.87500000000000000       0.53125000000000000        0.0000000000000000     
  0.75000000000000000       0.56250000000000000        0.0000000000000000     
  0.78125000000000000       0.56250000000000000        0.0000000000000000     
  0.81250000000000000       0.56250000000000000        0.0000000000000000     
  0.84375000000000000       0.56250000000000000        0.0000000000000000     
  0.87500000000000000       0.56250000000000000        0.0000000000000000     
  0.75000000000000000       0.59375000000000000        0.0000000000000000     
  0.78125000000000000       0.59375000000000000        0.0000000000000000     
  0.81250000000000000       0.59375000000000000        0.0000000000000000     
  0.84375000000000000       0.59375000000000000        0.0000000000000000     
  0.87500000000000000       0.59375000000000000        0.0000000000000000     
  0.75000000000000000       0.62500000000000000        0.0000000000000000     
  0.78125000000000000       0.62500000000000000        0.0000000000000000     
  0.81250000000000000       0.62500000000000000        0.0000000000000000     
  0.84375000000000000       0.62500000000000000        0.0000000000000000     
  0.87500000000000000       0.62500000000000000        0.0000000000000000     
  0.87500000000000000       0.50000000000000000        0.0000000000000000     
  0.90625000000000000       0.50000000000000000        0.0000000000000000     
  0.93750000000000000       0.50000000000000000        0.0000000000000000     
  0.96875000000000000       0.50000000000000000        0.0000000000000000     
   1.0000000000000000       0.50000000000000000        0.0000000000000000     
  0.87500000000000000       0.53125000000000000        0.0000000000000000     
  0.90625000000000000       0.53125000000000000        0.0000000000000000     
  0.93750000000000000       0.53125000000000000        0.0000000000000000     
  0.96875000000000000       0.53125000000000000        0.0000000000000000     
   1.0000000000000000       0.53125000000000000        0.0000000000000000     
  0.87500000000000000       0.56250000000000000        0.0000000000000000     
  0.90625000000000000       0.56250000000000000        0.0000000000000000     
  0.93750000000000000       0.56250000000000000        0.0000000000000000     
  0.96875000000000000       0.56250000000000000        0.0000000000000000     
   1.0000000000000000       0.56250000000000000        0.0000000000000000     
  0.87500000000000000       0.59375000000000000        0.0000000000000000     
  0.90625000000000000       0.59375000000000000        0.0000000000000000     
  0.93750000000000000       0.59375000000000000        0.0000000000000000     
  0.96875000000000000       0.59375000000000000        0.0000000000000000     
   1.0000000000000000       0.59375000000000000        0.0000000000000000     
  0.87500000000000000       0.62500000000000000        0.0000000000000000     
  0.90625000000000000       0.62500000000000000        0.0000000000000000     
  0.93750000000000000       0.62500000000000000        0.0000000000000000     
  0.96875000000000000       0.62500000000000000        0.0000000000000000     
   1.0000000000000000       0.62500000000000000        0.0000000000000000     
   1.0000000000000000       0.50000000000000000        0.0000000000000000     
   1.0312500000000000       0.50000000000000000        0.0000000000000000     
   1.0625000000000000       0.50000000000000000        0.0000000000000000     
   1.0937500000000000       0.50000000000000000        0.0000000000000000     
   1.1250000000000000       0.50000000000000000        0.0000000000000000     
   1.0000000000000000       0.53125000000000000        0.0000000000000000     
   1.0312500000000000       0.53125000000000000        0.0000000000000000     
   1.0625000000000000       0.53125000000000000        0.0000000000000000     
   1.0937500000000000       0.53125000000000000        0.0000000000000000     
   1.1250000000000000       0.53125000000000000        0.0000000000000000     
   1.0000000000000000       0.56250000000000000        0.0000000000000000     
   1.0312500000000000       0.56250000000000000        0.0000000000000000     
   1.0625000000000000       0.56250000000000000        0.0000000000000000     
   1.0937500000000000       0.56250000000000000        0.0000000000000000     
   1.1250000000000000       0.56250000000000000        0.0000000000000000     
   1.0000000000000000       0.59375000000000000        0.0000000000000000     
   1.0312500000000000       0.59375000000000000        0.0000000000000000     
   1.0625000000000000       0.59375000000000000        0.0000000000000000     
   1.0937500000000000       0.59375000000000000        0.0000000000000000     
   1.1250000000000000       0.59375000000000000        0.0000000000000000     
   1.0000000000000000       0.62500000000000000        0.0000000000000000     
   1.0312500000000000       0.62500000000000000        0.0000000000000000     
   1.0625000000000000       0.62500000000000000        0.0000000000000000     
   1.0937500000000000       0.62500000000000000        0.0000000000000000     
   1.1250000000000000       0.62500000000000000        0.0000000000000000     
   1.1250000000000000       0.50000000000000000        0.0000000000000000     
   1.1562500000000000       0.50000000000000000        0.0000000000000000     
   1.1875000000000000       0.50000000000000000        0.0000000000000000     
   1.2187500000000000       0.50000000000000000        0.0000000000000000     
   1.2500000000000000       0.50000000000000000        0.0000000000000000     
   1.1250000000000000       0.53125000000000000        0.0000000000000000     
   1.1562500000000000       0.53125000000000000        0.0000000000000000     
   1.1875000000000000       0.53125000000000000        0.0000000000000000     
   1.2187500000000000       0.53125000000000000        0.0000000000000000     
   1.2500000000000000       0.53125000000000000        0.0000000000000000     
   1.1250000000000000       0.56250000000000000        0.0000000000000000     
   1.1562500000000000       0.56250000000000000        0.0000000000000000     
   1.1875000000000000       0.56250000000000000        0.0000000000000000     
   1.2187500000000000       0.56250000000000000        0.0000000000000000     
   1.2500000000000000       0.56250000000000000        0.0000000000000000     
   1.1250000000000000       0.59375000000000000        0.0000000000000000     
   1.1562500000000000       0.59375000000000000        0.0000000000000000     
   1.1875000000000000       0.59375000000000000        0.0000000000000000     
   1.2187500000000000       0.59375000000000000        0.0000000000000000     
   1.2500000000000000       0.59375000000000000        0.0000000000000000     
   1.1250000000000000       0.62500000000000000        0.0000000000000000     
   1.1562500000000000       0.62500000000000000        0.0000000000000000     
   1.1875000000000000       0.62500000000000000        0.0000000000000000     
   1.2187500000000000       0.62500000000000000        0.0000000000000000     
   1.2500000000000000       0.62500000000000000        0.0000000000000000     
   1.2500000000000000       0.50000000000000000        0.0000000000000000     
   1.2812500000000000       0.50000000000000000        0.0000000000000000     
   1.3125000000000000       0.50000000000000000        0.0000000000000000     
   1.3437500000000000       0.50000000000000000        0.0000000000000000     
   1.3750000000000000       0.50000000000000000        0.0000000000000000     
   1.2500000000000000       0.53125000000000000        0.0000000000000000     
   1.2812500000000000       0.53125000000000000        0.0000000000000000     
   1.3125000000000000       0.53125000000000000        0.0000000000000000     
   1.3437500000000000       0.53125000000000000        0.0000000000000000     
   1.3750000000000000       0.53125000000000000        0.0000000000000000     
   1.2500000000000000       0.56250000000000000        0.0000000000000000     
   1.2812500000000000       0.56250000000000000        0.0000000000000000     
   1.3125000000000000       0.56250000000000000        0.0000000000000000     
   1.3437500000000000       0.56250000000000000        0.0000000000000000     
   1.3750000000000000       0.56250000000000000        0.0000000000000000     
   1.2500000000000000       0.59375000000000000        0.0000000000000000     
   1.2812500000000000       0.59375000000000000        0.0000000000000000     
   1.3125000000000000       0.59375000000000000        0.0000000000000000     
   1.3437500000000000       0.59375000000000000        0.0000000000000000     
   1.3750000000000000       0.59375000000000000        0.0000000000000000     
   1.2500000000000000       0.62500000000000000        0.0000000000000000     
   1.2812500000000000       0.62500000000000000        0.0000000000000000     
   1.3125000000000000       0.62500000000000000        0.0000000000000000     
   1.3437500000000000       0.62500000000000000        0.0000000000000000     
   1.3750000000000000       0.62500000000000000        0.0000000000000000     
   1.3750000000000000       0.50000000000000000        0.0000000000000000     
   1.4062500000000000       0.50000000000000000        0.0000000000000000     
   1.4375000000000000       0.50000000000000000        0.0000000000000000     
   1.4687500000000000       0.50000000000000000        0.0000000000000000     
   1.5000000000000000       0.50000000000000000        0.0000000000000000     
   1.3750000000000000       0.53125000000000000        0.0000000000000000     
   1.4062500000000000       0.53125000000000000        0.0000000000000000     
   1.4375000000000000       0.53125000000000000        0.0000000000000000     
   1.4687500000000000       0.53125000000000000        0.0000000000000000     
   1.5000000000000000       0.53125000000000000        0.0000000000000000     
   1.3750000000000000       0.56250000000000000        0.0000000000000000     
   1.4062500000000000       0.56250000000000000        0.0000000000000000     
   1.4375000000000000       0.56250000000000000        0.0000000000000000     
   1.4687500000000000       0.56250000000000000        0.0000000000000000     
   1.5000000000000000       0.56250000000000000        0.0000000000000000     
   1.3750000000000000       0.59375000000000000        0.0000000000000000     
   1.4062500000000000       0.59375000000000000        0.0000000000000000     
   1.4375000000000000       0.59375000000000000        0.0000000000000000     
   1.4687500000000000       0.59375000000000000        0.0000000000000000     
   1.5000000000000000       0.59375000000000000        0.0000000000000000     
   1.3750000000000000       0.62500000000000000        0.0000000000000000     
   1.4062500000000000       0.62500000000000000        0.0000000000000000     
   1.4375000000000000       0.62500000000000000        0.0000000000000000     
   1.4687500000000000       0.62500000000000000        0.0000000000000000     
   1.5000000000000000       0.62500000000000000        0.0000000000000000     
  0.50000000000000000       0.62500000000000000        0.0000000000000000     
  0.53125000000000000       0.62500000000000000        0.0000000000000000     
  0.56250000000000000       0.62500000000000000        0.0000000000000000     
  0.59375000000000000       0.62500000000000000        0.0000000000000000     
  0.62500000000000000       0.62500000000000000        0.0000000000000000     
  0.50000000000000000       0.65625000000000000        0.0000000000000000     
  0.53125000000000000       0.65625000000000000        0.0000000000000000     
  0.56250000000000000       0.65625000000000000        0.0000000000000000     
  0.59375000000000000       0.65625000000000000        0.0000000000000000     
  0.62500000000000000       0.65625000000000000        0.0000000000000000     
  0.50000000000000000       0.68750000000000000        0.0000000000000000     
  0.53125000000000000       0.68750000000000000        0.0000000000000000     
  0.56250000000000000       0.68750000000000000        0.0000000000000000     
  0.59375000000000000       0.68750000000000000        0.0000000000000000     
  0.62500000000000000       0.68750000000000000        0.0000000000000000     
  0.50000000000000000       0.71875000000000000        0.0000000000000000     
  0.53125000000000000       0.71875000000000000        0.0000000000000000     
  0.56250000000000000       0.71875000000000000        0.0000000000000000     
  0.59375000000000000       0.71875000000000000        0.0000000000000000     
  0.62500000000000000       0.71875000000000000        0.0000000000000000     
  0.50000000000000000       0.75000000000000000        0.0000000000000000     
  0.53125000000000000       0.75000000000000000        0.0000000000000000     
  0.56250000000000000       0.75000000000000000        0.0000000000000000     
  0.59375000000000000       0.75000000000000000        0.0000000000000000     
  0.62500000000000000       0.75000000000000000        0.0000000000000000     
  0.62500000000000000       0.62500000000000000        0.0000000000000000     
  0.65625000000000000       0.62500000000000000        0.0000000000000000     
  0.68750000000000000       0.62500000000000000        0.0000000000000000     
  0.71875000000000000       0.62500000000000000        0.0000000000000000     
  0.75000000000000000       0.62500000000000000        0.0000000000000000     
  0.62500000000000000       0.65625000000000000        0.0000000000000000     
  0.65625000000000000       0.65625000000000000        0.0000000000000000     
  0.68750000000000000       0.65625000000000000        0.0000000000000000     
  0.71875000000000000       0.65625000000000000        0.0000000000000000     
  0.75000000000000000       0.65625000000000000        0.0000000000000000     
  0.62500000000000000       0.68750000000000000        0.0000000000000000     
  0.65625000000000000       0.68750000000000000        0.0000000000000000     
  0.68750000000000000       0.68750000000000000        0.0000000000000000     
  0.71875000000000000       0.68750000000000000        0.0000000000000000     
  0.75000000000000000       0.68750000000000000        0.0000000000000000     
  0.62500000000000000       0.71875000000000000        0.0000000000000000     
  0.65625000000000000       0.71875000000000000        0.0000000000000000     
  0.68750000000000000       0.71875000000000000        0.0000000000000000     
  0.71875000000000000       0.71875000000000000        0.0000000000000000     
  0.75000000000000000       0.71875000000000000        0.0000000000000000     
  0.62500000000000000       0.75000000000000000        0.0000000000000000     
  0.65625000000000000       0.75000000000000000        0.0000000000000000     
  0.68750000000000000       0.75000000000000000        0.0000000000000000     
  0.71875000000000000       0.75000000000000000        0.0000000000000000     
  0.75000000000000000       0.75000000000000000        0.0000000000000000     
  0.75000000000000000       0.62500000000000000        0.0000000000000000     
  0.78125000000000000       0.62500000000000000        0.0000000000000000     
  0.81250000000000000       0.62500000000000000        0.0000000000000000     
  0.84375000000000000       0.62500000000000000        0.0000000000000000     
  0.87500000000000000       0.62500000000000000        0.0000000000000000     
  0.75000000000000000       0.65625000000000000        0.0000000000000000     
  0.78125000000000000       0.65625000000000000        0.0000000000000000     
  0.81250000000000000       0.65625000000000000        0.0000000000000000     
  0.84375000000000000       0.65625000000000000        0.0000000000000000     
  0.87500000000000000       0.65625000000000000        0.0000000000000000     
  0.75000000000000000       0.68750000000000000        0.0000000000000000     
  0.78125000000000000       0.68750000000000000        0.0000000000000000     
  0.81250000000000000       0.68750000000000000        0.0000000000000000     
  0.84375000000000000       0.68750000000000000        0.0000000000000000     
  0.87500000000000000       0.68750000000000000        0.0000000000000000     
  0.75000000000000000       0.71875000000000000        0.0000000000000000     
  0.78125000000000000       0.71875000000000000        0.0000000000000000     
  0.81250000000000000       0.71875000000000000        0.0000000000000000     
  0.84375000000000000       0.71875000000000000        0.0000000000000000     
  0.87500000000000000       0.71875000000000000        0.0000000000000000     
  0.75000000000000000       0.75000000000000000        0.0000000000000000     
  0.78125000000000000       0.75000000000000000        0.0000000000000000     
  0.81250000000000000       0.75000000000000000        0.0000000000000000     
  0.84375000000000000       0.75000000000000000        0.0000000000000000     
  0.87500000000000000       0.75000000000000000        0.0000000000000000     
  0.87500000000000000       0.62500000000000000        0.0000000000000000     
  0.90625000000000000       0.62500000000000000        0.0000000000000000     
  0.93750000000000000       0.62500000000000000        0.0000000000000000     
  0.96875000000000000       0.62500000000000000        0.0000000000000000     
   1.0000000000000000       0.62500000000000000        0.0000000000000000     
  0.87500000000000000       0.65625000000000000        0.0000000000000000     
  0.90625000000000000       0.65625000000000000        0.0000000000000000     
  0.93750000000000000       0.65625000000000000        0.0000000000000000     
  0.96875000000000000       0.65625000000000000        0.0000000000000000     
   1.0000000000000000       0.65625000000000000        0.0000000000000000     
  0.87500000000000000       0.68750000000000000        0.0000000000000000     
  0.90625000000000000       0.68750000000000000        0.0000000000000000     
  0.93750000000000000       0.68750000000000000        0.0000000000000000     
  0.96875000000000000       0.68750000000000000        0.0000000000000000     
   1.0000000000000000       0.68750000000000000        0.0000000000000000     
  0.87500000000000000       0.71875000000000000        0.0000000000000000     
  0.90625000000000000       0.71875000000000000        0.0000000000000000     
  0.93750000000000000       0.71875000000000000        0.0000000000000000     
  0.96875000000000000       0.71875000000000000        0.0000000000000000     
   1.0000000000000000       0.71875000000000000        0.0000000000000000     
  0.87500000000000000       0.75000000000000000        0.0000000000000000     
  0.90625000000000000       0.75000000000000000        0.0000000000000000     
  0.93750000000000000       0.75000000000000000        0.0000000000000000     
  0.96875000000000000       0.75000000000000000        0.0000000000000000     
   1.0000000000000000       0.75000000000000000        0.0000000000000000     
   1.0000000000000000       0.62500000000000000        0.0000000000000000     
   1.0312500000000000       0.62500000000000000        0.0000000000000000     
   1.0625000000000000       0.62500000000000000        0.0000000000000000     
   1.0937500000000000       0.62500000000000000        0.0000000000000000     
   1.1250000000000000       0.62500000000000000        0.0000000000000000     
   1.0000000000000000       0.65625000000000000        0.0000000000000000     
   1.0312500000000000       0.65625000000000000        0.0000000000000000     
   1.0625000000000000       0.65625000000000000        0.0000000000000000     
   1.0937500000000000       0.65625000000000000        0.0000000000000000     
   1.1250000000000000       0.65625000000000000        0.0000000000000000     
   1.0000000000000000       0.68750000000000000        0.0000000000000000     
   1.0312500000000000       0.68750000000000000        0.0000000000000000     
   1.0625000000000000       0.68750000000000000        0.0000000000000000     
   1.0937500000000000       0.68750000000000000        0.0000000000000000     
   1.1250000000000000       0.68750000000000000        0.0000000000000000     
   1.0000000000000000       0.71875000000000000        0.0000000000000000     
   1.0312500000000000       0.71875000000000000        0.0000000000000000     
   1.0625000000000000       0.71875000000000000        0.0000000000000000     
   1.0937500000000000       0.71875000000000000        0.0000000000000000     
   1.1250000000000000       0.71875000000000000        0.0000000000000000     
   1.0000000000000000       0.75000000000000000        0.0000000000000000     
   1.0312500000000000       0.75000000000000000        0.0000000000000000     
   1.0625000000000000       0.75000000000000000        0.0000000000000000     
   1.0937500000000000       0.75000000000000000        0.0000000000000000     
   1.1250000000000000       0.75000000000000000        0.0000000000000000     
   1.1250000000000000       0.62500000000000000        0.0000000000000000     
   1.1562500000000000       0.62500000000000000        0.0000000000000000     
   1.1875000000000000       0.62500000000000000        0.0000000000000000     
   1.2187500000000000       0.62500000000000000        0.0000000000000000     
   1.2500000000000000       0.62500000000000000        0.0000000000000000     
   1.1250000000000000       0.65625000000000000        0.0000000000000000     
   1.1562500000000000       0.65625000000000000        0.0000000000000000     
   1.1875000000000000       0.65625000000000000        0.0000000000000000     
   1.2187500000000000       0.65625000000000000        0.0000000000000000     
   1.2500000000000000       0.65625000000000000        0.0000000000000000     
   1.1250000000000000       0.68750000000000000        0.0000000000000000     
   1.1562500000000000       0.68750000000000000        0.0000000000000000     
   1.1875000000000000       0.68750000000000000        0.0000000000000000     
   1.2187500000000000       0.68750000000000000        0.0000000000000000     
   1.2500000000000000       0.68750000000000000        0.0000000000000000     
   1.1250000000000000       0.71875000000000000        0.0000000000000000     
   1.1562500000000000       0.71875000000000000        0.0000000000000000     
   1.1875000000000000       0.71875000000000000        0.0000000000000000     
   1.2187500000000000       0.71875000000000000        0.0000000000000000     
   1.2500000000000000       0.71875000000000000        0.0000000000000000     
   1.1250000000000000       0.75000000000000000        0.0000000000000000     
   1.1562500000000000       0.75000000000000000        0.0000000000000000     
   1.1875000000000000       0.75000000000000000        0.0000000000000000     
   1.2187500000000000       0.75000000000000000        0.0000000000000000     
   1.2500000000000000       0.75000000000000000        0.0000000000000000     
   1.2500000000000000       0.62500000000000000        0.0000000000000000     
   1.2812500000000000       0.62500000000000000        0.0000000000000000     
   1.3125000000000000       0.62500000000000000        0.0000000000000000     
   1.3437500000000000       0.62500000000000000        0.0000000000000000     
   1.3750000000000000       0.62500000000000000        0.0000000000000000     
   1.2500000000000000       0.65625000000000000        0.0000000000000000     
   1.2812500000000000       0.65625000000000000        0.0000000000000000     
   1.3125000000000000       0.65625000000000000        0.0000000000000000     
   1.3437500000000000       0.65625000000000000        0.0000000000000000     
   1.3750000000000000       0.65625000000000000        0.0000000000000000     
   1.2500000000000000       0.68750000000000000        0.0000000000000000     
   1.2812500000000000       0.68750000000000000        0.0000000000000000     
   1.3125000000000000       0.68750000000000000        0.0000000000000000     
   1.3437500000000000       0.68750000000000000        0.0000000000000000     
   1.3750000000000000       0.68750000000000000        0.0000000000000000     
   1.2500000000000000       0.71875000000000000        0.0000000000000000     
   1.2812500000000000       0.71875000000000000        0.0000000000000000     
   1.3125000000000000       0.71875000000000000        0.0000000000000000     
   1.3437500000000000       0.71875000000000000        0.0000000000000000     
   1.3750000000000000       0.71875000000000000        0.0000000000000000     
   1.2500000000000000       0.75000000000000000        0.0000000000000000     
   1.2812500000000000       0.75000000000000000        0.0000000000000000     
   1.3125000000000000       0.75000000000000000        0.0000000000000000     
   1.3437500000000000       0.75000000000000000        0.0000000000000000     
   1.3750000000000000       0.75000000000000000        0.0000000000000000     
   1.3750000000000000       0.62500000000000000        0.0000000000000000     
   1.4062500000000000       0.62500000000000000        0.0000000000000000     
   1.4375000000000000       0.62500000000000000        0.0000000000000000     
   1.4687500000000000       0.62500000000000000        0.0000000000000000     
   1.5000000000000000       0.62500000000000000        0.0000000000000000     
   1.3750000000000000       0.65625000000000000        0.0000000000000000     
   1.4062500000000000       0.65625000000000000        0.0000000000000000     
   1.4375000000000000       0.65625000000000000        0.0000000000000000     
   1.4687500000000000       0.65625000000000000        0.0000000000000000     
   1.5000000000000000       0.65625000000000000        0.0000000000000000     
   1.3750000000000000       0.68750000000000000        0.0000000000000000     
   1.4062500000000000       0.68750000000000000        0.0000000000000000     
   1.4375000000000000       0.68750000000000000        0.0000000000000000     
   1.4687500000000000       0.68750000000000000        0.0000000000000000     
   1.5000000000000000       0.68750000000000000        0.0000000000000000     
   1.3750000000000000       0.71875000000000000        0.0000000000000000     
   1.4062500000000000       0.71875000000000000        0.0000000000000000     
   1.4375000000000000       0.71875000000000000        0.0000000000000000     
   1.4687500000000000       0.71875000000000000        0.0000000000000000     
   1.5000000000000000       0.71875000000000000        0.0000000000000000     
   1.3750000000000000       0.75000000000000000        0.0000000000000000     
   1.4062500000000000       0.75000000000000000        0.0000000000000000     
   1.4375000000000000       0.75000000000000000        0.0000000000000000     
   1.4687500000000000       0.75000000000000000        0.0000000000000000     
   1.5000000000000000       0.75000000000000000        0.0000000000000000     
  0.50000000000000000       0.75000000000000000        0.0000000000000000     
  0.53125000000000000       0.75000000000000000        0.0000000000000000     
  0.56250000000000000       0.75000000000000000        0.0000000000000000     
  0.59375000000000000       0.75000000000000000        0.0000000000000000     
  0.62500000000000000       0.75000000000000000        0.0000000000000000     
  0.50000000000000000       0.78125000000000000        0.0000000000000000     
  0.53125000000000000       0.78125000000000000        0.0000000000000000     
  0.56250000000000000       0.78125000000000000        0.0000000000000000     
  0.59375000000000000       0.78125000000000000        0.0000000000000000     
  0.62500000000000000       0.78125000000000000        0.0000000000000000     
  0.50000000000000000       0.81250000000000000        0.0000000000000000     
  0.53125000000000000       0.81250000000000000        0.0000000000000000     
  0.56250000000000000       0.81250000000000000        0.0000000000000000     
  0.59375000000000000       0.81250000000000000        0.0000000000000000     
  0.62500000000000000       0.81250000000000000        0.0000000000000000     
  0.50000000000000000       0.84375000000000000        0.0000000000000000     
  0.53125000000000000       0.84375000000000000        0.0000000000000000     
  0.56250000000000000       0.84375000000000000        0.0000000000000000     
  0.59375000000000000       0.84375000000000000        0.0000000000000000     
  0.62500000000000000       0.84375000000000000        0.0000000000000000     
  0.50000000000000000       0.87500000000000000        0.0000000000000000     
  0.53125000000000000       0.87500000000000000        0.0000000000000000     
  0.56250000000000000       0.87500000000000000        0.0000000000000000     
  0.59375000000000000       0.87500000000000000        0.0000000000000000     
  0.62500000000000000       0.87500000000000000        0.0000000000000000     
  0.62500000000000000       0.75000000000000000        0.0000000000000000     
  0.65625000000000000       0.75000000000000000        0.0000000000000000     
  0.68750000000000000       0.75000000000000000        0.0000000000000000     
  0.71875000000000000       0.75000000000000000        0.0000000000000000     
  0.75000000000000000       0.75000000000000000        0.0000000000000000     
  0.62500000000000000       0.78125000000000000        0.0000000000000000     
  0.65625000000000000       0.78125000000000000        0.0000000000000000     
  0.68750000000000000       0.78125000000000000        0.0000000000000000     
  0.71875000000000000       0.78125000000000000        0.0000000000000000     
  0.75000000000000000       0.78125000000000000        0.0000000000000000     
  0.62500000000000000       0.81250000000000000        0.0000000000000000     
  0.65625000000000000       0.81250000000000000        0.0000000000000000     
  0.68750000000000000       0.81250000000000000        0.0000000000000000     
  0.71875000000000000       0.81250000000000000        0.0000000000000000     
  0.75000000000000000       0.81250000000000000        0.0000000000000000     
  0.62500000000000000       0.84375000000000000        0.0000000000000000     
  0.65625000000000000       0.84375000000000000        0.0000000000000000     
  0.68750000000000000       0.84375000000000000        0.0000000000000000     
  0.71875000000000000       0.84375000000000000        0.0000000000000000     
  0.75000000000000000       0.84375000000000000        0.0000000000000000     
  0.62500000000000000       0.87500000000000000        0.0000000000000000     
  0.65625000000000000       0.87500000000000000        0.0000000000000000     
  0.68750000000000000       0.87500000000000000        0.0000000000000000     
  0.71875000000000000       0.87500000000000000        0.0000000000000000     
  0.75000000000000000       0.87500000000000000        0.0000000000000000     
  0.75000000000000000       0.75000000000000000        0.0000000000000000     
  0.78125000000000000       0.75000000000000000        0.0000000000000000     
  0.81250000000000000       0.75000000000000000        0.0000000000000000     
  0.84375000000000000       0.75000000000000000        0.0000000000000000     
  0.87500000000000000       0.75000000000000000        0.0000000000000000     
  0.75000000000000000       0.78125000000000000        0.0000000000000000     
  0.78125000000000000       0.78125000000000000        0.0000000000000000     
  0.81250000000000000       0.78125000000000000        0.0000000000000000     
  0.84375000000000000       0.78125000000000000        0.0000000000000000     
  0.87500000000000000       0.78125000000000000        0.0000000000000000     
  0.75000000000000000       0.81250000000000000        0.0000000000000000     
  0.78125000000000000       0.81250000000000000        0.0000000000000000     
  0.81250000000000000       0.81250000000000000        0.0000000000000000     
  0.84375000000000000       0.81250000000000000        0.0000000000000000     
  0.87500000000000000       0.81250000000000000        0.0000000000000000     
  0.75000000000000000       0.84375000000000000        0.0000000000000000     
  0.78125000000000000       0.84375000000000000        0.0000000000000000     
  0.81250000000000000       0.84375000000000000        0.0000000000000000     
  0.84375000000000000       0.84375000000000000        0.0000000000000000     
  0.87500000000000000       0.84375000000000000        0.0000000000000000     
  0.75000000000000000       0.87500000000000000        0.0000000000000000     
  0.78125000000000000       0.87500000000000000        0.0000000000000000     
  0.81250000000000000       0.87500000000000000        0.0000000000000000     
  0.84375000000000000       0.87500000000000000        0.0000000000000000     
  0.87500000000000000       0.87500000000000000        0.0000000000000000     
  0.87500000000000000       0.75000000000000000        0.0000000000000000     
  0.90625000000000000       0.75000000000000000        0.0000000000000000     
  0.93750000000000000       0.75000000000000000        0.0000000000000000     
  0.96875000000000000       0.75000000000000000        0.0000000000000000     
   1.0000000000000000       0.75000000000000000        0.0000000000000000     
  0.87500000000000000       0.78125000000000000        0.0000000000000000     
  0.90625000000000000       0.78125000000000000        0.0000000000000000     
  0.93750000000000000       0.78125000000000000        0.0000000000000000     
  0.96875000000000000       0.78125000000000000        0.0000000000000000     
   1.0000000000000000       0.78125000000000000        0.0000000000000000     
  0.87500000000000000       0.81250000000000000        0.0000000000000000     
  0.90625000000000000       0.81250000000000000        0.0000000000000000     
  0.93750000000000000       0.81250000000000000        0.0000000000000000     
  0.96875000000000000       0.81250000000000000        0.0000000000000000     
   1.0000000000000000       0.81250000000000000        0.0000000000000000     
  0.87500000000000000       0.84375000000000000        0.0000000000000000     
  0.90625000000000000       0.84375000000000000        0.0000000000000000     
  0.93750000000000000       0.84375000000000000        0.0000000000000000     
  0.96875000000000000       0.84375000000000000        0.0000000000000000     
   1.0000000000000000       0.84375000000000000        0.0000000000000000     
  0.87500000000000000       0.87500000000000000        0.0000000000000000     
  0.90625000000000000       0.87500000000000000        0.0000000000000000     
  0.93750000000000000       0.87500000000000000        0.0000000000000000     
  0.96875000000000000       0.87500000000000000        0.0000000000000000     
   1.0000000000000000       0.87500000000000000        0.0000000000000000     
   1.0000000000000000       0.75000000000000000        0.0000000000000000     
   1.0312500000000000       0.75000000000000000        0.0000000000000000     
   1.0625000000000000       0.75000000000000000        0.0000000000000000     
   1.0937500000000000       0.75000000000000000        0.0000000000000000     
   1.1250000000000000       0.75000000000000000        0.0000000000000000     
   1.0000000000000000       0.78125000000000000        0.0000000000000000     
   1.0312500000000000       0.78125000000000000        0.0000000000000000     
   1.0625000000000000       0.78125000000000000        0.0000000000000000     
   1.0937500000000000       0.78125000000000000        0.0000000000000000     
   1.1250000000000000       0.78125000000000000        0.0000000000000000     
   1.0000000000000000       0.81250000000000000        0.0000000000000000     
   1.0312500000000000       0.81250000000000000        0.0000000000000000     
   1.0625000000000000       0.81250000000000000        0.0000000000000000     
   1.0937500000000000       0.81250000000000000        0.0000000000000000     
   1.1250000000000000       0.81250000000000000        0.0000000000000000     
   1.0000000000000000       0.84375000000000000        0.0000000000000000     
   1.0312500000000000       0.84375000000000000        0.0000000000000000     
   1.0625000000000000       0.84375000000000000        0.0000000000000000     
   1.0937500000000000       0.84375000000000000        0.0000000000000000     
   1.1250000000000000       0.84375000000000000        0.0000000000000000     
   1.0000000000000000       0.87500000000000000        0.0000000000000000     
   1.0312500000000000       0.87500000000000000        0.0000000000000000     
   1.0625000000000000       0.87500000000000000        0.0000000000000000     
   1.0937500000000000       0.87500000000000000        0.0000000000000000     
   1.1250000000000000       0.87500000000000000        0.0000000000000000     
   1.1250000000000000       0.75000000000000000        0.0000000000000000     
   1.1562500000000000       0.75000000000000000        0.0000000000000000     
   1.1875000000000000       0.75000000000000000        0.0000000000000000     
   1.2187500000000000       0.75000000000000000        0.0000000000000000     
   1.2500000000000000       0.75000000000000000        0.0000000000000000     
   1.1250000000000000       0.78125000000000000        0.0000000000000000     
   1.1562500000000000       0.78125000000000000        0.0000000000000000     
   1.1875000000000000       0.78125000000000000        0.0000000000000000     
   1.2187500000000000       0.78125000000000000        0.0000000000000000     
   1.2500000000000000       0.78125000000000000        0.0000000000000000     
   1.1250000000000000       0.81250000000000000        0.0000000000000000     
   1.1562500000000000       0.81250000000000000        0.0000000000000000     
   1.1875000000000000       0.81250000000000000        0.0000000000000000     
   1.2187500000000000       0.81250000000000000        0.0000000000000000     
   1.2500000000000000       0.81250000000000000        0.0000000000000000     
   1.1250000000000000       0.84375000000000000        0.0000000000000000     
   1.1562500000000000       0.84375000000000000        0.0000000000000000     
   1.1875000000000000       0.84375000000000000        0.0000000000000000     
   1.2187500000000000       0.84375000000000000        0.0000000000000000     
   1.2500000000000000       0.84375000000000000        0.0000000000000000     
   1.1250000000000000       0.87500000000000000        0.0000000000000000     
   1.1562500000000000       0.87500000000000000        0.0000000000000000     
   1.1875000000000000       0.87500000000000000        0.0000000000000000     
   1.2187500000000000       0.87500000000000000        0.0000000000000000     
   1.2500000000000000       0.87500000000000000        0.0000000000000000     
   1.2500000000000000       0.75000000000000000        0.0000000000000000     
   1.2812500000000000       0.75000000000000000        0.0000000000000000     
   1.3125000000000000       0.75000000000000000        0.0000000000000000     
   1.3437500000000000       0.75000000000000000        0.0000000000000000     
   1.3750000000000000       0.75000000000000000        0.0000000000000000     
   1.2500000000000000       0.78125000000000000        0.0000000000000000     
   1.2812500000000000       0.78125000000000000        0.0000000000000000     
   1.3125000000000000       0.78125000000000000        0.0000000000000000     
   1.3437500000000000       0.78125000000000000        0.0000000000000000     
   1.3750000000000000       0.78125000000000000        0.0000000000000000     
   1.2500000000000000       0.81250000000000000        0.0000000000000000     
   1.2812500000000000       0.81250000000000000        0.0000000000000000     
   1.3125000000000000       0.81250000000000000        0.0000000000000000     
   1.3437500000000000       0.81250000000000000        0.0000000000000000     
   1.3750000000000000       0.81250000000000000        0.0000000000000000     
   1.2500000000000000       0.84375000000000000        0.0000000000000000     
   1.2812500000000000       0.84375000000000000        0.0000000000000000     
   1.3125000000000000       0.84375000000000000        0.0000000000000000     
   1.3437500000000000       0.84375000000000000        0.0000000000000000     
   1.3750000000000000       0.84375000000000000        0.0000000000000000     
   1.2500000000000000       0.87500000000000000        0.0000000000000000     
   1.2812500000000000       0.87500000000000000        0.0000000000000000     
   1.3125000000000000       0.87500000000000000        0.0000000000000000     
   1.3437500000000000       0.87500000000000000        0.0000000000000000     
   1.3750000000000000       0.87500000000000000        0.0000000000000000     
   1.3750000000000000       0.75000000000000000        0.0000000000000000     
   1.4062500000000000       0.75000000000000000        0.0000000000000000     
   1.4375000000000000       0.75000000000000000        0.0000000000000000     
   1.4687500000000000       0.75000000000000000        0.0000000000000000     
   1.5000000000000000       0.75000000000000000        0.0000000000000000     
   1.3750000000000000       0.78125000000000000        0.0000000000000000     
   1.4062500000000000       0.78125000000000000        0.0000000000000000     
   1.4375000000000000       0.78125000000000000        0.0000000000000000     
   1.4687500000000000       0.78125000000000000        0.0000000000000000     
   1.5000000000000000       0.78125000000000000        0.0000000000000000     
   1.3750000000000000       0.81250000000000000        0.0000000000000000     
   1.4062500000000000       0.81250000000000000        0.0000000000000000     
   1.4375000000000000       0.81250000000000000        0.0000000000000000     
   1.4687500000000000       0.81250000000000000        0.0000000000000000     
   1.5000000000000000       0.81250000000000000        0.0000000000000000     
   1.3750000000000000       0.84375000000000000        0.0000000000000000     
   1.4062500000000000       0.84375000000000000        0.0000000000000000     
   1.4375000000000000       0.84375000000000000        0.0000000000000000     
   1.4687500000000000       0.84375000000000000        0.0000000000000000     
   1.5000000000000000       0.84375000000000000        0.0000000000000000     
   1.3750000000000000       0.87500000000000000        0.0000000000000000     
   1.4062500000000000       0.87500000000000000        0.0000000000000000     
   1.4375000000000000       0.87500000000000000        0.0000000000000000     
   1.4687500000000000       0.87500000000000000        0.0000000000000000     
   1.5000000000000000       0.87500000000000000        0.0000000000000000     
  0.50000000000000000       0.87500000000000000        0.0000000000000000     
  0.53125000000000000       0.87500000000000000        0.0000000000000000     
  0.56250000000000000       0.87500000000000000        0.0000000000000000     
  0.59375000000000000       0.87500000000000000        0.0000000000000000     
  0.62500000000000000       0.87500000000000000        0.0000000000000000     
  0.50000000000000000       0.90625000000000000        0.0000000000000000     
  0.53125000000000000       0.90625000000000000        0.0000000000000000     
  0.56250000000000000       0.90625000000000000        0.0000000000000000     
  0.59375000000000000       0.90625000000000000        0.0000000000000000     
  0.62500000000000000       0.90625000000000000        0.0000000000000000     
  0.50000000000000000       0.93750000000000000        0.0000000000000000     
  0.53125000000000000       0.93750000000000000        0.0000000000000000     
  0.56250000000000000       0.93750000000000000        0.0000000000000000     
  0.59375000000000000       0.93750000000000000        0.0000000000000000     
  0.62500000000000000       0.93750000000000000        0.0000000000000000     
  0.50000000000000000       0.96875000000000000        0.0000000000000000     
  0.53125000000000000       0.96875000000000000        0.0000000000000000     
  0.56250000000000000       0.96875000000000000        0.0000000000000000     
  0.59375000000000000       0.96875000000000000        0.0000000000000000     
  0.62500000000000000       0.96875000000000000        0.0000000000000000     
  0.50000000000000000        1.0000000000000000        0.0000000000000000     
  0.53125000000000000        1.0000000000000000        0.0000000000000000     
  0.56250000000000000        1.0000000000000000        0.0000000000000000     
  0.59375000000000000        1.0000000000000000        0.0000000000000000     
  0.62500000000000000        1.0000000000000000        0.0000000000000000     
  0.62500000000000000       0.87500000000000000        0.0000000000000000     
  0.65625000000000000       0.87500000000000000        0.0000000000000000     
  0.68750000000000000       0.87500000000000000        0.0000000000000000     
  0.71875000000000000       0.87500000000000000        0.0000000000000000     
  0.75000000000000000       0.87500000000000000        0.0000000000000000     
  0.62500000000000000       0.90625000000000000        0.0000000000000000     
  0.65625000000000000       0.90625000000000000        0.0000000000000000     
  0.68750000000000000       0.90625000000000000        0.0000000000000000     
  0.71875000000000000       0.90625000000000000        0.0000000000000000     
  0.75000000000000000       0.90625000000000000        0.0000000000000000     
  0.62500000000000000       0.93750000000000000        0.0000000000000000     
  0.65625000000000000       0.93750000000000000        0.0000000000000000     
  0.68750000000000000       0.93750000000000000        0.0000000000000000     
  0.71875000000000000       0.93750000000000000        0.0000000000000000     
  0.75000000000000000       0.93750000000000000        0.0000000000000000     
  0.62500000000000000       0.96875000000000000        0.0000000000000000     
  0.65625000000000000       0.96875000000000000        0.0000000000000000     
  0.68750000000000000       0.96875000000000000        0.0000000000000000     
  0.71875000000000000       0.96875000000000000        0.0000000000000000     
  0.75000000000000000       0.96875000000000000        0.0000000000000000     
  0.62500000000000000        1.0000000000000000        0.0000000000000000     
  0.65625000000000000        1.0000000000000000        0.0000000000000000     
  0.68750000000000000        1.0000000000000000        0.0000000000000000     
  0.71875000000000000        1.0000000000000000        0.0000000000000000     
  0.75000000000000000        1.0000000000000000        0.0000000000000000     
  0.75000000000000000       0.87500000000000000        0.0000000000000000     
  0.78125000000000000       0.87500000000000000        0.0000000000000000     
  0.81250000000000000       0.87500000000000000        0.0000000000000000     
  0.84375000000000000       0.87500000000000000        0.0000000000000000     
  0.87500000000000000       0.87500000000000000        0.0000000000000000     
  0.75000000000000000       0.90625000000000000        0.0000000000000000     
  0.78125000000000000       0.90625000000000000        0.0000000000000000     
  0.81250000000000000       0.90625000000000000        0.0000000000000000     
  0.84375000000000000       0.90625000000000000        0.0000000000000000     
  0.87500000000000000       0.90625000000000000        0.0000000000000000     
  0.75000000000000000       0.93750000000000000        0.0000000000000000     
  0.78125000000000000       0.93750000000000000        0.0000000000000000     
  0.81250000000000000       0.93750000000000000        0.0000000000000000     
  0.84375000000000000       0.93750000000000000        0.0000000000000000     
  0.87500000000000000       0.93750000000000000        0.0000000000000000     
  0.75000000000000000       0.96875000000000000        0.0000000000000000     
  0.78125000000000000       0.96875000000000000        0.0000000000000000     
  0.81250000000000000       0.96875000000000000        0.0000000000000000     
  0.84375000000000000       0.96875000000000000        0.0000000000000000     
  0.87500000000000000       0.96875000000000000        0.0000000000000000     
  0.75000000000000000        1.0000000000000000        0.0000000000000000     
  0.78125000000000000        1.0000000000000000        0.0000000000000000     
  0.81250000000000000        1.0000000000000000        0.0000000000000000     
  0.84375000000000000        1.0000000000000000        0.0000000000000000     
  0.87500000000000000        1.0000000000000000        0.0000000000000000     
  0.87500000000000000       0.87500000000000000        0.0000000000000000     
  0.90625000000000000       0.87500000000000000        0.0000000000000000     
  0.93750000000000000       0.87500000000000000        0.0000000000000000     
  0.96875000000000000       0.87500000000000000        0.0000000000000000     
   1.0000000000000000       0.87500000000000000        0.0000000000000000     
  0.87500000000000000       0.90625000000000000        0.0000000000000000     
  0.90625000000000000       0.90625000000000000        0.0000000000000000     
  0.93750000000000000       0.90625000000000000        0.0000000000000000     
  0.96875000000000000       0.90625000000000000        0.0000000000000000     
   1.0000000000000000       0.90625000000000000        0.0000000000000000     
  0.87500000000000000       0.93750000000000000        0.0000000000000000     
  0.90625000000000000       0.93750000000000000        0.0000000000000000     
  0.93750000000000000       0.93750000000000000        0.0000000000000000     
  0.96875000000000000       0.93750000000000000        0.0000000000000000     
   1.0000000000000000       0.93750000000000000        0.0000000000000000     
  0.87500000000000000       0.96875000000000000        0.0000000000000000     
  0.90625000000000000       0.96875000000000000        0.0000000000000000     
  0.93750000000000000       0.96875000000000000        0.0000000000000000     
  0.96875000000000000       0.96875000000000000        0.0000000000000000     
   1.0000000000000000       0.96875000000000000        0.0000000000000000     
  0.87500000000000000        1.0000000000000000        0.0000000000000000     
  0.90625000000000000        1.0000000000000000        0.0000000000000000     
  0.93750000000000000        1.0000000000000000        0.0000000000000000     
  0.96875000000000000        1.0000000000000000        0.0000000000000000     
   1.0000000000000000        1.0000000000000000        0.0000000000000000     
   1.0000000000000000       0.87500000000000000        0.0000000000000000     
   1.0312500000000000       0.87500000000000000        0.0000000000000000     
   1.0625000000000000       0.87500000000000000        0.0000000000000000     
   1.0937500000000000       0.87500000000000000        0.0000000000000000     
   1.1250000000000000       0.87500000000000000        0.0000000000000000     
   1.0000000000000000       0.90625000000000000        0.0000000000000000     
   1.0312500000000000       0.90625000000000000        0.0000000000000000     
   1.0625000000000000       0.90625000000000000        0.0000000000000000     
   1.0937500000000000       0.90625000000000000        0.0000000000000000     
   1.1250000000000000       0.90625000000000000        0.0000000000000000     
   1.0000000000000000       0.93750000000000000        0.0000000000000000     
   1.0312500000000000       0.93750000000000000        0.0000000000000000     
   1.0625000000000000       0.93750000000000000        0.0000000000000000     
   1.0937500000000000       0.93750000000000000        0.0000000000000000     
   1.1250000000000000       0.93750000000000000        0.0000000000000000     
   1.0000000000000000       0.96875000000000000        0.0000000000000000     
   1.0312500000000000       0.96875000000000000        0.0000000000000000     
   1.0625000000000000       0.96875000000000000        0.0000000000000000     
   1.0937500000000000       0.96875000000000000        0.0000000000000000     
   1.1250000000000000       0.96875000000000000        0.0000000000000000     
   1.0000000000000000        1.0000000000000000        0.0000000000000000     
   1.0312500000000000        1.0000000000000000        0.0000000000000000     
   1.0625000000000000        1.0000000000000000        0.0000000000000000     
   1.0937500000000000        1.0000000000000000        0.0000000000000000     
   1.1250000000000000        1.0000000000000000        0.0000000000000000     
   1.1250000000000000       0.87500000000000000        0.0000000000000000     
   1.1562500000000000       0.87500000000000000        0.0000000000000000     
   1.1875000000000000       0.87500000000000000        0.0000000000000000     
   1.2187500000000000       0.87500000000000000        0.0000000000000000     
   1.2500000000000000       0.87500000000000000        0.0000000000000000     
   1.1250000000000000       0.90625000000000000        0.0000000000000000     
   1.1562500000000000       0.90625000000000000        0.0000000000000000     
   1.1875000000000000       0.90625000000000000        0.0000000000000000     
   1.2187500000000000       0.90625000000000000        0.0000000000000000     
   1.2500000000000000       0.90625000000000000        0.0000000000000000     
   1.1250000000000000       0.93750000000000000        0.0000000000000000     
   1.1562500000000000       0.93750000000000000        0.0000000000000000     
   1.1875000000000000       0.93750000000000000        0.0000000000000000     
   1.2187500000000000       0.93750000000000000        0.0000000000000000     
   1.2500000000000000       0.93750000000000000        0.0000000000000000     
   1.1250000000000000       0.96875000000000000        0.0000000000000000     
   1.1562500000000000       0.96875000000000000        0.0000000000000000     
   1.1875000000000000       0.96875000000000000        0.0000000000000000     
   1.2187500000000000       0.96875000000000000        0.0000000000000000     
   1.2500000000000000       0.96875000000000000        0.0000000000000000     
   1.1250000000000000        1.0000000000000000        0.0000000000000000     
   1.1562500000000000        1.0000000000000000        0.0000000000000000     
   1.1875000000000000        1.0000000000000000        0.0000000000000000     
   1.2187500000000000        1.0000000000000000        0.0000000000000000     
   1.2500000000000000        1.0000000000000000        0.0000000000000000     
   1.2500000000000000       0.87500000000000000        0.0000000000000000     
   1.2812500000000000       0.87500000000000000        0.0000000000000000     
   1.3125000000000000       0.87500000000000000        0.0000000000000000     
   1.3437500000000000       0.87500000000000000        0.0000000000000000     
   1.3750000000000000       0.87500000000000000        0.0000000000000000     
   1.2500000000000000       0.90625000000000000        0.0000000000000000     
   1.2812500000000000       0.90625000000000000        0.0000000000000000     
   1.3125000000000000       0.90625000000000000        0.0000000000000000     
   1.3437500000000000       0.90625000000000000        0.0000000000000000     
   1.3750000000000000       0.90625000000000000        0.0000000000000000     
   1.2500000000000000       0.93750000000000000        0.0000000000000000     
   1.2812500000000000       0.93750000000000000        0.0000000000000000     
   1.3125000000000000       0.93750000000000000        0.0000000000000000     
   1.3437500000000000       0.93750000000000000        0.0000000000000000     
   1.3750000000000000       0.93750000000000000        0.0000000000000000     
   1.2500000000000000       0.96875000000000000        0.0000000000000000     
   1.2812500000000000       0.96875000000000000        0.0000000000000000     
   1.3125000000000000       0.96875000000000000        0.0000000000000000     
   1.3437500000000000       0.96875000000000000        0.0000000000000000     
   1.3750000000000000       0.96875000000000000        0.0000000000000000     
   1.2500000000000000        1.0000000000000000        0.0000000000000000     
   1.2812500000000000        1.0000000000000000        0.0000000000000000     
   1.3125000000000000        1.0000000000000000        0.0000000000000000     
   1.3437500000000000        1.0000000000000000        0.0000000000000000     
   1.3750000000000000        1.0000000000000000        0.0000000000000000     
   1.3750000000000000       0.87500000000000000        0.0000000000000000     
   1.4062500000000000       0.87500000000000000        0.0000000000000000     
   1.4375000000000000       0.87500000000000000        0.0000000000000000     
   1.4687500000000000       0.87500000000000000        0.0000000000000000     
   1.5000000000000000       0.87500000000000000        0.0000000000000000     
   1.3750000000000000       0.90625000000000000        0.0000000000000000     
   1.4062500000000000       0.90625000000000000        0.0000000000000000     
   1.4375000000000000       0.90625000000000000        0.0000000000000000     
   1.4687500000000000       0.90625000000000000        0.0000000000000000     
   1.5000000000000000       0.90625000000000000        0.0000000000000000     
   1.3750000000000000       0.93750000000000000        0.0000000000000000     
   1.4062500000000000       0.93750000000000000        0.0000000000000000     
   1.4375000000000000       0.93750000000000000        0.0000000000000000     
   1.4687500000000000       0.93750000000000000        0.0000000000000000     
   1.5000000000000000       0.93750000000000000        0.0000000000000000     
   1.3750000000000000       0.96875000000000000        0.0000000000000000     
   1.4062500000000000       0.96875000000000000        0.0000000000000000     
   1.4375000000000000       0.96875000000000000        0.0000000000000000     
   1.4687500000000000       0.96875000000000000        0.0000000000000000     
   1.5000000000000000       0.96875000000000000        0.0000000000000000     
   1.3750000000000000        1.0000000000000000        0.0000000000000000     
   1.4062500000000000        1.0000000000000000        0.0000000000000000     
   1.4375000000000000        1.0000000000000000        0.0000000000000000     
   1.4687500000000000        1.0000000000000000        0.0000000000000000     
   1.5000000000000000        1.0000000000000000        0.0000000000000000     
 </DataArray>
 </Points>
 <Cells>
 <DataArray  type="Int32"  Name="connectivity"  format="ascii">
           0           1           6           5
           1           2           7           6
           2           3           8           7
           3           4           9           8
           5           6          11          10
           6           7          12          11
           7           8          13          12
           8           9          14          13
          10          11          16          15
          11          12          17          16
          12          13          18          17
          13          14          19          18
          15          16          21          20
          16          17          22          21
          17          18          23          22
          18          19          24          23
          25          26          31          30
          26          27          32          31
          27          28          33          32
          28          29          34          33
          30          31          36          35
          31          32          37          36
          32          33          38          37
          33          34          39          38
          35          36          41          40
          36          37          42          41
          37          38          43          42
          38          39          44          43
          40          41          46          45
          41          42          47          46
          42          43          48          47
          43          44          49          48
          50          51          56          55
          51          52          57          56
          52          53          58          57
          53          54          59          58
          55          56          61          60
          56          57          62          61
          57          58          63          62
          58          59          64          63
          60          61          66          65
          61          62          67          66
          62          63          68          67
          63          64          69          68
          65          66          71          70
          66          67          72          71
          67          68          73          72
          68          69          74          73
          75          76          81          80
          76          77          82          81
          77          78          83          82
          78          79          84          83
          80          81          86          85
          81          82          87          86
          82          83          88          87
          83          84          89          88
          85          86          91          90
          86          87          92          91
          87          88          93          92
          88          89          94          93
          90          91          96          95
          91          92          97          96
          92          93          98          97
          93          94          99          98
         100         101         106         105
         101         102         107         106
         102         103         108         107
         103         104         109         108
         105         106         111         110
         106         107         112         111
         107         108         113         112
         108         109         114         113
         110         111         116         115
         111         112         117         116
         112         113         118         117
         113         114         119         118
         115         116         121         120
         116         117         122         121
         117         118         123         122
         118         119         124         123
         125         126         131         130
         126         127         132         131
         127         128         133         132
         128         129         134         133
         130         131         136         135
         131         132         137         136
         132         133         138         137
         133         134         139         138
         135         136         141         140
         136         137         142         141
         137         138         143         142
         138         139         144         143
         140         141         146         145
         141         142         147         146
         142         143         148         147
         143         144         149         148
         150         151         156         155
         151         152         157         156
         152         153         158         157
         153         154         159         158
         155         156         161         160
         156         157         162         161
         157         158         163         162
         158         159         164         163
         160         161         166         165
         161         162         167         166
         162         163         168         167
         163         164         169         168
         165         166         171         170
         166         167         172         171
         167         168         173         172
         168         169         174         173
         175         176         181         180
         176         177         182         181
         177         178         183         182
         178         179         184         183
         180         181         186         185
         181         182         187         186
         182         183         188         187
         183         184         189         188
         185         186         191         190
         186         187         192         191
         187         188         193         192
         188         189         194         193
         190         191         196         195
         191         192         197         196
         192         193         198         197
         193         194         199         198
         200         201         206         205
         201         202         207         206
         202         203         208         207
         203         204         209         208
         205         206         211         210
         206         207         212         211
         207         208         213         212
         208         209         214         213
         210         211         216         215
         211         212         217         216
         212         213         218         217
         213         214         219         218
         215         216         221         220
         216         217         222         221
         217         218         223         222
         218         219         224         223
         225         226         231         230
         226         227         232         231
         227         228         233         232
         228         229         234         233
         230         231         236         235
         231         232         237         236
         232         233         238         237
         233         234         239         238
         235         236         241         240
         236         237         242         241
         237         238         243         242
         238         239         244         243
         240         241         246         245
         241         242         247         246
         242         243         248         247
         243         244         249         248
         250         251         256         255
         251         252         257         256
         252         253         258         257
         253         254         259         258
         255         256         261         260
         256         257         262         261
         257         258         263         262
         258         259         264         263
         260         261         266         265
         261         262         267         266
         262         263         268         267
         263         264         269         268
         265         266         271         270
         266         267         272         271
         267         268         273         272
         268         269         274         273
         275         276         281         280
         276         277         282         281
         277         278         283         282
         278         279         284         283
         280         281         286         285
         281         282         287         286
         282         283         288         287
         283         284         289         288
         285         286         291         290
         286         287         292         291
         287         288         293         292
         288         289         294         293
         290         291         296         295
         291         292         297         296
         292         293         298         297
         293         294         299         298
         300         301         306         305
         301         302         307         306
         302         303         308         307
         303         304         309         308
         305         306         311         310
         306         307         312         311
         307         308         313         312
         308         309         314         313
         310         311         316         315
         311         312         317         316
         312         313         318         317
         313         314         319         318
         315         316         321         320
         316         317         322         321
         317         318         323         322
         318         319         324         323
         325         326         331         330
         326         327         332         331
         327         328         333         332
         328         329         334         333
         330         331         336         335
         331         332         337         336
         332         333         338         337
         333         334         339         338
         335         336         341         340
         336         337         342         341
         337         338         343         342
         338         339         344         343
         340         341         346         345
         341         342         347         346
         342         343         348         347
         343         344         349         348
         350         351         356         355
         351         352         357         356
         352         353         358         357
         353         354         359         358
         355         356         361         360
         356         357         362         361
         357         358         363         362
         358         359         364         363
         360         361         366         365
         361         362         367         366
         362         363         368         367
         363         364         369         368
         365         366         371         370
         366         367         372         371
         367         368         373         372
         368         369         374         373
         375         376         381         380
         376         377         382         381
         377         378         383         382
         378         379         384         383
         380         381         386         385
         381         382         387         386
         382         383         388         387
         383         384         389         388
         385         386         391         390
         386         387         392         391
         387         388         393         392
         388         389         394         393
         390         391         396         395
         391         392         397         396
         392         393         398         397
         393         394         399         398
         400         401         406         405
         401         402         407         406
         402         403         408         407
         403         404         409         408
         405         406         411         410
         406         407         412         411
         407         408         413         412
         408         409         414         413
         410         411         416         415
         411         412         417         416
         412         413         418         417
         413         414         419         418
         415         416         421         420
         416         417         422         421
         417         418         423         422
         418         419         424         423
         425         426         431         430
         426         427         432         431
         427         428         433         432
         428         429         434         433
         430         431         436         435
         431         432         437         436
         432         433         438         437
         433         434         439         438
         435         436         441         440
         436         437         442         441
         437         438         443         442
         438         439         444         443
         440         441         446         445
         441         442         447         446
         442         443         448         447
         443         444         449         448
         450         451         456         455
         451         452         457         456
         452         453         458         457
         453         454         459         458
         455         456         461         460
         456         457         462         461
         457         458         463         462
         458         459         464         463
         460         461         466         465
         461         462         467         466
         462         463         468         467
         463         464         469         468
         465         466         471         470
         466         467         472         471
         467         468         473         472
         468         469         474         473
         475         476         481         480
         476         477         482         481
         477         478         483         482
         478         479         484         483
         480         481         486         485
         481         482         487         486
         482         483         488         487
         483         484         489         488
         485         486         491         490
         486         487         492         491
         487         488         493         492
         488         489         494         493
         490         491         496         495
         491         492         497         496
         492         493         498         497
         493         494         499         498
         500         501         506         505
         501         502         507         506
         502         503         508         507
         503         504         509         508
         505         506         511         510
         506         507         512         511
         507         508         513         512
         508         509         514         513
         510         511         516         515
         511         512         517         516
         512         513         518         517
         513         514         519         518
         515         516         521         520
         516         517         522         521
         517         518         523         522
         518         519         524         523
         525         526         531         530
         526         527         532         531
         527         528         533         532
         528         529         534         533
         530         531         536         535
         531         532         537         536
         532         533         538         537
         533         534         539         538
         535         536         541         540
         536         537         542         541
         537         538         543         542
         538         539         544         543
         540         541         546         545
         541         542         547         546
         542         543         548         547
         543         544         549         548
         550         551         556         555
         551         552         557         556
         552         553         558         557
         553         554         559         558
         555         556         561         560
         556         557         562         561
         557         558         563         562
         558         559         564         563
         560         561         566         565
         561         562         567         566
         562         563         568         567
         563         564         569         568
         565         566         571         570
         566         567         572         571
         567         568         573         572
         568         569         574         573
         575         576         581         580
         576         577         582         581
         577         578         583         582
         578         579         584         583
         580         581         586         585
         581         582         587         586
         582         583         588         587
         583         584         589         588
         585         586         591         590
         586         587         592         591
         587         588         593         592
         588         589         594         593
         590         591         596         595
         591         592         597         596
         592         593         598         597
         593         594         599         598
         600         601         606         605
         601         602         607         606
         602         603         608         607
         603         604         609         608
         605         606         611         610
         606         607         612         611
         607         608         613         612
         608         609         614         613
         610         611         616         615
         611         612         617         616
         612         613         618         617
         613         614         619         618
         615         616         621         620
         616         617         622         621
         617         618         623         622
         618         619         624         623
         625         626         631         630
         626         627         632         631
         627         628         633         632
         628         629         634         633
         630         631         636         635
         631         632         637         636
         632         633         638         637
         633         634         639         638
         635         636         641         640
         636         637         642         641
         637         638         643         642
         638         639         644         643
         640         641         646         645
         641         642         647         646
         642         643         648         647
         643         644         649         648
         650         651         656         655
         651         652         657         656
         652         653         658         657
         653         654         659         658
         655         656         661         660
         656         657         662         661
         657         658         663         662
         658         659         664         663
         660         661         666         665
         661         662         667         666
         662         663         668         667
         663         664         669         668
         665         666         671         670
         666         667         672         671
         667         668         673         672
         668         669         674         673
         675         676         681         680
         676         677         682         681
         677         678         683         682
         678         679         684         683
         680         681         686         685
         681         682         687         686
         682         683         688         687
         683         684         689         688
         685         686         691         690
         686         687         692         691
         687         688         693         692
         688         689         694         693
         690         691         696         695
         691         692         697         696
         692         693         698         697
         693         694         699         698
         700         701         706         705
         701         702         707         706
         702         703         708         707
         703         704         709         708
         705         706         711         710
         706         707         712         711
         707         708         713         712
         708         709         714         713
         710         711         716         715
         711         712         717         716
         712         713         718         717
         713         714         719         718
         715         716         721         720
         716         717         722         721
         717         718         723         722
         718         719         724         723
         725         726         731         730
         726         727         732         731
         727         728         733         732
         728         729         734         733
         730         731         736         735
         731         732         737         736
         732         733         738         737
         733         734         739         738
         735         736         741         740
         736         737         742         741
         737         738         743         742
         738         739         744         743
         740         741         746         745
         741         742         747         746
         742         743         748         747
         743         744         749         748
         750         751         756         755
         751         752         757         756
         752         753         758         757
         753         754         759         758
         755         756         761         760
         756         757         762         761
         757         758         763         762
         758         759         764         763
         760         761         766         765
         761         762         767         766
         762         763         768         767
         763         764         769         768
         765         766         771         770
         766         767         772         771
         767         768         773         772
         768         769         774         773
         775         776         781         780
         776         777         782         781
         777         778         783         782
         778         779         784         783
         780         781         786         785
         781         782         787         786
         782         783         788         787
         783         784         789         788
         785         786         791         790
         786         787         792         791
         787         788         793         792
         788         789         794         793
         790         791         796         795
         791         792         797         796
         792         793         798         797
         793         794         799         798
         800         801         806         805
         801         802         807         806
         802         803         808         807
         803         804         809         808
         805         806         811         810
         806         807         812         811
         807         808         813         812
         808         809         814         813
         810         811         816         815
         811         812         817         816
         812         813         818         817
         813         814         819         818
         815         816         821         820
         816         817         822         821
         817         818         823         822
         818         819         824         823
         825         826         831         830
         826         827         832         831
         827         828         833         832
         828         829         834         833
         830         831         836         835
         831         832         837         836
         832         833         838         837
         833         834         839         838
         835         836         841         840
         836         837         842         841
         837         838         843         842
         838         839         844         843
         840         841         846         845
         841         842         847         846
         842         843         848         847
         843         844         849         848
         850         851         856         855
         851         852         857         856
         852         853         858         857
         853         854         859         858
         855         856         861         860
         856         857         862         861
         857         858         863         862
         858         859         864         863
         860         861         866         865
         861         862         867         866
         862         863         868         867
         863         864         869         868
         865         866         871         870
         866         867         872         871
         867         868         873         872
         868         869         874         873
         875         876         881         880
         876         877         882         881
         877         878         883         882
         878         879         884         883
         880         881         886         885
         881         882         887         886
         882         883         888         887
         883         884         889         888
         885         886         891         890
         886         887         892         891
         887         888         893         892
         888         889         894         893
         890         891         896         895
         891         892         897         896
         892         893         898         897
         893         894         899         898
         900         901         906         905
         901         902         907         906
         902         903         908         907
         903         904         909         908
         905         906         911         910
         906         907         912         911
         907         908         913         912
         908         909         914         913
         910         911         916         915
         911         912         917         916
         912         913         918         917
         913         914         919         918
         915         916         921         920
         916         917         922         921
         917         918         923         922
         918         919         924         923
         925         926         931         930
         926         927         932         931
         927         928         933         932
         928         929         934         933
         930         931         936         935
         931         932         937         936
         932         933         938         937
         933         934         939         938
         935         936         941         940
         936         937         942         941
         937         938         943         942
         938         939         944         943
         940         941         946         945
         941         942         947         946
         942         943         948         947
         943         944         949         948
         950         951         956         955
         951         952         957         956
         952         953         958         957
         953         954         959         958
         955         956         961         960
         956         957         962         961
         957         958         963         962
         958         959         964         963
         960         961         966         965
         961         962         967         966
         962         963         968         967
         963         964         969         968
         965         966         971         970
         966         967         972         971
         967         968         973         972
         968         969         974         973
         975         976         981         980
         976         977         982         981
         977         978         983         982
         978         979         984         983
         980         981         986         985
         981         982         987         986
         982         983         988         987
         983         984         989         988
         985         986         991         990
         986         987         992         991
         987         988         993         992
         988         989         994         993
         990         991         996         995
         991         992         997         996
         992         993         998         997
         993         994         999         998
        1000        1001        1006        1005
        1001        1002        1007        1006
        1002        1003        1008        1007
        1003        1004        1009        1008
        1005        1006        1011        1010
        1006        1007        1012        1011
        1007        1008        1013        1012
        1008        1009        1014        1013
        1010        1011        1016        1015
        1011        1012        1017        1016
        1012        1013        1018        1017
        1013        1014        1019        1018
        1015        1016        1021        1020
        1016        1017        1022        1021
        1017        1018        1023        1022
        1018        1019        1024        1023
        1025        1026        1031        1030
        1026        1027        1032        1031
        1027        1028        1033        1032
        1028        1029        1034        1033
        1030        1031        1036        1035
        1031        1032        1037        1036
        1032        1033        1038        1037
        1033        1034        1039        1038
        1035        1036        1041        1040
        1036        1037        1042        1041
        1037        1038        1043        1042
        1038        1039        1044        1043
        1040        1041        1046        1045
        1041        1042        1047        1046
        1042        1043        1048        1047
        1043        1044        1049        1048
        1050        1051        1056        1055
        1051        1052        1057        1056
        1052        1053        1058        1057
        1053        1054        1059        1058
        1055        1056        1061        1060
        1056        1057        1062        1061
        1057        1058        1063        1062
        1058        1059        1064        1063
        1060        1061        1066        1065
        1061        1062        1067        1066
        1062        1063        1068        1067
        1063        1064        1069        1068
        1065        1066        1071        1070
        1066        1067        1072        1071
        1067        1068        1073        1072
        1068        1069        1074        1073
        1075        1076        1081        1080
        1076        1077        1082        1081
        1077        1078        1083        1082
        1078        1079        1084        1083
        1080        1081        1086        1085
        1081        1082        1087        1086
        1082        1083        1088        1087
        1083        1084        1089        1088
        1085        1086        1091        1090
        1086        1087        1092        1091
        1087        1088        1093        1092
        1088        1089        1094        1093
        1090        1091        1096        1095
        1091        1092        1097        1096
        1092        1093        1098        1097
        1093        1094        1099        1098
        1100        1101        1106        1105
        1101        1102        1107        1106
        1102        1103        1108        1107
        1103        1104        1109        1108
        1105        1106        1111        1110
        1106        1107        1112        1111
        1107        1108        1113        1112
        1108        1109        1114        1113
        1110        1111        1116        1115
        1111        1112        1117        1116
        1112        1113        1118        1117
        1113        1114        1119        1118
        1115        1116        1121        1120
        1116        1117        1122        1121
        1117        1118        1123        1122
        1118        1119        1124        1123
        1125        1126        1131        1130
        1126        1127        1132        1131
        1127        1128        1133        1132
        1128        1129        1134        1133
        1130        1131        1136        1135
        1131        1132        1137        1136
        1132        1133        1138        1137
        1133        1134        1139        1138
        1135        1136        1141        1140
        1136        1137        1142        1141
        1137        1138        1143        1142
        1138        1139        1144        1143
        1140        1141        1146        1145
        1141        1142        1147        1146
        1142        1143        1148        1147
        1143        1144        1149        1148
        1150        1151        1156        1155
        1151        1152        1157        1156
        1152        1153        1158        1157
        1153        1154        1159        1158
        1155        1156        1161        1160
        1156        1157        1162        1161
        1157        1158        1163        1162
        1158        1159        1164        1163
        1160        1161        1166        1165
        1161        1162        1167        1166
        1162        1163        1168        1167
        1163        1164        1169        1168
        1165        1166        1171        1170
        1166        1167        1172        1171
        1167        1168        1173        1172
        1168        1169        1174        1173
        1175        1176        1181        1180
        1176        1177        1182        1181
        1177        1178        1183        1182
        1178        1179        1184        1183
        1180        1181        1186        1185
        1181        1182        1187        1186
        1182        1183        1188        1187
        1183        1184        1189        1188
        1185        1186        1191        1190
        1186        1187        1192        1191
        1187        1188        1193        1192
        1188        1189        1194        1193
        1190        1191        1196        1195
        1191        1192        1197        1196
        1192        1193        1198        1197
        1193        1194        1199        1198
        1200        1201        1206        1205
        1201        1202        1207        1206
        1202        1203        1208        1207
        1203        1204        1209        1208
        1205        1206        1211        1210
        1206        1207        1212        1211
        1207        1208        1213        1212
        1208        1209        1214        1213
        1210        1211        1216        1215
        1211        1212        1217        1216
        1212        1213        1218        1217
        1213        1214        1219        1218
        1215        1216        1221        1220
        1216        1217        1222        1221
        1217        1218        1223        1222
        1218        1219        1224        1223
        1225        1226        1231        1230
        1226        1227        1232        1231
        1227        1228        1233        1232
        1228        1229        1234        1233
        1230        1231        1236        1235
        1231        1232        1237        1236
        1232        1233        1238        1237
        1233        1234        1239        1238
        1235        1236        1241        1240
        1236        1237        1242        1241
        1237        1238        1243        1242
        1238        1239        1244        1243
        1240        1241        1246        1245
        1241        1242        1247        1246
        1242        1243        1248        1247
        1243        1244        1249        1248
        1250        1251        1256        1255
        1251        1252        1257        1256
        1252        1253        1258        1257
        1253        1254        1259        1258
        1255        1256        1261        1260
        1256        1257        1262        1261
        1257        1258        1263        1262
        1258        1259        1264        1263
        1260        1261        1266        1265
        1261        1262        1267        1266
        1262        1263        1268        1267
        1263        1264        1269        1268
        1265        1266        1271        1270
        1266        1267        1272        1271
        1267        1268        1273        1272
        1268        1269        1274        1273
        1275        1276        1281        1280
        1276        1277        1282        1281
        1277        1278        1283        1282
        1278        1279        1284        1283
        1280        1281        1286        1285
        1281        1282        1287        1286
        1282        1283        1288        1287
        1283        1284        1289        1288
        1285        1286        1291        1290
        1286        1287        1292        1291
        1287        1288        1293        1292
        1288        1289        1294        1293
        1290        1291        1296        1295
        1291        1292        1297        1296
        1292        1293        1298        1297
        1293        1294        1299        1298
        1300        1301        1306        1305
        1301        1302        1307        1306
        1302        1303        1308        1307
        1303        1304        1309        1308
        1305        1306        1311        1310
        1306        1307        1312        1311
        1307        1308        1313        1312
        1308        1309        1314        1313
        1310        1311        1316        1315
        1311        1312        1317        1316
        1312        1313        1318        1317
        1313        1314        1319        1318
        1315        1316        1321        1320
        1316        1317        1322        1321
        1317        1318        1323        1322
        1318        1319        1324        1323
        1325        1326        1331        1330
        1326        1327        1332        1331
        1327        1328        1333        1332
        1328        1329        1334        1333
        1330        1331        1336        1335
        1331        1332        1337        1336
        1332        1333        1338        1337
        1333        1334        1339        1338
        1335        1336        1341        1340
        1336        1337        1342        1341
        1337        1338        1343        1342
        1338        1339        1344        1343
        1340        1341        1346        1345
        1341        1342        1347        1346
        1342        1343        1348        1347
        1343        1344        1349        1348
        1350        1351        1356        1355
        1351        1352        1357        1356
        1352        1353        1358        1357
        1353        1354        1359        1358
        1355        1356        1361        1360
        1356        1357        1362        1361
        1357        1358        1363        1362
        1358        1359        1364        1363
        1360        1361        1366        1365
        1361        1362        1367        1366
        1362        1363        1368        1367
        1363        1364        1369        1368
        1365        1366        1371        1370
        1366        1367        1372        1371
        1367        1368        1373        1372
        1368        1369        1374        1373
        1375        1376        1381        1380
        1376        1377        1382        1381
        1377        1378        1383        1382
        1378        1379        1384        1383
        1380        1381        1386        1385
        1381        1382        1387        1386
        1382        1383        1388        1387
        1383        1384        1389        1388
        1385        1386        1391        1390
        1386        1387        1392        1391
        1387        1388        1393        1392
        1388        1389        1394        1393
        1390        1391        1396        1395
        1391        1392        1397        1396
        1392        1393        1398        1397
        1393        1394        1399        1398
        1400        1401        1406        1405
        1401        1402        1407        1406
        1402        1403        1408        1407
        1403        1404        1409        1408
        1405        1406        1411        1410
        1406        1407        1412        1411
        1407        1408        1413        1412
        1408        1409        1414        1413
        1410        1411        1416        1415
        1411        1412        1417        1416
        1412        1413        1418        1417
        1413        1414        1419        1418
        1415        1416        1421        1420
        1416        1417        1422        1421
        1417        1418        1423        1422
        1418        1419        1424        1423
        1425        1426        1431        1430
        1426        1427        1432        1431
        1427        1428        1433        1432
        1428        1429        1434        1433
        1430        1431        1436        1435
        1431        1432        1437        1436
        1432        1433        1438        1437
        1433        1434        1439        1438
        1435        1436        1441        1440
        1436        1437        1442        1441
        1437        1438        1443        1442
        1438        1439        1444        1443
        1440        1441        1446        1445
        1441        1442        1447        1446
        1442        1443        1448        1447
        1443        1444        1449        1448
        1450        1451        1456        1455
        1451        1452        1457        1456
        1452        1453        1458        1457
        1453        1454        1459        1458
        1455        1456        1461        1460
        1456        1457        1462        1461
        1457        1458        1463        1462
        1458        1459        1464        1463
        1460        1461        1466        1465
        1461        1462        1467        1466
        1462        1463        1468        1467
        1463        1464        1469        1468
        1465        1466        1471        1470
        1466        1467        1472        1471
        1467        1468        1473        1472
        1468        1469        1474        1473
        1475        1476        1481        1480
        1476        1477        1482        1481
        1477        1478        1483        1482
        1478        1479        1484        1483
        1480        1481        1486        1485
        1481        1482        1487        1486
        1482        1483        1488        1487
        1483        1484        1489        1488
        1485        1486        1491        1490
        1486        1487        1492        1491
        1487        1488        1493        1492
        1488        1489        1494        1493
        1490        1491        1496        1495
        1491        1492        1497        1496
        1492        1493        1498        1497
        1493        1494        1499        1498
        1500        1501        1506        1505
        1501        1502        1507        1506
        1502        1503        1508        1507
        1503        1504        1509        1508
        1505        1506        1511        1510
        1506        1507        1512        1511
        1507        1508        1513        1512
        1508        1509        1514        1513
        1510        1511        1516        1515
        1511        1512        1517        1516
        1512        1513        1518        1517
        1513        1514        1519        1518
        1515        1516        1521        1520
        1516        1517        1522        1521
        1517        1518        1523        1522
        1518        1519        1524        1523
        1525        1526        1531        1530
        1526        1527        1532        1531
        1527        1528        1533        1532
        1528        1529        1534        1533
        1530        1531        1536        1535
        1531        1532        1537        1536
        1532        1533        1538        1537
        1533        1534        1539        1538
        1535        1536        1541        1540
        1536        1537        1542        1541
        1537        1538        1543        1542
        1538        1539        1544        1543
        1540        1541        1546        1545
        1541        1542        1547        1546
        1542        1543        1548        1547
        1543        1544        1549        1548
        1550        1551        1556        1555
        1551        1552        1557        1556
        1552        1553        1558        1557
        1553        1554        1559        1558
        1555        1556        1561        1560
        1556        1557        1562        1561
        1557        1558        1563        1562
        1558        1559        1564        1563
        1560        1561        1566        1565
        1561        1562        1567        1566
        1562        1563        1568        1567
        1563        1564        1569        1568
        1565        1566        1571        1570
        1566        1567        1572        1571
        1567        1568        1573        1572
        1568        1569        1574        1573
        1575        1576        1581        1580
        1576        1577        1582        1581
        1577        1578        1583        1582
        1578        1579        1584        1583
        1580        1581        1586        1585
        1581        1582        1587        1586
        1582        1583        1588        1587
        1583        1584        1589        1588
        1585        1586        1591        1590
        1586        1587        1592        1591
        1587        1588        1593        1592
        1588        1589        1594        1593
        1590        1591        1596        1595
        1591        1592        1597        1596
        1592        1593        1598        1597
        1593        1594        1599        1598
 </DataArray>
 <DataArray  type="Int32"  Name="offsets"  format="ascii"> 
           4
           8
          12
          16
          20
          24
          28
          32
          36
          40
          44
          48
          52
          56
          60
          64
          68
          72
          76
          80
          84
          88
          92
          96
         100
         104
         108
         112
         116
         120
         124
         128
         132
         136
         140
         144
         148
         152
         156
         160
         164
         168
         172
         176
         180
         184
         188
         192
         196
         200
         204
         208
         212
         216
         220
         224
         228
         232
         236
         240
         244
         248
         252
         256
         260
         264
         268
         272
         276
         280
         284
         288
         292
         296
         300
         304
         308
         312
         316
         320
         324
         328
         332
         336
         340
         344
         348
         352
         356
         360
         364
         368
         372
         376
         380
         384
         388
         392
         396
         400
         404
         408
         412
         416
         420
         424
         428
         432
         436
         440
         444
         448
         452
         456
         460
         464
         468
         472
         476
         480
         484
         488
         492
         496
         500
         504
         508
         512
         516
         520
         524
         528
         532
         536
         540
         544
         548
         552
         556
         560
         564
         568
         572
         576
         580
         584
         588
         592
         596
         600
         604
         608
         612
         616
         620
         624
         628
         632
         636
         640
         644
         648
         652
         656
         660
         664
         668
         672
         676
         680
         684
         688
         692
         696
         700
         704
         708
         712
         716
         720
         724
         728
         732
         736
         740
         744
         748
         752
         756
         760
         764
         768
         772
         776
         780
         784
         788
         792
         796
         800
         804
         808
         812
         816
         820
         824
         828
         832
         836
         840
         844
         848
         852
         856
         860
         864
         868
         872
         876
         880
         884
         888
         892
         896
         900
         904
         908
         912
         916
         920
         924
         928
         932
         936
         940
         944
         948
         952
         956
         960
         964
         968
         972
         976
         980
         984
         988
         992
         996
        1000
        1004
        1008
        1012
        1016
        1020
        1024
        1028
        1032
        1036
        1040
        1044
        1048
        1052
        1056
        1060
        1064
        1068
        1072
        1076
        1080
        1084
        1088
        1092
        1096
        1100
        1104
        1108
        1112
        1116
        1120
        1124
        1128
        1132
        1136
        1140
        1144
        1148
        1152
        1156
        1160
        1164
        1168
        1172
        1176
        1180
        1184
        1188
        1192
        1196
        1200
        1204
        1208
        1212
        1216
        1220
        1224
        1228
        1232
        1236
        1240
        1244
        1248
        1252
        1256
        1260
        1264
        1268
        1272
        1276
        1280
        1284
        1288
        1292
        1296
        1300
        1304
        1308
        1312
        1316
        1320
        1324
        1328
        1332
        1336
        1340
        1344
        1348
        1352
        1356
        1360
        1364
        1368
        1372
        1376
        1380
        1384
        1388
        1392
        1396
        1400
        1404
        1408
        1412
        1416
        1420
        1424
        1428
        1432
        1436
        1440
        1444
        1448
        1452
        1456
        1460
        1464
        1468
        1472
        1476
        1480
        1484
        1488
        1492
        1496
        1500
        1504
        1508
        1512
        1516
        1520
        1524
        1528
        1532
        1536
        1540
        1544
        1548
        1552
        1556
        1560
        1564
        1568
        1572
        1576
        1580
        1584
        1588
        1592
        1596
        1600
        1604
        1608
        1612
        1616
        1620
        1624
        1628
        1632
        1636
        1640
        1644
        1648
        1652
        1656
        1660
        1664
        1668
        1672
        1676
        1680
        1684
        1688
        1692
        1696
        1700
        1704
        1708
        1712
        1716
        1720
        1724
        1728
        1732
        1736
        1740
        1744
        1748
        1752
        1756
        1760
        1764
        1768
        1772
        1776
        1780
        1784
        1788
        1792
        1796
        1800
        1804
        1808
        1812
        1816
        1820
        1824
        1828
        1832
        1836
        1840
        1844
        1848
        1852
        1856
        1860
        1864
        1868
        1872
        1876
        1880
        1884
        1888
        1892
        1896
        1900
        1904
        1908
        1912
        1916
        1920
        1924
        1928
        1932
        1936
        1940
        1944
        1948
        1952
        1956
        1960
        1964
        1968
        1972
        1976
        1980
        1984
        1988
        1992
        1996
        2000
        2004
        2008
        2012
        2016
        2020
        2024
        2028
        2032
        2036
        2040
        2044
        2048
        2052
        2056
        2060
        2064
        2068
        2072
        2076
        2080
        2084
        2088
        2092
        2096
        2100
        2104
        2108
        2112
        2116
        2120
        2124
        2128
        2132
        2136
        2140
        2144
        2148
        2152
        2156
        2160
        2164
        2168
        2172
        2176
        2180
        2184
        2188
        2192
        2196
        2200
        2204
        2208
        2212
        2216
        2220
        2224
        2228
        2232
        2236
        2240
        2244
        2248
        2252
        2256
        2260
        2264
        2268
        2272
        2276
        2280
        2284
        2288
        2292
        2296
        2300
        2304
        2308
        2312
        2316
        2320
        2324
        2328
        2332
        2336
        2340
        2344
        2348
        2352
        2356
        2360
        2364
        2368
        2372
        2376
        2380
        2384
        2388
        2392
        2396
        2400
        2404
        2408
        2412
        2416
        2420
        2424
        2428
        2432
        2436
        2440
        2444
        2448
        2452
        2456
        2460
        2464
        2468
        2472
        2476
        2480
        2484
        2488
        2492
        2496
        2500
        2504
        2508
        2512
        2516
        2520
        2524
        2528
        2532
        2536
        2540
        2544
        2548
        2552
        2556
        2560
        2564
        2568
        2572
        2576
        2580
        2584
        2588
        2592
        2596
        2600
        2604
        2608
        2612
        2616
        2620
        2624
        2628
        2632
        2636
        2640
        2644
        2648
        2652
        2656
        2660
        2664
        2668
        2672
        2676
        2680
        2684
        2688
        2692
        2696
        2700
        2704
        2708
        2712
        2716
        2720
        2724
        2728
        2732
        2736
        2740
        2744
        2748
        2752
        2756
        2760
        2764
        2768
        2772
        2776
        2780
        2784
        2788
        2792
        2796
        2800
        2804
        2808
        2812
        2816
        2820
        2824
        2828
        2832
        2836
        2840
        2844
        2848
        2852
        2856
        2860
        2864
        2868
        2872
        2876
        2880
        2884
        2888
        2892
        2896
        2900
        2904
        2908
        2912
        2916
        2920
        2924
        2928
        2932
        2936
        2940
        2944
        2948
        2952
        2956
        2960
        2964
        2968
        2972
        2976
        2980
        2984
        2988
        2992
        2996
        3000
        3004
        3008
        3012
        3016
        3020
        3024
        3028
        3032
        3036
        3040
        3044
        3048
        3052
        3056
        3060
        3064
        3068
        3072
        3076
        3080
        3084
        3088
        3092
        3096
        3100
        3104
        3108
        3112
        3116
        3120
        3124
        3128
        3132
        3136
        3140
        3144
        3148
        3152
        3156
        3160
        3164
        3168
        3172
        3176
        3180
        3184
        3188
        3192
        3196
        3200
        3204
        3208
        3212
        3216
        3220
        3224
        3228
        3232
        3236
        3240
        3244
        3248
        3252
        3256
        3260
        3264
        3268
        3272
        3276
        3280
        3284
        3288
        3292
        3296
        3300
        3304
        3308
        3312
        3316
        3320
        3324
        3328
        3332
        3336
        3340
        3344
        3348
        3352
        3356
        3360
        3364
        3368
        3372
        3376
        3380
        3384
        3388
        3392
        3396
        3400
        3404
        3408
        3412
        3416
        3420
        3424
        3428
        3432
        3436
        3440
        3444
        3448
        3452
        3456
        3460
        3464
        3468
        3472
        3476
        3480
        3484
        3488
        3492
        3496
        3500
        3504
        3508
        3512
        3516
        3520
        3524
        3528
        3532
        3536
        3540
        3544
        3548
        3552
        3556
        3560
        3564
        3568
        3572
        3576
        3580
        3584
        3588
        3592
        3596
        3600
        3604
        3608
        3612
        3616
        3620
        3624
        3628
        3632
        3636
        3640
        3644
        3648
        3652
        3656
        3660
        3664
        3668
        3672
        3676
        3680
        3684
        3688
        3692
        3696
        3700
        3704
        3708
        3712
        3716
        3720
        3724
        3728
        3732
        3736
        3740
        3744
        3748
        3752
        3756
        3760
        3764
        3768
        3772
        3776
        3780
        3784
        3788
        3792
        3796
        3800
        3804
        3808
        3812
        3816
        3820
        3824
        3828
        3832
        3836
        3840
        3844
        3848
        3852
        3856
        3860
        3864
        3868
        3872
        3876
        3880
        3884
        3888
        3892
        3896
        3900
        3904
        3908
        3912
        3916
        3920
        3924
        3928
        3932
        3936
        3940
        3944
        3948
        3952
        3956
        3960
        3964
        3968
        3972
        3976
        3980
        3984
        3988
        3992
        3996
        4000
        4004
        4008
        4012
        4016
        4020
        4024
        4028
        4032
        4036
        4040
        4044
        4048
        4052
        4056
        4060
        4064
        4068
        4072
        4076
        4080
        4084
        4088
        4092
        4096
 </DataArray>
 <DataArray  type="UInt8"  Name="types"  format="ascii">
 9
 9
 9
 9
 9
 9
 9
 9
 9
 9
 9
 9
 9
 9
 9
 9
 9
 9
 9
 9
 9
 9
 9
 9
 9
 9
 9
 9
 9
 9
 9
 9
 9
 9
 9
 9
 9
 9
 9
 9
 9
 9
 9
 9
 9
 9
 9
 9
 9
 9
 9
 9
 9
 9
 9
 9
 9
 9
 9
 9
 9
 9
 9
 9
 9
 9
 9
 9
 9
 9
 9
 9
 9
 9
 9
 9
 9
 9
 9
 9
 9
 9
 9
 9
 9
 9
 9
 9
 9
 9
 9
 9
 9
 9
 9
 9
 9
 9
 9
 9
 9
 9
 9
 9
 9
 9
 9
 9
 9
 9
 9
 9
 9
 9
 9
 9
 9
 9
 9
 9
 9
 9
 9
 9
 9
 9
 9
 9
 9
 9
 9
 9
 9
 9
 9
 9
 9
 9
 9
 9
 9
 9
 9
 9
 9
 9
 9
 9
 9
 9
 9
 9
 9
 9
 9
 9
 9
 9
 9
 9
 9
 9
 9
 9
 9
 9
 9
 9
 9
 9
 9
 9
 9
 9
 9
 9
 9
 9
 9
 9
 9
 9
 9
 9
 9
 9
 9
 9
 9
 9
 9
 9
 9
 9
 9
 9
 9
 9
 9
 9
 9
 9
 9
 9
 9
 9
 9
 9
 9
 9
 9
 9
 9
 9
 9
 9
 9
 9
 9
 9
 9
 9
 9
 9
 9
 9
 9
 9
 9
 9
 9
 9
 9
 9
 9
 9
 9
 9
 9
 9
 9
 9
 9
 9
 9
 9
 9
 9
 9
 9
 9
 9
 9
 9
 9
 9
 9
 9
 9
 9
 9
 9
 9
 9
 9
 9
 9
 9
 9
 9
 9
 9
 9
 9
 9
 9
 9
 9
 9
 9
 9
 9
 9
 9
 9
 9
 9
 9
 9
 9
 9
 9
 9
 9
 9
 9
 9
 9
 9
 9
 9
 9
 9
 9
 9
 9
 9
 9
 9
 9
 9
 9
 9
 9
 9
 9
 9
 9
 9
 9
 9
 9
 9
 9
 9
 9
 9
 9
 9
 9
 9
 9
 9
 9
 9
 9
 9
 9
 9
 9
 9
 9
 9
 9
 9
 9
 9
 9
 9
 9
 9
 9
 9
 9
 9
 9
 9
 9
 9
 9
 9
 9
 9
 9
 9
 9
 9
 9
 9
 9
 9
 9
 9
 9
 9
 9
 9
 9
 9
 9
 9
 9
 9
 9
 9
 9
 9
 9
 9
 9
 9
 9
 9
 9
 9
 9
 9
 9
 9
 9
 9
 9
 9
 9
 9
 9
 9
 9
 9
 9
 9
 9
 9
 9
 9
 9
 9
 9
 9
 9
 9
 9
 9
 9
 9
 9
 9
 9
 9
 9
 9
 9
 9
 9
 9
 9
 9
 9
 9
 9
 9
 9
 9
 9
 9
 9
 9
 9
 9
 9
 9
 9
 9
 9
 9
 9
 9
 9
 9
 9
 9
 9
 9
 9
 9
 9
 9
 9
 9
 9
 9
 9
 9
 9
 9
 9
 9
 9
 9
 9
 9
 9
 9
 9
 9
 9
 9
 9
 9
 9
 9
 9
 9
 9
 9
 9
 9
 9
 9
 9
 9
 9
 9
 9
 9
 9
 9
 9
 9
 9
 9
 9
 9
 9
 9
 9
 9
 9
 9
 9
 9
 9
 9
 9
 9
 9
 9
 9
 9
 9
 9
 9
 9
 9
 9
 9
 9
 9
 9
 9
 9
 9
 9
 9
 9
 9
 9
 9
 9
 9
 9
 9
 9
 9
 9
 9
 9
 9
 9
 9
 9
 9
 9
 9
 9
 9
 9
 9
 9
 9
 9
 9
 9
 9
 9
 9
 9
 9
 9
 9
 9
 9
 9
 9
 9
 9
 9
 9
 9
 9
 9
 9
 9
 9
 9
 9
 9
 9
 9
 9
 9
 9
 9
 9
 9
 9
 9
 9
 9
 9
 9
 9
 9
 9
 9
 9
 9
 9
 9
 9
 9
 9
 9
 9
 9
 9
 9
 9
 9
 9
 9
 9
 9
 9
 9
 9
 9
 9
 9
 9
 9
 9
 9
 9
 9
 9
 9
 9
 9
 9
 9
 9
 9
 9
 9
 9
 9
 9
 9
 9
 9
 9
 9
 9
 9
 9
 9
 9
 9
 9
 9
 9
 9
 9
 9
 9
 9
 9
 9
 9
 9
 9
 9
 9
 9
 9
 9
 9
 9
 9
 9
 9
 9
 9
 9
 9
 9
 9
 9
 9
 9
 9
 9
 9
 9
 9
 9
 9
 9
 9
 9
 9
 9
 9
 9
 9
 9
 9
 9
 9
 9
 9
 9
 9
 9
 9
 9
 9
 9
 9
 9
 9
 9
 9
 9
 9
 9
 9
 9
 9
 9
 9
 9
 9
 9
 9
 9
 9
 9
 9
 9
 9
 9
 9
 9
 9
 9
 9
 9
 9
 9
 9
 9
 9
 9
 9
 9
 9
 9
 9
 9
 9
 9
 9
 9
 9
 9
 9
 9
 9
 9
 9
 9
 9
 9
 9
 9
 9
 9
 9
 9
 9
 9
 9
 9
 9
 9
 9
 9
 9
 9
 9
 9
 9
 9
 9
 9
 9
 9
 9
 9
 9
 9
 9
 9
 9
 9
 9
 9
 9
 9
 9
 9
 9
 9
 9
 9
 9
 9
 9
 9
 9
 9
 9
 9
 9
 9
 9
 9
 9
 9
 9
 9
 9
 9
 9
 9
 9
 9
 9
 9
 9
 9
 9
 9
 9
 9
 9
 9
 9
 9
 9
 9
 9
 9
 9
 9
 9
 9
 9
 9
 9
 9
 9
 9
 9
 9
 9
 9
 9
 9
 9
 9
 9
 9
 9
 9
 9
 9
 9
 9
 9
 9
 9
 9
 9
 9
 9
 9
 9
 9
 9
 9
 9
 9
 9
 9
 9
 9
 9
 9
 9
 9
 9
 9
 9
 9
 9
 9
 9
 9
 9
 9
 9
 9
 9
 9
 9
 9
 9
 9
 9
 9
 9
 9
 9
 9
 9
 9
 9
 9
 9
 9
 9
 9
 9
 9
 9
 9
 9
 9
 9
 9
 9
 9
 9
 9
 9
 9
 9
 9
 9
 9
 9
 9
 9
 9
 9
 9
 9
 9
 9
 9
 9
 9
 9
 9
 9
 9
 9
 9
 9
 9
 9
 9
 9
 9
 9
 9
 9
 9
 9
 9
 9
 9
 9
 9
 9
 9
 9
 9
 9
 9
 9
 9
 9
 9
 9
 9
 9
 9
 9
 9
 9
 9
 9
 9
 9
 9
 9
 9
 9
 9
 9
 </DataArray>
 </Cells> 
 <PointData>
 <DataArray  type="Float64" Name="disp" NumberOfComponents="3" format="ascii">
   6.5075160716642766E-002   6.3051797565634296E-002   0.0000000000000000     
   6.8479619527975294E-002   6.8193852493753621E-002   0.0000000000000000     
   7.1652616755202320E-002   7.3620039501837070E-002   0.0000000000000000     
   7.4594152398323843E-002   7.9330358589884645E-002   0.0000000000000000     
   7.7304226457339850E-002   8.5324809757896330E-002   0.0000000000000000     
   6.0142466980738371E-002   6.1975959764421891E-002   0.0000000000000000     
   6.3057104071985615E-002   6.7326559937855898E-002   0.0000000000000000     
   6.5864027565202543E-002   7.2882621999943845E-002   0.0000000000000000     
   6.8563237460389212E-002   7.8644145950685709E-002   0.0000000000000000     
   7.1154733757545593E-002   8.4611131790081534E-002   0.0000000000000000     
   5.5112547841514453E-002   6.0993754323997673E-002   0.0000000000000000     
   5.7862993898893655E-002   6.6508658966014877E-002   0.0000000000000000     
   6.0505075472482669E-002   7.2170776050221777E-002   0.0000000000000000     
   6.3038792562281523E-002   7.7980105576618372E-002   0.0000000000000000     
   6.5464145168290189E-002   8.3936647545204662E-002   0.0000000000000000     
   4.9985403298971005E-002   6.0105181244361629E-002   0.0000000000000000     
   5.2897289008699430E-002   6.5740149578230558E-002   0.0000000000000000     
   5.5575760477042678E-002   7.1484501652670882E-002   0.0000000000000000     
   5.8020817704000742E-002   7.7338237467682605E-002   0.0000000000000000     
   6.0232460689573622E-002   8.3301357023265701E-002   0.0000000000000000     
   4.4761033353108035E-002   5.9310240525513785E-002   0.0000000000000000     
   4.8159989401402946E-002   6.5021031774502941E-002   0.0000000000000000     
   5.1076082578882569E-002   7.0823798807291144E-002   0.0000000000000000     
   5.3509312885546896E-002   7.6718541623878367E-002   0.0000000000000000     
   5.5459680321395942E-002   8.2705260224264651E-002   0.0000000000000000     
   7.7304226457339850E-002   8.5324809757896330E-002   0.0000000000000000     
   7.9887282069902713E-002   9.1526521386144324E-002   0.0000000000000000     
   8.2447762373664774E-002   9.7858621854900796E-002   0.0000000000000000     
   8.4985667368626019E-002  0.10432111116416574        0.0000000000000000     
   8.7500997054786478E-002  0.11091398931393916        0.0000000000000000     
   7.1154733757545593E-002   8.4611131790081534E-002   0.0000000000000000     
   7.3670154883367006E-002   9.0763173484214560E-002   0.0000000000000000     
   7.6141139264548838E-002   9.7079864999168125E-002   0.0000000000000000     
   7.8567686901091033E-002  0.10356120633494219        0.0000000000000000     
   8.0949797792993619E-002  0.11020719749153679        0.0000000000000000     
   6.5464145168290189E-002   8.3936647545204662E-002   0.0000000000000000     
   6.7813830307277931E-002   9.0060505707820593E-002   0.0000000000000000     
   7.0120544996014056E-002   9.6371783816306081E-002   0.0000000000000000     
   7.2384289234498522E-002  0.10287048187066117        0.0000000000000000     
   7.4605063022731344E-002  0.10955659987088584        0.0000000000000000     
   6.0232460689573622E-002   8.3301357023265701E-002   0.0000000000000000     
   6.2318308341635480E-002   8.9418518056962326E-002   0.0000000000000000     
   6.4385979568060428E-002   9.5734378306314677E-002   0.0000000000000000     
   6.6435474368848488E-002  0.10224893777132266        0.0000000000000000     
   6.8466792743999624E-002  0.10896219645198632        0.0000000000000000     
   5.5459680321395942E-002   8.2705260224264651E-002   0.0000000000000000     
   5.7183588986439646E-002   8.8837210531639843E-002   0.0000000000000000     
   5.8937442980687975E-002   9.5167648469193858E-002   0.0000000000000000     
   6.0721242304140929E-002  0.10169657403692667        0.0000000000000000     
   6.2534986956798488E-002  0.10842398723483826        0.0000000000000000     
   8.7500997054786478E-002  0.11091398931393916        0.0000000000000000     
   8.9923661122391182E-002  0.11763848342314831        0.0000000000000000     
   9.2183569261685180E-002  0.12449582061072051        0.0000000000000000     
   9.4280721472668486E-002  0.13148600087665571        0.0000000000000000     
   9.6215117755341084E-002  0.13860902422095392        0.0000000000000000     
   8.0949797792993619E-002  0.11020719749153679        0.0000000000000000     
   8.3229854546532700E-002  0.11699564205776820        0.0000000000000000     
   8.5350239767984337E-002  0.12390434362245276        0.0000000000000000     
   8.7310953457348559E-002  0.13093330218559046        0.0000000000000000     
   8.9111995614625350E-002  0.13808251774718133        0.0000000000000000     
   7.4605063022731344E-002  0.10955659987088584        0.0000000000000000     
   7.6730469090202022E-002  0.11639287164425069        0.0000000000000000     
   7.8708110166400017E-002  0.12334203101802629        0.0000000000000000     
   8.0537986251325383E-002  0.13040407799221268        0.0000000000000000     
   8.2220097344978038E-002  0.13757901256680988        0.0000000000000000     
   6.8466792743999624E-002  0.10896219645198632        0.0000000000000000     
   7.0425504753399135E-002  0.11583017218259579        0.0000000000000000     
   7.2257180456932218E-002  0.12280888279744111        0.0000000000000000     
   7.3961819854598890E-002  0.12989832829652237        0.0000000000000000     
   7.5539422946399148E-002  0.13709850867983944        0.0000000000000000     
   6.2534986956798488E-002  0.10842398723483826        0.0000000000000000     
   6.4314961536124038E-002  0.11530754367280353        0.0000000000000000     
   6.5997450639580929E-002  0.12230489896069724        0.0000000000000000     
   6.7582454267169134E-002  0.12941605309851945        0.0000000000000000     
   6.9069972418888709E-002  0.13664100608627011        0.0000000000000000     
   9.6215117755341084E-002  0.13860902422095392        0.0000000000000000     
   9.8038455591431262E-002  0.14585727478472144        0.0000000000000000     
   9.9802432462667290E-002  0.15322313670906454        0.0000000000000000     
  0.10150704836904920       0.16070660999398320        0.0000000000000000     
  0.10315230331057695       0.16830769463947748        0.0000000000000000     
   8.9111995614625350E-002  0.13808251774718133        0.0000000000000000     
   9.0809182206893865E-002  0.14534961388228240        0.0000000000000000     
   9.2458329201233286E-002  0.15273221416595070        0.0000000000000000     
   9.4059436597643584E-002  0.16023031859818618        0.0000000000000000     
   9.5612504396124759E-002  0.16784392717898891        0.0000000000000000     
   8.2220097344978038E-002  0.13757901256680988        0.0000000000000000     
   8.3805011598874851E-002  0.14486742877828607        0.0000000000000000     
   8.5343297164532553E-002  0.15226992066310951        0.0000000000000000     
   8.6834954041951198E-002  0.15978648822128025        0.0000000000000000     
   8.8279982231130746E-002  0.16741713145279824        0.0000000000000000     
   7.5539422946399148E-002  0.13709850867983944        0.0000000000000000     
   7.7025943767374191E-002  0.14441071947273237        0.0000000000000000     
   7.8457336352565146E-002  0.15183625620054106        0.0000000000000000     
   7.9833600701972068E-002  0.15937511886326547        0.0000000000000000     
   8.1154736815594875E-002  0.16702730746090555        0.0000000000000000     
   6.9069972418888709E-002  0.13664100608627011        0.0000000000000000     
   7.0471978712391900E-002  0.14397948596562135        0.0000000000000000     
   7.1800446765331039E-002  0.15143122077824522        0.0000000000000000     
   7.3055376577706124E-002  0.15899621052414167        0.0000000000000000     
   7.4236768149517157E-002  0.16667445520331078        0.0000000000000000     
  0.10315230331057695       0.16830769463947748        0.0000000000000000     
  0.10472186454193351       0.17601009782253871        0.0000000000000000     
  0.10619939931780181       0.18379752672015828        0.0000000000000000     
  0.10758490763818186       0.19166998133233618        0.0000000000000000     
  0.10887838950307366       0.19962746165907241        0.0000000000000000     
   9.5612504396124759E-002  0.16784392717898891        0.0000000000000000     
   9.7093976399281537E-002  0.17556110891564111        0.0000000000000000     
   9.8480296409718615E-002  0.18336993281542505        0.0000000000000000     
   9.9771464427435938E-002  0.19127039887834071        0.0000000000000000     
  0.10096748045243356       0.19926250710438817        0.0000000000000000     
   8.8279982231130746E-002  0.16741713145279824        0.0000000000000000     
   8.9655790167350924E-002  0.17515254169688960        0.0000000000000000     
   9.0939786285891430E-002  0.18298341029278029        0.0000000000000000     
   9.2131970586752307E-002  0.19090973724047042        0.0000000000000000     
   9.3232343069933499E-002  0.19893152253995988        0.0000000000000000     
   8.1154736815594875E-002  0.16702730746090555        0.0000000000000000     
   8.2407305846141629E-002  0.17478439616628419        0.0000000000000000     
   8.3577868946320327E-002  0.18263795915222406        0.0000000000000000     
   8.4666426116130913E-002  0.19058799641872520        0.0000000000000000     
   8.5672977355573443E-002  0.19863450796578755        0.0000000000000000     
   7.4236768149517157E-002  0.16667445520331078        0.0000000000000000     
   7.5348523435653694E-002  0.17445667232382489        0.0000000000000000     
   7.6394544391005237E-002  0.18233357939375633        0.0000000000000000     
   7.7374831015571813E-002  0.19030517641310507        0.0000000000000000     
   7.8289383309353422E-002  0.19837146338187117        0.0000000000000000     
  0.10887838950307366       0.19962746165907241        0.0000000000000000     
  0.11008768859228180       0.20766973132010785        0.0000000000000000     
  0.11122064858561088       0.21579655393518343        0.0000000000000000     
  0.11227726948306088       0.22400792950429915        0.0000000000000000     
  0.11325755128463182       0.23230385802745496        0.0000000000000000     
  0.10096748045243356       0.19926250710438817        0.0000000000000000     
  0.10208011475400496       0.20733865896388204        0.0000000000000000     
  0.10312113760144358       0.21549125592713708        0.0000000000000000     
  0.10409054899474945       0.22372029799415333        0.0000000000000000     
  0.10498834893392256       0.23202578516493066        0.0000000000000000     
   9.3232343069933499E-002  0.19893152253995988        0.0000000000000000     
   9.4251914715820839E-002  0.20703692603563617        0.0000000000000000     
   9.5201696504800093E-002  0.21521410757188680        0.0000000000000000     
   9.6081688436871260E-002  0.22346306714871167        0.0000000000000000     
   9.6891890512034354E-002  0.23178380476611088        0.0000000000000000     
   8.5672977355573443E-002  0.19863450796578755        0.0000000000000000     
   8.6603088477729434E-002  0.20676453253537030        0.0000000000000000     
   8.7462325295680363E-002  0.21496510886943254        0.0000000000000000     
   8.8250687809426270E-002  0.22323623696797434        0.0000000000000000     
   8.8968176018967171E-002  0.23157791683099557        0.0000000000000000     
   7.8289383309353422E-002  0.19837146338187117        0.0000000000000000     
   7.9133636039730740E-002  0.20652147846308436        0.0000000000000000     
   7.9903023974084456E-002  0.21474425981977432        0.0000000000000000     
   8.0597547112414528E-002  0.22303980745194119        0.0000000000000000     
   8.1217205454721011E-002  0.23140812135958486        0.0000000000000000     
  0.11325755128463182       0.23230385802745496        0.0000000000000000     
  0.11419061473457429       0.24069840728307354        0.0000000000000000     
  0.11510558057713888       0.24920564504957743        0.0000000000000000     
  0.11600244881232560       0.25782557132696671        0.0000000000000000     
  0.11688121944013447       0.26655818611524129        0.0000000000000000     
  0.10498834893392256       0.23202578516493066        0.0000000000000000     
  0.10581867413894487       0.24043171117538348        0.0000000000000000     
  0.10658566132979830       0.24896206976142593        0.0000000000000000     
  0.10728931050648287       0.25761686092305808        0.0000000000000000     
  0.10792962166899855       0.26639608466027992        0.0000000000000000     
   9.6891890512034354E-002  0.23178380476611088        0.0000000000000000     
   9.7621655467721974E-002  0.24020499966329872        0.0000000000000000     
   9.8260336041366747E-002  0.24875533107948949        0.0000000000000000     
   9.8807932232968645E-002  0.25743479901468325        0.0000000000000000     
   9.9264444042527669E-002  0.26624340346887992        0.0000000000000000     
   8.8968176018967171E-002  0.23157791683099557        0.0000000000000000     
   8.9599558720905595E-002  0.24001827274681925        0.0000000000000000     
   9.0129604711844169E-002  0.24858542900376812        0.0000000000000000     
   9.0558313991782907E-002  0.25727938560184216        0.0000000000000000     
   9.0885686560721782E-002  0.26610014254104136        0.0000000000000000     
   8.1217205454721011E-002  0.23140812135958486        0.0000000000000000     
   8.1752383898495762E-002  0.23987153042594511        0.0000000000000000     
   8.2193467341230633E-002  0.24845236353426176        0.0000000000000000     
   8.2540455782925695E-002  0.25715062068453481        0.0000000000000000     
   8.2793349223580892E-002  0.26596630187676423        0.0000000000000000     
  0.11688121944013447       0.26655818611524129        0.0000000000000000     
  0.11768146297583035       0.27557013723616663        0.0000000000000000     
  0.11834274993467818       0.28502807251150825        0.0000000000000000     
  0.11886508031667793       0.29493199194126618        0.0000000000000000     
  0.11924845412182965       0.30528189552544027        0.0000000000000000     
  0.10792962166899855       0.26639608466027992        0.0000000000000000     
  0.10848766263781801       0.27543207143772375        0.0000000000000000     
  0.10894450123341384       0.28485715172002196        0.0000000000000000     
  0.10930013745578604       0.29467132550717445        0.0000000000000000     
  0.10955457130493457       0.30487459279918139        0.0000000000000000     
   9.9264444042527669E-002  0.26624340346887992        0.0000000000000000     
   9.9641307310168931E-002  0.27527854109500866        0.0000000000000000     
   9.9949957876017445E-002  0.28463760854599857        0.0000000000000000     
  0.10019039574007320       0.29432060582184938        0.0000000000000000     
  0.10036262090233626       0.30432753292256143        0.0000000000000000     
   9.0885686560721782E-002  0.26610014254104136        0.0000000000000000     
   9.1142396992883054E-002  0.27510954620802147        0.0000000000000000     
   9.1359119862488944E-002  0.28436944298943800        0.0000000000000000     
   9.1535855169539521E-002  0.29387983288529096        0.0000000000000000     
   9.1672602914034687E-002  0.30364071589558045        0.0000000000000000     
   8.2793349223580892E-002  0.26596630187676423        0.0000000000000000     
   8.2990931685960417E-002  0.27492508677676208        0.0000000000000000     
   8.3171987192828409E-002  0.28405265505034044        0.0000000000000000     
   8.3336515744184894E-002  0.29334900669749919        0.0000000000000000     
   8.3484517340029846E-002  0.30281414171823851        0.0000000000000000     
   4.4761033353108035E-002   5.9310240525513785E-002   0.0000000000000000     
   4.8159989401402946E-002   6.5021031774502941E-002   0.0000000000000000     
   5.1076082578882569E-002   7.0823798807291144E-002   0.0000000000000000     
   5.3509312885546896E-002   7.6718541623878367E-002   0.0000000000000000     
   5.5459680321395942E-002   8.2705260224264651E-002   0.0000000000000000     
   3.9777433573438215E-002   5.8611790597301053E-002   0.0000000000000000     
   4.3591722434976388E-002   6.4357019257193532E-002   0.0000000000000000     
   4.6699917164287785E-002   7.0193287914754404E-002   0.0000000000000000     
   4.9102017761372400E-002   7.6120596569983628E-002   0.0000000000000000     
   5.0798024226230240E-002   8.2138945222881260E-002   0.0000000000000000     
   3.5372599529474261E-002   5.8012689889570368E-002   0.0000000000000000     
   3.9133115467391968E-002   6.3753825728663865E-002   0.0000000000000000     
   4.2141139619543792E-002   6.9597589375732516E-002   0.0000000000000000     
   4.4396671985929677E-002   7.5543980830776306E-002   0.0000000000000000     
   4.5899712566549664E-002   8.1593000093795248E-002   0.0000000000000000     
   3.1546531221216145E-002   5.7512938402321717E-002   0.0000000000000000     
   3.4784168498649695E-002   6.3211451188913900E-002   0.0000000000000000     
   3.7399749944650548E-002   6.9036703190225451E-002   0.0000000000000000     
   3.9393275559218725E-002   7.4988694406256343E-002   0.0000000000000000     
   4.0764745342354212E-002   8.1067424837006630E-002   0.0000000000000000     
   2.8299228648663889E-002   5.7112536135555114E-002   0.0000000000000000     
   3.0544881528749547E-002   6.2729895637943650E-002   0.0000000000000000     
   3.2475748139608102E-002   6.8510629358233224E-002   0.0000000000000000     
   3.4091828481239553E-002   7.4454737296423795E-002   0.0000000000000000     
   3.5393122553643894E-002   8.0562219452515377E-002   0.0000000000000000     
   5.5459680321395942E-002   8.2705260224264651E-002   0.0000000000000000     
   5.7183588986439646E-002   8.8837210531639843E-002   0.0000000000000000     
   5.8937442980687975E-002   9.5167648469193858E-002   0.0000000000000000     
   6.0721242304140929E-002  0.10169657403692667        0.0000000000000000     
   6.2534986956798488E-002  0.10842398723483826        0.0000000000000000     
   5.0798024226230240E-002   8.2138945222881260E-002   0.0000000000000000     
   5.2178284343075733E-002   8.8298972187294739E-002   0.0000000000000000     
   5.3633145896123328E-002   9.4651315777071587E-002   0.0000000000000000     
   5.5162608885373027E-002  0.10119597599221179        0.0000000000000000     
   5.6766673310824828E-002  0.10793295283271538        0.0000000000000000     
   4.5899712566549664E-002   8.1593000093795248E-002   0.0000000000000000     
   4.7071006512929052E-002   8.7786192079368636E-002   0.0000000000000000     
   4.8331298976593155E-002   9.4165101702075801E-002   0.0000000000000000     
   4.9680589957541967E-002  0.10072972896191673        0.0000000000000000     
   5.1118879455775507E-002  0.10748007385889147        0.0000000000000000     
   4.0764745342354212E-002   8.1067424837006630E-002   0.0000000000000000     
   4.1861755495999596E-002   8.7298870207861576E-002   0.0000000000000000     
   4.3031902222097448E-002   9.3709006244206527E-002   0.0000000000000000     
   4.4275185520647763E-002  0.10029783294604148        0.0000000000000000     
   4.5591605391650560E-002  0.10706535031336645        0.0000000000000000     
   3.5393122553643894E-002   8.0562219452515377E-002   0.0000000000000000     
   3.6550531292287365E-002   8.6837006572773504E-002   0.0000000000000000     
   3.7734955632636201E-002   9.3283029403463724E-002   0.0000000000000000     
   3.8946395574690401E-002   9.9900287944586011E-002   0.0000000000000000     
   4.0184851118449959E-002  0.10668878219614039        0.0000000000000000     
   6.2534986956798488E-002  0.10842398723483826        0.0000000000000000     
   6.4314961536124038E-002  0.11530754367280353        0.0000000000000000     
   6.5997450639580929E-002  0.12230489896069724        0.0000000000000000     
   6.7582454267169134E-002  0.12941605309851945        0.0000000000000000     
   6.9069972418888709E-002  0.13664100608627011        0.0000000000000000     
   5.6766673310824828E-002  0.10793295283271538        0.0000000000000000     
   5.8372459083885608E-002  0.11482537273337617        0.0000000000000000     
   5.9907086115962287E-002  0.12183636212898803        0.0000000000000000     
   6.1370554407054870E-002  0.12896592101955098        0.0000000000000000     
   6.2762863957163351E-002  0.13621404940506493        0.0000000000000000     
   5.1118879455775507E-002  0.10748007385889147        0.0000000000000000     
   5.2571617042192688E-002  0.11438404598281612        0.0000000000000000     
   5.3964252287692464E-002  0.12140955492350693        0.0000000000000000     
   5.5296785192274822E-002  0.12855660068096386        0.0000000000000000     
   5.6569215755939782E-002  0.13582518325518700        0.0000000000000000     
   4.5591605391650560E-002  0.10706535031336645        0.0000000000000000     
   4.6912435411045283E-002  0.11398356342112331        0.0000000000000000     
   4.8168949154771434E-002  0.12102447734425389        0.0000000000000000     
   4.9361146622829012E-002  0.12818809208275825        0.0000000000000000     
   5.0489027815218003E-002  0.13547440763663632        0.0000000000000000     
   4.0184851118449959E-002  0.10668878219614039        0.0000000000000000     
   4.1394914190443395E-002  0.11362392504829774        0.0000000000000000     
   4.2521176717199217E-002  0.12068112939122892        0.0000000000000000     
   4.3563638698717426E-002  0.12786039522493398        0.0000000000000000     
   4.4522300134998014E-002  0.13516172254941286        0.0000000000000000     
   6.9069972418888709E-002  0.13664100608627011        0.0000000000000000     
   7.0471978712391900E-002  0.14397948596562135        0.0000000000000000     
   7.1800446765331039E-002  0.15143122077824522        0.0000000000000000     
   7.3055376577706124E-002  0.15899621052414167        0.0000000000000000     
   7.4236768149517157E-002  0.16667445520331078        0.0000000000000000     
   6.2762863957163351E-002  0.13621404940506493        0.0000000000000000     
   6.4075038538164431E-002  0.14357841983219224        0.0000000000000000     
   6.5298101921934831E-002  0.15105670484759509        0.0000000000000000     
   6.6432054108474581E-002  0.15864890445127353        0.0000000000000000     
   6.7476895097783623E-002  0.16635501864322755        0.0000000000000000     
   5.6569215755939782E-002  0.13582518325518700        0.0000000000000000     
   5.7767045348928250E-002  0.14321221264768427        0.0000000000000000     
   5.8875775341481168E-002  0.15071459885996377        0.0000000000000000     
   5.9895405733598528E-002  0.15833234189202547        0.0000000000000000     
   6.0825936525280316E-002  0.16606544174386942        0.0000000000000000     
   5.0489027815218003E-002  0.13547440763663632        0.0000000000000000     
   5.1547999144683367E-002  0.14288086441209752        0.0000000000000000     
   5.2533467023970007E-002  0.15040490281535124        0.0000000000000000     
   5.3445431453077966E-002  0.15804652284639753        0.0000000000000000     
   5.4283892432007229E-002  0.16580572450523631        0.0000000000000000     
   4.4522300134998014E-002  0.13516172254941286        0.0000000000000000     
   4.5417899925429744E-002  0.14258437512543193        0.0000000000000000     
   4.6271176969401383E-002  0.15012761671375754        0.0000000000000000     
   4.7082131266912915E-002  0.15779144731438965        0.0000000000000000     
   4.7850762817964347E-002  0.16557586692732829        0.0000000000000000     
   7.4236768149517157E-002  0.16667445520331078        0.0000000000000000     
   7.5348523435653694E-002  0.17445667232382489        0.0000000000000000     
   7.6394544391005237E-002  0.18233357939375633        0.0000000000000000     
   7.7374831015571813E-002  0.19030517641310507        0.0000000000000000     
   7.8289383309353422E-002  0.19837146338187117        0.0000000000000000     
   6.7476895097783623E-002  0.16635501864322755        0.0000000000000000     
   6.8451989705594948E-002  0.17416389362397333        0.0000000000000000     
   6.9376702747641447E-002  0.18206437559402699        0.0000000000000000     
   7.0251034223923148E-002  0.19005646455338854        0.0000000000000000     
   7.1074984134440022E-002  0.19814016050205802        0.0000000000000000     
   6.0825936525280316E-002  0.16606544174386942        0.0000000000000000     
   6.1690251425673304E-002  0.17390058352119106        0.0000000000000000     
   6.2511234143924232E-002  0.18182445232968591        0.0000000000000000     
   6.3288884680033061E-002  0.18983704816935404        0.0000000000000000     
   6.4023203033999845E-002  0.19793837104019540        0.0000000000000000     
   5.4283892432007229E-002  0.16580572450523631        0.0000000000000000     
   5.5063308595888753E-002  0.17366674201547799        0.0000000000000000     
   5.5798138579853551E-002  0.18161380960073312        0.0000000000000000     
   5.6488382383901588E-002  0.18964692726100146        0.0000000000000000     
   5.7134040008032891E-002  0.19776609499628325        0.0000000000000000     
   4.7850762817964347E-002  0.16557586692732829        0.0000000000000000     
   4.8571161216241304E-002  0.17346236910683430        0.0000000000000000     
   4.9237416055429431E-002  0.18143244740716852        0.0000000000000000     
   4.9849527335528707E-002  0.18948610182833095        0.0000000000000000     
   5.0407495056539152E-002  0.19762333237032162        0.0000000000000000     
   7.8289383309353422E-002  0.19837146338187117        0.0000000000000000     
   7.9133636039730740E-002  0.20652147846308436        0.0000000000000000     
   7.9903023974084456E-002  0.21474425981977432        0.0000000000000000     
   8.0597547112414528E-002  0.22303980745194119        0.0000000000000000     
   8.1217205454721011E-002  0.23140812135958486        0.0000000000000000     
   7.1074984134440022E-002  0.19814016050205802        0.0000000000000000     
   7.1834730116888165E-002  0.20630757389820353        0.0000000000000000     
   7.2516449808963629E-002  0.21455081519999311        0.0000000000000000     
   7.3120143210666427E-002  0.22286988440742680        0.0000000000000000     
   7.3645810321996574E-002  0.23126478152050461        0.0000000000000000     
   6.4023203033999845E-002  0.19793837104019540        0.0000000000000000     
   6.4697543424265064E-002  0.20612262892015293        0.0000000000000000     
   6.5295260069269251E-002  0.21438402978716978        0.0000000000000000     
   6.5816352969012393E-002  0.22272257364124576        0.0000000000000000     
   6.6260822123494531E-002  0.23113826048238104        0.0000000000000000     
   5.7134040008032891E-002  0.19776609499628325        0.0000000000000000     
   5.7722075961861449E-002  0.20596664352893274        0.0000000000000000     
   5.8239454755001301E-002  0.21424390358130438        0.0000000000000000     
   5.8686176387452459E-002  0.22259787515339816        0.0000000000000000     
   5.9062240859214896E-002  0.23102855824521412        0.0000000000000000     
   5.0407495056539152E-002  0.19762333237032162        0.0000000000000000     
   5.0908327729677315E-002  0.20583961772454279        0.0000000000000000     
   5.1349033866159799E-002  0.21413043658239692        0.0000000000000000     
   5.1729613465986576E-002  0.22249578894388392        0.0000000000000000     
   5.2050066529157661E-002  0.23093567480900376        0.0000000000000000     
   8.1217205454721011E-002  0.23140812135958486        0.0000000000000000     
   8.1752383898495762E-002  0.23987153042594511        0.0000000000000000     
   8.2193467341230633E-002  0.24845236353426176        0.0000000000000000     
   8.2540455782925695E-002  0.25715062068453481        0.0000000000000000     
   8.2793349223580892E-002  0.26596630187676423        0.0000000000000000     
   7.3645810321996574E-002  0.23126478152050461        0.0000000000000000     
   7.4092961728142545E-002  0.23974947951229678        0.0000000000000000     
   7.4461108014292898E-002  0.24833795135587350        0.0000000000000000     
   7.4750249180447620E-002  0.25703019705123492        0.0000000000000000     
   7.4960385226606724E-002  0.26582621659838079        0.0000000000000000     
   6.6260822123494531E-002  0.23113826048238104        0.0000000000000000     
   6.6634122937496126E-002  0.23963682681749479        0.0000000000000000     
   6.6941710815797750E-002  0.24822400915350648        0.0000000000000000     
   6.7183585758399375E-002  0.25689980749041602        0.0000000000000000     
   6.7359747765300987E-002  0.26566422182822341        0.0000000000000000     
   5.9062240859214896E-002  0.23102855824521412        0.0000000000000000     
   5.9375867526556499E-002  0.23953357234153921        0.0000000000000000     
   5.9635275745745182E-002  0.24811053692716056        0.0000000000000000     
   5.9840465516780912E-002  0.25675945200207823        0.0000000000000000     
   5.9991436839663702E-002  0.26548031756629209        0.0000000000000000     
   5.2050066529157661E-002  0.23093567480900376        0.0000000000000000     
   5.2318195495323669E-002  0.23943971608442993        0.0000000000000000     
   5.2541802804135208E-002  0.24799753467683586        0.0000000000000000     
   5.2720888455592273E-002  0.25660913058622148        0.0000000000000000     
   5.2855452449694876E-002  0.26527450381258683        0.0000000000000000     
   8.2793349223580892E-002  0.26596630187676423        0.0000000000000000     
   8.2990931685960417E-002  0.27492508677676208        0.0000000000000000     
   8.3171987192828409E-002  0.28405265505034044        0.0000000000000000     
   8.3336515744184894E-002  0.29334900669749919        0.0000000000000000     
   8.3484517340029846E-002  0.30281414171823851        0.0000000000000000     
   7.4960385226606724E-002  0.26582621659838079        0.0000000000000000     
   7.5131718828905666E-002  0.27471970713306582        0.0000000000000000     
   7.5304452663479945E-002  0.28370436579104436        0.0000000000000000     
   7.5478586730329561E-002  0.29278019257231641        0.0000000000000000     
   7.5654121029454485E-002  0.30194718747688210        0.0000000000000000     
   6.7359747765300987E-002  0.26566422182822341        0.0000000000000000     
   6.7509565861223475E-002  0.27448795160876777        0.0000000000000000     
   6.7672409070887715E-002  0.28334169627388828        0.0000000000000000     
   6.7848277394293638E-002  0.29222545582358489        0.0000000000000000     
   6.8037170831441313E-002  0.30113923025785755        0.0000000000000000     
   5.9991436839663702E-002  0.26548031756629209        0.0000000000000000     
   6.0124472782913864E-002  0.27422982020386810        0.0000000000000000     
   6.0275856415051690E-002  0.28296464649887237        0.0000000000000000     
   6.0445587736077173E-002  0.29168479645130457        0.0000000000000000     
   6.0633666745990335E-002  0.30039027006116503        0.0000000000000000     
   5.2855452449694876E-002  0.26527450381258683        0.0000000000000000     
   5.2976439593976812E-002  0.27394531291836682        0.0000000000000000     
   5.3114794695971912E-002  0.28257321646599642        0.0000000000000000     
   5.3270517755680154E-002  0.29115821445547557        0.0000000000000000     
   5.3443608773101545E-002  0.29970030688680438        0.0000000000000000     
   2.8299228648663889E-002   5.7112536135555114E-002   0.0000000000000000     
   3.0544881528749547E-002   6.2729895637943650E-002   0.0000000000000000     
   3.2475748139608102E-002   6.8510629358233224E-002   0.0000000000000000     
   3.4091828481239553E-002   7.4454737296423795E-002   0.0000000000000000     
   3.5393122553643894E-002   8.0562219452515377E-002   0.0000000000000000     
   2.5197202747865712E-002   5.6748970899716034E-002   0.0000000000000000     
   2.6427437621556912E-002   6.2300904552696740E-002   0.0000000000000000     
   2.7658880750817925E-002   6.8045633818543061E-002   0.0000000000000000     
   2.8891532135648747E-002   7.3983158697255011E-002   0.0000000000000000     
   3.0125391776049389E-002   8.0113479188832590E-002   0.0000000000000000     
   2.1806964454869848E-002   5.6359730505249978E-002   0.0000000000000000     
   2.2444019840937163E-002   6.1916223410116780E-002   0.0000000000000000     
   2.3238894324681524E-002   6.7667982509942257E-002   0.0000000000000000     
   2.4191587906102929E-002   7.3615007804726421E-002   0.0000000000000000     
   2.5302100585201385E-002   7.9757299294469286E-002   0.0000000000000000     
   1.8128513769676301E-002   5.5944814952156939E-002   0.0000000000000000     
   1.8594628186890300E-002   6.1575852210203744E-002   0.0000000000000000     
   1.9215788861198891E-002   6.7377675432430784E-002   0.0000000000000000     
   1.9991995792602087E-002   7.3350284618838024E-002   0.0000000000000000     
   2.0923248981099880E-002   7.9493679769425507E-002   0.0000000000000000     
   1.4161850692285064E-002   5.5504224240436925E-002   0.0000000000000000     
   1.4879262659416317E-002   6.1279790952957658E-002   0.0000000000000000     
   1.5589564360370040E-002   6.7174712586008628E-002   0.0000000000000000     
   1.6292755795146222E-002   7.3188989139589836E-002   0.0000000000000000     
   1.6988836963744872E-002   7.9322620613701267E-002   0.0000000000000000     
   3.5393122553643894E-002   8.0562219452515377E-002   0.0000000000000000     
   3.6550531292287365E-002   8.6837006572773504E-002   0.0000000000000000     
   3.7734955632636201E-002   9.3283029403463724E-002   0.0000000000000000     
   3.8946395574690401E-002   9.9900287944586011E-002   0.0000000000000000     
   4.0184851118449959E-002  0.10668878219614039        0.0000000000000000     
   3.0125391776049389E-002   8.0113479188832590E-002   0.0000000000000000     
   3.1349184979935787E-002   8.6423584940284681E-002   0.0000000000000000     
   3.2551637055223896E-002   9.2900465598620308E-002   0.0000000000000000     
   3.3732748001913712E-002   9.9544121163839400E-002   0.0000000000000000     
   3.4892517820005242E-002  0.10635455163594203        0.0000000000000000     
   2.5302100585201385E-002   7.9757299294469286E-002   0.0000000000000000     
   2.6469567637088274E-002   8.6081589076575371E-002   0.0000000000000000     
   2.7593124336874990E-002   9.2574609248449194E-002   0.0000000000000000     
   2.8672770684561536E-002   9.9236359810090755E-002   0.0000000000000000     
   2.9708506680147902E-002  0.10606684076150008        0.0000000000000000     
   2.0923248981099880E-002   7.9493679769425507E-002   0.0000000000000000     
   2.1911679263744824E-002   8.5811018981645545E-002   0.0000000000000000     
   2.2859417477589485E-002   9.2305460352950397E-002   0.0000000000000000     
   2.3766463622633859E-002   9.8977003883340076E-002   0.0000000000000000     
   2.4632817698877950E-002  0.10582564957281460        0.0000000000000000     
   1.6988836963744872E-002   7.9322620613701267E-002   0.0000000000000000     
   1.7675519859905443E-002   8.5611874655495190E-002   0.0000000000000000     
   1.8350516477367382E-002   9.2093018912123861E-002   0.0000000000000000     
   1.9013826816130692E-002   9.8766053383587321E-002   0.0000000000000000     
   1.9665450876195374E-002  0.10563097806988553        0.0000000000000000     
   4.0184851118449959E-002  0.10668878219614039        0.0000000000000000     
   4.1394914190443395E-002  0.11362392504829774        0.0000000000000000     
   4.2521176717199217E-002  0.12068112939122892        0.0000000000000000     
   4.3563638698717426E-002  0.12786039522493398        0.0000000000000000     
   4.4522300134998014E-002  0.13516172254941286        0.0000000000000000     
   3.4892517820005242E-002  0.10635455163594203        0.0000000000000000     
   3.5990301784999026E-002  0.11330846540603043        0.0000000000000000     
   3.6985455172395612E-002  0.12038257086520700        0.0000000000000000     
   3.7877977982194992E-002  0.12757686801347165        0.0000000000000000     
   3.8667870214397188E-002  0.13489135685082443        0.0000000000000000     
   2.9708506680147902E-002  0.10606684076150008        0.0000000000000000     
   3.0669846599324178E-002  0.11304051903601242        0.0000000000000000     
   3.1526304717780437E-002  0.12013186156696297        0.0000000000000000     
   3.2277881035516667E-002  0.12734086835435177        0.0000000000000000     
   3.2924575552532885E-002  0.13466753939817880        0.0000000000000000     
   2.4632817698877950E-002  0.10582564957281460        0.0000000000000000     
   2.5433548633418856E-002  0.11282008593824362        0.0000000000000000     
   2.6143725353353690E-002  0.11992900149649688        0.0000000000000000     
   2.6763347858682444E-002  0.12715239624757430        0.0000000000000000     
   2.7292416149405124E-002  0.13449027019147594        0.0000000000000000     
   1.9665450876195374E-002  0.10563097806988553        0.0000000000000000     
   2.0281407887283064E-002  0.11264716611272411        0.0000000000000000     
   2.0837717079115373E-002  0.11977399065380871        0.0000000000000000     
   2.1334378451692323E-002  0.12701145169313929        0.0000000000000000     
   2.1771392005013896E-002  0.13435954923071591        0.0000000000000000     
   4.4522300134998014E-002  0.13516172254941286        0.0000000000000000     
   4.5417899925429744E-002  0.14258437512543193        0.0000000000000000     
   4.6271176969401383E-002  0.15012761671375754        0.0000000000000000     
   4.7082131266912915E-002  0.15779144731438965        0.0000000000000000     
   4.7850762817964347E-002  0.16557586692732829        0.0000000000000000     
   3.8667870214397188E-002  0.13489135685082443        0.0000000000000000     
   3.9401027520364104E-002  0.14232761594209370        0.0000000000000000     
   4.0123345551457711E-002  0.14988722385210773        0.0000000000000000     
   4.0834824307677979E-002  0.15757018058086655        0.0000000000000000     
   4.1535463789024937E-002  0.16537648612837022        0.0000000000000000     
   3.2924575552532885E-002  0.13466753939817880        0.0000000000000000     
   3.3521661758683124E-002  0.14211545801648895        0.0000000000000000     
   3.4124413143821447E-002  0.14968820752732701        0.0000000000000000     
   3.4732829707947825E-002  0.15738578793069299        0.0000000000000000     
   3.5346911451062273E-002  0.16520819922658689        0.0000000000000000     
   2.7292416149405124E-002  0.13449027019147594        0.0000000000000000     
   2.7779802640386802E-002  0.14194790134861765        0.0000000000000000     
   2.8274379746492571E-002  0.14953056773941534        0.0000000000000000     
   2.8776147467722411E-002  0.15723826936386887        0.0000000000000000     
   2.9285105804076346E-002  0.16507100622197837        0.0000000000000000     
   2.1771392005013896E-002  0.13435954923071591        0.0000000000000000     
   2.2175450165475140E-002  0.14182494593847988        0.0000000000000000     
   2.2573245359471101E-002  0.14941430448837267        0.0000000000000000     
   2.2964777587001772E-002  0.15712762488039425        0.0000000000000000     
   2.3350046848067154E-002  0.16496490711454459        0.0000000000000000     
   4.7850762817964347E-002  0.16557586692732829        0.0000000000000000     
   4.8571161216241304E-002  0.17346236910683430        0.0000000000000000     
   4.9237416055429431E-002  0.18143244740716852        0.0000000000000000     
   4.9849527335528707E-002  0.18948610182833095        0.0000000000000000     
   5.0407495056539152E-002  0.19762333237032162        0.0000000000000000     
   4.1535463789024937E-002  0.16537648612837022        0.0000000000000000     
   4.2199098319376148E-002  0.17328540164010295        0.0000000000000000     
   4.2799562222609160E-002  0.18127618826154904        0.0000000000000000     
   4.3336855498724007E-002  0.18934884599270857        0.0000000000000000     
   4.3810978147720663E-002  0.19750337483358141        0.0000000000000000     
   3.5346911451062273E-002  0.16520819922658689        0.0000000000000000     
   3.5932408937938462E-002  0.17313377646012701        0.0000000000000000     
   3.6455072733350066E-002  0.18114085467643148        0.0000000000000000     
   3.6914902837297058E-002  0.18922943387550034        0.0000000000000000     
   3.7311899249779470E-002  0.19739951405733364        0.0000000000000000     
   2.9285105804076346E-002  0.16507100622197837        0.0000000000000000     
   2.9771093071928274E-002  0.17300749356690645        0.0000000000000000     
   3.0203947587652116E-002  0.18102644665181580        0.0000000000000000     
   3.0583669351247882E-002  0.18912786547670637        0.0000000000000000     
   3.0910258362715552E-002  0.19731175004157825        0.0000000000000000     
   2.3350046848067154E-002  0.16496490711454459        0.0000000000000000     
   2.3715150721345567E-002  0.17290655296044136        0.0000000000000000     
   2.4046186785515334E-002  0.18093296418770202        0.0000000000000000     
   2.4343155040576454E-002  0.18904414079632664        0.0000000000000000     
   2.4606055486528923E-002  0.19724008278631519        0.0000000000000000     
   5.0407495056539152E-002  0.19762333237032162        0.0000000000000000     
   5.0908327729677315E-002  0.20583961772454279        0.0000000000000000     
   5.1349033866159799E-002  0.21413043658239692        0.0000000000000000     
   5.1729613465986576E-002  0.22249578894388392        0.0000000000000000     
   5.2050066529157661E-002  0.23093567480900376        0.0000000000000000     
   4.3810978147720663E-002  0.19750337483358141        0.0000000000000000     
   4.4229231721042962E-002  0.20573446492083447        0.0000000000000000     
   4.4598917770134680E-002  0.21403680639113451        0.0000000000000000     
   4.4920036294995837E-002  0.22241039924448150        0.0000000000000000     
   4.5192587295626432E-002  0.23085524348087547        0.0000000000000000     
   3.7311899249779470E-002  0.19739951405733364        0.0000000000000000     
   3.7657720929288638E-002  0.20564409853165902        0.0000000000000000     
   3.7964026834315906E-002  0.21395619060820437        0.0000000000000000     
   3.8230816964861296E-002  0.22233579028696959        0.0000000000000000     
   3.8458091320924800E-002  0.23078289756795473        0.0000000000000000     
   3.0910258362715552E-002  0.19731175004157825        0.0000000000000000     
   3.1193795354414359E-002  0.20556851855701652        0.0000000000000000     
   3.1444361058703491E-002  0.21388858923360651        0.0000000000000000     
   3.1661955475582967E-002  0.22227196207134808        0.0000000000000000     
   3.1846578605052765E-002  0.23071863707024140        0.0000000000000000     
   2.4606055486528923E-002  0.19724008278631519        0.0000000000000000     
   2.4837454996420122E-002  0.20550772499690689        0.0000000000000000     
   2.5039920443297423E-002  0.21383400226734084        0.0000000000000000     
   2.5213451827160824E-002  0.22221891459761706        0.0000000000000000     
   2.5358049148010327E-002  0.23066246198773557        0.0000000000000000     
   5.2050066529157661E-002  0.23093567480900376        0.0000000000000000     
   5.2318195495323669E-002  0.23943971608442993        0.0000000000000000     
   5.2541802804135208E-002  0.24799753467683586        0.0000000000000000     
   5.2720888455592273E-002  0.25660913058622148        0.0000000000000000     
   5.2855452449694876E-002  0.26527450381258683        0.0000000000000000     
   4.5192587295626432E-002  0.23085524348087547        0.0000000000000000     
   4.5422767716138901E-002  0.23935389713018124        0.0000000000000000     
   4.5616774500645690E-002  0.24788891822226344        0.0000000000000000     
   4.5774607649146794E-002  0.25646030675712217        0.0000000000000000     
   4.5896267161642204E-002  0.26506806273475741        0.0000000000000000     
   3.8458091320924800E-002  0.23078289756795473        0.0000000000000000     
   3.8651245061343514E-002  0.23927475456280720        0.0000000000000000     
   3.8815673344954511E-002  0.24778860338317454        0.0000000000000000     
   3.8951376171757826E-002  0.25632444402905669        0.0000000000000000     
   3.9058353541753438E-002  0.26488227650045371        0.0000000000000000     
   3.1846578605052765E-002  0.23071863707024140        0.0000000000000000     
   3.2003627530937481E-002  0.23920228838230786        0.0000000000000000     
   3.2138499337061685E-002  0.24769659015956910        0.0000000000000000     
   3.2251194023425384E-002  0.25620154240202497        0.0000000000000000     
   3.2341711590028577E-002  0.26471714510967559        0.0000000000000000     
   2.5358049148010327E-002  0.23066246198773557        0.0000000000000000     
   2.5479915124920823E-002  0.23913649858868330        0.0000000000000000     
   2.5585252476967201E-002  0.24761287855144715        0.0000000000000000     
   2.5674061204149463E-002  0.25609160187602714        0.0000000000000000     
   2.5746341306467611E-002  0.26457266856242329        0.0000000000000000     
   5.2855452449694876E-002  0.26527450381258683        0.0000000000000000     
   5.2976439593976812E-002  0.27394531291836682        0.0000000000000000     
   5.3114794695971912E-002  0.28257321646599642        0.0000000000000000     
   5.3270517755680154E-002  0.29115821445547557        0.0000000000000000     
   5.3443608773101545E-002  0.29970030688680438        0.0000000000000000     
   4.5896267161642204E-002  0.26506806273475741        0.0000000000000000     
   4.6006671283566510E-002  0.27366302143266247        0.0000000000000000     
   4.6130738260354263E-002  0.28219601812833078        0.0000000000000000     
   4.6268468092005480E-002  0.29066705282176214        0.0000000000000000     
   4.6419860778520144E-002  0.29907612551295676        0.0000000000000000     
   3.9058353541753438E-002  0.26488227650045371        0.0000000000000000     
   3.9156372840837131E-002  0.27341153742715385        0.0000000000000000     
   3.9265201454904676E-002  0.28186166343894548        0.0000000000000000     
   3.9384839383956066E-002  0.29023265453582858        0.0000000000000000     
   3.9515286627991315E-002  0.29852451071780317        0.0000000000000000     
   3.2341711590028577E-002  0.26471714510967559        0.0000000000000000     
   3.2425544265788683E-002  0.27319086090184092        0.0000000000000000     
   3.2518184279623129E-002  0.28157015239784067        0.0000000000000000     
   3.2619631631531927E-002  0.28985501959767496        0.0000000000000000     
   3.2729886321515057E-002  0.29804546250134367        0.0000000000000000     
   2.5746341306467611E-002  0.26457266856242329        0.0000000000000000     
   2.5814185558421160E-002  0.27300099185672361        0.0000000000000000     
   2.5889686734509639E-002  0.28132148500501630        0.0000000000000000     
   2.5972844834733045E-002  0.28953414800730115        0.0000000000000000     
   2.6063659859091381E-002  0.29763898086357821        0.0000000000000000     
   1.4161850692285064E-002   5.5504224240436925E-002   0.0000000000000000     
   1.4879262659416317E-002   6.1279790952957658E-002   0.0000000000000000     
   1.5589564360370040E-002   6.7174712586008628E-002   0.0000000000000000     
   1.6292755795146222E-002   7.3188989139589836E-002   0.0000000000000000     
   1.6988836963744872E-002   7.9322620613701267E-002   0.0000000000000000     
   1.0168636755796221E-002   5.5181602375982367E-002   0.0000000000000000     
   1.1188991902280218E-002   6.1080932764476618E-002   0.0000000000000000     
   1.2020919167259883E-002   6.7053224783896401E-002   0.0000000000000000     
   1.2664418550735208E-002   7.3098478434241720E-002   0.0000000000000000     
   1.3119490052706200E-002   7.9216693715512543E-002   0.0000000000000000     
   6.4105334933098456E-003   5.5120593364685742E-002   0.0000000000000000     
   7.4148845592469951E-003   6.1032170770858735E-002   0.0000000000000000     
   8.1705516269333540E-003   6.7007342839314671E-002   0.0000000000000000     
   8.6775346963689198E-003   7.3046109570053586E-002   0.0000000000000000     
   8.9358337675536949E-003   7.9148470963075437E-002   0.0000000000000000     
   2.8875409048259399E-003   5.5321197206547032E-002   0.0000000000000000     
   3.5569406303166476E-003   6.1133504972103993E-002   0.0000000000000000     
   4.0384617393904526E-003   6.7037066752263452E-002   0.0000000000000000     
   4.3321042320473560E-003   7.3031882547025445E-002   0.0000000000000000     
   4.4378681082873558E-003   7.9117952356389923E-002   0.0000000000000000     
  -4.0034100965549713E-004   5.5783413901566242E-002   0.0000000000000000     
  -3.8483988451082341E-004   6.1384935368212407E-002   0.0000000000000000     
  -3.7535049536881963E-004   6.7142396522742745E-002   0.0000000000000000     
  -3.7187284222948470E-004   7.3055797365157271E-002   0.0000000000000000     
  -3.7440692509281602E-004   7.9125137895455999E-002   0.0000000000000000     
   1.6988836963744872E-002   7.9322620613701267E-002   0.0000000000000000     
   1.7675519859905443E-002   8.5611874655495190E-002   0.0000000000000000     
   1.8350516477367382E-002   9.2093018912123861E-002   0.0000000000000000     
   1.9013826816130692E-002   9.8766053383587321E-002   0.0000000000000000     
   1.9665450876195374E-002  0.10563097806988553        0.0000000000000000     
   1.3119490052706200E-002   7.9216693715512543E-002   0.0000000000000000     
   1.3491055508132080E-002   8.5474476478790695E-002   0.0000000000000000     
   1.3884036751972074E-002   9.1938432575157880E-002   0.0000000000000000     
   1.4298433784226180E-002   9.8608562004614153E-002   0.0000000000000000     
   1.4734246604894396E-002  0.10548486476715946        0.0000000000000000     
   8.9358337675536949E-003   7.9148470963075437E-002   0.0000000000000000     
   9.0882522909866998E-003   8.5389144832198408E-002   0.0000000000000000     
   9.2775937171669549E-003   9.1842848991240650E-002   0.0000000000000000     
   9.5038580460944638E-003   9.8509583440202164E-002   0.0000000000000000     
   9.7670452777692211E-003  0.10538934817908291        0.0000000000000000     
   4.4378681082873558E-003   7.9117952356389923E-002   0.0000000000000000     
   4.4671102084692998E-003   8.5355879715718369E-002   0.0000000000000000     
   4.5311873729520285E-003   9.1806268160372156E-002   0.0000000000000000     
   4.6300996017355446E-003   9.8469117690351354E-002   0.0000000000000000     
   4.7638468948198471E-003  0.10534442830565593        0.0000000000000000     
  -3.7440692509281602E-004   7.9125137895455999E-002   0.0000000000000000     
  -3.7237073942012313E-004   8.5374681129350496E-002   0.0000000000000000     
  -3.5518228067271109E-004   9.1828690082552414E-002   0.0000000000000000     
  -3.2284154885057700E-004   9.8487164755061737E-002   0.0000000000000000     
  -2.7534854395372312E-004  0.10535010514687848        0.0000000000000000     
   1.9665450876195374E-002  0.10563097806988553        0.0000000000000000     
   2.0281407887283064E-002  0.11264716611272411        0.0000000000000000     
   2.0837717079115373E-002  0.11977399065380871        0.0000000000000000     
   2.1334378451692323E-002  0.12701145169313929        0.0000000000000000     
   2.1771392005013896E-002  0.13435954923071591        0.0000000000000000     
   1.4734246604894396E-002  0.10548486476715946        0.0000000000000000     
   1.5167244606844823E-002  0.11251814574061447        0.0000000000000000     
   1.5573197182945548E-002  0.11965920980279984        0.0000000000000000     
   1.5952104333196576E-002  0.12690805695371551        0.0000000000000000     
   1.6303966057597909E-002  0.13426468719336154        0.0000000000000000     
   9.7670452777692211E-003  0.10538934817908291        0.0000000000000000     
   1.0044879038032174E-002  0.11242941100307530        0.0000000000000000     
   1.0315082952724266E-002  0.11957703970737155        0.0000000000000000     
   1.0577657021845497E-002  0.12683223429197177        0.0000000000000000     
   1.0832601245395866E-002  0.13419499475687580        0.0000000000000000     
   4.7638468948198471E-003  0.10534442830565593        0.0000000000000000     
   4.9143111808451151E-003  0.11238096190010655        0.0000000000000000     
   5.0633743884515251E-003  0.11952748036752391        0.0000000000000000     
   5.2110365176390753E-003  0.12678398370790792        0.0000000000000000     
   5.3572975684077692E-003  0.13415047192125873        0.0000000000000000     
  -2.7534854395372312E-004  0.10535010514687848        0.0000000000000000     
  -2.2445896471635419E-004  0.11237279843170829        0.0000000000000000     
  -1.8192850987267461E-004  0.11951053178325685        0.0000000000000000     
  -1.4775717942268419E-004  0.12676330520152415        0.0000000000000000     
  -1.2194497336638459E-004  0.13413111868651020        0.0000000000000000     
   2.1771392005013896E-002  0.13435954923071591        0.0000000000000000     
   2.2175450165475140E-002  0.14182494593847988        0.0000000000000000     
   2.2573245359471101E-002  0.14941430448837267        0.0000000000000000     
   2.2964777587001772E-002  0.15712762488039425        0.0000000000000000     
   2.3350046848067154E-002  0.16496490711454459        0.0000000000000000     
   1.6303966057597909E-002  0.13426468719336154        0.0000000000000000     
   1.6631395842346432E-002  0.14173639754087025        0.0000000000000000     
   1.6937007173639052E-002  0.14933048501537391        0.0000000000000000     
   1.7220800051475759E-002  0.15704694961687252        0.0000000000000000     
   1.7482774475856562E-002  0.16488579134536613        0.0000000000000000     
   1.0832601245395866E-002  0.13419499475687580        0.0000000000000000     
   1.1070431179398980E-002  0.14167206191058335        0.0000000000000000     
   1.1281662379878444E-002  0.14927017656159378        0.0000000000000000     
   1.1466294846834261E-002  0.15698933870990714        0.0000000000000000     
   1.1624328580266427E-002  0.16482954835552344        0.0000000000000000     
   5.3572975684077692E-003  0.13415047192125873        0.0000000000000000     
   5.4925561766327770E-003  0.14163193904761914        0.0000000000000000     
   5.6072109781892792E-003  0.14923337912703230        0.0000000000000000     
   5.7012619730772707E-003  0.15695479215949804        0.0000000000000000     
   5.7747091612967566E-003  0.16479617814501649        0.0000000000000000     
  -1.2194497336638459E-004  0.13413111868651020        0.0000000000000000     
  -1.0222916595217313E-004  0.14161602895197772        0.0000000000000000     
  -8.6347031428446832E-005  0.14922009271168940        0.0000000000000000     
  -7.4298569795208967E-005  0.15694330996564529        0.0000000000000000     
  -6.6083781052456419E-005  0.16478568071384536        0.0000000000000000     
   2.3350046848067154E-002  0.16496490711454459        0.0000000000000000     
   2.3715150721345567E-002  0.17290655296044136        0.0000000000000000     
   2.4046186785515334E-002  0.18093296418770202        0.0000000000000000     
   2.4343155040576454E-002  0.18904414079632664        0.0000000000000000     
   2.4606055486528923E-002  0.19724008278631519        0.0000000000000000     
   1.7482774475856562E-002  0.16488579134536613        0.0000000000000000     
   1.7726728962584558E-002  0.17282947637090101        0.0000000000000000     
   1.7956462027462868E-002  0.18086047086352358        0.0000000000000000     
   1.8171973670491483E-002  0.18897877482323389        0.0000000000000000     
   1.8373263891670405E-002  0.19718438825003176        0.0000000000000000     
   1.1624328580266427E-002  0.16482954835552344        0.0000000000000000     
   1.1767974872039458E-002  0.17277478552845499        0.0000000000000000     
   1.1909445014017870E-002  0.18080903025871406        0.0000000000000000     
   1.2048739006201658E-002  0.18893228254630071        0.0000000000000000     
   1.2185856848590824E-002  0.19714454239121496        0.0000000000000000     
   5.7747091612967566E-003  0.16479617814501649        0.0000000000000000     
   5.8388884497102668E-003  0.17274248043310311        0.0000000000000000     
   5.9051357451803434E-003  0.18077864237327335        0.0000000000000000     
   5.9734510477069810E-003  0.18890466396552727        0.0000000000000000     
   6.0438343572901867E-003  0.19712054520986483        0.0000000000000000     
  -6.6083781052456419E-005  0.16478568071384536        0.0000000000000000     
  -6.0530304403016945E-005  0.17273256108484547        0.0000000000000000     
  -5.6465779049713421E-005  0.18076930720720152        0.0000000000000000     
  -5.3890204992546471E-005  0.18889591908091352        0.0000000000000000     
  -5.2803582231516176E-005  0.19711239670598141        0.0000000000000000     
   2.4606055486528923E-002  0.19724008278631519        0.0000000000000000     
   2.4837454996420122E-002  0.20550772499690689        0.0000000000000000     
   2.5039920443297423E-002  0.21383400226734084        0.0000000000000000     
   2.5213451827160824E-002  0.22221891459761706        0.0000000000000000     
   2.5358049148010327E-002  0.23066246198773557        0.0000000000000000     
   1.8373263891670405E-002  0.19718438825003176        0.0000000000000000     
   1.8554926208797236E-002  0.20546086041791020        0.0000000000000000     
   1.8711554139669576E-002  0.21379174060086212        0.0000000000000000     
   1.8843147684287423E-002  0.22217702879888757        0.0000000000000000     
   1.8949706842650783E-002  0.23061672501198649        0.0000000000000000     
   1.2185856848590824E-002  0.19714454239121496        0.0000000000000000     
   1.2312435345037004E-002  0.20542706738660646        0.0000000000000000     
   1.2420111299391832E-002  0.21376111512562510        0.0000000000000000     
   1.2508884711655304E-002  0.22214668560827069        0.0000000000000000     
   1.2578755581827420E-002  0.23058377883454342        0.0000000000000000     
   6.0438343572901867E-003  0.19712054520986483        0.0000000000000000     
   6.1099824051394289E-003  0.20540634590299572        0.0000000000000000     
   6.1655919224641855E-003  0.21374212584162960        0.0000000000000000     
   6.2106629092644576E-003  0.22212788502576650        0.0000000000000000     
   6.2451953655402459E-003  0.23056362345540637        0.0000000000000000     
  -5.2803582231516176E-005  0.19711239670598141        0.0000000000000000     
  -5.2432610895496341E-005  0.20539869596707794        0.0000000000000000     
  -5.2003991113361856E-005  0.21373477274887578        0.0000000000000000     
  -5.1517722885110822E-005  0.22212062705137489        0.0000000000000000     
  -5.0973806210745896E-005  0.23055625887457531        0.0000000000000000     
   2.5358049148010327E-002  0.23066246198773557        0.0000000000000000     
   2.5479915124920823E-002  0.23913649858868330        0.0000000000000000     
   2.5585252476967201E-002  0.24761287855144715        0.0000000000000000     
   2.5674061204149463E-002  0.25609160187602714        0.0000000000000000     
   2.5746341306467611E-002  0.26457266856242329        0.0000000000000000     
   1.8949706842650783E-002  0.23061672501198649        0.0000000000000000     
   1.9037945471501536E-002  0.23908181090126618        0.0000000000000000     
   1.9114577427581571E-002  0.24754326812783392        0.0000000000000000     
   1.9179602710890895E-002  0.25600109669168969        0.0000000000000000     
   1.9233021321429504E-002  0.26445529659283357        0.0000000000000000     
   1.2578755581827420E-002  0.23058377883454342        0.0000000000000000     
   1.2635556198887610E-002  0.23904265103938935        0.0000000000000000     
   1.2685118851815310E-002  0.24749355845775461        0.0000000000000000     
   1.2727443540610506E-002  0.25593650108963933        0.0000000000000000     
   1.2762530265273211E-002  0.26437147893504342        0.0000000000000000     
   6.2451953655402459E-003  0.23056362345540637        0.0000000000000000     
   6.2727473070790605E-003  0.23901901900305281        0.0000000000000000     
   6.2968767496684131E-003  0.24746374954120937        0.0000000000000000     
   6.3175836933083047E-003  0.25589781506987608        0.0000000000000000     
   6.3348681379987361E-003  0.26432121558905292        0.0000000000000000     
  -5.0973806210745896E-005  0.23055625887457531        0.0000000000000000     
  -5.0481203924126290E-005  0.23901091479225653        0.0000000000000000     
  -5.0148878859117285E-005  0.24745384137819806        0.0000000000000000     
  -4.9976831015714545E-005  0.25588503863239986        0.0000000000000000     
  -4.9965060393922407E-005  0.26430450655486204        0.0000000000000000     
   2.5746341306467611E-002  0.26457266856242329        0.0000000000000000     
   2.5814185558421160E-002  0.27300099185672361        0.0000000000000000     
   2.5889686734509639E-002  0.28132148500501630        0.0000000000000000     
   2.5972844834733045E-002  0.28953414800730115        0.0000000000000000     
   2.6063659859091381E-002  0.29763898086357821        0.0000000000000000     
   1.9233021321429504E-002  0.26445529659283357        0.0000000000000000     
   1.9283955196888639E-002  0.27284832113203555        0.0000000000000000     
   1.9341526274959553E-002  0.28112262361006574        0.0000000000000000     
   1.9405734555642241E-002  0.28927820402692417        0.0000000000000000     
   1.9476580038936712E-002  0.29731506238261080        0.0000000000000000     
   1.2762530265273211E-002  0.26437147893504342        0.0000000000000000     
   1.2796511659345191E-002  0.27273923956801016        0.0000000000000000     
   1.2835520356368231E-002  0.28098053056258271        0.0000000000000000     
   1.2879556356342326E-002  0.28909535191876107        0.0000000000000000     
   1.2928619659267483E-002  0.29708370363654540        0.0000000000000000     
   6.3348681379987361E-003  0.26432121558905292        0.0000000000000000     
   6.3518549457908212E-003  0.27267374716464748        0.0000000000000000     
   6.3716689787356754E-003  0.28089520586256711        0.0000000000000000     
   6.3943102368332980E-003  0.28898559168281196        0.0000000000000000     
   6.4197787200836890E-003  0.29694490462538192        0.0000000000000000     
  -4.9965060393922407E-005  0.26430450655486204        0.0000000000000000     
  -5.0014943774477107E-005  0.27265184392194741        0.0000000000000000     
  -5.0027857938119433E-005  0.28086664951001894        0.0000000000000000     
  -5.0003802884847923E-005  0.28894892331907668        0.0000000000000000     
  -4.9942778614663931E-005  0.29689866534912052        0.0000000000000000     
  -4.0034100965549713E-004   5.5783413901566242E-002   0.0000000000000000     
  -3.8483988451082341E-004   6.1384935368212407E-002   0.0000000000000000     
  -3.7535049536881963E-004   6.7142396522742745E-002   0.0000000000000000     
  -3.7187284222948470E-004   7.3055797365157271E-002   0.0000000000000000     
  -3.7440692509281602E-004   7.9125137895455999E-002   0.0000000000000000     
  -3.6271435873381514E-003   5.6233303440147972E-002   0.0000000000000000     
  -4.2729642401394038E-003   6.1629712373410306E-002   0.0000000000000000     
  -4.7402774199431525E-003   6.7248299245258214E-002   0.0000000000000000     
  -5.0290831267493985E-003   7.3089064055691710E-002   0.0000000000000000     
  -5.1393813605581425E-003   7.9152006804710753E-002   0.0000000000000000     
  -6.9668981654257105E-003   5.6396925812696799E-002   0.0000000000000000     
  -7.9699396914730720E-003   6.1711086401924062E-002   0.0000000000000000     
  -8.7257113769312351E-003   6.7279742014315552E-002   0.0000000000000000     
  -9.2342132218001874E-003   7.3102892649871298E-002   0.0000000000000000     
  -9.4954452260799429E-003   7.9180538308591272E-002   0.0000000000000000     
  -1.0419604743918174E-002   5.6274281019212731E-002   0.0000000000000000     
  -1.1475766238511837E-002   6.1629057453753640E-002   0.0000000000000000     
  -1.2331652366333063E-002   6.7236724829914760E-002   0.0000000000000000     
  -1.2987263127381857E-002   7.3097283147696063E-002   0.0000000000000000     
  -1.3442598521658215E-002   7.9210732407097584E-002   0.0000000000000000     
  -1.3985263322815541E-002   5.5865369059695760E-002   0.0000000000000000     
  -1.4790443881255690E-002   6.1383625528899061E-002   0.0000000000000000     
  -1.5558100388148643E-002   6.7119247692055822E-002   0.0000000000000000     
  -1.6288232843494403E-002   7.3072235549166017E-002   0.0000000000000000     
  -1.6980841247292964E-002   7.9242589100229674E-002   0.0000000000000000     
  -3.7440692509281602E-004   7.9125137895455999E-002   0.0000000000000000     
  -3.7237073942012313E-004   8.5374681129350496E-002   0.0000000000000000     
  -3.5518228067271109E-004   9.1828690082552414E-002   0.0000000000000000     
  -3.2284154885057700E-004   9.8487164755061737E-002   0.0000000000000000     
  -2.7534854395372312E-004  0.10535010514687848        0.0000000000000000     
  -5.1393813605581425E-003   7.9152006804710753E-002   0.0000000000000000     
  -5.1638720944778239E-003   8.5422429184206686E-002   0.0000000000000000     
  -5.1952553016168836E-003   9.1885632886070878E-002   0.0000000000000000     
  -5.2335309819753198E-003   9.8541617910303289E-002   0.0000000000000000     
  -5.2786991355531360E-003  0.10539038425690392        0.0000000000000000     
  -9.4954452260799429E-003   7.9180538308591272E-002   0.0000000000000000     
  -9.6410753985000618E-003   8.5476003991398750E-002   0.0000000000000000     
  -9.8027717477901181E-003   9.1952614699216964E-002   0.0000000000000000     
  -9.9805342739501066E-003   9.8610370432045930E-002   0.0000000000000000     
  -1.0174362976980036E-002  0.10544927118988560        0.0000000000000000     
  -1.3442598521658215E-002   7.9210732407097584E-002   0.0000000000000000     
  -1.3803980651486834E-002   8.5535405550926660E-002   0.0000000000000000     
  -1.4177731619192412E-002   9.2029635521990685E-002   0.0000000000000000     
  -1.4563851424774942E-002   9.8693422320289673E-002   0.0000000000000000     
  -1.4962340068234426E-002  0.10552676594582355        0.0000000000000000     
  -1.6980841247292964E-002   7.9242589100229674E-002   0.0000000000000000     
  -1.7652587853438147E-002   8.5600633862790459E-002   0.0000000000000000     
  -1.8320134915823766E-002   9.2116695354392070E-002   0.0000000000000000     
  -1.8983482434449812E-002   9.8790773575034477E-002   0.0000000000000000     
  -1.9642630409316304E-002  0.10562286852471772        0.0000000000000000     
  -2.7534854395372312E-004  0.10535010514687848        0.0000000000000000     
  -2.2445896471635419E-004  0.11237279843170829        0.0000000000000000     
  -1.8192850987267461E-004  0.11951053178325685        0.0000000000000000     
  -1.4775717942268419E-004  0.12676330520152415        0.0000000000000000     
  -1.2194497336638459E-004  0.13413111868651020        0.0000000000000000     
  -5.2786991355531360E-003  0.10539038425690392        0.0000000000000000     
  -5.3345632365512053E-003  0.11239580572855547        0.0000000000000000     
  -5.4049267591704019E-003  0.11952175612794058        0.0000000000000000     
  -5.4897897034107282E-003  0.12676823545505927        0.0000000000000000     
  -5.5891520692721852E-003  0.13413524370991153        0.0000000000000000     
  -1.0174362976980036E-002  0.10544927118988560        0.0000000000000000     
  -1.0379133472558406E-002  0.11244086892132305        0.0000000000000000     
  -1.0589721376363732E-002  0.11955671557494524        0.0000000000000000     
  -1.0806126688396003E-002  0.12679681115075220        0.0000000000000000     
  -1.1028349408655224E-002  0.13416115564874390        0.0000000000000000     
  -1.4962340068234426E-002  0.10552676594582355        0.0000000000000000     
  -1.5358169672737964E-002  0.11250798801001106        0.0000000000000000     
  -1.5736312361452658E-002  0.11961541012427086        0.0000000000000000     
  -1.6096768134378506E-002  0.12684903228860295        0.0000000000000000     
  -1.6439536991515506E-002  0.13420885450300735        0.0000000000000000     
  -1.9642630409316304E-002  0.10562286852471772        0.0000000000000000     
  -2.0271671837089878E-002  0.11259716299461947        0.0000000000000000     
  -2.0844699714437191E-002  0.11969783977591739        0.0000000000000000     
  -2.1361714041358240E-002  0.12692489886861147        0.0000000000000000     
  -2.1822714817853028E-002  0.13427834027270177        0.0000000000000000     
  -1.2194497336638459E-004  0.13413111868651020        0.0000000000000000     
  -1.0222916595217313E-004  0.14161602895197772        0.0000000000000000     
  -8.6347031428446832E-005  0.14922009271168940        0.0000000000000000     
  -7.4298569795208967E-005  0.15694330996564529        0.0000000000000000     
  -6.6083781052456419E-005  0.16478568071384536        0.0000000000000000     
  -5.5891520692721852E-003  0.13413524370991153        0.0000000000000000     
  -5.6888317864539403E-003  0.14162199330568079        0.0000000000000000     
  -5.7746467846551694E-003  0.14922769665555052        0.0000000000000000     
  -5.8465970638758693E-003  0.15695235375952057        0.0000000000000000     
  -5.9046826241160406E-003  0.16479596461759111        0.0000000000000000     
  -1.1028349408655224E-002  0.13416115564874390        0.0000000000000000     
  -1.1242158622970597E-002  0.14164749379075020        0.0000000000000000     
  -1.1433323417171322E-002  0.14925357029860073        0.0000000000000000     
  -1.1601843791257399E-002  0.15697938517229559        0.0000000000000000     
  -1.1747719745228822E-002  0.16482493841183482        0.0000000000000000     
  -1.6439536991515506E-002  0.13420885450300735        0.0000000000000000     
  -1.6762209675502144E-002  0.14169253040718580        0.0000000000000000     
  -1.7062376928976910E-002  0.14929771364084019        0.0000000000000000     
  -1.7340038751939794E-002  0.15702440420397043        0.0000000000000000     
  -1.7595195144390813E-002  0.16487260209657659        0.0000000000000000     
  -2.1822714817853028E-002  0.13427834027270177        0.0000000000000000     
  -2.2248984944048585E-002  0.14175710315498771        0.0000000000000000     
  -2.2661807320071930E-002  0.14936012668226878        0.0000000000000000     
  -2.3061181945923066E-002  0.15708741085454497        0.0000000000000000     
  -2.3447108821601996E-002  0.16493895567181630        0.0000000000000000     
  -6.6083781052456419E-005  0.16478568071384536        0.0000000000000000     
  -6.0530304403016945E-005  0.17273256108484547        0.0000000000000000     
  -5.6465779049713421E-005  0.18076930720720152        0.0000000000000000     
  -5.3890204992546471E-005  0.18889591908091352        0.0000000000000000     
  -5.2803582231516176E-005  0.19711239670598141        0.0000000000000000     
  -5.9046826241160406E-003  0.16479596461759111        0.0000000000000000     
  -5.9583083079504688E-003  0.17274354153843782        0.0000000000000000     
  -6.0168789579539425E-003  0.18078009683073651        0.0000000000000000     
  -6.0803945741264602E-003  0.18890563049448722        0.0000000000000000     
  -6.1488551564680260E-003  0.19712014252968990        0.0000000000000000     
  -1.1747719745228822E-002  0.16482493841183482        0.0000000000000000     
  -1.1882472478582165E-002  0.17277393584863590        0.0000000000000000     
  -1.2017623190813993E-002  0.18081008331411644        0.0000000000000000     
  -1.2153171881924300E-002  0.18893338080827626        0.0000000000000000     
  -1.2289118551913092E-002  0.19714382833111560        0.0000000000000000     
  -1.7595195144390813E-002  0.16487260209657659        0.0000000000000000     
  -1.7833022816298106E-002  0.17282374401543976        0.0000000000000000     
  -1.8058698477629861E-002  0.18085926665734114        0.0000000000000000     
  -1.8272222128386063E-002  0.18897917002228068        0.0000000000000000     
  -1.8473593768566721E-002  0.19718345411025845        0.0000000000000000     
  -2.3447108821601996E-002  0.16493895567181630        0.0000000000000000     
  -2.3809959321098299E-002  0.17289296603884935        0.0000000000000000     
  -2.4140104818401550E-002  0.18092764686041071        0.0000000000000000     
  -2.4437545313511746E-002  0.18904299813650038        0.0000000000000000     
  -2.4702280806428899E-002  0.19723901986711842        0.0000000000000000     
  -5.2803582231516176E-005  0.19711239670598141        0.0000000000000000     
  -5.2432610895496341E-005  0.20539869596707794        0.0000000000000000     
  -5.2003991113361856E-005  0.21373477274887578        0.0000000000000000     
  -5.1517722885110822E-005  0.22212062705137489        0.0000000000000000     
  -5.0973806210745896E-005  0.23055625887457531        0.0000000000000000     
  -6.1488551564680260E-003  0.19712014252968990        0.0000000000000000     
  -6.2144416893526993E-003  0.20540451012712202        0.0000000000000000     
  -6.2693351571545446E-003  0.21373961047756090        0.0000000000000000     
  -6.3135355598735610E-003  0.22212544358100667        0.0000000000000000     
  -6.3470428975097503E-003  0.23056200943745928        0.0000000000000000     
  -1.2289118551913092E-002  0.19714382833111560        0.0000000000000000     
  -1.2415676816517113E-002  0.20542418093139680        0.0000000000000000     
  -1.2523060291473096E-002  0.21375719365788251        0.0000000000000000     
  -1.2611268976781047E-002  0.22214286651057266        0.0000000000000000     
  -1.2680302872440968E-002  0.23058119948946723        0.0000000000000000     
  -1.8473593768566721E-002  0.19718345411025845        0.0000000000000000     
  -1.8656137992388733E-002  0.20545770837990238        0.0000000000000000     
  -1.8813179394069020E-002  0.21378752228984046        0.0000000000000000     
  -1.8944717973607576E-002  0.22217289584007277        0.0000000000000000     
  -1.9050753731004403E-002  0.23061382903059927        0.0000000000000000     
  -2.4702280806428899E-002  0.19723901986711842        0.0000000000000000     
  -2.4935825216967564E-002  0.20550509247263865        0.0000000000000000     
  -2.5139692464942312E-002  0.21383059637343482        0.0000000000000000     
  -2.5313882550353134E-002  0.22221553156950705        0.0000000000000000     
  -2.5458395473200047E-002  0.23065989806085527        0.0000000000000000     
  -5.0973806210745896E-005  0.23055625887457531        0.0000000000000000     
  -5.0481203924126290E-005  0.23901091479225653        0.0000000000000000     
  -5.0148878859117285E-005  0.24745384137819806        0.0000000000000000     
  -4.9976831015714545E-005  0.25588503863239986        0.0000000000000000     
  -4.9965060393922407E-005  0.26430450655486204        0.0000000000000000     
  -6.3470428975097503E-003  0.23056200943745928        0.0000000000000000     
  -6.3736473590796554E-003  0.23901841430107745        0.0000000000000000     
  -6.3971391335998209E-003  0.24746376442602022        0.0000000000000000     
  -6.4175182210702460E-003  0.25589805981228742        0.0000000000000000     
  -6.4347846214909341E-003  0.26432130045987912        0.0000000000000000     
  -1.2680302872440968E-002  0.23058119948946723        0.0000000000000000     
  -1.2736269183345245E-002  0.23904159342359271        0.0000000000000000     
  -1.2785275114386247E-002  0.24749344914197541        0.0000000000000000     
  -1.2827320665563991E-002  0.25593676664461540        0.0000000000000000     
  -1.2862405836878468E-002  0.26437154593151269        0.0000000000000000     
  -1.9050753731004403E-002  0.23061382903059927        0.0000000000000000     
  -1.9138346676720881E-002  0.23908045215980211        0.0000000000000000     
  -1.9214556821218396E-002  0.24754289552606365        0.0000000000000000     
  -1.9279384164496940E-002  0.25600115912938382        0.0000000000000000     
  -1.9332828706556525E-002  0.26445524296976258        0.0000000000000000     
  -2.5458395473200047E-002  0.23065989806085527        0.0000000000000000     
  -2.5579879839206572E-002  0.23913499050970580        0.0000000000000000     
  -2.5684984254096259E-002  0.24761210357828495        0.0000000000000000     
  -2.5773708717869100E-002  0.25609123726659272        0.0000000000000000     
  -2.5846053230525107E-002  0.26457239157462892        0.0000000000000000     
  -4.9965060393922407E-005  0.26430450655486204        0.0000000000000000     
  -5.0014943774477107E-005  0.27265184392194741        0.0000000000000000     
  -5.0027857938119433E-005  0.28086664951001894        0.0000000000000000     
  -5.0003802884847923E-005  0.28894892331907668        0.0000000000000000     
  -4.9942778614663931E-005  0.29689866534912052        0.0000000000000000     
  -6.4347846214909341E-003  0.26432130045987912        0.0000000000000000     
  -6.4518721620906985E-003  0.27267356385241498        0.0000000000000000     
  -6.4717146700983648E-003  0.28089492747351458        0.0000000000000000     
  -6.4943121455139337E-003  0.28898539132317791        0.0000000000000000     
  -6.5196645883374019E-003  0.29694495540140503        0.0000000000000000     
  -1.2862405836878468E-002  0.26437154593151269        0.0000000000000000     
  -1.2896490861897841E-002  0.27273894096855500        0.0000000000000000     
  -1.2935535974190282E-002  0.28098010572163029        0.0000000000000000     
  -1.2979541173755785E-002  0.28909504019073839        0.0000000000000000     
  -1.3028506460594351E-002  0.29708374437587942        0.0000000000000000     
  -1.9332828706556525E-002  0.26445524296976258        0.0000000000000000     
  -1.9383871043195913E-002  0.27284797527036753        0.0000000000000000     
  -1.9441491770213870E-002  0.28112218425436597        0.0000000000000000     
  -1.9505690887610398E-002  0.28927786992175802        0.0000000000000000     
  -1.9576468395385505E-002  0.29731503227254369        0.0000000000000000     
  -2.5846053230525107E-002  0.26457239157462892        0.0000000000000000     
  -2.5914012705984903E-002  0.27300066675785245        0.0000000000000000     
  -2.5989582058169123E-002  0.28132116307172172        0.0000000000000000     
  -2.6072761287077785E-002  0.28953388051623691        0.0000000000000000     
  -2.6163550392710871E-002  0.29763881909139778        0.0000000000000000     
  -1.3985263322815541E-002   5.5865369059695760E-002   0.0000000000000000     
  -1.4790443881255690E-002   6.1383625528899061E-002   0.0000000000000000     
  -1.5558100388148643E-002   6.7119247692055822E-002   0.0000000000000000     
  -1.6288232843494403E-002   7.3072235549166017E-002   0.0000000000000000     
  -1.6980841247292964E-002   7.9242589100229674E-002   0.0000000000000000     
  -1.7594826403820447E-002   5.5535897806572740E-002   0.0000000000000000     
  -1.8183217207678515E-002   6.1214079576174786E-002   0.0000000000000000     
  -1.8884148466511687E-002   6.7073394928296032E-002   0.0000000000000000     
  -1.9697620180319977E-002   7.3113843862936512E-002   0.0000000000000000     
  -2.0623632349103367E-002   7.9335426380096191E-002   0.0000000000000000     
  -2.1179246488635506E-002   5.5651575132270509E-002   0.0000000000000000     
  -2.1923330805754180E-002   6.1359708544395257E-002   0.0000000000000000     
  -2.2788889625555923E-002   6.7245250866192721E-002   0.0000000000000000     
  -2.3775922948040724E-002   7.3308202097662895E-002   0.0000000000000000     
  -2.4884430773208590E-002   7.9548562238805770E-002   0.0000000000000000     
  -2.4738523577260734E-002   5.6212401036789053E-002   0.0000000000000000     
  -2.6010784675482700E-002   6.1820512433560466E-002   0.0000000000000000     
  -2.7272323865281337E-002   6.7634815505745849E-002   0.0000000000000000     
  -2.8523141146656657E-002   7.3655310253345180E-002   0.0000000000000000     
  -2.9763236519608650E-002   7.9881996676358438E-002   0.0000000000000000     
  -2.8272657669696121E-002   5.7218375520128387E-002   0.0000000000000000     
  -3.0445578816864056E-002   6.2596491243670449E-002   0.0000000000000000     
  -3.2334451185687944E-002   6.8242088846955429E-002   0.0000000000000000     
  -3.3939274776167774E-002   7.4155168329983367E-002   0.0000000000000000     
  -3.5260049588303539E-002   8.0335729692754196E-002   0.0000000000000000     
  -1.6980841247292964E-002   7.9242589100229674E-002   0.0000000000000000     
  -1.7652587853438147E-002   8.5600633862790459E-002   0.0000000000000000     
  -1.8320134915823766E-002   9.2116695354392070E-002   0.0000000000000000     
  -1.8983482434449812E-002   9.8790773575034477E-002   0.0000000000000000     
  -1.9642630409316304E-002  0.10562286852471772        0.0000000000000000     
  -2.0623632349103367E-002   7.9335426380096191E-002   0.0000000000000000     
  -2.1596126427005740E-002   8.5721498961836451E-002   0.0000000000000000     
  -2.2549043868170988E-002   9.2255418090218685E-002   0.0000000000000000     
  -2.3482384672599107E-002   9.8937183765242895E-002   0.0000000000000000     
  -2.4396148840290097E-002  0.10576679598690911        0.0000000000000000     
  -2.4884430773208590E-002   7.9548562238805770E-002   0.0000000000000000     
  -2.6043825794841366E-002   8.5947810882911008E-002   0.0000000000000000     
  -2.7183520706720903E-002   9.2487427623268226E-002   0.0000000000000000     
  -2.8303515508847191E-002   9.9167412459877452E-002   0.0000000000000000     
  -2.9403810201220227E-002  0.10598776539273863        0.0000000000000000     
  -2.9763236519608650E-002   7.9881996676358438E-002   0.0000000000000000     
  -3.0995685956945029E-002   8.6279569626014130E-002   0.0000000000000000     
  -3.2223565431473498E-002   9.2812723953540649E-002   0.0000000000000000     
  -3.3446874943194045E-002   9.9481459658938051E-002   0.0000000000000000     
  -3.4665614492106700E-002  0.10628577674220629        0.0000000000000000     
  -3.5260049588303539E-002   8.0335729692754196E-002   0.0000000000000000     
  -3.6451706913316721E-002   8.6716775191145803E-002   0.0000000000000000     
  -3.7669178042428773E-002   9.3231307081035969E-002   0.0000000000000000     
  -3.8912462975639717E-002   9.9879325362424762E-002   0.0000000000000000     
  -4.0181561712949523E-002  0.10666083003531211        0.0000000000000000     
  -1.9642630409316304E-002  0.10562286852471772        0.0000000000000000     
  -2.0271671837089878E-002  0.11259716299461947        0.0000000000000000     
  -2.0844699714437191E-002  0.11969783977591739        0.0000000000000000     
  -2.1361714041358240E-002  0.12692489886861147        0.0000000000000000     
  -2.1822714817853028E-002  0.13427834027270177        0.0000000000000000     
  -2.4396148840290097E-002  0.10576679598690911        0.0000000000000000     
  -2.5253895417434162E-002  0.11273337555988397        0.0000000000000000     
  -2.6019183450221518E-002  0.11982604328883420        0.0000000000000000     
  -2.6692012938652161E-002  0.12704479917375983        0.0000000000000000     
  -2.7272383882726094E-002  0.13438964321466079        0.0000000000000000     
  -2.9403810201220227E-002  0.10598776539273863        0.0000000000000000     
  -3.0439095865590838E-002  0.11294160739054021        0.0000000000000000     
  -3.1364063583709835E-002  0.12002205942197065        0.0000000000000000     
  -3.2178713355577218E-002  0.12722912148702989        0.0000000000000000     
  -3.2883045181192984E-002  0.13456279358571799        0.0000000000000000     
  -3.4665614492106700E-002  0.10628577674220629        0.0000000000000000     
  -3.5827273181559913E-002  0.11322185848658821        0.0000000000000000     
  -3.6879340114902154E-002  0.12028588817532672        0.0000000000000000     
  -3.7821815292133409E-002  0.12747786580842171        0.0000000000000000     
  -3.8654698713253707E-002  0.13479779138587328        0.0000000000000000     
  -4.0181561712949523E-002  0.10666083003531211        0.0000000000000000     
  -4.1418427365341383E-002  0.11357412884802799        0.0000000000000000     
  -4.2565013043798457E-002  0.12061752954890240        0.0000000000000000     
  -4.3621318748320745E-002  0.12779103213793530        0.0000000000000000     
  -4.4587344478908261E-002  0.13509463661512672        0.0000000000000000     
  -2.1822714817853028E-002  0.13427834027270177        0.0000000000000000     
  -2.2248984944048585E-002  0.14175710315498771        0.0000000000000000     
  -2.2661807320071930E-002  0.14936012668226878        0.0000000000000000     
  -2.3061181945923066E-002  0.15708741085454497        0.0000000000000000     
  -2.3447108821601996E-002  0.16493895567181630        0.0000000000000000     
  -2.7272383882726094E-002  0.13438964321466079        0.0000000000000000     
  -2.7803988292916186E-002  0.14186083407438502        0.0000000000000000     
  -2.8330518179695327E-002  0.14945863041578028        0.0000000000000000     
  -2.8851973543063500E-002  0.15718303223884661        0.0000000000000000     
  -2.9368354383020726E-002  0.16503403954358400        0.0000000000000000     
  -3.2883045181192984E-002  0.13456279358571799        0.0000000000000000     
  -3.3528723586411222E-002  0.14202334520560683        0.0000000000000000     
  -3.4167413097086020E-002  0.14961104583426843        0.0000000000000000     
  -3.4799113713217401E-002  0.15732589547170270        0.0000000000000000     
  -3.5423825434805330E-002  0.16516789411790969        0.0000000000000000     
  -3.8654698713253707E-002  0.13479779138587328        0.0000000000000000     
  -3.9423190824533695E-002  0.14224463654865316        0.0000000000000000     
  -4.0172492072244034E-002  0.14981737293773312        0.0000000000000000     
  -4.0902602456384753E-002  0.15751600055311318        0.0000000000000000     
  -4.1613521976955808E-002  0.16534051939479338        0.0000000000000000     
  -4.4587344478908261E-002  0.13509463661512672        0.0000000000000000     
  -4.5487390007283607E-002  0.14252470810352402        0.0000000000000000     
  -4.6345755105169369E-002  0.15007761172617448        0.0000000000000000     
  -4.7162439772565561E-002  0.15775334748307815        0.0000000000000000     
  -4.7937444009472183E-002  0.16555191537423505        0.0000000000000000     
  -2.3447108821601996E-002  0.16493895567181630        0.0000000000000000     
  -2.3809959321098299E-002  0.17289296603884935        0.0000000000000000     
  -2.4140104818401550E-002  0.18092764686041071        0.0000000000000000     
  -2.4437545313511746E-002  0.18904299813650038        0.0000000000000000     
  -2.4702280806428899E-002  0.19723901986711842        0.0000000000000000     
  -2.9368354383020726E-002  0.16503403954358400        0.0000000000000000     
  -2.9855911840912634E-002  0.17298706957248977        0.0000000000000000     
  -3.0290897058084864E-002  0.18101753956806124        0.0000000000000000     
  -3.0673310034537431E-002  0.18912544953029842        0.0000000000000000     
  -3.1003150770270320E-002  0.19731079945920132        0.0000000000000000     
  -3.5423825434805330E-002  0.16516789411790969        0.0000000000000000     
  -3.6013510223671011E-002  0.17311152226998613        0.0000000000000000     
  -3.6540130041635636E-002  0.18113126042502886        0.0000000000000000     
  -3.7003684888699186E-002  0.18922710858303779        0.0000000000000000     
  -3.7404174764861679E-002  0.19739906674401295        0.0000000000000000     
  -4.1613521976955808E-002  0.16534051939479338        0.0000000000000000     
  -4.2282754469373449E-002  0.17326632413133855        0.0000000000000000     
  -4.2887803769053844E-002  0.18126880943131357        0.0000000000000000     
  -4.3428669875997014E-002  0.18934797529471850        0.0000000000000000     
  -4.3905352790202960E-002  0.19750382172155323        0.0000000000000000     
  -4.7937444009472183E-002  0.16555191537423505        0.0000000000000000     
  -4.8663644578019929E-002  0.17345147515654685        0.0000000000000000     
  -4.9333918240339510E-002  0.18143018658691534        0.0000000000000000     
  -4.9948264996430930E-002  0.18948804966534044        0.0000000000000000     
  -5.0506684846294184E-002  0.19762506439182217        0.0000000000000000     
  -2.4702280806428899E-002  0.19723901986711842        0.0000000000000000     
  -2.4935825216967564E-002  0.20550509247263865        0.0000000000000000     
  -2.5139692464942312E-002  0.21383059637343482        0.0000000000000000     
  -2.5313882550353134E-002  0.22221553156950705        0.0000000000000000     
  -2.5458395473200047E-002  0.23065989806085527        0.0000000000000000     
  -3.1003150770270320E-002  0.19731079945920132        0.0000000000000000     
  -3.1289760883390846E-002  0.20556671493824352        0.0000000000000000     
  -3.1542481992006322E-002  0.21388632155089843        0.0000000000000000     
  -3.1761314096116731E-002  0.22226961929716610        0.0000000000000000     
  -3.1946257195722097E-002  0.23071660817704653        0.0000000000000000     
  -3.7404174764861679E-002  0.19739906674401295        0.0000000000000000     
  -3.7752967384795832E-002  0.20564295750535488        0.0000000000000000     
  -3.8061430463174395E-002  0.21395460346446407        0.0000000000000000     
  -3.8329563999997367E-002  0.22233400462134054        0.0000000000000000     
  -3.8557367995264755E-002  0.23078116097598428        0.0000000000000000     
  -4.3905352790202960E-002  0.19750382172155323        0.0000000000000000     
  -4.4325444721182522E-002  0.20573382017397268        0.0000000000000000     
  -4.4696537878446546E-002  0.21403544211413178        0.0000000000000000     
  -4.5018632261995040E-002  0.22240868754203030        0.0000000000000000     
  -4.5291727871828009E-002  0.23085355645766842        0.0000000000000000     
  -5.0506684846294184E-002  0.19762506439182217        0.0000000000000000     
  -5.1007192892550908E-002  0.20583930294409705        0.0000000000000000     
  -5.1447804237822761E-002  0.21412883749990150        0.0000000000000000     
  -5.1828518882109743E-002  0.22249366805923548        0.0000000000000000     
  -5.2149336825411854E-002  0.23093379462209901        0.0000000000000000     
  -2.5458395473200047E-002  0.23065989806085527        0.0000000000000000     
  -2.5579879839206572E-002  0.23913499050970580        0.0000000000000000     
  -2.5684984254096259E-002  0.24761210357828495        0.0000000000000000     
  -2.5773708717869100E-002  0.25609123726659272        0.0000000000000000     
  -2.5846053230525107E-002  0.26457239157462892        0.0000000000000000     
  -3.1946257195722097E-002  0.23071660817704653        0.0000000000000000     
  -3.2103200523075949E-002  0.23920073676201917        0.0000000000000000     
  -3.2238033310431846E-002  0.24769545362356332        0.0000000000000000     
  -3.2350755557789782E-002  0.25620075876167908        0.0000000000000000     
  -3.2441367265149762E-002  0.26471665217636642        0.0000000000000000     
  -3.8557367995264755E-002  0.23078116097598428        0.0000000000000000     
  -3.8750640580602645E-002  0.23927321920545763        0.0000000000000000     
  -3.8915179887637159E-002  0.24778732598682304        0.0000000000000000     
  -3.9050985916368297E-002  0.25632348132008043        0.0000000000000000     
  -3.9158058666796058E-002  0.26488168520522981        0.0000000000000000     
  -4.5291727871828009E-002  0.23085355645766842        0.0000000000000000     
  -4.5522200011786647E-002  0.23935243784002128        0.0000000000000000     
  -4.5716423985712198E-002  0.24788772066806397        0.0000000000000000     
  -4.5874399793604637E-002  0.25645940494179659        0.0000000000000000     
  -4.5996127435463982E-002  0.26506749066121910        0.0000000000000000     
  -5.2149336825411854E-002  0.23093379462209901        0.0000000000000000     
  -5.2417878816627968E-002  0.23943839266570999        0.0000000000000000     
  -5.2641765604656957E-002  0.24799663766728619        0.0000000000000000     
  -5.2820997189498814E-002  0.25660852962682756        0.0000000000000000     
  -5.2955573571153533E-002  0.26527406854433416        0.0000000000000000     
  -2.5846053230525107E-002  0.26457239157462892        0.0000000000000000     
  -2.5914012705984903E-002  0.27300066675785245        0.0000000000000000     
  -2.5989582058169123E-002  0.28132116307172172        0.0000000000000000     
  -2.6072761287077785E-002  0.28953388051623691        0.0000000000000000     
  -2.6163550392710871E-002  0.29763881909139778        0.0000000000000000     
  -3.2441367265149762E-002  0.26471665217636642        0.0000000000000000     
  -3.2525310911397640E-002  0.27319057591537649        0.0000000000000000     
  -3.2618028975419280E-002  0.28156997202646050        0.0000000000000000     
  -3.2719521457214677E-002  0.28985484050961841        0.0000000000000000     
  -3.2829788356783823E-002  0.29804518136485025        0.0000000000000000     
  -3.9158058666796058E-002  0.26488168520522981        0.0000000000000000     
  -3.9256160720566959E-002  0.27341126322730630        0.0000000000000000     
  -3.9365054659327547E-002  0.28186154097134514        0.0000000000000000     
  -3.9484740483077811E-002  0.29023251843734610        0.0000000000000000     
  -3.9615218191817757E-002  0.29852419562530935        0.0000000000000000     
  -4.5996127435463982E-002  0.26506749066121910        0.0000000000000000     
  -4.6106562133492866E-002  0.27366272869364183        0.0000000000000000     
  -4.6230659109893935E-002  0.28219586990637541        0.0000000000000000     
  -4.6368418364667215E-002  0.29066691429941999        0.0000000000000000     
  -4.6519839897812658E-002  0.29907586187277513        0.0000000000000000     
  -5.2955573571153533E-002  0.26527406854433416        0.0000000000000000     
  -5.3076515150175335E-002  0.27394497231438319        0.0000000000000000     
  -5.3214842327118456E-002  0.28257295883155170        0.0000000000000000     
  -5.3370555101982846E-002  0.29115802809583985        0.0000000000000000     
  -5.3543653474768541E-002  0.29970018010724753        0.0000000000000000     
  -2.8272657669696121E-002   5.7218375520128387E-002   0.0000000000000000     
  -3.0445578816864056E-002   6.2596491243670449E-002   0.0000000000000000     
  -3.2334451185687944E-002   6.8242088846955429E-002   0.0000000000000000     
  -3.3939274776167774E-002   7.4155168329983367E-002   0.0000000000000000     
  -3.5260049588303539E-002   8.0335729692754196E-002   0.0000000000000000     
  -3.1969437233440853E-002   5.8314887818939808E-002   0.0000000000000000     
  -3.5027344147696184E-002   6.3468210644935796E-002   0.0000000000000000     
  -3.7533639959429037E-002   6.8944389979333262E-002   0.0000000000000000     
  -3.9488324668639413E-002   7.4743425822132170E-002   0.0000000000000000     
  -4.0891398275327298E-002   8.0865318173332548E-002   0.0000000000000000     
  -3.6016650735994110E-002   5.9147327169874628E-002   0.0000000000000000     
  -3.9555711585776976E-002   6.4216236307567176E-002   0.0000000000000000     
  -4.2428258559157918E-002   6.9619037992391081E-002   0.0000000000000000     
  -4.4634291656136894E-002   7.5355732224346356E-002   0.0000000000000000     
  -4.6173810876713975E-002   8.1426319003432959E-002   0.0000000000000000     
  -4.0414298177355895E-002   5.9715693572932819E-002   0.0000000000000000     
  -4.4030681131106447E-002   6.4840568231564560E-002   0.0000000000000000     
  -4.7018306984874574E-002   7.0266032886128940E-002   0.0000000000000000     
  -4.9377175738660281E-002   7.5992087536625910E-002   0.0000000000000000     
  -5.1107287392463570E-002   8.2018732183055471E-002   0.0000000000000000     
  -4.5162379557526201E-002   6.0019987028114404E-002   0.0000000000000000     
  -4.8452252783684577E-002   6.5341206416927977E-002   0.0000000000000000     
  -5.1303785236579018E-002   7.0885374660546771E-002   0.0000000000000000     
  -5.3716976916209518E-002   7.6652491758970806E-002   0.0000000000000000     
  -5.5691827822576076E-002   8.2642557712200054E-002   0.0000000000000000     
  -3.5260049588303539E-002   8.0335729692754196E-002   0.0000000000000000     
  -3.6451706913316721E-002   8.6716775191145803E-002   0.0000000000000000     
  -3.7669178042428773E-002   9.3231307081035969E-002   0.0000000000000000     
  -3.8912462975639717E-002   9.9879325362424762E-002   0.0000000000000000     
  -4.0181561712949523E-002  0.10666083003531211        0.0000000000000000     
  -4.0891398275327298E-002   8.0865318173332548E-002   0.0000000000000000     
  -4.2045346355363555E-002   8.7216418217695268E-002   0.0000000000000000     
  -4.3252654484619020E-002   9.3703077139981272E-002   0.0000000000000000     
  -4.4513322663093699E-002  0.10032529494019053        0.0000000000000000     
  -4.5827350890787572E-002  0.10708307161832308        0.0000000000000000     
  -4.6173810876713975E-002   8.1426319003432959E-002   0.0000000000000000     
  -4.7410061974492670E-002   8.7735489345051751E-002   0.0000000000000000     
  -4.8706290703076527E-002   9.4187934264603562E-002   0.0000000000000000     
  -5.0062497062465558E-002  0.10078365376208838        0.0000000000000000     
  -5.1478681052659757E-002  0.10752264783750620        0.0000000000000000     
  -5.1107287392463570E-002   8.2018732183055471E-002   0.0000000000000000     
  -5.2545853770704039E-002   8.8273988573215265E-002   0.0000000000000000     
  -5.4030086697801273E-002   9.4685878454902853E-002   0.0000000000000000     
  -5.5559986173755287E-002  0.10125440182811826        0.0000000000000000     
  -5.7135552198566059E-002  0.10797955869286151        0.0000000000000000     
  -5.5691827822576076E-002   8.2642557712200054E-002   0.0000000000000000     
  -5.7452721743997688E-002   8.8831915902185782E-002   0.0000000000000000     
  -5.9224042468793266E-002   9.5196909710879171E-002   0.0000000000000000     
  -6.1005789996962892E-002  0.10173753913828024        0.0000000000000000     
  -6.2797964328506511E-002  0.10845380418438896        0.0000000000000000     
  -4.0181561712949523E-002  0.10666083003531211        0.0000000000000000     
  -4.1418427365341383E-002  0.11357412884802799        0.0000000000000000     
  -4.2565013043798457E-002  0.12061752954890240        0.0000000000000000     
  -4.3621318748320745E-002  0.12779103213793530        0.0000000000000000     
  -4.4587344478908261E-002  0.13509463661512672        0.0000000000000000     
  -4.5827350890787572E-002  0.10708307161832308        0.0000000000000000     
  -4.7133485350336866E-002  0.11397430922695187        0.0000000000000000     
  -4.8370472224377757E-002  0.12099690981864991        0.0000000000000000     
  -4.9538311512910264E-002  0.12815087339341721        0.0000000000000000     
  -5.0637003215934388E-002  0.13543619995125378        0.0000000000000000     
  -5.1478681052659757E-002  0.10752264783750620        0.0000000000000000     
  -5.2893374069947971E-002  0.11439829037545218        0.0000000000000000     
  -5.4245107510619048E-002  0.12140395526052145        0.0000000000000000     
  -5.5533881374672994E-002  0.12853964249271405        0.0000000000000000     
  -5.6759695662109803E-002  0.13580535207202987        0.0000000000000000     
  -5.7135552198566059E-002  0.10797955869286151        0.0000000000000000     
  -5.8698093524174710E-002  0.11484607229352896        0.0000000000000000     
  -6.0188918902522349E-002  0.12183866587451705        0.0000000000000000     
  -6.1608028333608941E-002  0.12895733943582574        0.0000000000000000     
  -6.2955421817434506E-002  0.13620209297745511        0.0000000000000000     
  -6.2797964328506511E-002  0.10845380418438896        0.0000000000000000     
  -6.4547643713017092E-002  0.11531765498118218        0.0000000000000000     
  -6.6201906400087621E-002  0.12230104166063666        0.0000000000000000     
  -6.7760752389718085E-002  0.12940396422275241        0.0000000000000000     
  -6.9224181681908498E-002  0.13662642266752939        0.0000000000000000     
  -4.4587344478908261E-002  0.13509463661512672        0.0000000000000000     
  -4.5487390007283607E-002  0.14252470810352402        0.0000000000000000     
  -4.6345755105169369E-002  0.15007761172617448        0.0000000000000000     
  -4.7162439772565561E-002  0.15775334748307815        0.0000000000000000     
  -4.7937444009472183E-002  0.16555191537423505        0.0000000000000000     
  -5.0637003215934388E-002  0.13543619995125378        0.0000000000000000     
  -5.1669099468049637E-002  0.14284687424068693        0.0000000000000000     
  -5.2637152403855504E-002  0.15037688101024405        0.0000000000000000     
  -5.3541162023352025E-002  0.15802622025992510        0.0000000000000000     
  -5.4381128326539185E-002  0.16579489198973013        0.0000000000000000     
  -5.6759695662109803E-002  0.13580535207202987        0.0000000000000000     
  -5.7916097540220458E-002  0.14319444933060954        0.0000000000000000     
  -5.8996634176295991E-002  0.15070029960059345        0.0000000000000000     
  -6.0001305570336352E-002  0.15832290288198161        0.0000000000000000     
  -6.0930111722341578E-002  0.16606225917477407        0.0000000000000000     
  -6.2955421817434506E-002  0.13620209297745511        0.0000000000000000     
  -6.4228384223796106E-002  0.14356743337329186        0.0000000000000000     
  -6.5424200422490780E-002  0.15104786749722271        0.0000000000000000     
  -6.6542870413518543E-002  0.15864339534924776        0.0000000000000000     
  -6.7584394196879394E-002  0.16635401692936685        0.0000000000000000     
  -6.9224181681908498E-002  0.13662642266752939        0.0000000000000000     
  -7.0605959518776518E-002  0.14396582636873384        0.0000000000000000     
  -7.1919851142439900E-002  0.15141958470013184        0.0000000000000000     
  -7.3165856552898575E-002  0.15898769766172338        0.0000000000000000     
  -7.4343975750152572E-002  0.16667016525350850        0.0000000000000000     
  -4.7937444009472183E-002  0.16555191537423505        0.0000000000000000     
  -4.8663644578019929E-002  0.17345147515654685        0.0000000000000000     
  -4.9333918240339510E-002  0.18143018658691534        0.0000000000000000     
  -4.9948264996430930E-002  0.18948804966534044        0.0000000000000000     
  -5.0506684846294184E-002  0.19762506439182217        0.0000000000000000     
  -5.4381128326539185E-002  0.16579489198973013        0.0000000000000000     
  -5.5165648554644342E-002  0.17366451895754922        0.0000000000000000     
  -5.5903319948894893E-002  0.18161672392127259        0.0000000000000000     
  -5.6594142509290839E-002  0.18965150688090018        0.0000000000000000     
  -5.7238116235832158E-002  0.19776886783643199        0.0000000000000000     
  -6.0930111722341578E-002  0.16606225917477407        0.0000000000000000     
  -6.1798234404280582E-002  0.17390299914628382        0.0000000000000000     
  -6.2620855388122273E-002  0.18182975346382380        0.0000000000000000     
  -6.3397974673866667E-002  0.18984252212739419        0.0000000000000000     
  -6.4129592261513740E-002  0.19794130513699484        0.0000000000000000     
  -6.7584394196879394E-002  0.16635401692936685        0.0000000000000000     
  -6.8561402126928642E-002  0.17416691572275050        0.0000000000000000     
  -6.9486524558021664E-002  0.18206927521456903        0.0000000000000000     
  -7.0359761490158421E-002  0.19006109540482238        0.0000000000000000     
  -7.1181112923338938E-002  0.19814237629351067        0.0000000000000000     
  -7.4343975750152572E-002  0.16667016525350850        0.0000000000000000     
  -7.5455151722588543E-002  0.17445626868694936        0.0000000000000000     
  -7.6500327458593032E-002  0.18233528917350816        0.0000000000000000     
  -7.7479502958166108E-002  0.19030722671318487        0.0000000000000000     
  -7.8392678221307729E-002  0.19837208130597955        0.0000000000000000     
  -5.0506684846294184E-002  0.19762506439182217        0.0000000000000000     
  -5.1007192892550908E-002  0.20583930294409705        0.0000000000000000     
  -5.1447804237822761E-002  0.21412883749990150        0.0000000000000000     
  -5.1828518882109743E-002  0.22249366805923548        0.0000000000000000     
  -5.2149336825411854E-002  0.23093379462209901        0.0000000000000000     
  -5.7238116235832158E-002  0.19776886783643199        0.0000000000000000     
  -5.7823758458531688E-002  0.20596645296536897        0.0000000000000000     
  -5.8339586507402272E-002  0.21424190844521210        0.0000000000000000     
  -5.8785600382443848E-002  0.22259523427596137        0.0000000000000000     
  -5.9161800083656471E-002  0.23102643045761673        0.0000000000000000     
  -6.4129592261513740E-002  0.19794130513699484        0.0000000000000000     
  -6.4800687978755586E-002  0.20612231738742962        0.0000000000000000     
  -6.5396241653284240E-002  0.21438177377350245        0.0000000000000000     
  -6.5916253285099716E-002  0.22271967429521322        0.0000000000000000     
  -6.6360722874201986E-002  0.23113601895256208        0.0000000000000000     
  -7.1181112923338938E-002  0.19814237629351067        0.0000000000000000     
  -7.1937981453222583E-002  0.20630689621027898        0.0000000000000000     
  -7.2617769675468707E-002  0.21454843348477251        0.0000000000000000     
  -7.3220477590077326E-002  0.22286698811699118        0.0000000000000000     
  -7.3746105197048412E-002  0.23126256010693508        0.0000000000000000     
  -7.8392678221307729E-002  0.19837208130597955        0.0000000000000000     
  -7.9235638881932663E-002  0.20652018943391709        0.0000000000000000     
  -8.0004170573955646E-002  0.21474188757902224        0.0000000000000000     
  -8.0698273297376666E-002  0.22303717574129514        0.0000000000000000     
  -8.1317947052195749E-002  0.23140605392073577        0.0000000000000000     
  -5.2149336825411854E-002  0.23093379462209901        0.0000000000000000     
  -5.2417878816627968E-002  0.23943839266570999        0.0000000000000000     
  -5.2641765604656957E-002  0.24799663766728619        0.0000000000000000     
  -5.2820997189498814E-002  0.25660852962682756        0.0000000000000000     
  -5.2955573571153533E-002  0.26527406854433416        0.0000000000000000     
  -5.9161800083656471E-002  0.23102643045761673        0.0000000000000000     
  -5.9475897045198949E-002  0.23953237899145624        0.0000000000000000     
  -5.9735602701230087E-002  0.24810996187875783        0.0000000000000000     
  -5.9940917051749934E-002  0.25675917911952173        0.0000000000000000     
  -6.0091840096758456E-002  0.26548003071374771        0.0000000000000000     
  -6.6360722874201986E-002  0.23113601895256208        0.0000000000000000     
  -6.6734474747571909E-002  0.23963569212619226        0.0000000000000000     
  -6.7042333232190290E-002  0.24822357819674740        0.0000000000000000     
  -6.7284298328057143E-002  0.25689967716422729        0.0000000000000000     
  -6.7460370035172454E-002  0.26566398902863214        0.0000000000000000     
  -7.3746105197048412E-002  0.23126256010693508        0.0000000000000000     
  -7.4193611923746863E-002  0.23974833206991825        0.0000000000000000     
  -7.4561957197537554E-002  0.24833748662125468        0.0000000000000000     
  -7.4851141018420400E-002  0.25703002376094447        0.0000000000000000     
  -7.5061163386395527E-002  0.26582594348898764        0.0000000000000000     
  -8.1317947052195749E-002  0.23140605392073577        0.0000000000000000     
  -8.1853308573723832E-002  0.23987029882263400        0.0000000000000000     
  -8.2294474597271836E-002  0.24845168715227980        0.0000000000000000     
  -8.2641445122839774E-002  0.25715021890967310        0.0000000000000000     
  -8.2894220150427675E-002  0.26596589409481403        0.0000000000000000     
  -5.2955573571153533E-002  0.26527406854433416        0.0000000000000000     
  -5.3076515150175335E-002  0.27394497231438319        0.0000000000000000     
  -5.3214842327118456E-002  0.28257295883155170        0.0000000000000000     
  -5.3370555101982846E-002  0.29115802809583985        0.0000000000000000     
  -5.3543653474768541E-002  0.29970018010724753        0.0000000000000000     
  -6.0091840096758456E-002  0.26548003071374771        0.0000000000000000     
  -6.0224758929741100E-002  0.27422942375298709        0.0000000000000000     
  -6.0376060644183341E-002  0.28296426532879104        0.0000000000000000     
  -6.0545745240085165E-002  0.29168455544115957        0.0000000000000000     
  -6.0733812717446566E-002  0.30039029409009277        0.0000000000000000     
  -6.7460370035172454E-002  0.26566398902863214        0.0000000000000000     
  -6.7610032631316819E-002  0.27448751267291044        0.0000000000000000     
  -6.7772770394270834E-002  0.28334124698001062        0.0000000000000000     
  -6.7948583324034542E-002  0.29222519194993274        0.0000000000000000     
  -6.8137471420607915E-002  0.30113934758267696        0.0000000000000000     
  -7.5061163386395527E-002  0.26582594348898764        0.0000000000000000     
  -7.5232336254902485E-002  0.27471923907415313        0.0000000000000000     
  -7.5404971577380978E-002  0.28370390378521049        0.0000000000000000     
  -7.5579069353831019E-002  0.29277993762215943        0.0000000000000000     
  -7.5754629584252567E-002  0.30194734058500006        0.0000000000000000     
  -8.2894220150427675E-002  0.26596589409481403        0.0000000000000000     
  -8.3091669800498119E-002  0.27492460295671550        0.0000000000000000     
  -8.3272664193513757E-002  0.28405223574439065        0.0000000000000000     
  -8.3437203329474546E-002  0.29334879245783951        0.0000000000000000     
  -8.3585287208380543E-002  0.30281427309706210        0.0000000000000000     
  -4.5162379557526201E-002   6.0019987028114404E-002   0.0000000000000000     
  -4.8452252783684577E-002   6.5341206416927977E-002   0.0000000000000000     
  -5.1303785236579018E-002   7.0885374660546771E-002   0.0000000000000000     
  -5.3716976916209518E-002   7.6652491758970806E-002   0.0000000000000000     
  -5.5691827822576076E-002   8.2642557712200054E-002   0.0000000000000000     
  -5.0115913292166622E-002   6.0357505209257076E-002   0.0000000000000000     
  -5.3008713058491107E-002   6.5857734787215197E-002   0.0000000000000000     
  -5.5679284947929536E-002   7.1513007836841613E-002   0.0000000000000000     
  -5.8127628960481931E-002   7.7323324358136367E-002   0.0000000000000000     
  -6.0353745096148291E-002   8.3288684351099429E-002   0.0000000000000000     
  -5.5129917796938738E-002   6.1025545790198539E-002   0.0000000000000000     
  -5.7888348470505710E-002   6.6529737265983976E-002   0.0000000000000000     
  -6.0539397752584399E-002   7.2184876936210410E-002   0.0000000000000000     
  -6.3083065643174813E-002   7.7990964800877832E-002   0.0000000000000000     
  -6.5519352142276957E-002   8.3948000859986230E-002   0.0000000000000000     
  -6.0204393071842548E-002   6.2024108770938780E-002   0.0000000000000000     
  -6.3091159019728393E-002   6.7357213853234330E-002   0.0000000000000000     
  -6.5884123650543622E-002   7.2900981958653147E-002   0.0000000000000000     
  -6.8583286964288170E-002   7.8655413087195189E-002   0.0000000000000000     
  -7.1188648960962109E-002   8.4620507238860485E-002   0.0000000000000000     
  -6.5339339116878059E-002   6.3353194151477818E-002   0.0000000000000000     
  -6.8617144706159178E-002   6.8340164548966270E-002   0.0000000000000000     
  -7.1713462641807155E-002   7.3661322904169824E-002   0.0000000000000000     
  -7.4628292923822004E-002   7.9316669217088465E-002   0.0000000000000000     
  -7.7361635552203711E-002   8.5306203487722179E-002   0.0000000000000000     
  -5.5691827822576076E-002   8.2642557712200054E-002   0.0000000000000000     
  -5.7452721743997688E-002   8.8831915902185782E-002   0.0000000000000000     
  -5.9224042468793266E-002   9.5196909710879171E-002   0.0000000000000000     
  -6.1005789996962892E-002  0.10173753913828024        0.0000000000000000     
  -6.2797964328506511E-002  0.10845380418438896        0.0000000000000000     
  -6.0353745096148291E-002   8.3288684351099429E-002   0.0000000000000000     
  -6.2455314014394421E-002   8.9425947690115359E-002   0.0000000000000000     
  -6.4530016374686194E-002   9.5751974249568772E-002   0.0000000000000000     
  -6.6577852177023569E-002  0.10226676402945960        0.0000000000000000     
  -6.8598821421406581E-002  0.10897031702978788        0.0000000000000000     
  -6.5519352142276957E-002   8.3948000859986230E-002   0.0000000000000000     
  -6.7878278701915151E-002   9.0072760295156123E-002   0.0000000000000000     
  -7.0189866774113666E-002   9.6382018288007992E-002   0.0000000000000000     
  -7.2454116358872556E-002  0.10287577483854177        0.0000000000000000     
  -7.4671027456191794E-002  0.10955402994675753        0.0000000000000000     
  -7.1188648960962109E-002   8.4620507238860485E-002   0.0000000000000000     
  -7.3721615806559809E-002   9.0772353717308019E-002   0.0000000000000000     
  -7.6203593667075714E-002   9.7087041826196749E-002   0.0000000000000000     
  -7.8634582542509809E-002  0.10356457156552673        0.0000000000000000     
  -8.1014582432862123E-002  0.11020494293529792        0.0000000000000000     
  -7.7361635552203711E-002   8.5306203487722179E-002   0.0000000000000000     
  -7.9985325328328444E-002   9.1524727956571045E-002   0.0000000000000000     
  -8.2571197053572326E-002   9.7867044864135153E-002   0.0000000000000000     
  -8.5119250727935372E-002  0.10433315421041446        0.0000000000000000     
  -8.7629486351417596E-002  0.11092305599540903        0.0000000000000000     
  -6.2797964328506511E-002  0.10845380418438896        0.0000000000000000     
  -6.4547643713017092E-002  0.11531765498118218        0.0000000000000000     
  -6.6201906400087621E-002  0.12230104166063666        0.0000000000000000     
  -6.7760752389718085E-002  0.12940396422275241        0.0000000000000000     
  -6.9224181681908498E-002  0.13662642266752939        0.0000000000000000     
  -6.8598821421406581E-002  0.10897031702978788        0.0000000000000000     
  -7.0544898933846842E-002  0.11582554749709985        0.0000000000000000     
  -7.2368059540356022E-002  0.12279536967794182        0.0000000000000000     
  -7.4068303240934150E-002  0.12987978357231378        0.0000000000000000     
  -7.5645630035581141E-002  0.13707878918021571        0.0000000000000000     
  -7.4671027456191794E-002  0.10955402994675753        0.0000000000000000     
  -7.6792733484035716E-002  0.11638225889997003        0.0000000000000000     
  -7.8771367860368702E-002  0.12332593698549410        0.0000000000000000     
  -8.0606930585190750E-002  0.13038506420332968        0.0000000000000000     
  -8.2299421658501834E-002  0.13755964055347686        0.0000000000000000     
  -8.1014582432862123E-002  0.11020494293529792        0.0000000000000000     
  -8.3291147363583701E-002  0.11698778918979266        0.0000000000000000     
  -8.5411831360125631E-002  0.12389274358329343        0.0000000000000000     
  -8.7376634422487914E-002  0.13091980611580017        0.0000000000000000     
  -8.9185556550670564E-002  0.13806897678731284        0.0000000000000000     
  -8.7629486351417596E-002  0.11092305599540903        0.0000000000000000     
  -9.0040140572490796E-002  0.11764213836656781        0.0000000000000000     
  -9.2289450039626825E-002  0.12449578947133988        0.0000000000000000     
  -9.4377414752825670E-002  0.13148400930972517        0.0000000000000000     
  -9.6304034712087316E-002  0.13860679788172375        0.0000000000000000     
  -6.9224181681908498E-002  0.13662642266752939        0.0000000000000000     
  -7.0605959518776518E-002  0.14396582636873384        0.0000000000000000     
  -7.1919851142439900E-002  0.15141958470013184        0.0000000000000000     
  -7.3165856552898575E-002  0.15898769766172338        0.0000000000000000     
  -7.4343975750152572E-002  0.16667016525350850        0.0000000000000000     
  -7.5645630035581141E-002  0.13707878918021571        0.0000000000000000     
  -7.7133391670256943E-002  0.14439224671814083        0.0000000000000000     
  -7.8564939890921393E-002  0.15182001640258250        0.0000000000000000     
  -7.9940274697574476E-002  0.15936209823354056        0.0000000000000000     
  -8.1259396090216207E-002  0.16701849221101520        0.0000000000000000     
  -8.2299421658501834E-002  0.13755964055347686        0.0000000000000000     
  -8.3895248923332527E-002  0.14484931282271818        0.0000000000000000     
  -8.5440820222713321E-002  0.15225372779783630        0.0000000000000000     
  -8.6936135556644270E-002  0.15977288547883128        0.0000000000000000     
  -8.8381194925125334E-002  0.16740678586570307        0.0000000000000000     
  -8.9185556550670564E-002  0.13806897678731284        0.0000000000000000     
  -9.0891531278003271E-002  0.14533702468246584        0.0000000000000000     
  -9.2547492137815740E-002  0.15272071888589339        0.0000000000000000     
  -9.4153439130107944E-002  0.16022005939759554        0.0000000000000000     
  -9.5709372254879951E-002  0.16783504621757220        0.0000000000000000     
  -9.6304034712087316E-002  0.13860679788172375        0.0000000000000000     
  -9.8122238734269174E-002  0.14585538229738382        0.0000000000000000     
  -9.9884955636228567E-002  0.15322098966675365        0.0000000000000000     
 -0.10159218541796554       0.16070361998983321        0.0000000000000000     
 -0.10324392807948006       0.16830327326662253        0.0000000000000000     
  -7.4343975750152572E-002  0.16667016525350850        0.0000000000000000     
  -7.5455151722588543E-002  0.17445626868694936        0.0000000000000000     
  -7.6500327458593032E-002  0.18233528917350816        0.0000000000000000     
  -7.7479502958166108E-002  0.19030722671318487        0.0000000000000000     
  -7.8392678221307729E-002  0.19837208130597955        0.0000000000000000     
  -8.1259396090216207E-002  0.16701849221101520        0.0000000000000000     
  -8.2509770004336264E-002  0.17477958308353705        0.0000000000000000     
  -8.3678862375424254E-002  0.18263575559963696        0.0000000000000000     
  -8.4766673203480247E-002  0.19058700975931500        0.0000000000000000     
  -8.5773202488504188E-002  0.19863334556257106        0.0000000000000000     
  -8.8381194925125334E-002  0.16740678586570307        0.0000000000000000     
  -8.9755543785247888E-002  0.17514538395717019        0.0000000000000000     
  -9.1038727594103239E-002  0.18297863475195117        0.0000000000000000     
  -9.2230746351691414E-002  0.19090653825004597        0.0000000000000000     
  -9.3331600058012387E-002  0.19892909445145465        0.0000000000000000     
  -9.5709372254879951E-002  0.16783504621757220        0.0000000000000000     
  -9.7192473065323401E-002  0.17555367130784885        0.0000000000000000     
  -9.8579923114629917E-002  0.18336392663045070        0.0000000000000000     
  -9.9871722402799595E-002  0.19126581218537797        0.0000000000000000     
 -0.10106787092983233       0.19925932797263049        0.0000000000000000     
 -0.10324392807948006       0.16830327326662253        0.0000000000000000     
 -0.10482055784456279       0.17600444513557292        0.0000000000000000     
 -0.10630244893700436       0.18379163123513567        0.0000000000000000     
 -0.10768960135680476       0.19166483156531083        0.0000000000000000     
 -0.10898201510396402       0.19962404612609841        0.0000000000000000     
  -7.8392678221307729E-002  0.19837208130597955        0.0000000000000000     
  -7.9235638881932663E-002  0.20652018943391709        0.0000000000000000     
  -8.0004170573955646E-002  0.21474188757902224        0.0000000000000000     
  -8.0698273297376666E-002  0.22303717574129514        0.0000000000000000     
  -8.1317947052195749E-002  0.23140605392073577        0.0000000000000000     
  -8.5773202488504188E-002  0.19863334556257106        0.0000000000000000     
  -8.6703621925215940E-002  0.20676267524616312        0.0000000000000000     
  -8.7563103208335352E-002  0.21496291104684923        0.0000000000000000     
  -8.8351646337862383E-002  0.22323405296462931        0.0000000000000000     
  -8.9069251313797088E-002  0.23157610099950332        0.0000000000000000     
  -9.3331600058012387E-002  0.19892909445145465        0.0000000000000000     
  -9.4351892243402541E-002  0.20703483183483651        0.0000000000000000     
  -9.5302226438198093E-002  0.21521227887885089        0.0000000000000000     
  -9.6182602642399126E-002  0.22346143558349765        0.0000000000000000     
  -9.6993020856005557E-002  0.23178230194877694        0.0000000000000000     
 -0.10106787092983233       0.19925932797263049        0.0000000000000000     
 -0.10218044983649238       0.20733665919993718        0.0000000000000000     
 -0.10322154026354387       0.21548999107502714        0.0000000000000000     
 -0.10419114221098680       0.22371932359790031        0.0000000000000000     
 -0.10508925567882116       0.23202465676855660        0.0000000000000000     
 -0.10898201510396402       0.19962404612609841        0.0000000000000000     
 -0.11018929470448552       0.20766815734146524        0.0000000000000000     
 -0.11132104468437266       0.21579604763537813        0.0000000000000000     
 -0.11237726504362544       0.22400771700783717        0.0000000000000000     
 -0.11335795578224386       0.23230316545884228        0.0000000000000000     
  -8.1317947052195749E-002  0.23140605392073577        0.0000000000000000     
  -8.1853308573723832E-002  0.23987029882263400        0.0000000000000000     
  -8.2294474597271836E-002  0.24845168715227980        0.0000000000000000     
  -8.2641445122839774E-002  0.25715021890967310        0.0000000000000000     
  -8.2894220150427675E-002  0.26596589409481403        0.0000000000000000     
  -8.9069251313797088E-002  0.23157610099950332        0.0000000000000000     
  -8.9700690937641867E-002  0.24001694309575264        0.0000000000000000     
  -9.0230738010899106E-002  0.24858446719765842        0.0000000000000000     
  -9.0659392533568819E-002  0.25727867330522081        0.0000000000000000     
  -9.0986654505651021E-002  0.26609956141843960        0.0000000000000000     
  -9.6993020856005557E-002  0.23178230194877694        0.0000000000000000     
  -9.7722885255640074E-002  0.24020361560068706        0.0000000000000000     
  -9.8361600017925266E-002  0.24875411416522636        0.0000000000000000     
  -9.8909165142861147E-002  0.25743379764239488        0.0000000000000000     
  -9.9365580630447675E-002  0.26624266603219260        0.0000000000000000     
 -0.10508925567882116       0.23202465676855660        0.0000000000000000     
 -0.10591989152771852       0.24043031633743725        0.0000000000000000     
 -0.10668706061835039       0.24896062805498356        0.0000000000000000     
 -0.10739076295071677       0.25761559192119549        0.0000000000000000     
 -0.10803099852481764       0.26639520793607291        0.0000000000000000     
 -0.11335795578224386       0.23230316545884228        0.0000000000000000     
 -0.11429170975387712       0.24069704530600333        0.0000000000000000     
 -0.11520711981217438       0.24920400886693009        0.0000000000000000     
 -0.11610418595713565       0.25782405614162257        0.0000000000000000     
 -0.11698290818876095       0.26655718713008081        0.0000000000000000     
  -8.2894220150427675E-002  0.26596589409481403        0.0000000000000000     
  -8.3091669800498119E-002  0.27492460295671550        0.0000000000000000     
  -8.3272664193513757E-002  0.28405223574439065        0.0000000000000000     
  -8.3437203329474546E-002  0.29334879245783951        0.0000000000000000     
  -8.3585287208380543E-002  0.30281427309706210        0.0000000000000000     
  -9.0986654505651021E-002  0.26609956141843960        0.0000000000000000     
  -9.1243263999436469E-002  0.27510906006417657        0.0000000000000000     
  -9.1459961087215977E-002  0.28436909776929337        0.0000000000000000     
  -9.1636745768989517E-002  0.29387967453379005        0.0000000000000000     
  -9.1773618044757102E-002  0.30364079035766656        0.0000000000000000     
  -9.9365580630447675E-002  0.26624266603219260        0.0000000000000000     
  -9.9742349583050310E-002  0.27527806614011580        0.0000000000000000     
 -0.10005097510303450       0.28463734477166092        0.0000000000000000     
 -0.10029145719040022       0.29432050192682802        0.0000000000000000     
 -0.10046379584514749       0.30432753760561693        0.0000000000000000     
 -0.10803099852481764       0.26639520793607291        0.0000000000000000     
 -0.10858892655133966       0.27543162118453318        0.0000000000000000     
 -0.10904570624096932       0.28485697675149330        0.0000000000000000     
 -0.10940133759370667       0.29467127463695342        0.0000000000000000     
 -0.10965582060955170       0.30487451484091332        0.0000000000000000     
 -0.11698290818876095       0.26655718713008081        0.0000000000000000     
 -0.11778299490430447       0.27556972519742873        0.0000000000000000     
 -0.11844415450102043       0.28502799370879051        0.0000000000000000     
 -0.11896638697890886       0.29493199266416614        0.0000000000000000     
 -0.11934969233796974       0.30528172206355558        0.0000000000000000     
 </DataArray>
 <DataArray  type="Float64" Name="stress" NumberOfComponents="3" format="ascii">
   6716610269.3344975       -140512563.88412857        85593492.105325758     
   6374255503.9689579        199659023.17262006       -186533264.74129453     
   5975642271.8887978        352302387.84732485       -321345002.27017742     
   5520770573.0940208        317417530.13996220       -318841720.48131907     
   5009640407.5846376        95004450.050574303       -179023419.37472078     
   5611859138.1455097       -292163770.52751184        196846369.13936105     
   5502596071.5350027        32993034.831304073        107090439.30103813     
   5350000196.4859982        213707145.39511466        62785746.502218403     
   5154071512.9984913        249978561.16392636        63932290.742908895     
   4914810021.0724878        141807282.13773823        110530072.02310258     
   5325386945.9662447       -198331295.46797180        267889166.79779118     
   5186747628.7443876        33070343.382990122        375583998.62323183     
   5017701161.3601522        163114815.02600288        436866285.20995104     
   4818247543.8135223        191802119.46104622        451736026.55793184     
   4588386776.1045113        119132256.68814731        420193222.66719443     
   5857193692.7966881        140984861.29448104        298721885.08062351     
   5426710175.5971079        199890948.82767987        618947413.22530282     
   4978745166.5112476        200525396.73996735        800896613.85301578     
   4513298665.5391245        142888205.03134704        844569486.96376348     
   4030370672.6807189        26979373.701814651        749966032.55755019     
   7207279378.6368647        725784699.75985003        289344523.98786283     
   6222483712.0931625        533454851.16536689        837180683.10724056     
   5233132211.9393044        325938890.53702354        1154876732.4314215     
   4239224878.1752806        103236817.87480402        1242432671.9604008     
   3240761710.8011007       -134651366.82126856        1099848501.6941757     
   5009640407.5846376        95004450.050574303       -179023419.37472078     
   4923769463.7429590       -46750053.096545696       -96459650.404999539     
   4863221257.2369547       -104095431.79142284       -38653026.753832512     
   4827995788.0666389       -77031686.034003973       -5603548.4212005110     
   4818093056.2319889        34441184.175639391        2688784.5928772553     
   4914810021.0724878        141807282.13773823        110530072.02310258     
   4796414034.4679899        31549159.149596214        145950072.53974944     
   4696067452.6371212       -18544281.259784937        173839559.28993359     
   4613770275.5798740       -8473039.0904333591        194198532.27365369     
   4549522503.2962589        61762885.657693624        207026991.49090466     
   4588386776.1045113        119132256.68814731        420193222.66719443     
   4486684694.0288677        55136198.046509266        399983900.07503963     
   4395758684.1647911        27060380.110110521        389470695.26850396     
   4315608746.5122814        34904802.878934860        388653608.24758440     
   4246234881.0713363        78669466.352970123        397532639.01227856     
   4030370672.6807189        26979373.701814651        749966032.55755019     
   3994581442.4255753        24011063.594162703        665641832.20086467     
   3962294951.8199520        32718552.318236589        608240381.18187225     
   3933511200.8638358        53101839.874011278        577761679.50058270     
   3908230189.5572391        85160926.261510849        574205727.15698624     
   3240761710.8011007       -134651366.82126856        1099848501.6941757     
   3320104279.6581268       -61826244.207427263        942923868.91721916     
   3395676255.6026106       -1569764.6353847980        830148617.03004801     
   3467477638.6345539        46118071.894852400        761522746.03265333     
   3535508428.7539573        81237265.383279562        737046255.92503905     
   4818093056.2319889        34441184.175639391        2688784.5928772553     
   4520277206.6234770        83359626.669077635       -74944.417259261201     
   4212843789.5359230        100219510.89905310       -3818372.6809133571     
   3895792804.9693570        85020836.865653992       -8541500.1980850324     
   3569124252.9237514        37763604.568779469       -14244326.968774287     
   4549522503.2962589        61762885.657693624        207026991.49090466     
   4248008905.1302938        78615363.797358990        186075359.52990124     
   3940179727.1288919        74415909.152214050        170658842.78294602     
   3626034969.2920599        49164521.722318888        160777441.25002176     
   3305574631.6197972        2861201.5076458454        156431154.93115214     
   4246234881.0713363        78669466.352970123        397532639.01227856     
   3959637289.9695392        69040106.825365782        362245423.01792789     
   3670026106.6758928        49365439.991598129        339008136.70518869     
   3377401331.1904154        19645465.851726770        327820780.07405519     
   3081762963.5130930       -20119815.594299793        328683353.12452549     
   3908230189.5572391        85160926.261510849        574205727.15698624     
   3655162361.1412077        54633855.753094435        528435246.04682392     
   3402382928.1769266        25068103.417179346        501229509.08583248     
   3149891890.6644073       -3536330.7461913824        492588516.27400798     
   2897689248.6036382       -31179446.737063885        502512267.61135310     
   3535508428.7539573        81237265.383279562        737046255.92503905     
   3334584118.6453037        35396610.580557942        684644828.61658990     
   3137250191.6319938        1523899.4289824963        657322959.92486799     
   2943506647.7140346       -20380868.071423888        655080649.84988582     
   2753353486.8914218       -30317691.920676351        677917898.39162827     
   3569124252.9237514        37763604.568779469       -14244326.968774287     
   3455024625.5789104        37341688.485799313       -25675221.224312589     
   3339376393.4957314        31757756.608381033       -25086475.694602318     
   3222179556.6742220        21011808.936515927       -12478090.379630657     
   3103434115.1143732        5103845.4701875448        12149934.720589578     
   3305574631.6197972        2861201.5076458454        156431154.93115214     
   3216928124.4947486        14826271.170457482        153693203.52477613     
   3127162630.6425023        23061385.075937510        155656400.40703461     
   3036278150.0630512        27566543.224059463        162320745.57792565     
   2944274682.7563930        28341745.614835620        173686239.03745759     
   3081762963.5130930       -20119815.594299793        328683353.12452549     
   2997659600.9032192       -2040752.8970714808        335139565.58030003     
   2912866869.5772686        13740414.079907537        338978434.82808405     
   2827384769.5352468        27223685.336633444        340199960.86788881     
   2741213300.7771511        38409060.873125196        338804143.69970876     
   2897689248.6036382       -31179446.737063885        502512267.61135310     
   2797219054.8042994       -13259383.716842532        518663864.94226158     
   2696489110.3000193        3794843.6202520132        524879627.56856436     
   2595499415.0907993        19983235.274204373        521159555.49026227     
   2494249969.1766453        35305791.245038986        507503648.70735884     
   2753353486.8914218       -30317691.920676351        677917898.39162827     
   2615606486.1979923       -18829621.288836241        704266101.61065316     
   2478029352.8107653       -6775326.3029880524        713359978.62846518     
   2340622086.7297206        5845193.0367997885        705199529.44504499     
   2203384687.9548664        19031936.730557561        679784754.06040680     
   3103434115.1143732        5103845.4701875448        12149934.720589578     
   2917530890.5239105       -25604254.706535220        16376818.949737936     
   2736701895.8577828       -39398255.135472775        15908274.230768383     
   2560947131.1160111       -36278155.816562772        10744300.563701415     
   2390266596.2985678       -16243956.749881268        884897.94851653872     
   2944274682.7563930        28341745.614835620        173686239.03745759     
   2753960625.1243229        2934306.9141365290        169820773.60746956     
   2566948325.2124887       -11467272.719121218        166034559.06064644     
   2383237783.0209012       -14862993.284878254        162327595.39700875     
   2202828998.5495601       -7252854.7831493616        158699882.61653858     
   2741213300.7771511        38409060.873125196        338804143.69970876     
   2560130352.4785466        22394866.360928297        324778444.37248278     
   2380576689.6960883        11478290.235886693        315606675.75970387     
   2202552312.4297791        5659332.4980026484        311288837.86137182     
   2026057220.6796212        4937993.1472966671        311824930.67750412     
   2494249969.1766453        35305791.245038986        507503648.70735884     
   2336040072.5865879        32777423.633877158        481249831.24476951     
   2177586989.3085876        29438433.729570508        464624624.32792592     
   2018890719.3426361        25288821.532090902        457628027.95679939     
   1859951262.6887405        20328587.041470170        460260042.13141453     
   2203384687.9548664        19031936.730557561        679784754.06040680     
   2081689785.4484406        34081978.732969284        639234934.22435391     
   1957979224.0499835        42413157.761921525        613088404.76531577     
   1832253003.7594776        44025473.817377210        601345165.68328667     
   1704511124.5769193        38918926.899348080        604005216.97827101     
   2390266596.2985678       -16243956.749881268        884897.94851653872     
   2252111304.1664248        11808616.435668349       -9389243.2746045534     
   2107735057.7010570        19124675.177147388       -15099201.846307658     
   1957137856.9025288        5704219.4747482538       -16244977.766603027     
   1800319701.7707677       -28452750.671750903       -12826571.035465037     
   2202828998.5495601       -7252854.7831493616        158699882.61653858     
   2071717517.7162333        14022182.222081304        145098441.70632187     
   1936562987.3464689        21820387.439176559        133915181.33924772     
   1797365407.4402618        16141760.868134618        125150101.51530401     
   1654124777.9976139       -3013697.4910438061        118803202.23450416     
   2026057220.6796212        4937993.1472966671        311824930.67750412     
   1895858116.5500407        17596063.593734026        297437079.00974911     
   1763793867.6807680        24036984.907858610        283321405.77685106     
   1629864474.0718203        24260757.089735210        269477910.97879004     
   1494069935.7231803        18267380.139299035        255906594.61559498     
   1859951262.6887405        20328587.041470170        460260042.13141453     
   1724533100.6678071        22530260.550547600        447626668.63565868     
   1589427698.7039449        25774467.583210468        433119471.46648186     
   1454635056.7971523        30061208.139434636        416738450.62387514     
   1320155174.9474268        35390482.219209552        398483606.10784167     
   1704511124.5769193        38918926.899348080        604005216.97827101     
   1557742470.0695465        28824773.092569888        595667210.58407044     
   1413464480.4160118        27032835.465241015        583309378.40815675     
   1271677155.6162827        33543114.017279744        566931720.45054030     
   1132380495.6703873        48355608.748754025        546534236.71121323     
   1800319701.7707677       -28452750.671750903       -12826571.035465037     
   1768105054.1131499       -20010222.312096477       -6282865.3081390066     
   1745552094.5890856        20637933.159391642       -39606797.426594563     
   1732660823.1985459        93491715.742622316       -112798367.39082146     
   1729431239.9415479        198551125.43768156       -225857575.20082995     
   1654124777.9976139       -3013697.4910438061        118803202.23450416     
   1528921434.6654408       -14994884.584204495        135627814.02200848     
   1408923614.7814894       -9624326.8499602079        125503462.85630402     
   1294131318.3457344        13097975.711593986        88430148.737360701     
   1184544545.3582077        53172023.100576878        24407871.665194519     
   1494069935.7231803        18267380.139299035        255906594.61559498     
   1312788396.4094477       -3064372.4988111258        277813253.66375476     
   1132256215.8586144       -21898262.593937278        285689624.65122551     
   952473394.07066977       -38234290.146097302        279535707.57803428     
   773439931.04561722       -52072455.155289531        259351502.44417000     
   1320155174.9474268        35390482.219209552        398483606.10784167     
   1119705939.3451688        15781313.944089830        420273453.61707783     
   915549897.82046819       -16183874.072494984        440951687.95820135     
   707687050.37335086       -60505081.830484629        460518309.13120097     
   496117397.00378716       -117182309.32996112        478973317.13609523     
   1132380495.6703873        48355608.748754025        546534236.71121323     
   949674063.47260582        41542174.744518995        563008413.88199270     
   758804660.66706598        7518838.7144055665        591289652.77721381     
   559772287.25377035       -53714399.341555119        631377953.39687240     
   352576943.23270953       -142157539.42339361        683273315.74096382     
   1729431239.9415479        198551125.43768156       -225857575.20082995     
   1459337542.4277325        187560892.21922368       -97904968.660019651     
   1155852217.0200453        65265232.687848032        59686877.059532516     
   818975263.71846771       -168335853.15648913        246917961.95780092     
   448706682.52303535       -513242365.31367576        463788286.03481638     
   1184544545.3582077        53172023.100576878        24407871.665194519     
   978356805.69799006        13574746.197776914        155413437.81437960     
   733540882.61811328       -154783142.10389858        312539819.36860770     
   450096776.11855972       -451901641.80451804        495787016.32789171     
   128024486.19937253       -877780752.90390539        705155028.69220853     
   773439931.04561722       -52072455.155289531        259351502.44417000     
   621105509.88560915       -123292567.54850808        387300713.42163700     
   424906349.78016627       -340728476.42650628        537852316.03046095     
   184842450.72926894       -704380181.78936267        711006310.27065289     
  -99086187.267049968       -1214247683.6369629        906762696.14221334     
   496117397.00378716       -117182309.32996112        478973317.13609523     
   387583654.99061537       -223041049.01955351        597756858.16176844     
   229948618.50621831       -492570770.27989936        735624367.04510856     
   23212287.550598919       -925771473.11099386        892575843.78615320     
  -232625337.87624082       -1522643157.5128245        1068611288.3848503     
   352576943.23270953       -142157539.42339361        683273315.74096382     
   277791241.01299602       -285670698.21540004        786781872.03476453     
   148667688.79628390       -610310023.66405177        905855972.41255283     
  -34793713.417458236       -1116075515.7694755        1040495616.8743390     
  -272592965.62818736       -1802967174.5315394        1190700805.4201229     
   7207279378.6368647        725784699.75985003        289344523.98786283     
   6222483712.0931625        533454851.16536689        837180683.10724056     
   5233132211.9393044        325938890.53702354        1154876732.4314215     
   4239224878.1752806        103236817.87480402        1242432671.9604008     
   3240761710.8011007       -134651366.82126856        1099848501.6941757     
   8381967470.2629566        1268941630.5731995        742516984.05520093     
   6901790006.6087055        854019197.97709084        943245556.96334314     
   5424983733.0233831        450334065.61072540        1044418838.1974074     
   3951548649.5069852        57886233.474107742        1046036827.7574000     
   2481484756.0595040       -323324298.43277907        948099525.64331853     
   8380344267.0145435        1459205172.9241974        1162612252.7962255     
   6777884486.5958309        933620000.43028951        1025481433.7853950     
   5186722919.9251108        445695540.42973018        919380141.22161722     
   3606859567.0024018       -4568207.0774788857        844308375.10488451     
   2038294427.8276942       -417171242.09134507        800266135.43520522     
   7202409768.8916407        1296575326.8128471        1549630330.2109420     
   5850767152.0545139        772257258.52495837        1083888313.5734029     
   4518349772.6444778        312023314.99402094        779760641.50403941     
   3205157630.6615267       -84126503.779961228        637247314.00285006     
   1911190726.1056640       -416192197.79697824        656348331.06982994     
   4848163975.8942337        781052092.23914826        1903571216.2993519     
   4120438002.9847746        369930972.26109505        1118466196.3273659     
   3419864291.1814852        49317389.303609610        625560339.04467905     
   2746442840.4843655       -180788656.63331449        424853644.45129120     
   2100173650.8934147       -320387165.54968035        516346112.54720318     
   3240761710.8011007       -134651366.82126856        1099848501.6941757     
   3320104279.6581268       -61826244.207427263        942923868.91721916     
   3395676255.6026106       -1569764.6353847980        830148617.03004801     
   3467477638.6345539        46118071.894852400        761522746.03265333     
   3535508428.7539573        81237265.383279562        737046255.92503905     
   2481484756.0595040       -323324298.43277907        948099525.64331853     
   2658267570.1574326       -211497443.13312292        886075599.02020550     
   2831008891.9509969       -113142228.84801102        845855926.45744669     
   2999708721.4401913       -28258655.577456594        827440507.95502067     
   3164367058.6250343        43153276.678569913        830829343.51294374     
   2038294427.8276942       -417171242.09134507        800266135.43520522     
   2248674267.6538424       -285495619.95969188        832826865.67548025     
   2454741715.7838097       -168194636.81531966        864846723.14666522     
   2656496772.2175899       -65268292.658227324        896325707.84875190     
   2853939436.9551868        23283412.511577725        927263819.78174806     
   1911190726.1056640       -416192197.79697824        656348331.06982994     
   2091324372.1473615       -283820774.68712413        783177668.88303626     
   2266874727.1010551       -166726988.53729320        887121007.09771144     
   2437841790.9667377       -64910839.347486258        968178345.71385586     
   2604225563.7444215        21627672.882307887        1026349684.7314717     
   2100173650.8934147       -320387165.54968035        516346112.54720318     
   2186217883.6379862       -206472907.31542993        737128008.64287603     
   2267407925.9027271       -108739284.01394749        912678778.31058443     
   2343743777.6876488       -27186295.645198584        1042998421.5503241     
   2415225438.9927363        38186057.790768623        1128086938.3620987     
   3535508428.7539573        81237265.383279562        737046255.92503905     
   3334584118.6453037        35396610.580557942        684644828.61658990     
   3137250191.6319938        1523899.4289824963        657322959.92486799     
   2943506647.7140346       -20380868.071423888        655080649.84988582     
   2753353486.8914218       -30317691.920676351        677917898.39162827     
   3164367058.6250343        43153276.678569913        830829343.51294374     
   3020691162.8742924        19649566.474384308        797562388.55678856     
   2879464206.0787711        4308986.1209219694        778098437.27494752     
   2740686188.2384715       -2868464.3817914724        772437489.66740978     
   2604357109.3533950       -1882785.0337662697        780579545.73418605     
   2853939436.9551868        23283412.511577725        927263819.78174806     
   2735293227.1554413        12451028.383858800        911799652.34774745     
   2617954512.1707864        5976960.3064466715        898861933.64563262     
   2501923292.0012283        3861208.2793470621        888450663.67540252     
   2387199566.6467595        6103772.3025507927        880565842.43706143     
   2604225563.7444215        21627672.882307887        1026349684.7314717     
   2478390311.4887443        13800996.308976173        1027356619.9894705     
   2352721109.9080343        6527821.9855276346        1019613449.0369292     
   2227217959.0022907       -191850.08802759647        1003120171.8738496     
   2101880858.7715104       -6358019.9117178917        977876788.50024164     
   2415225438.9927363        38186057.790768623        1128086938.3620987     
   2249982415.8742108        23699470.249752641        1144233291.4819460     
   2083763999.2905235        5961571.1581969261        1140352983.4488337     
   1916570189.2416728       -15027639.483907700        1116446014.2627618     
   1748400985.7276554       -39268161.676561594        1072512383.9237311     
   2753353486.8914218       -30317691.920676351        677917898.39162827     
   2615606486.1979923       -18829621.288836241        704266101.61065316     
   2478029352.8107653       -6775326.3029880524        713359978.62846518     
   2340622086.7297206        5845193.0367997885        705199529.44504499     
   2203384687.9548664        19031936.730557561        679784754.06040680     
   2604357109.3533950       -1882785.0337662697        780579545.73418605     
   2431707396.2799568       -7070166.3355832100        789312767.65532935     
   2259722895.6403198       -10040172.858048320        792300256.70083499     
   2088403607.4344823       -10792804.601204395        789542012.87071574     
   1917749531.6624432       -9328061.5650178194        781038036.16496384     
   2387199566.6467595        6103772.3025507927        880565842.43706143     
   2212528836.4092875       -5894552.3681268692        872261985.70918858     
   2039018663.7332282       -14024351.834102392        869720989.43127251     
   1866669048.6185734       -18285626.095396638        872942853.60332441     
   1695479991.0653226       -18678375.152002335        881927578.22532797     
   2101880858.7715104       -6358019.9117178917        977876788.50024164     
   1958070806.5859900       -15302779.386455536        953113755.77223384     
   1815916657.0894759       -18727863.231161475        945622176.81977272     
   1675418410.2819886       -16633271.445794821        955402051.64286649     
   1536576066.1635103       -9019004.0303879380        982453380.24151671     
   1748400985.7276554       -39268161.676561594        1072512383.9237311     
   1668333306.8100562       -35294847.390588522        1031868077.8444589     
   1590416875.7090814       -24150707.049193084        1020003818.8663299     
   1514651692.4247267       -5835740.6523979306        1036919606.9893447     
   1441037756.9569955        19650051.799802661        1082615442.2135091     
   2203384687.9548664        19031936.730557561        679784754.06040680     
   2081689785.4484406        34081978.732969284        639234934.22435391     
   1957979224.0499835        42413157.761921525        613088404.76531577     
   1832253003.7594776        44025473.817377210        601345165.68328667     
   1704511124.5769193        38918926.899348080        604005216.97827101     
   1917749531.6624432       -9328061.5650178194        781038036.16496384     
   1828199745.8296168        14614673.220364332        757323670.45625925     
   1736762794.6623998        32266856.891111016        741880867.32340395     
   1643438678.1607873        43628489.447198153        734709626.76638472     
   1548227396.3247924        48699570.888681412        735809948.78520727     
   1695479991.0653226       -18678375.152002335        881927578.22532797     
   1620556099.6170354        8901285.7296254635        875198575.79457474     
   1543873536.3920093        30618707.355459392        870609408.13849568     
   1465432301.3902407        46473889.725489020        868160075.25708246     
   1385232394.6117349        56466832.839728773        867850577.15033925     
   1536576066.1635103       -9019004.0303879380        982453380.24151671     
   1458758846.8107033        16941816.260767996        992859650.23929739     
   1379311449.2388084        37468709.154974103        999274027.21058547     
   1298233873.4478259        52561674.652215898        1001696511.1553737     
   1215526119.4377615        62220712.752518117        1000127102.0736588     
   1441037756.9569955        19650051.799802661        1082615442.2135091     
   1342807987.4106126        38736264.813772976        1110306893.7904286     
   1243076533.2027955        52816862.289630294        1127874724.5396774     
   1141843394.3335419        61891844.227363288        1135318934.4612613     
   1039108570.8028601        65961210.627002478        1132639523.5551782     
   1704511124.5769193        38918926.899348080        604005216.97827101     
   1557742470.0695465        28824773.092569888        595667210.58407044     
   1413464480.4160118        27032835.465241015        583309378.40815675     
   1271677155.6162827        33543114.017279744        566931720.45054030     
   1132380495.6703873        48355608.748754025        546534236.71121323     
   1548227396.3247924        48699570.888681412        735809948.78520727     
   1394437779.3169556        35435772.580978453        729069076.60408688     
   1242033319.3813519        26789164.514032066        721678746.24299061     
   1091014016.5179765        22759746.687853754        713638957.70193362     
   941379870.72681832        23347519.102404714        704949710.98089898     
   1385232394.6117349        56466832.839728773        867850577.15033925     
   1234051436.8226917        42922276.546863377        861417080.10375988     
   1083150128.3242874        30309884.556122482        857704492.47895527     
   932528469.11650205        18629656.867450774        856712814.27592027     
   782186459.19935238        7881593.4808896184        858442045.49464357     
   1215526119.4377615        62220712.752518117        1000127102.0736588     
   1076583442.5867629        51284284.990259767        992711221.08310032     
   936814907.24480844        37594995.591474891        991386617.11605048     
   796220513.41188216        21152844.556120723        996153290.17250729     
   654800261.08798802        1957831.8842067122        1007011240.2524761     
   1039108570.8028601        65961210.627002478        1132639523.5551782     
   922033796.60917199        60521797.911164105        1122951499.5420976     
   803027656.14292085        48644497.620112985        1122725120.1542749     
   682090149.40410352        30329309.753840148        1131960385.3917005     
   559221276.39272380        5576234.3123538196        1150657295.2543700     
   1132380495.6703873        48355608.748754025        546534236.71121323     
   949674063.47260582        41542174.744518995        563008413.88199270     
   758804660.66706598        7518838.7144055665        591289652.77721381     
   559772287.25377035       -53714399.341555119        631377953.39687240     
   352576943.23270953       -142157539.42339361        683273315.74096382     
   941379870.72681832        23347519.102404714        704949710.98089898     
   785814445.46241868        10428869.526447743        721812507.45943928     
   621131750.06082904       -32880680.506814927        749154835.75576341     
   447331784.52203429       -106581130.99742767        786976695.86988616     
   264414548.84603712       -210672481.94537646        835278087.80179656     
   782186459.19935238        7881593.4808896184        858442045.49464357     
   649969098.27792418       -12280154.443895698        874580111.82992911     
   507680167.68986064       -66013801.257475585        899870180.07635927     
   355319667.43515992       -153319346.95984191        934312250.23393476     
   192887597.51382047       -274196791.55100250        977906322.30265391     
   654800261.08798802        1957831.8842067122        1007011240.2524761     
   542138021.91911590       -26584897.166533381        1021311226.9934876     
   418449913.55416912       -91880523.537539482        1043435685.7389995     
   283735935.99314898       -193929047.22879040        1073384616.4890143     
   137996089.23604333       -332730468.24031997        1111158019.2435324     
   559221276.39272380        5576234.3123538196        1150657295.2543700     
   462321216.38599241       -32485358.641482204        1162005852.9500971     
   353440987.65375292       -110480847.34702243        1179851352.7436879     
   232580590.19599193       -228410231.80430144        1204193794.6351378     
   99740024.012722880       -386273512.01327389        1235033178.6244426     
   352576943.23270953       -142157539.42339361        683273315.74096382     
   277791241.01299602       -285670698.21540004        786781872.03476453     
   148667688.79628390       -610310023.66405177        905855972.41255283     
  -34793713.417458236       -1116075515.7694755        1040495616.8743390     
  -272592965.62818736       -1802967174.5315394        1190700805.4201229     
   264414548.84603712       -210672481.94537646        835278087.80179656     
   224626165.95157966       -352261911.48903817        884966166.61905944     
   140919843.67991045       -640244472.29006112        945565778.69905090     
   13295582.031024039       -1074620164.3484862        1017076924.0417799     
  -158246618.99507254       -1655388987.6642668        1099499602.6472478     
   192887597.51382047       -274196791.55100250        977906322.30265391     
   174799360.16958204       -417851643.97885728        985930486.03313959     
   123213094.06793734       -673166592.26472867        1000212172.2051020     
   38128799.208872497       -1040141636.4086798        1020751380.8185357     
  -80453524.407616258       -1518776776.4106786        1047548111.8734659     
   137996089.23604333       -332730468.24031997        1111158019.2435324     
   128310823.66701493       -482439895.68482399        1089674830.2770100     
   95547439.960351795       -709076383.58809757        1069795152.9307047     
   39705938.116087615       -1012639931.9500537        1051518987.2046090     
  -39213681.865814984       -1393130540.7707934        1034846333.0987502     
   99740024.012722880       -386273512.01327389        1235033178.6244426     
   85160556.443856299       -546026666.60699475        1196199199.3506713     
   57922881.357171595       -747973846.26011479        1154314720.8758545     
   18026998.752659321       -992115050.97264624        1109379743.1999960     
  -34527091.369674861       -1278450280.7446065        1061394266.3230996     
   4848163975.8942337        781052092.23914826        1903571216.2993519     
   4120438002.9847746        369930972.26109505        1118466196.3273659     
   3419864291.1814852        49317389.303609610        625560339.04467905     
   2746442840.4843655       -180788656.63331449        424853644.45129120     
   2100173650.8934147       -320387165.54968035        516346112.54720318     
   2356135176.4969335       -15852852.143847823        1631559692.0498805     
   2339421188.1538277       -79298982.267660141        1179988146.8361759     
   2332800484.8575478       -109100828.90205371        902917044.78708506     
   2336273066.6080928       -105258392.04703653        800346385.90260518     
   2349838933.4054599       -67771671.702604055        872276170.18273139     
   923124279.76072478       -495052425.72851330        1421180542.7392571     
   1281140220.1991472       -311708182.73353201        1283240333.5479379     
   1632190469.6250496       -151582909.78028345        1202101847.9965379     
   1976275028.0384333       -14676606.868769884        1177765086.0850585     
   2313393895.4392967        99010726.001014471        1210230047.8135011     
   549131285.68560779       -656546628.51485205        1272433768.3674839     
   945595099.12073207       -327296629.13652611        1428222756.4626420     
   1318034245.4839916       -78128853.331085324        1523114748.6730366     
   1666448724.7753882        90956698.901478767        1557109744.9986567     
   1990838536.9949191        179960027.56116480        1530207745.4395144     
   1234156194.2715805       -500335460.50286555        1185319368.9345572     
   1332785824.9185827       -126064321.47663879        1614935415.5802929     
   1390331812.4343746        111261340.44555342        1865955746.8165755     
   1406794156.8189549        211641525.26371279        1938380362.6433990     
   1382172858.0723329        175076232.97785580        1832209263.0607681     
   2100173650.8934147       -320387165.54968035        516346112.54720318     
   2186217883.6379862       -206472907.31542993        737128008.64287603     
   2267407925.9027271       -108739284.01394749        912678778.31058443     
   2343743777.6876488       -27186295.645198584        1042998421.5503241     
   2415225438.9927363        38186057.790768623        1128086938.3620987     
   2349838933.4054599       -67771671.702604055        872276170.18273139     
   2320478273.7389698       -29057314.228519559        999146863.23272812     
   2290324721.3787093        7014067.5996674299        1099829511.8006806     
   2259378276.3246808        40442473.781960845        1174324115.8865886     
   2227638938.5768890        71227904.318375111        1222630675.4904525     
   2313393895.4392967        99010726.001014471        1210230047.8135011     
   2223037148.9215202        78847824.382864952        1247927718.5682240     
   2135948807.4960341        69579606.405681849        1278480426.7868261     
   2052128871.1628416        71206072.069481969        1301888172.4693081     
   1971577339.9219389        83727221.374245644        1318150955.6156666     
   1990838536.9949191        179960027.56116480        1530207745.4395144     
   1893894509.1856380        117242508.51871419        1483470574.6493671     
   1804280184.2547064        78957332.404108763        1448631523.2690196     
   1721995562.2021263        65104499.217333794        1425690591.2984743     
   1647040643.0278966        75684008.958394408        1414647778.7377295     
   1382172858.0723329        175076232.97785580        1832209263.0607681     
   1333050354.5313206        86126738.179039657        1705775431.4761515     
   1295318851.6547189        35147245.594922841        1610282801.2472606     
   1268978349.4425287        22137755.225513816        1545731372.3740928     
   1254028847.8947496        47098267.070805132        1512121144.8566442     
   2415225438.9927363        38186057.790768623        1128086938.3620987     
   2249982415.8742108        23699470.249752641        1144233291.4819460     
   2083763999.2905235        5961571.1581969261        1140352983.4488337     
   1916570189.2416728       -15027639.483907700        1116446014.2627618     
   1748400985.7276554       -39268161.676561594        1072512383.9237311     
   2227638938.5768890        71227904.318375111        1222630675.4904525     
   2023295523.9083285        46918885.378581166        1219551374.0845807     
   1817560457.0544314        17971025.820997715        1208688224.5005887     
   1610433738.0152020       -15615674.354358315        1190041226.7384794     
   1401915366.7906327       -53841215.147516549        1163610380.7982466     
   1971577339.9219389        83727221.374245644        1318150955.6156666     
   1763112999.3457437        60089610.728383958        1295360364.5105369     
   1552840747.8640459        30425630.397510827        1277028738.2021308     
   1340760585.4768386       -5264719.6183898449        1263156076.6904488     
   1126872512.1841266       -46981439.319306612        1253742379.9754870     
   1647040643.0278966        75684008.958394408        1414647778.7377295     
   1469434842.1864662        63211646.299189806        1371660262.7598119     
   1289604871.7193611        43325384.887722373        1345374524.5534623     
   1107550731.6265860        16025224.724025011        1335790564.1186705     
   923272421.90812731       -18688834.191942930        1342908381.4554434     
   1254028847.8947496        47098267.070805132        1512121144.8566442     
   1142261052.4304941        56284992.090982139        1448451068.8324125     
   1027852828.6203917        56670289.291673601        1413725583.5545812     
   910804176.46443963        48254158.672863960        1407944689.0231526     
   791115095.96263945        31036600.234560817        1431108385.2381308     
   1748400985.7276554       -39268161.676561594        1072512383.9237311     
   1668333306.8100562       -35294847.390588522        1031868077.8444589     
   1590416875.7090814       -24150707.049193084        1020003818.8663299     
   1514651692.4247267       -5835740.6523979306        1036919606.9893447     
   1441037756.9569955        19650051.799802661        1082615442.2135091     
   1401915366.7906327       -53841215.147516549        1163610380.7982466     
   1387041973.8489211       -34047832.430615127        1144478338.9058528     
   1373511066.0761807       -9779499.1504752636        1143064915.6404750     
   1361322643.4724166        18963784.692916453        1159370111.0021102     
   1350476706.0376246        52182019.099552333        1193393924.9907653     
   1126872512.1841266       -46981439.319306612        1253742379.9754870     
   1145589323.8636446       -20849212.577893972        1255179045.8477154     
   1164839858.0644886        7062089.2346050739        1263272901.8728321     
   1184624114.7866619        36752466.118200719        1278023948.0508363     
   1204942094.0301576        68221918.072873354        1299432184.3817294     
   923272421.90812731       -18688834.191942930        1342908381.4554434     
   943975356.85422635        4301012.1675962210        1363970198.6700423     
   964403251.67399788        26374058.106039226        1380627777.5633993     
   984556106.36745882        47530303.623448849        1392881118.1355157     
   1004433920.9345930        67769748.719774961        1400730220.3863926     
   791115095.96263945        31036600.234560817        1431108385.2381308     
   782200072.82066560        41402841.805827051        1470851797.3728383     
   772201246.90471709        48156407.463844627        1495129542.7121770     
   761118618.21481037        51297297.208668798        1503941621.2561500     
   748952186.75092399        50825511.040225357        1497288033.0047545     
   1441037756.9569955        19650051.799802661        1082615442.2135091     
   1342807987.4106126        38736264.813772976        1110306893.7904286     
   1243076533.2027955        52816862.289630294        1127874724.5396774     
   1141843394.3335419        61891844.227363288        1135318934.4612613     
   1039108570.8028601        65961210.627002478        1132639523.5551782     
   1350476706.0376246        52182019.099552333        1193393924.9907653     
   1229560235.1529095        53419129.706856906        1204043023.3388305     
   1107987017.2765708        52467083.675408959        1211483457.4250736     
   985757052.40860307        49325881.005201280        1215715227.2494943     
   862870340.54900694        43995521.696231395        1216738332.8121028     
   1204942094.0301576        68221918.072873354        1299432184.3817294     
   1081095940.5666909        57537031.901387691        1294024690.1157072     
   957437977.78140306        47479447.990498871        1292323488.1537135     
   833968205.67429578        38049166.340215564        1294328578.4957595     
   710686624.24537337        29246186.950539559        1300039961.1418426     
   1004433920.9345930        67769748.719774961        1400730220.3863926     
   897415103.65194905        51089971.397360682        1380251894.1210566     
   791429414.71729279        37853955.234908968        1370394816.7256119     
   686476854.13062859        28061700.232431740        1371158988.2000551     
   582557421.89195061        21713206.389907628        1382544408.5443845     
   748952186.75092399        50825511.040225357        1497288033.0047545     
   678517724.40868485        34077948.194773734        1462724635.3548882     
   609961328.08424032        23590605.408634752        1445697443.1407604     
   543282997.77759600        19363482.681831300        1446206456.3623750     
   478482733.48874360        21396580.014333755        1464251675.0197334     
   1039108570.8028601        65961210.627002478        1132639523.5551782     
   922033796.60917199        60521797.911164105        1122951499.5420976     
   803027656.14292085        48644497.620112985        1122725120.1542749     
   682090149.40410352        30329309.753840148        1131960385.3917005     
   559221276.39272380        5576234.3123538196        1150657295.2543700     
   862870340.54900694        43995521.696231395        1216738332.8121028     
   769354406.55706835        43107896.798721641        1212119910.3376224     
   673614890.57947159        34808331.949012250        1215111615.4350080     
   575651792.61622572        19096827.147140473        1225713448.1042609     
   475465112.66733402       -4026617.6068863869        1243925408.3453839     
   710686624.24537337        29246186.950539559        1300039961.1418426     
   635439481.73122311        31323335.254126728        1300150221.8740232     
   557676541.51833642        25014491.228591651        1306019093.1246848     
   477397803.60671771        10319654.873944938        1317646574.8938315     
   394603267.99636102       -12761173.809818253        1335032667.1814697     
   582557421.89195061        21713206.389907628        1382544408.5443845     
   520289022.13164783        25168113.277427763        1387042434.1512921     
   455212608.95952636        19262975.458885580        1395447553.2232976     
   387328182.37557966        3997792.9342537969        1407759765.7604094     
   316635742.37981594       -20627434.296423361        1423979071.7626233     
   478482733.48874360        21396580.014333755        1464251675.0197334     
   423903027.75833601        24642230.868591219        1472796547.1694312     
   366223092.90303159        17553784.639859140        1483396995.7308521     
   305442928.92281806        131241.32809683681        1496053020.7039990     
   241562535.81769988       -27625399.066686466        1510764622.0888603     
   559221276.39272380        5576234.3123538196        1150657295.2543700     
   462321216.38599241       -32485358.641482204        1162005852.9500971     
   353440987.65375292       -110480847.34702243        1179851352.7436879     
   232580590.19599193       -228410231.80430144        1204193794.6351378     
   99740024.012722880       -386273512.01327389        1235033178.6244426     
   475465112.66733402       -4026617.6068863869        1243925408.3453839     
   395286591.85839242       -39777083.200309068        1243098205.8121064     
   305048486.93748671       -109059495.83361781        1248103446.5576441     
   204750797.90461975       -211873855.50679594        1258941130.5819774     
   94393524.759786472       -348220162.21985918        1275611257.8851316     
   394603267.99636102       -12761173.809818253        1335032667.1814697     
   329247718.33077991       -46770082.459161401        1324270386.4683342     
   255753169.16678464       -107908989.43654309        1318676050.2149529     
   174119620.50437713       -196177894.74197137        1318249658.4213324     
   84347072.343557328       -311576798.37543225        1322991211.0874648     
   316635742.37981594       -20627434.296423361        1423979071.7626233     
   264204595.80317003       -53464356.417988732        1405522394.9187727     
   205555034.34164536       -107029328.15581331        1391569163.7156200     
   140687057.99527353       -181322349.50979522        1382119378.1531777     
   69600666.764033943       -276343420.48000026        1377173038.2314513     
   241562535.81769988       -27625399.066686466        1510764622.0888603     
   200157224.27554411       -59859905.076850906        1486854231.1634326     
   154454082.46207950       -106420511.99138650        1466782787.0596557     
   104453110.37730581       -167307219.81027868        1450550289.7775352     
   50154308.021222621       -242520028.53354138        1438156739.3170664     
   99740024.012722880       -386273512.01327389        1235033178.6244426     
   85160556.443856299       -546026666.60699475        1196199199.3506713     
   57922881.357171595       -747973846.26011479        1154314720.8758545     
   18026998.752659321       -992115050.97264624        1109379743.1999960     
  -34527091.369674861       -1278450280.7446065        1061394266.3230996     
   94393524.759786472       -348220162.21985918        1275611257.8851316     
   78422981.642023802       -488897577.07184386        1221374267.2370369     
   50986444.297517657       -667794972.67963195        1164715623.8888943     
   12083912.726277709       -884912349.04321456        1105635327.8407118     
  -38284613.071721494       -1140249706.1626501        1044133379.0924720     
   84347072.343557328       -311576798.37543225        1322991211.0874648     
   68782157.965451539       -432639462.19910169        1254742124.5713136     
   42943462.651683778       -587948062.47498465        1184700231.8560996     
   6830986.4022479951       -777502599.20307410        1112865532.9418428     
  -39555270.782851994       -1001303072.3834053        1039238027.8285109     
   69600666.764033943       -276343420.48000026        1377173038.2314513     
   56238085.414141893       -377252321.98877406        1296302771.3534880     
   33793936.419645488       -508433115.64622116        1214268544.7774663     
   2268219.7805723250       -669885801.45225573        1131070358.5033898     
  -38339064.503077090       -861610379.40688920        1046708212.5312361     
   50154308.021222621       -242520028.53354138        1438156739.3170664     
   40790763.988071829       -322736156.44092113        1346056207.5835714     
   23537865.601425678       -429250132.19328547        1253420562.6530001     
  -1604387.1387268603       -562061955.79067111        1160249804.5253539     
  -34635994.232396722       -721171627.23311448        1066543933.2006391     
   1234156194.2715805       -500335460.50286555        1185319368.9345572     
   1332785824.9185827       -126064321.47663879        1614935415.5802929     
   1390331812.4343746        111261340.44555342        1865955746.8165755     
   1406794156.8189549        211641525.26371279        1938380362.6433990     
   1382172858.0723329        175076232.97785580        1832209263.0607681     
   2230205445.3594484        300775992.88670576        1467464103.5400927     
   1875688464.3523319        324991164.49072659        1627290205.9365067     
   1503524280.7350907        290382327.39433503        1697919853.4135654     
   1113712894.5077226        196949481.59751841        1679353045.9712684     
   706254305.67022860        44692627.100283980        1571589783.6096132     
   2425597797.9370427        861690376.72318828        1653586818.1265488     
   1873360663.8189573        612477518.46796656        1570965490.2149034     
   1326912767.6118250        382562119.91592443        1488546967.8740003     
   786254109.31564867        171944181.06706804        1406331251.1038446     
   251384688.93042910       -19376298.078599736        1324318339.9044287     
   1820333252.0043619        1182407691.0065918        1743687512.6939309     
   1325802423.3184505        736394740.45506191        1445961268.4154861     
   860497273.06457508        387800718.01031744        1237837090.1978855     
   424417801.24273908        136625623.67237204        1119314978.0411291     
   17564007.852938093       -17130542.558789242        1090394931.9452174     
   414411807.56140828        1262927935.7369134        1737766187.2422361     
   233013742.85081640        696742830.45201898        1252277540.5382526     
   104277797.09334235        306098121.67751801        945790220.38521349     
   28203970.288987339        90993809.413415700        818304226.78312123     
   4792262.4377530757        51429893.659713045        869819559.73197687     
   1382172858.0723329        175076232.97785580        1832209263.0607681     
   1333050354.5313206        86126738.179039657        1705775431.4761515     
   1295318851.6547189        35147245.594922841        1610282801.2472606     
   1268978349.4425287        22137755.225513816        1545731372.3740928     
   1254028847.8947496        47098267.070805132        1512121144.8566442     
   706254305.67022860        44692627.100283980        1571589783.6096132     
   736064441.96238256        6998702.2238115668        1526574015.0375106     
   772565063.55600691       -8393604.9810921550        1499506251.9223497     
   815756170.45110047       -1484294.5144333839        1490386494.2641258     
   865637762.64766538        27726633.623798430        1499214742.0628426     
   251384688.93042910       -19376298.078599736        1324318339.9044287     
   323004048.20208281       -16951678.088824898        1355236699.7547412     
   396613377.41226786       -7893824.9706152231        1391109869.1632106     
   472212676.56097937        7797261.2760184109        1431937848.1298368     
   549801945.64822054        30121580.651083469        1477720636.6546202     
   17564007.852938093       -17130542.558789242        1090394931.9452174     
   93869173.250427604        14275597.241140289        1191763485.6278474     
   167463793.22350395        36646585.626359209        1285093652.9698493     
   238347867.77216661        49982422.596865989        1370385433.9712241     
   306521396.89641303        54283108.152653113        1447638828.6319699     
   4792262.4377530757        51429893.659713045        869819559.73197687     
   48659817.107406721        100680528.21368246        1036154372.6568238     
   85116310.989709347        125227626.80981444        1181457603.3422618     
   114161744.08465609        125071189.44809423        1305729251.7882886     
   135796116.39224854        100211216.12852564        1408969317.9949079     
   1254028847.8947496        47098267.070805132        1512121144.8566442     
   1142261052.4304941        56284992.090982139        1448451068.8324125     
   1027852828.6203917        56670289.291673601        1413725583.5545812     
   910804176.46443963        48254158.672863960        1407944689.0231526     
   791115095.96263945        31036600.234560817        1431108385.2381308     
   865637762.64766538        27726633.623798430        1499214742.0628426     
   816130860.82444048        35794352.984450370        1453962899.5899613     
   765652159.03712595        40622739.131468356        1427917693.5544379     
   714201657.28571522        42211792.064834654        1421079123.9562697     
   661779355.57021999        40561511.784586757        1433447190.7954597     
   549801945.64822054        30121580.651083469        1477720636.6546202     
   534733210.86875081        28723476.373026907        1452833760.8451393     
   520361304.50694805        29648133.487195373        1437415567.1639714     
   506686226.56280762        32895551.993570119        1431466055.6111100     
   493707977.03633285        38465731.892165720        1434985226.1865609     
   306521396.89641303        54283108.152653113        1447638828.6319699     
   298068102.56342298        35072362.256712414        1445063652.5979450     
   291980265.02985644        23746472.358848616        1442219204.3831804     
   288257884.29570639        20305438.459040955        1439105483.9876802     
   286900960.36097753        24749260.557304263        1435722491.4114399     
   135796116.39224854        100211216.12852564        1408969317.9949079     
   106135535.90845980        54841010.635508999        1430652574.8483768     
   80509040.605849162        22917755.746422186        1442328605.2120640     
   58916630.484412216        4441451.4612459913        1443997409.0859661     
   41358305.544156007       -587902.21999375522        1435658986.4700892     
   791115095.96263945        31036600.234560817        1431108385.2381308     
   782200072.82066560        41402841.805827051        1470851797.3728383     
   772201246.90471709        48156407.463844627        1495129542.7121770     
   761118618.21481037        51297297.208668798        1503941621.2561500     
   748952186.75092399        50825511.040225357        1497288033.0047545     
   661779355.57021999        40561511.784586757        1433447190.7954597     
   619438320.18163598        39062829.273789108        1462441416.3456657     
   576174942.69431221        34489673.100528717        1483927050.9820194     
   531989223.10826123        26842043.264846772        1497904094.7045116     
   486881161.42347270        16119939.766701072        1504372547.5131471     
   493707977.03633285        38465731.892165720        1434985226.1865609     
   440675431.91974157        31922476.054883450        1453418635.9400454     
   386882005.37964809        22842948.805927590        1472300530.6611795     
   332327697.41606140        11227150.145326033        1491630910.3499706     
   277012508.02897108       -2924919.9269516021        1511409775.0064228     
   286900960.36097753        24749260.557304263        1435722491.4114399     
   245911408.03498861        19981782.149127685        1443783456.1559670     
   204322434.96072814        13216234.580046766        1460249981.7496631     
   162134041.13821256        4452617.8501156569        1485122068.1925282     
   119346226.56742680       -6309068.0407170802        1518399715.4845595     
   41358305.544156007       -587902.21999375522        1435658986.4700892     
   35146248.527369112        3240747.5564986365        1433535876.9934390     
   28496231.437556710        5609530.4229046619        1447775404.2474689     
   21408254.274713103        6518446.3792069908        1478377568.2321811     
   13882317.038839882        5967495.4254113091        1525342368.9475679     
   748952186.75092399        50825511.040225357        1497288033.0047545     
   678517724.40868485        34077948.194773734        1462724635.3548882     
   609961328.08424032        23590605.408634752        1445697443.1407604     
   543282997.77759600        19363482.681831300        1446206456.3623750     
   478482733.48874360        21396580.014333755        1464251675.0197334     
   486881161.42347270        16119939.766701072        1504372547.5131471     
   458012119.92304671        10906901.269977212        1487078277.7297423     
   430485657.18913597        10169125.328301668        1481559389.8468928     
   404301773.22172815        13906611.941638619        1487815883.8646140     
   379460468.02082932        22119361.110002846        1505847759.7828963     
   277012508.02897108       -2924919.9269516021        1511409775.0064228     
   273249391.55557966       -1541282.8193462789        1510759897.9629622     
   270293366.59740323        2532659.3389742523        1516124579.2848907     
   268144433.15444690        9296906.5480288416        1527503818.9722047     
   266802591.22670168        18751458.807787925        1544897617.0249009     
   119346226.56742680       -6309068.0407170802        1518399715.4845595     
   124229539.30627243       -3266604.0732393488        1533769496.0545452     
   129384456.30904751        681207.44066952914        1549393011.4547422     
   134810977.57574391        5534366.5009857863        1565270261.6851470     
   140509103.10636461        11292873.107713513        1581401246.7457571     
   13882317.038839882        5967495.4254113091        1525342368.9475679     
   10952563.175136715        5730937.5083423611        1556107072.0044951     
   7758926.3240584712        4614769.6333564874        1581364686.3564508     
   4301406.4856282305        2618991.8005309729        1601115212.0034416     
   580003.65982176852       -256395.99021597355        1615358648.9454668     
   478482733.48874360        21396580.014333755        1464251675.0197334     
   423903027.75833601        24642230.868591219        1472796547.1694312     
   366223092.90303159        17553784.639859140        1483396995.7308521     
   305442928.92281806        131241.32809683681        1496053020.7039990     
   241562535.81769988       -27625399.066686466        1510764622.0888603     
   379460468.02082932        22119361.110002846        1505847759.7828963     
   331350820.12382811        21973940.148742691        1507322842.8728478     
   280990241.38070071        14325416.367066041        1512501872.1495807     
   228378731.79143485       -826210.23506990075        1521384847.6131091     
   173516291.35603544       -23480939.657659516        1533971769.2634156     
   266802591.22670168        18751458.807787925        1544897617.0249009     
   229872629.09186277        16627854.409658596        1540293759.0470068     
   191541034.38966456        9832141.4536621869        1541042217.0309551     
   151807807.12010220       -1635680.0602146089        1547142990.9767532     
   110672947.28317177       -17775610.131982349        1558596080.8844020     
   140509103.10636461        11292873.107713513        1581401246.7457571     
   119468454.66243675        8603973.6513221487        1571709295.6919134     
   97875471.929923803        4073959.8996498734        1569018030.3749766     
   75730154.908812106       -2297168.1473499797        1573327450.7949514     
   53032503.599107176       -10509410.489663791        1584637556.9518371     
   580003.65982176852       -256395.99021597355        1615358648.9454668     
   138296.83556164044       -2097702.1262223837        1601569452.8075666     
  -6445.9985260216054       -2949128.2949851588        1596429312.1816416     
   145775.15757150098       -2810674.4964646786        1599938227.0676908     
   594960.30383856141       -1682340.7307130999        1612096197.4657185     
   241562535.81769988       -27625399.066686466        1510764622.0888603     
   200157224.27554411       -59859905.076850906        1486854231.1634326     
   154454082.46207950       -106420511.99138650        1466782787.0596557     
   104453110.37730581       -167307219.81027868        1450550289.7775352     
   50154308.021222621       -242520028.53354138        1438156739.3170664     
   173516291.35603544       -23480939.657659516        1533971769.2634156     
   144228205.86472934       -46825185.562768139        1507268008.5467873     
   111677761.35202993       -81043961.539183483        1483994645.6387579     
   75864957.817945302       -126137267.58688855        1464151680.5393302     
   36789795.262460172       -182105103.70592165        1447739113.2484944     
   110672947.28317177       -17775610.131982349        1558596080.8844020     
   92334804.948257968       -32579780.800380684        1530307000.1681542     
   71769774.841875106       -54806910.707011223        1505039768.2474539     
   48977856.964022636       -84456999.851873517        1482794385.1222932     
   23959051.314693540       -121530048.23498985        1463570850.7926588     
   53032503.599107176       -10509410.489663791        1584637556.9518371     
   44477021.526140720       -17123690.789667837        1555971206.0275447     
   34730122.931611560       -27709359.494878665        1529918154.8857336     
   23791807.815540213       -42266416.605229840        1506478403.5264041     
   11662076.177914660       -60794862.120761715        1485651951.9495561     
   594960.30383856141       -1682340.7307130999        1612096197.4657185     
   654855.59835461306       -456915.53069895459        1584260626.1249464     
   558805.62124683405        248692.09723853070        1558629805.5536036     
   306810.37250300875        434482.15305447421        1535203735.7516854     
  -101130.14787718299        100454.63674919622        1513982416.7191875     
   50154308.021222621       -242520028.53354138        1438156739.3170664     
   40790763.988071829       -322736156.44092113        1346056207.5835714     
   23537865.601425678       -429250132.19328547        1253420562.6530001     
  -1604387.1387268603       -562061955.79067111        1160249804.5253539     
  -34635994.232396722       -721171627.23311448        1066543933.2006391     
   36789795.262460172       -182105103.70592165        1447739113.2484944     
   31626479.383915395       -241794253.34978020        1347564228.2422941     
   20564071.409450382       -321147043.31336868        1246418406.1835847     
   3602571.3390730023       -420163473.59666640        1144301647.0723767     
  -19258020.827230066       -538843544.19971240        1041213950.9086508     
   23959051.314693540       -121530048.23498985        1463570850.7926588     
   21750752.575214669       -161065782.92001918        1357643585.1476145     
   15633623.997409761       -213630950.39947146        1250309558.5946174     
   5607665.5812744945       -279225550.67335117        1141568771.1336880     
  -8327122.6731862426       -357849583.74166042        1031421222.7648176     
   11662076.177914660       -60794862.120761715        1485651951.9495561     
   11163583.561978072       -80550745.151610613        1376294278.2995048     
   8746523.3653013036       -106701853.45158790        1265094019.8860893     
   4410895.5878812373       -139248187.02070946        1152051176.7092879     
  -1843299.7702676579       -178189745.85893273        1037165748.7691152     
  -101130.14787718299        100454.63674919622        1513982416.7191875     
  -135027.65580250390       -249140.04457855754        1403516307.6979966     
  -97230.486875374612       -359752.46973147726        1290771790.0579977     
   12261.358896381455       -231382.63873355938        1175748863.7992010     
   193447.88152305828        135969.44844326435        1058447528.9215757     
   414411807.56140828        1262927935.7369134        1737766187.2422361     
   233013742.85081640        696742830.45201898        1252277540.5382526     
   104277797.09334235        306098121.67751801        945790220.38521349     
   28203970.288987339        90993809.413415700        818304226.78312123     
   4792262.4377530757        51429893.659713045        869819559.73197687     
  -1356759776.9784687        181943501.59178752        1478430562.0315917     
  -1071073606.1448843       -8217089.4802796245        1266423137.7777207     
  -754196296.23365653       -94407216.960201979        1147935064.8808527     
  -406127847.24478370       -76626880.847975731        1122966343.3409822     
  -26868259.178265382        45123918.856402554        1191516973.1581089     
  -2364194762.8636513       -669919952.95692837        1322350153.3699393     
  -1855658571.3257399       -557326294.26812470        1358774475.0447962     
  -1337402220.5856593       -412332104.90542603        1403236172.8827066     
  -809425710.64340925       -234937384.86882842        1455735246.8836679     
  -271729041.49898887       -25142134.158329457        1516271697.0476804     
  -2607893150.0941396       -1292662427.9092369        1269524961.2572765     
  -2120741152.6917498       -950584783.91151690        1529331552.3394749     
  -1645339975.9626651       -647676542.15814805        1711693544.3907750     
  -1181689619.9068847       -383937702.64912862        1816610937.4111836     
  -729790084.52441275       -159368265.38446823        1844083731.4006946     
  -2087854938.6699324       -1686283923.2651367        1319954985.6936080     
  -1866321350.2429135       -1187992558.4104536        1778094369.6617577     
  -1678009562.3646750       -800440528.71837449        2073307179.4050641     
  -1522919575.0352163       -523627834.18889314        2205593414.9235277     
  -1401051388.2545378       -357554474.82201397        2174953076.2171507     
   4792262.4377530757        51429893.659713045        869819559.73197687     
   48659817.107406721        100680528.21368246        1036154372.6568238     
   85116310.989709347        125227626.80981444        1181457603.3422618     
   114161744.08465609        125071189.44809423        1305729251.7882886     
   135796116.39224854        100211216.12852564        1408969317.9949079     
  -26868259.178265382        45123918.856402554        1191516973.1581089     
  -26876922.139005758        89206870.924618796        1279355602.0726855     
  -34266200.437590532        108687771.86668773        1355667418.7000048     
  -49036094.074023515        103566621.68259493        1420452423.0400670     
  -71186603.048302203        73843420.372351110        1473710615.0928724     
  -271729041.49898887       -25142134.158329457        1516271697.0476804     
  -288457436.51254314        21920081.097414300        1525649661.6430812     
  -312536001.41443664        44481730.058693811        1533005583.9033747     
  -343964736.20466882        42542812.725512594        1538339463.8285623     
  -382743640.88324189        16103329.097861603        1541651301.4186461     
  -729790084.52441275       -159368265.38446823        1844083731.4006946     
  -736081726.01320362       -101179841.26792376        1775036551.3680089     
  -749693091.94083035       -67390498.614166021        1713472098.9523699     
  -770624182.30728579       -58000237.423169583        1659390374.1537747     
  -798874997.11257207       -73009057.694944233        1612791376.9722281     
  -1401051388.2545378       -357554474.82201397        2174953076.2171507     
  -1369749790.6409907       -280092896.17140639        2027516271.2474709     
  -1345737472.0167687       -226928914.15188512        1897066963.8469884     
  -1329014432.3818667       -198062528.76342991        1783605154.0157077     
  -1319580671.7362938       -193493740.00607085        1687130841.7536244     
   135796116.39224854        100211216.12852564        1408969317.9949079     
   106135535.90845980        54841010.635508999        1430652574.8483768     
   80509040.605849162        22917755.746422186        1442328605.2120640     
   58916630.484412216        4441451.4612459913        1443997409.0859661     
   41358305.544156007       -587902.21999375522        1435658986.4700892     
  -71186603.048302203        73843420.372351110        1473710615.0928724     
  -111620019.41046743        31861664.207026154        1468319026.4103141     
  -149138984.81196135       -405255.42272718251        1463865917.5431697     
  -183743499.25278625       -22957338.516915396        1460351288.4914401     
  -215433562.73293495       -35794585.075518876        1457775139.2551148     
  -382743640.88324189        16103329.097861603        1541651301.4186461     
  -402676446.53751177       -13107943.763889328        1507878627.2761381     
  -420814435.45161897       -36336494.158428177        1485990139.2542369     
  -437157607.62556022       -53582322.085749656        1475985837.3529427     
  -451705963.05933523       -64845427.545848399        1477865721.5722530     
  -798874997.11257207       -73009057.694944233        1612791376.9722281     
  -767033745.47267842       -80067813.277247727        1549331377.4458482     
  -734517311.31312180       -84875960.460677356        1508701270.3452673     
  -701325694.63391078       -87433499.245256782        1490901055.6704884     
  -667458895.43503916       -87740429.630966574        1495930733.4215095     
  -1319580671.7362938       -193493740.00607085        1687130841.7536244     
  -1204691916.2159598       -169017944.33303225        1592677276.9194429     
  -1090247612.3964767       -146023654.32949290        1531999310.8162575     
  -976247760.27783751       -124510869.99543613        1505096943.4440682     
  -862692359.86004686       -104479591.33087257        1511970174.8028769     
   41358305.544156007       -587902.21999375522        1435658986.4700892     
   35146248.527369112        3240747.5564986365        1433535876.9934390     
   28496231.437556710        5609530.4229046619        1447775404.2474689     
   21408254.274713103        6518446.3792069908        1478377568.2321811     
   13882317.038839882        5967495.4254113091        1525342368.9475679     
  -215433562.73293495       -35794585.075518876        1457775139.2551148     
  -185728629.89143163       -25512343.745888237        1459393288.1060350     
  -155838594.82922041       -14613095.013899364        1470787963.6050127     
  -125763457.54630923       -3096838.8795777559        1491959165.7520332     
  -95503218.042691112        9036424.6570997350        1522906894.5471072     
  -451705963.05933523       -64845427.545848399        1477865721.5722530     
  -404901497.73847944       -53754831.876752570        1483952034.7601035     
  -357288867.90318286       -39970354.492852777        1493228764.5133731     
  -308868073.55345899       -23491995.394194171        1505695910.8320644     
  -259639114.68929675       -4319754.5807442367        1521353473.7161751     
  -667458895.43503916       -87740429.630966574        1495930733.4215095     
  -622372355.01377249       -81486716.836085498        1507212116.9556386     
  -575854587.78433847       -70462248.013977230        1515097806.9725583     
  -527905593.74674022       -54667023.164656639        1519587803.4722688     
  -478525372.90096980       -34101042.288093418        1520682106.4547765     
  -862692359.86004686       -104479591.33087257        1511970174.8028769     
  -838141201.71731281       -108707998.62389255        1529173534.6926405     
  -811535754.47267473       -106088775.57723507        1536395090.9825654     
  -782876018.12614763       -96621922.190946788        1533634843.6726522     
  -752161992.67771900       -80307438.464985430        1520892792.7628975     
   13882317.038839882        5967495.4254113091        1525342368.9475679     
   10952563.175136715        5730937.5083423611        1556107072.0044951     
   7758926.3240584712        4614769.6333564874        1581364686.3564508     
   4301406.4856282305        2618991.8005309729        1601115212.0034416     
   580003.65982176852       -256395.99021597355        1615358648.9454668     
  -95503218.042691112        9036424.6570997350        1522906894.5471072     
  -105266536.82718389        8139812.1906780824        1536808629.7721615     
  -115889337.07414201        4378261.5160379410        1551113185.5822020     
  -127371618.78356186       -2248227.3668070957        1565820561.9772196     
  -139713381.95543322       -11739654.457824815        1580930758.9572177     
  -259639114.68929675       -4319754.5807442367        1521353473.7161751     
  -259350543.28044352       -810785.06227292120        1517697376.2217550     
  -260517051.80915061       -2152082.0023371875        1520354008.6022620     
  -263138640.27541134       -8343645.4009131938        1529323370.8576946     
  -267215308.67922696       -19385475.258005276        1544605462.9880550     
  -478525372.90096980       -34101042.288093418        1520682106.4547765     
  -451299456.18464267       -21120854.250513256        1498773311.3532653     
  -426124217.88095760       -14976260.921741441        1489087155.4166310     
  -402999657.98993289       -15667262.301835820        1491623638.6448689     
  -381925776.51154727       -23193858.390728742        1506382761.0379808     
  -752161992.67771900       -80307438.464985430        1520892792.7628975     
  -681113275.53977251       -52790395.374016136        1480036435.1666949     
  -612710835.28957176       -34094275.242199510        1457312626.0253084     
  -546954671.92712271       -24219078.069553524        1452721365.3387442     
  -483844785.45241165       -23164803.856035396        1466262653.1069961     
   580003.65982176852       -256395.99021597355        1615358648.9454668     
   138296.83556164044       -2097702.1262223837        1601569452.8075666     
  -6445.9985260216054       -2949128.2949851588        1596429312.1816416     
   145775.15757150098       -2810674.4964646786        1599938227.0676908     
   594960.30383856141       -1682340.7307130999        1612096197.4657185     
  -139713381.95543322       -11739654.457824815        1580930758.9572177     
  -119034209.81892322       -11244697.199554611        1571528766.3690133     
  -97442740.556140602       -7708749.5203750208        1569185410.5322812     
  -74938974.167078197       -1131811.4202630706        1573900691.4470348     
  -51522910.651747882        8486117.1007418633        1585674609.1132569     
  -267215308.67922696       -19385475.258005276        1544605462.9880550     
  -229959311.18336684       -17917470.685881123        1540308562.6083241     
  -191175683.42513621       -11357365.239184178        1541479880.2195778     
  -150864425.40453604        294841.08207653463        1548119415.8218043     
  -109025537.12155865        17039148.277926207        1560227169.4150128     
  -381925776.51154727       -23193858.390728742        1506382761.0379808     
  -332637007.25776553       -22116022.585190848        1507908841.5255091     
  -281205274.60551572       -13894975.451425999        1513312721.2435205     
  -227630578.55479077        1469283.0105901957        1522594400.1920071     
  -171912919.10559043        23976752.800855890        1535753878.3709793     
  -483844785.45241165       -23164803.856035396        1466262653.1069961     
  -427067298.04212248       -23840352.897488043        1474329603.1205635     
  -367531514.09726626       -15321580.157050803        1484683933.6041126     
  -305237433.61784995        2391514.3652529120        1497325644.5576446     
  -240185056.60385188        29298930.669496700        1512254735.9811606     
   594960.30383856141       -1682340.7307130999        1612096197.4657185     
   654855.59835461306       -456915.53069895459        1584260626.1249464     
   558805.62124683405        248692.09723853070        1558629805.5536036     
   306810.37250300875        434482.15305447421        1535203735.7516854     
  -101130.14787718299        100454.63674919622        1513982416.7191875     
  -51522910.651747882        8486117.1007418633        1585674609.1132569     
  -43139495.408408120        16509637.460200861        1556664741.8362496     
  -33746144.552832976        27899609.860448632        1530284040.2521174     
  -23342858.085046429        42656034.301398441        1506532504.3608594     
  -11929636.005033627        60778910.783103481        1485410134.1624808     
  -109025537.12155865        17039148.277926207        1560227169.4150128     
  -91105987.862384036        32224548.016945057        1531403200.5662649     
  -71010622.107126445        54662669.409573808        1505632812.3338408     
  -48739439.855793186        84353512.455789670        1482916004.7177448     
  -24292441.108380467        121297077.15560067        1463252777.7179840     
  -171912919.10559043        23976752.800855890        1535753878.3709793     
  -143244621.76357734        46687816.139519863        1508476002.3149838     
  -111234627.04162830        80537870.744636893        1484676121.7987714     
  -75882934.939733163        125526916.61623970        1464354236.8223391     
  -37189545.457910739        181654953.75426945        1447510347.3856938     
  -240185056.60385188        29298930.669496700        1512254735.9811606     
  -199555397.11198643        59899441.827926606        1487883147.0824189     
  -154418159.35633093        105525213.86565807        1467413968.6469147     
  -104773343.33688238        166176246.78269985        1450847200.6746447     
  -50620949.053646788        241852540.57902986        1438182843.1656132     
  -101130.14787718299        100454.63674919622        1513982416.7191875     
  -135027.65580250390       -249140.04457855754        1403516307.6979966     
  -97230.486875374612       -359752.46973147726        1290771790.0579977     
   12261.358896381455       -231382.63873355938        1175748863.7992010     
   193447.88152305828        135969.44844326435        1058447528.9215757     
  -11929636.005033627        60778910.783103481        1485410134.1624808     
  -11394392.571593009        80194846.971805707        1376178866.0352240     
  -8864829.8266479149        106258514.19885793        1265102530.8962877     
  -4340947.7702160701        138969912.46419865        1152181128.7456706     
   2177253.5977085829        178329041.76784837        1037414659.5833663     
  -24292441.108380467        121297077.15560067        1463252777.7179840     
  -21949937.856064647        160849979.87759233        1357499412.5584152     
  -15690490.657602280        213459362.42007282        1250334321.9942918     
  -5514099.5129990876        279125224.78301632        1141757506.0256145     
   8579235.5777393281        357847566.96642029        1031768964.6523746     
  -37189545.457910739        181654953.75426945        1447510347.3856938     
  -31801663.509219691        241716258.67277056        1347477947.2675636     
  -20574212.979726553        321242792.19394672        1246467163.3520069     
  -3507193.8694535494        420234554.31772596        1144477995.6390238     
   19399393.821610928        538691545.04413795        1041510444.1286187     
  -50620949.053646788        241852540.57902986        1438182843.1656132     
  -40949569.531057000        322793683.35735077        1346114470.1626763     
  -23515996.793023318        429608803.52048057        1253501054.9694443     
   1679769.1604346931        562297901.06836128        1160342597.5859106     
   34637728.329323053        720860976.00100756        1066639098.0120753     
  -2087854938.6699324       -1686283923.2651367        1319954985.6936080     
  -1866321350.2429135       -1187992558.4104536        1778094369.6617577     
  -1678009562.3646750       -800440528.71837449        2073307179.4050641     
  -1522919575.0352163       -523627834.18889314        2205593414.9235277     
  -1401051388.2545378       -357554474.82201397        2174953076.2171507     
  -1190378195.3075440       -562355628.92051125        1469998815.0885856     
  -1367733265.6271355       -433280284.81180060        1626317611.2830076     
  -1557733999.5432689       -346357152.69155693        1723929248.9924090     
  -1760380397.0559421       -301586232.55978620        1762833728.2167947     
  -1975672458.1651590       -298967524.41648877        1743031048.9561589     
  -1227685094.4943049        281137572.65937084        1512059350.5734801     
  -1506159064.3038688        130327823.79910249        1390563052.1051188     
  -1776702560.7577310        5952986.1244984865        1314579010.8915632     
  -2039315583.8558984       -91986940.364446998        1284107226.9328120     
  -2293998133.5983682       -163491955.66773665        1299147700.2288687     
  -2199775636.2302132        844195681.47450888        1446136592.1482885     
  -2281598746.2731061        502831767.42225432        1070830692.1280923     
  -2334915246.0080609        256489887.72979176        845256465.10252500     
  -2359725135.4350815        105170042.39712346        769413911.07158935     
  -2356028414.5541635        48872231.424239635        843303030.03527927     
  -4106649820.5152674        1126818697.5249012        1272230539.8130155     
  -3694052311.5348539        684231546.05764961        667120531.35192883     
  -3232372055.2942615        405253552.12432575        315961611.62529665     
  -2721609051.7934937        289884715.72492540        218753780.63311580     
  -2161763301.0325513        338125036.85943842        375497038.37538821     
  -1401051388.2545378       -357554474.82201397        2174953076.2171507     
  -1369749790.6409907       -280092896.17140639        2027516271.2474709     
  -1345737472.0167687       -226928914.15188512        1897066963.8469884     
  -1329014432.3818667       -198062528.76342991        1783605154.0157077     
  -1319580671.7362938       -193493740.00607085        1687130841.7536244     
  -1975672458.1651590       -298967524.41648877        1743031048.9561589     
  -1921327556.6046197       -243108327.66565800        1672155237.6809671     
  -1872568156.4102178       -205867468.80195224        1607002712.3111355     
  -1829394257.5819480       -187244947.82535899        1547573472.8466609     
  -1791805860.1198168       -187240764.73588288        1493867519.2875443     
  -2293998133.5983682       -163491955.66773665        1299147700.2288687     
  -2248793389.9875216       -138890179.38568652        1306820623.2085526     
  -2207470370.1196284       -127227482.24680805        1308952620.4297547     
  -2170029073.9946780       -128503864.25107276        1305543691.8924749     
  -2136469501.6126750       -142719325.39850187        1296593837.5967124     
  -2356028414.5541635        48872231.424239635        843303030.03527927     
  -2352147290.7897043        32561548.668488622        931512427.83022416     
  -2350444113.1450019        8991045.5135471821        1002916688.2028481     
  -2350918881.6200571       -21839278.040592909        1057515811.1531476     
  -2353571596.2148733       -59929421.993924737        1095309796.6811283     
  -2161763301.0325513        338125036.85943842        375497038.37538821     
  -2231389259.0111566        271246856.49690247        546230651.54598165     
  -2301489385.4863372        202788114.47911406        688894915.63041329     
  -2372063680.4580846        132748810.80610585        803489830.62868392     
  -2443112143.9264021        61128945.477859855        890015396.54078901     
  -1319580671.7362938       -193493740.00607085        1687130841.7536244     
  -1204691916.2159598       -169017944.33303225        1592677276.9194429     
  -1090247612.3964767       -146023654.32949290        1531999310.8162575     
  -976247760.27783751       -124510869.99543613        1505096943.4440682     
  -862692359.86004686       -104479591.33087257        1511970174.8028769     
  -1791805860.1198168       -187240764.73588288        1493867519.2875443     
  -1603201362.0977867       -150293788.54540735        1436980900.9566069     
  -1414524793.7427914       -113106577.91171271        1400145136.4688771     
  -1225776155.0548205       -75679132.834768772        1383360225.8243551     
  -1036955446.0338868       -38011453.314610481        1386626169.0230415     
  -2136469501.6126750       -142719325.39850187        1296593837.5967124     
  -1913362817.9112029       -105065235.73726845        1277876774.8084717     
  -1689667541.8429470       -65449171.520084441        1265485820.9756484     
  -1465383673.4079003       -23871132.746936977        1259420976.0982442     
  -1240511212.6060731        19668880.582149327        1259682240.1762605     
  -2353571596.2148733       -59929421.993924737        1095309796.6811283     
  -2135176283.6562073       -33332285.908593059        1115364898.4750340     
  -1915675856.6969442       -3051435.1546038389        1128021364.3365712     
  -1695070315.3370781        30913130.268061996        1133279194.2657363     
  -1473359659.5766087        68561410.359403610        1131138388.2625339     
  -2443112143.9264021        61128945.477859855        890015396.54078901     
  -2268641759.3328023        64905060.940586686        949445271.95629764     
  -2092549738.3047853        74086631.184711099        987751766.55164266     
  -1914836080.8423462        88673656.210236549        1004934880.3268371     
  -1735500786.9454913        108666136.01715374        1000994613.2818683     
  -862692359.86004686       -104479591.33087257        1511970174.8028769     
  -838141201.71731281       -108707998.62389255        1529173534.6926405     
  -811535754.47267473       -106088775.57723507        1536395090.9825654     
  -782876018.12614763       -96621922.190946788        1533634843.6726522     
  -752161992.67771900       -80307438.464985430        1520892792.7628975     
  -1036955446.0338868       -38011453.314610481        1386626169.0230415     
  -1032012323.6397358       -54011328.497568965        1399107160.1563683     
  -1026155081.7203598       -66964138.596451908        1409203343.0575366     
  -1019383720.2757818       -76869883.611322641        1416914717.7265415     
  -1011698239.3059847       -83728563.542128295        1422241284.1633852     
  -1240511212.6060731        19668880.582149327        1259682240.1762605     
  -1233470424.9099979       -1590752.1755805612        1266110664.7136898     
  -1226655687.2653906       -23603885.104879677        1277751276.3866343     
  -1220066999.6722558       -46370518.205743968        1294604075.1950922     
  -1213704362.1305892       -69890651.478172779        1316669061.1390626     
  -1473359659.5766087        68561410.359403610        1131138388.2625339     
  -1442515505.5281076        48553730.342045307        1130184048.3646014     
  -1413037571.1077614        23991984.897497535        1142038890.9698586     
  -1384925856.3155675       -5123825.9742197394        1166702916.0783050     
  -1358180361.1515267       -38793702.273117185        1204176123.6899393     
  -1735500786.9454913        108666136.01715374        1000994613.2818683     
  -1659147565.4940610        96422119.055318117        991327311.10910594     
  -1585300733.2474763        75823471.410669804        1002066186.8072121     
  -1513960290.2057226        46870193.083249211        1033211240.3761818     
  -1445126236.3688087        9562284.0730284452        1084762471.8160150     
  -752161992.67771900       -80307438.464985430        1520892792.7628975     
  -681113275.53977251       -52790395.374016136        1480036435.1666949     
  -612710835.28957176       -34094275.242199510        1457312626.0253084     
  -546954671.92712271       -24219078.069553524        1452721365.3387442     
  -483844785.45241165       -23164803.856035396        1466262653.1069961     
  -1011698239.3059847       -83728563.542128295        1422241284.1633852     
  -904062388.45512891       -61404734.645178407        1395673521.9339838     
  -797869845.35140038       -43891931.571980268        1380315594.3044639     
  -693120609.99480081       -31190154.322550088        1376167501.2748313     
  -589814682.38532352       -23299402.896851897        1383229242.8450744     
  -1213704362.1305892       -69890651.478172779        1316669061.1390626     
  -1089260560.0095029       -58693791.508037686        1305793358.2738566     
  -965057096.49492013       -48298060.226249188        1299204776.1535947     
  -841093971.58685184       -38703457.632838875        1296903314.7782757     
  -717371185.28529060       -29909983.727784902        1298888974.1479030     
  -1358180361.1515267       -38793702.273117185        1204176123.6899393     
  -1236707790.2028894       -44657565.962598205        1210395944.1863172     
  -1114272588.7201419       -47312661.205041707        1213980171.5726969     
  -990874756.70328426       -46758988.000455201        1214928805.8490827     
  -866514294.15231860       -42996546.348836213        1213241847.0154760     
  -1445126236.3688087        9562284.0730284452        1084762471.8160150     
  -1346404079.0353019       -19296058.008876383        1109481279.6713576     
  -1245516322.0270579       -40935734.508330822        1124641780.5617726     
  -1142462965.3440948       -55356745.425383687        1130243974.4872537     
  -1037244008.9864037       -62559090.760011375        1126287861.4478047     
  -483844785.45241165       -23164803.856035396        1466262653.1069961     
  -427067298.04212248       -23840352.897488043        1474329603.1205635     
  -367531514.09726626       -15321580.157050803        1484683933.6041126     
  -305237433.61784995        2391514.3652529120        1497325644.5576446     
  -240185056.60385188        29298930.669496700        1512254735.9811606     
  -589814682.38532352       -23299402.896851897        1383229242.8450744     
  -525332794.99371338       -25249407.090513319        1387709510.3515518     
  -458216529.67080569       -18418151.513177633        1396122963.9472606     
  -388465886.41659796       -2805636.1648412794        1408469603.6322119     
  -316080865.23108733        21588138.954497918        1424749429.4063804     
  -717371185.28529060       -29909983.727784902        1298888974.1479030     
  -640482596.14307809       -31723752.542877376        1299637987.4434781     
  -561083547.67283070       -25169323.597851008        1305965992.4475403     
  -479174039.87454975       -10246696.892716795        1317872989.1600890     
  -394754072.74823433        13044127.572532341        1335358977.5811155     
  -866514294.15231860       -42996546.348836213        1213241847.0154760     
  -772516701.49021435       -43263389.254566222        1210115034.3963444     
  -676132568.10334313       -35575096.411073446        1214213019.1049457     
  -577361893.99170518       -19931667.818356633        1225535801.1412830     
  -476204679.15529263        3666896.5236066878        1244083380.5053546     
  -1037244008.9864037       -62559090.760011375        1126287861.4478047     
  -921435111.03511846       -59868317.225585431        1119140651.2101488     
  -803363590.96233499       -49635469.952826411        1120864043.9194791     
  -683029448.76805508       -31860548.941746473        1131458039.5757957     
  -560432684.45227003       -6543554.1923213303        1150922638.1790919     
  -240185056.60385188        29298930.669496700        1512254735.9811606     
  -199555397.11198643        59899441.827926606        1487883147.0824189     
  -154418159.35633093        105525213.86565807        1467413968.6469147     
  -104773343.33688238        166176246.78269985        1450847200.6746447     
  -50620949.053646788        241852540.57902986        1438182843.1656132     
  -316080865.23108733        21588138.954497918        1424749429.4063804     
  -264060665.65366179        53481348.225653350        1406062044.9676576     
  -205701955.67725754        106502925.49340549        1391935889.0285749     
  -141004735.30189377        180652870.75768995        1382370961.5891337     
  -69969004.527557358        275931184.01854348        1377367262.6493385     
  -394754072.74823433        13044127.572532341        1335358977.5811155     
  -329460995.83835793        46794736.130508810        1324491885.0934424     
  -255998476.39433807        107776819.80229425        1318844839.1418178     
  -174366514.41616935        195990378.58790767        1318417839.7262468     
  -84565109.903855905        311435412.48733747        1323210886.8467307     
  -476204679.15529263        3666896.5236066878        1244083380.5053546     
  -395756387.66609365        39839605.542424917        1243172667.4597709     
  -305307721.50756836        109346896.79233104        1248140818.9866512     
  -204858680.67971995        212188770.27331942        1258987835.0859938     
  -94409265.182534963        348365225.98541898        1275713715.7577941     
  -560432684.45227003       -6543554.1923213303        1150922638.1790919     
  -462946841.13685262        32615956.461454034        1162104392.0666480     
  -353629691.01693976        111213156.46355045        1179823828.5630698     
  -232481234.09252128        229248045.81399888        1204080947.6683629     
  -99501470.363605201        386720624.51276970        1234875749.3825281     
  -50620949.053646788        241852540.57902986        1438182843.1656132     
  -40949569.531057000        322793683.35735077        1346114470.1626763     
  -23515996.793023318        429608803.52048057        1253501054.9694443     
   1679769.1604346931        562297901.06836128        1160342597.5859106     
   34637728.329323053        720860976.00100756        1066639098.0120753     
  -69969004.527557358        275931184.01854348        1377367262.6493385     
  -56421383.138484135        377246195.73417068        1296432677.7275064     
  -33860757.025099814        508604556.53084075        1214323197.4461975     
  -2287126.1873816252        670006266.40860581        1131038821.8054261     
   38299509.374644101        861451325.36742508        1046579550.8051686     
  -84565109.903855905        311435412.48733747        1323210886.8467307     
  -68940827.131667435        432584418.99523383        1254869370.0997052     
  -43052728.126266778        587946146.28050125        1184723104.8240318     
  -6900812.8876616359        777520594.34312487        1112772091.0197077     
   39514918.584160388        1001307763.1831146        1039016328.6867276     
  -94409265.182534963        348365225.98541898        1275713715.7577941     
  -78507901.510582566        488808353.14060569        1221424547.2792780     
  -51091910.096547425        667633572.76940727        1164700777.1029391     
  -12161290.940405965        884840884.87188447        1105542405.2287667     
   38283955.957836568        1140430289.4480455        1043949431.6567603     
  -99501470.363605201        386720624.51276970        1234875749.3825281     
  -85122606.275261283        545917998.17019522        1196098209.2662172     
  -57978302.935921907        747666835.99760842        1154256214.2829099     
  -18068560.345598042        991967137.99495900        1109349764.4325929     
   34606621.495696664        1278818904.1622314        1061378859.7152742     
  -4106649820.5152674        1126818697.5249012        1272230539.8130155     
  -3694052311.5348539        684231546.05764961        667120531.35192883     
  -3232372055.2942615        405253552.12432575        315961611.62529665     
  -2721609051.7934937        289884715.72492540        218753780.63311580     
  -2161763301.0325513        338125036.85943842        375497038.37538821     
  -6423285558.9724150       -75192083.935339928        827001628.53878498     
  -5357305536.8641682       -52236399.718390942        560997929.16204119     
  -4270307633.2088223        40778889.655579090        436212112.14513177     
  -3162291848.0063682        203853784.18656313        452644177.48805046     
  -2033258181.2568083        436988283.87456703        610294125.19080293     
  -7726833072.2845840       -973276397.85208893        501808535.75583345     
  -6329565412.4045773       -581406340.55775952        542168802.13152051     
  -4939344736.6905317       -213026230.48331690        611013744.49241686     
  -3556171045.1424518        131863932.37124157        708343362.83852112     
  -2180044337.7603412        453264148.00591469        834157657.16983593     
  -8017292360.4517803       -1567434244.2253442        296651261.46417564     
  -6610831938.1560707       -903278276.46045542        610633150.26037204     
  -5239483365.7393885       -356161808.29235220        840366508.66715622     
  -3903246643.2017508        73915160.278962135        985851336.68452847     
  -2602121770.5431485        386952629.25348091        1047087634.3124884     
  -7294663423.4740076       -1857665623.0551112        211529805.66379556     
  -6201105114.1186485       -1017852207.4264698        766390973.54858673     
  -5170723520.3554020       -388627843.77153707        1124270404.6693463     
  -4203518642.1842637        30007467.909703970        1285168099.0260715     
  -3299490479.6052318        238053727.61726093        1249084056.6187608     
  -2161763301.0325513        338125036.85943842        375497038.37538821     
  -2231389259.0111566        271246856.49690247        546230651.54598165     
  -2301489385.4863372        202788114.47911406        688894915.63041329     
  -2372063680.4580846        132748810.80610585        803489830.62868392     
  -2443112143.9264021        61128945.477859855        890015396.54078901     
  -2033258181.2568083        436988283.87456703        610294125.19080293     
  -2168589323.7309203        327388790.63044345        693933749.71302772     
  -2300822666.5422740        228115296.26219058        764959038.22062159     
  -2429958209.6908603        139167800.76982462        823369990.71358263     
  -2555995953.1766820        60546304.153328180        869166607.19191325     
  -2180044337.7603412        453264148.00591469        834157657.16983593     
  -2336923484.5255890        314190495.94151282        834870589.22958326     
  -2487132863.4687428        197349403.28410757        838424198.34622836     
  -2630672474.5897975        102740870.03368855        844818484.51977360     
  -2767542317.8887544        30364896.190266967        854053447.75021553     
  -2602121770.5431485        386952629.25348091        1047087634.3124884     
  -2736391741.3951602        231651972.43011153        969041170.09564698     
  -2860419976.2657371        110490435.54486513        909290396.00723469     
  -2974206475.1548891        23468018.597709298        867835312.04725003     
  -3077751238.0625982       -29415278.411326408        844675918.21569622     
  -3299490479.6052318        238053727.61726093        1249084056.6187608     
  -3366994094.3396335        79773220.096239805        1096445492.3112209     
  -3420684004.9332647       -32461606.955535650        977557631.20363879     
  -3460560211.3861380       -98650753.538120747        892420473.29602087     
  -3486622713.6982346       -118794219.65146089        841034018.58836019     
  -2443112143.9264021        61128945.477859855        890015396.54078901     
  -2268641759.3328023        64905060.940586686        949445271.95629764     
  -2092549738.3047853        74086631.184711099        987751766.55164266     
  -1914836080.8423462        88673656.210236549        1004934880.3268371     
  -1735500786.9454913        108666136.01715374        1000994613.2818683     
  -2555995953.1766820        60546304.153328180        869166607.19191325     
  -2422019736.6466069        64589145.333238363        900513783.03516912     
  -2288068693.5430565        68548075.091384768        921773427.56113923     
  -2154142823.8660336        72423093.427771926        932945540.76982653     
  -2020242127.6155453        76214200.342385054        934030122.66123271     
  -2767542317.8887544        30364896.190266967        854053447.75021553     
  -2642529270.8425546        44133762.661241174        855396645.85011637     
  -2519188207.0838332        52329351.507292867        857688162.13560510     
  -2397519126.6125865        54951662.728431225        860927996.60668743     
  -2277522029.4288149        52000696.324645162        865116149.26335931     
  -3077751238.0625982       -29415278.411326408        844675918.21569622     
  -2930170361.9206471        3538912.9246002436        814093860.40113807     
  -2785908278.9271116        25430460.432462573        795495970.27504122     
  -2644964989.0820017        36259364.112233281        788882247.83740759     
  -2507340492.3853168        36025623.963945389        794252693.08823979     
  -3486622713.6982346       -118794219.65146089        841034018.58836019     
  -3284943009.8808799       -57195403.876677871        776605426.68823206     
  -3088228909.0728941       -12148598.133129001        735196851.97944820     
  -2896480411.2742748        16346197.579189539        716808294.46199727     
  -2709697516.4850345        28288983.260264397        721439754.13588810     
  -1735500786.9454913        108666136.01715374        1000994613.2818683     
  -1659147565.4940610        96422119.055318117        991327311.10910594     
  -1585300733.2474763        75823471.410669804        1002066186.8072121     
  -1513960290.2057226        46870193.083249211        1033211240.3761818     
  -1445126236.3688087        9562284.0730284452        1084762471.8160150     
  -2020242127.6155453        76214200.342385054        934030122.66123271     
  -1898085436.2677374        73525947.121808171        927497917.31203210     
  -1777852687.0963027        64424553.313328505        933587796.22581184     
  -1659543880.1012301        48910018.916974068        952299759.40257370     
  -1543159015.2825298        26982343.932707250        983633806.84231222     
  -2277522029.4288149        52000696.324645162        865116149.26335931     
  -2131802135.6357305        52196126.610006571        862398562.27093077     
  -1987423736.9905448        47919906.402363181        864518965.93360090     
  -1844386833.4932539        39172035.701734424        871477360.25136614     
  -1702691425.1438706        25952514.508096933        883273745.22422588     
  -2507340492.3853168        36025623.963945389        794252693.08823979     
  -2360297663.5980473        32432657.519906163        796029245.98580074     
  -2214013882.9302120        26309530.677770138        794859695.93057132     
  -2068489150.3818045        17656243.437535048        790744042.92255569     
  -1923723465.9528217        6472795.7992117405        783682286.96175170     
  -2709697516.4850345        28288983.260264397        721439754.13588810     
  -2583572020.1546826        14235539.851506948        728389968.45664966     
  -2457623124.9152942       -406573.86044979095        724609986.21673620     
  -2331850830.7668624       -15637357.875600815        710099807.41615188     
  -2206255137.7093959       -31456812.193973660        684859432.05489194     
  -1445126236.3688087        9562284.0730284452        1084762471.8160150     
  -1346404079.0353019       -19296058.008876383        1109481279.6713576     
  -1245516322.0270579       -40935734.508330822        1124641780.5617726     
  -1142462965.3440948       -55356745.425383687        1130243974.4872537     
  -1037244008.9864037       -62559090.760011375        1126287861.4478047     
  -1543159015.2825298        26982343.932707250        983633806.84231222     
  -1462928624.6343427       -5415557.2428498864        992212469.64251590     
  -1380526303.1988773       -30573689.127492070        996941824.82516706     
  -1295952050.9761477       -48492051.721247554        997821872.39027357     
  -1209205867.9661548       -59170645.024124146        994852612.33782697     
  -1702691425.1438706        25952514.508096933        883273745.22422588     
  -1624641374.4741838       -5091517.7490584254        875719649.26724684     
  -1544413061.9046934       -28874677.006844819        870025245.04010320     
  -1462006487.4353945       -45396963.265276074        866190532.54279804     
  -1377421651.0662839       -54658376.524347186        864215511.77532172     
  -1923723465.9528217        6472795.7992117405        783682286.96175170     
  -1831542328.5548382       -18323939.527500033        760002818.54555488     
  -1737176598.1445076       -35838698.146400809        743892041.20657718     
  -1640626274.7218256       -46071480.057456553        735349954.94482374     
  -1541891358.2867932       -49022285.260689020        734376559.76027882     
  -2206255137.7093959       -31456812.193973660        684859432.05489194     
  -2083631486.8763044       -45112822.578215480        645061977.47744441     
  -1958816911.9183152       -51465752.546136498        618542213.32459235     
  -1831811412.8354487       -50515602.097793460        605300139.59634948     
  -1702614989.6276884       -42262371.233146727        605335756.29270709     
  -1037244008.9864037       -62559090.760011375        1126287861.4478047     
  -921435111.03511846       -59868317.225585431        1119140651.2101488     
  -803363590.96233499       -49635469.952826411        1120864043.9194791     
  -683029448.76805508       -31860548.941746473        1131458039.5757957     
  -560432684.45227003       -6543554.1923213303        1150922638.1790919     
  -1209205867.9661548       -59170645.024124146        994852612.33782697     
  -1072421209.9203433       -50032497.376835644        989370654.48939049     
  -934640219.95449674       -37573243.329432338        989665438.20217335     
  -795862898.06861889       -21792882.881920815        995736963.47617650     
  -656089244.26271319       -2691416.0343225002        1007585230.3114115     
  -1377421651.0662839       -54658376.524347186        864215511.77532172     
  -1228500836.8852642       -41724735.951971352        858921467.74771798     
  -1079849980.9856782       -29690956.317737460        856310303.89557314     
  -931469083.36752617       -18557037.621604860        856382020.21888828     
  -783358144.03081369       -8322979.8636108339        859136616.71766734     
  -1541891358.2867932       -49022285.260689020        734376559.76027882     
  -1389673991.9298792       -34945032.951040149        727793090.98512995     
  -1238992874.0558658       -25988608.917727828        720798640.99967635     
  -1089848004.6647625       -22153013.160787582        713393209.80392241     
  -942239383.75656891       -23438245.680200517        705576797.39786863     
  -1702614989.6276884       -42262371.233146727        605335756.29270709     
  -1555940675.0541945       -29693388.373992622        595985524.20162201     
  -1412068899.1650887       -26466201.129463732        583130449.51448214     
  -1270999661.9603407       -32580809.499461532        566770532.23127782     
  -1132732963.4399831       -48037213.484094679        546905772.35201240     
  -560432684.45227003       -6543554.1923213303        1150922638.1790919     
  -462946841.13685262        32615956.461454034        1162104392.0666480     
  -353629691.01693976        111213156.46355045        1179823828.5630698     
  -232481234.09252128        229248045.81399888        1204080947.6683629     
  -99501470.363605201        386720624.51276970        1234875749.3825281     
  -656089244.26271319       -2691416.0343225002        1007585230.3114115     
  -542888206.87008905        26541020.001980871        1021637719.4574432     
  -418747619.56495774        92238622.413305312        1043532000.1964855     
  -283667482.34733331        194401391.19961035        1073268072.5285437     
  -137647795.21720481        333029326.36092472        1110845936.4536099     
  -783358144.03081369       -8322979.8636108339        859136616.71766734     
  -650715886.89199483        12100189.255933613        875019458.08150792     
  -508025836.73267454        66016001.777144730        900048200.02250385     
  -355287993.55285722        153424457.70001519        934222842.54065955     
  -192502357.35253531        274325557.02456701        977543385.63596845     
  -942239383.75656891       -23438245.680200517        705576797.39786863     
  -786429881.20257926       -10706535.776740581        722249607.93885195     
  -621464342.52007902        32545294.555094033        749372428.04113114     
  -447342767.70909357        106317245.31521618        786945257.70471251     
  -264065156.76960468        210609316.50367111        834968096.92959595     
  -1132732963.4399831       -48037213.484094679        546905772.35201240     
  -950030189.80183244       -41879155.095982134        563328169.02946532     
  -759063136.92718732       -8173499.2528876960        591504684.25236154     
  -559831804.81605136        53079754.045175761        631435318.02069855     
  -352336193.46840441        141880604.79827604        683120070.33448899     
  -99501470.363605201        386720624.51276970        1234875749.3825281     
  -85122606.275261283        545917998.17019522        1196098209.2662172     
  -57978302.935921907        747666835.99760842        1154256214.2829099     
  -18068560.345598042        991967137.99495900        1109349764.4325929     
   34606621.495696664        1278818904.1622314        1061378859.7152742     
  -137647795.21720481        333029326.36092472        1110845936.4536099     
  -128131980.51872468        482399150.03054655        1089495557.1329958     
  -95472385.905640543        708914906.74885547        1069736721.6074411     
  -39669011.377948582        1012576596.5158628        1051569429.8769469     
   39278143.064357877        1393384219.3315670        1034993681.9415197     
  -192502357.35253531        274325557.02456701        977543385.63596845     
  -174546738.72374532        417858686.70239735        985728231.21860731     
  -123068999.51672035        673132218.30768251        1000160619.2583674     
  -38069139.731454968        1040146151.8404137        1020840549.7552671     
   80452840.632037580        1518900487.3006079        1047768022.7092791     
  -264065156.76960468        210609316.50367111        834968096.92959595     
  -224366880.89031017        352296608.18578821        884796231.52304590     
  -140768143.76915416        640318770.67411566        945527907.23568857     
  -13268945.406136930        1074675803.9686282        1017163124.0675367     
   158130714.19874167        1655367708.0693562        1099701882.0185623     
  -352336193.46840441        141880604.79827604        683120070.33448899     
  -277592407.01841629        285712914.48073012        786699558.04632127     
  -148569818.66294506        610474563.84813356        905838585.53941035     
   34731571.598018527        1116165552.9004753        1040537152.8137571     
   272311763.76446331        1802785881.6378098        1190795259.8693697     
  -7294663423.4740076       -1857665623.0551112        211529805.66379556     
  -6201105114.1186485       -1017852207.4264698        766390973.54858673     
  -5170723520.3554020       -388627843.77153707        1124270404.6693463     
  -4203518642.1842637        30007467.909703970        1285168099.0260715     
  -3299490479.6052318        238053727.61726093        1249084056.6187608     
  -6019685043.5971107       -840569101.47836983        324139364.24690163     
  -5492900994.5101957       -506880683.25930929        634857947.35879993     
  -4988903967.6044798       -249149005.64427400        823376143.35352826     
  -4507693962.8799753       -67374068.633262396        889693952.23108578     
  -4049270980.3366780        38444127.773719788        833811373.99147332     
  -5405814509.1351538       -21804933.526105642        283921837.82914978     
  -5232143721.3256264       -130143213.01930737        397619145.14753234     
  -5040870262.2864008       -179805921.74685717        463897414.99561107     
  -4831994132.0174866       -170793059.70876861        482756647.37338936     
  -4605515330.5188789       -103104626.90504694        454196842.28086460     
  -5453051820.0881462        598626880.80166650        90877226.410539165     
  -5418833294.5649509        112360203.29353333        54674566.914786071     
  -5326622404.4011707       -180598592.07929516        45834219.595607944     
  -5176419149.5968018       -280249505.31682611        64356184.452983104     
  -4968223530.1518354       -186592536.41904092        110240461.48692438     
  -6161396976.4560595        1020726341.5049689       -254994470.00893760     
  -6052969714.2281742        220629565.67919111       -393975787.33943111     
  -5846160393.9487915       -251527016.64159656       -430813442.84649980     
  -5540969015.6179190       -395743405.45741630       -365507436.53013408     
  -5137395579.2355576       -212019600.76827073       -198057768.39034256     
  -3299490479.6052318        238053727.61726093        1249084056.6187608     
  -3366994094.3396335        79773220.096239805        1096445492.3112209     
  -3420684004.9332647       -32461606.955535650        977557631.20363879     
  -3460560211.3861380       -98650753.538120747        892420473.29602087     
  -3486622713.6982346       -118794219.65146089        841034018.58836019     
  -4049270980.3366780        38444127.773719788        833811373.99147332     
  -4013029936.5065107       -12698363.700418711        752393701.12684798     
  -3973983918.5833902       -54490941.531363010        692304751.02418709     
  -3932132926.5673056       -86933605.719113588        653544523.68349004     
  -3887476960.4582620       -110026356.26365399        636113019.10475886     
  -4605515330.5188789       -103104626.90504694        454196842.28086460     
  -4501021000.8041353       -57756514.136314392        431156542.47004026     
  -4404730427.0442314       -39754254.550392389        417022984.98318237     
  -4316643609.2391891       -49097848.147327423        411796169.82030016     
  -4236760547.3889818       -85787294.927063227        415476096.98138702     
  -4968223530.1518354       -186592536.41904092        110240461.48692438     
  -4830967287.2324944       -55401231.211416960        132734016.34078985     
  -4712923530.3158007        11748453.987353325        151712333.08063525     
  -4614092259.4017715        14856519.177255630        167175411.70645377     
  -4534473474.4903908       -46077035.641678095        179123252.21825308     
  -5137395579.2355576       -212019600.76827073       -198057768.39034256     
  -5002868795.7915974       -5632514.9257600307       -142873877.26089531     
  -4898563228.3980970        100017184.08187914       -103627204.68346360     
  -4824478877.0550661        104929496.25461936       -80317750.658043489     
  -4780615741.7624969        9104421.5924978256       -72945515.184647411     
  -3486622713.6982346       -118794219.65146089        841034018.58836019     
  -3284943009.8808799       -57195403.876677871        776605426.68823206     
  -3088228909.0728941       -12148598.133129001        735196851.97944820     
  -2896480411.2742748        16346197.579189539        716808294.46199727     
  -2709697516.4850345        28288983.260264397        721439754.13588810     
  -3887476960.4582620       -110026356.26365399        636113019.10475886     
  -3639409522.6160183       -69803094.748464108        583370908.48073924     
  -3392635473.8954411       -33891130.305490732        548224473.20597076     
  -3147154814.2965436       -2290462.9347722530        530673713.28044754     
  -2902967543.8192997        24998907.363739610        530718628.70417774     
  -4236760547.3889818       -85787294.927063227        415476096.98138702     
  -3957803495.0706725       -71589023.536091089        378704717.16912067     
  -3676467617.9863343       -49461336.258346319        354104670.86402476     
  -3392752916.1359668       -19404233.093857288        341675958.06607938     
  -3106659389.5195718        18582285.957414389        341418578.77529931     
  -4534473474.4903908       -46077035.641678095        179123252.21825308     
  -4240124927.2448459       -62553190.239587545        162606852.75339702     
  -3939725341.3455739       -58859215.991734028        152837444.95361182     
  -3633274716.7925711       -34995112.898111343        149815028.81889847     
  -3320773053.5858331        9039119.0412850380        153539604.34925833     
  -4780615741.7624969        9104421.5924978256       -72945515.184647411     
  -4486373819.1385393       -42695594.858933210       -64922684.766456947     
  -4182408643.9731450       -62084769.505576372       -55577204.525263637     
  -3868720216.2663298       -49063102.347493887       -44909074.461109422     
  -3545308536.0180912       -3630593.3846435547       -32918294.573958118     
  -2709697516.4850345        28288983.260264397        721439754.13588810     
  -2583572020.1546826        14235539.851506948        728389968.45664966     
  -2457623124.9152942       -406573.86044979095        724609986.21673620     
  -2331850830.7668624       -15637357.875600815        710099807.41615188     
  -2206255137.7093959       -31456812.193973660        684859432.05489194     
  -2902967543.8192997        24998907.363739610        530718628.70417774     
  -2800102596.0210295        8116217.0186582804        536100117.34552240     
  -2697114828.6658649       -8357074.8034448624        534971976.04663253     
  -2594004241.7538042       -24420968.102556586        527334204.80750215     
  -2490770835.2848396       -40075462.878668189        513186803.62814105     
  -3106659389.5195718        18582285.957414389        341418578.77529931     
  -3014996228.4807076        2487977.2077685595        345580665.82639438     
  -2922910827.2370787       -12198864.192652702        347453689.55770075     
  -2830403185.7886934       -25478238.243896961        347037649.96920305     
  -2737473304.1355462       -37350144.945921779        344332547.06091237     
  -3320773053.5858331        9039119.0412850380        153539604.34925833     
  -3228252917.5336838       -2649179.5810729265        156831613.89927855     
  -3135011120.6289272       -11931942.028054237        162055126.74993822     
  -3041047662.8715496       -18809168.299637318        169210142.90124437     
  -2946362544.2615333       -23280858.395769477        178296662.35319719     
  -3545308536.0180912       -3630593.3846435547       -32918294.573958118     
  -3439872663.1799965       -7295253.3479621410       -30147038.435844276     
  -3333415708.8414025       -7556308.3096308708       -21223712.376642633     
  -3225937673.0023422       -4413758.2697350979       -6148316.3963690381     
  -3117438555.6627927        2132396.7717876434        15079149.504986916     
  -2206255137.7093959       -31456812.193973660        684859432.05489194     
  -2083631486.8763044       -45112822.578215480        645061977.47744441     
  -1958816911.9183152       -51465752.546136498        618542213.32459235     
  -1831811412.8354487       -50515602.097793460        605300139.59634948     
  -1702614989.6276884       -42262371.233146727        605335756.29270709     
  -2490770835.2848396       -40075462.878668189        513186803.62814105     
  -2334310369.2045403       -38742451.349356294        486229412.66305667     
  -2177300598.4468646       -35578424.228784204        468563645.63731354     
  -2019741523.0117962       -30583381.516898036        460189502.55092883     
  -1861633142.8993325       -23757323.213697672        461106983.40389168     
  -2737473304.1355462       -37350144.945921779        344332547.06091237     
  -2558564784.1944909       -24444739.919036627        328299997.01943052     
  -2380748579.0235419       -15180384.125856400        317573004.43205017     
  -2204024688.6227021       -9557077.5663599968        312151569.29877532     
  -2028393112.9919639       -7574820.2405414581        312035691.61959583     
  -2946362544.2615333       -23280858.395769477        178296662.35319719     
  -2756394731.8461423       -2219688.2872247696        171273730.54657429     
  -2569160853.6483550        9728367.7626305819        165570289.70880756     
  -2384660909.6681733        12563309.753813505        161186339.83989143     
  -2202894899.9055901        6285137.6863211393        158121880.93982452     
  -3117438555.6627927        2132396.7717876434        15079149.504986916     
  -2927800212.1594930        27932703.546084046        15150613.244484778     
  -2742537422.3213024        39147831.436660647        12555501.467579419     
  -2561650186.1482091        35777780.443590045        7293814.1742769182     
  -2385138503.6402102        17822550.566872358       -634448.63541791600     
  -1702614989.6276884       -42262371.233146727        605335756.29270709     
  -1555940675.0541945       -29693388.373992622        595985524.20162201     
  -1412068899.1650887       -26466201.129463732        583130449.51448214     
  -1270999661.9603407       -32580809.499461532        566770532.23127782     
  -1132732963.4399831       -48037213.484094679        546905772.35201240     
  -1861633142.8993325       -23757323.213697672        461106983.40389168     
  -1725371076.4539540       -23554618.053494573        447992168.42153233     
  -1589704111.8570971       -25335585.721679866        433226530.79028803     
  -1454632249.1087489       -29100226.218229532        416810070.51016134     
  -1320155488.2089167       -34848539.543165863        398742787.58114451     
  -2028393112.9919639       -7574820.2405414581        312035691.61959583     
  -1897246094.8256283       -18149232.824551105        297731636.72113609     
  -1764486741.6719525       -23349195.450762391        283630779.12096888     
  -1630115053.5309176       -23174708.119118571        269733118.81909239     
  -1494131030.4025383       -17625770.829640150        256038655.81550905     
  -2202894899.9055901        6285137.6863211393        158121880.93982452     
  -2071565730.1692250       -13477232.687214136        145203929.10043874     
  -1936416788.6096358       -20507030.316677332        134343194.50651735     
  -1797448075.2268472       -14804255.202136159        125539677.15806416     
  -1654659590.0208302        3631092.6564961672        118793377.05508010     
  -2385138503.6402102        17822550.566872358       -634448.63541791600     
  -2248329982.4847269       -9538617.6414290667       -9590954.4405594114     
  -2105494252.6701694       -16809090.319470406       -14636223.053053301     
  -1956631314.1965370       -3988867.4672626257       -15770254.472907910     
  -1801741167.0638266        28922050.915194392       -12993048.700121319     
  -1132732963.4399831       -48037213.484094679        546905772.35201240     
  -950030189.80183244       -41879155.095982134        563328169.02946532     
  -759063136.92718732       -8173499.2528876960        591504684.25236154     
  -559831804.81605136        53079754.045175761        631435318.02069855     
  -352336193.46840441        141880604.79827604        683120070.33448899     
  -1320155488.2089167       -34848539.543165863        398742787.58114451     
  -1119815381.4710419       -15960507.510391951        420476129.07279772     
  -915664343.25414443        15630629.452453971        441084845.10079932     
  -707702373.55821550        59924871.345410854        460568935.66514415     
  -495929472.38325870        116922218.16845211        478928400.76583743     
  -1494131030.4025383       -17625770.829640150        256038655.81550905     
  -1312950002.0195062        2953311.4114083648        277887369.73764515     
  -1132411389.9149177        21391006.057657540        285732714.18702871     
  -952515194.08876789        37687313.109102786        279574689.16366744     
  -773261414.54106283        51842232.565746605        259413294.66754848     
  -1654659590.0208302        3631092.6564961672        118793377.05508010     
  -1529434051.4472127        14862301.669456065        135561891.02398697     
  -1409304276.9095058        9107630.5627031922        125448291.51104870     
  -1294270266.4077094       -13632920.663735330        88452578.516254380     
  -1184332019.9418159       -53359352.009871840        24574752.039617777     
  -1801741167.0638266        28922050.915194392       -12993048.700121319     
  -1769267529.7541709        19766463.263728261       -6500307.0681583891     
  -1746343004.2379088       -21219497.032372117       -39768422.927143164     
  -1732967590.5150120       -94035829.973034322       -112797396.27706891     
  -1729141288.5855005       -198682535.55830324       -225587227.11794811     
  -352336193.46840441        141880604.79827604        683120070.33448899     
  -277592407.01841629        285712914.48073012        786699558.04632127     
  -148569818.66294506        610474563.84813356        905838585.53941035     
   34731571.598018527        1116165552.9004753        1040537152.8137571     
   272311763.76446331        1802785881.6378098        1190795259.8693697     
  -495929472.38325870        116922218.16845211        478928400.76583743     
  -387447166.46490985        223090506.12482524        597731655.98829019     
  -229924284.52425602        492727380.82221210        735619776.03424644     
  -23360826.561325133        925832842.26052523        892592760.90369070     
   232243207.42390794        1522406890.4398429        1068650610.5966408     
  -773261414.54106283        51842232.565746605        259413294.66754848     
  -620968231.89081681        123368205.97509637        387329053.87023258     
  -424872699.10145789        340902013.18148422        537855002.93865216     
  -184974816.17300594        704443654.18487096        710991141.87281787     
   98725416.894536495        1213993128.9852312        906737470.67270017     
  -1184332019.9418159       -53359352.009871840        24574752.039617777     
  -978155603.29611707       -13453985.968403935        155491751.69214144     
  -733415062.39451885        154998460.92607823        312544266.25264043     
  -450110397.23703957        451997988.67347229        495732295.72110581     
  -128241607.82363254        877544597.27399337        705055840.09754705     
  -1729141288.5855005       -198682535.55830324       -225587227.11794811     
  -1459009280.6808476       -187376069.70577317       -97780250.545984685     
  -1155551374.4034886       -64983275.944223642        59687565.976191491     
  -818767569.75339711        168495845.72642910        246816222.44857833     
  -448657866.73060715        513061295.30608726        463605718.87117308     
 </DataArray>
 <DataArray  type="Float64" Name="VM" NumberOfComponents="1" format="ascii">
   6789576139.7870741     
   6285117604.6755724     
   5834121384.0827370     
   5397430164.2132072     
   4972497650.1768532     
   5773573422.0494699     
   5489308682.2967186     
   5247539016.1894312     
   5034957504.7449713     
   4849243413.9414501     
   5447069499.8277969     
   5211056237.1595030     
   4995800881.1665421     
   4789607882.5488863     
   4588087604.1816492     
   5811069035.8638859     
   5436329384.4610233     
   5074845335.2056599     
   4678170325.3874550     
   4221756260.0469279     
   6891434330.5951662     
   6147119487.3279228     
   5457787867.0888844     
   4709029428.0977478     
   3819167531.1145339     
   4972497650.1768532     
   4950130420.0885506     
   4916551448.1048841     
   4866978535.5215015     
   4800967376.6899347     
   4849243413.9414501     
   4787396409.4053078     
   4714990899.5526295     
   4630246193.6625786     
   4533162091.6853342     
   4588087604.1816492     
   4512866291.9549742     
   4433907761.7982597     
   4350657031.6734114     
   4263419650.3863087     
   4221756260.0469279     
   4146152484.9704623     
   4084247827.7037840     
   4033345902.0627475     
   3992220403.0141029     
   3819167531.1145339     
   3728203422.2915902     
   3688277414.8095665     
   3688545153.0554643     
   3721413153.1859074     
   4800967376.6899347     
   4479179193.6183214     
   4163643997.8971100     
   3854014196.7947602     
   3550478802.6753068     
   4533162091.6853342     
   4221572383.1615844     
   3914679460.0394917     
   3612453824.0033073     
   3315235441.9048553     
   4263419650.3863087     
   3975397522.5719113     
   3692578457.8080993     
   3415153651.7821465     
   3143846451.8254256     
   3992220403.0141029     
   3741822090.7866254     
   3499319901.7788615     
   3265103494.0938339     
   3040637963.3654284     
   3721413153.1859074     
   3522624988.9706664     
   3336732032.1419306     
   3164179191.9860868     
   3007335687.9244471     
   3550478802.6753068     
   3436793674.7397685     
   3323895326.8117924     
   3211797919.9474320     
   3100956750.8569040     
   3315235441.9048553     
   3220561461.9506354     
   3127338803.0898170     
   3035636555.8687305     
   2945608851.6432052     
   3143846451.8254256     
   3054347772.4919715     
   2964739000.2743611     
   2874905558.6010666     
   2784744679.7046275     
   3040637963.3654284     
   2944271771.9319077     
   2843823313.5370655     
   2738607659.8883805     
   2628145315.4767308     
   3007335687.9244471     
   2894645911.0724101     
   2772023126.3859143     
   2637571545.9934039     
   2489910350.8589115     
   3100956750.8569040     
   2930554193.2631474     
   2756749895.8717752     
   2579344698.1753321     
   2398430320.8256292     
   2945608851.6432052     
   2768166189.8510671     
   2588724304.2787132     
   2407180099.3766961     
   2223520172.5685921     
   2784744679.7046275     
   2610340646.0456400     
   2436960175.6799965     
   2264841266.5979609     
   2094428788.6554408     
   2628145315.4767308     
   2465033956.2295890     
   2307872416.6874890     
   2157260793.2197132     
   2014333559.5279438     
   2489910350.8589115     
   2342970281.6119709     
   2209087959.3650308     
   2088844544.3255532     
   1983683951.4478714     
   2398430320.8256292     
   2246289145.4313698     
   2098401066.5299134     
   1954494533.9065652     
   1814849359.5839527     
   2223520172.5685921     
   2079980953.6669548     
   1939663786.8361046     
   1802431126.4054272     
   1668372110.1226382     
   2094428788.6554408     
   1956178526.4818511     
   1819330468.7845583     
   1683852747.5993295     
   1549758201.1532378     
   2014333559.5279438     
   1880632008.4681320     
   1746068586.7343898     
   1610637000.1257029     
   1474350296.5498848     
   1983683951.4478714     
   1856596125.8875928     
   1726601329.6857729     
   1593695906.9249432     
   1458069243.6785512     
   1814849359.5839527     
   1778227907.1510577     
   1736680611.6733854     
   1699127779.4965305     
   1685232736.7066085     
   1668372110.1226382     
   1554328251.1115253     
   1430374663.8200457     
   1296709913.2546337     
   1159644620.8415387     
   1549758201.1532378     
   1399637899.0719497     
   1245846620.2120011     
   1086050278.2533920     
   918142357.75645196     
   1474350296.5498848     
   1328988087.5938876     
   1198593279.9628224     
   1087902490.2176859     
   1003118469.1223925     
   1458069243.6785512     
   1347252936.7292953     
   1272401696.2306259     
   1241858463.1747274     
   1263023360.6836300     
   1685232736.7066085     
   1385599743.1391537     
   1129382355.1706188     
   1009864239.1851232     
   1157734604.4552343     
   1159644620.8415387     
   1008238750.3074571     
   984186581.03933752     
   1160868627.5865917     
   1546285094.2148767     
   918142357.75645196     
   963097260.14874268     
   1144235262.3014071     
   1475502440.1438160     
   1957180650.2468557     
   1003118469.1223925     
   1165484984.2850196     
   1425551797.4458199     
   1808080699.2750945     
   2333268439.5396690     
   1263023360.6836300     
   1447483914.1311054     
   1716694182.3198035     
   2110899366.1351280     
   2662109429.0800247     
   6891434330.5951662     
   6147119487.3279228     
   5457787867.0888844     
   4709029428.0977478     
   3819167531.1145339     
   7930028907.8951330     
   6718551143.0650158     
   5519295826.6972971     
   4321102453.4036369     
   3124309146.9815493     
   8011604696.6955843     
   6605924039.4257860     
   5227314742.7908115     
   3894162757.6169515     
   2664633464.5724549     
   7170872313.6110764     
   5816700247.4507885     
   4574613941.8326464     
   3430452423.3938603     
   2431803446.1816497     
   5585590194.2077045     
   4398122385.8681431     
   3564158022.5530596     
   2934903811.6567116     
   2446647891.8625836     
   3819167531.1145339     
   3728203422.2915902     
   3688277414.8095665     
   3688545153.0554643     
   3721413153.1859074     
   3124309146.9815493     
   3166816120.1420569     
   3239465374.2782521     
   3337333079.4671741     
   3456784701.7036505     
   2664633464.5724549     
   2803717555.2698755     
   2951406492.1723208     
   3105610951.6897683     
   3264738512.0927067     
   2431803446.1816497     
   2624472318.0513225     
   2811657724.0872030     
   2986241165.5833149     
   3144251298.8842068     
   2446647891.8625836     
   2627479317.1461878     
   2810421126.0770311     
   2970038522.2159481     
   3091970986.1972609     
   3721413153.1859074     
   3522624988.9706664     
   3336732032.1419306     
   3164179191.9860868     
   3007335687.9244471     
   3456784701.7036505     
   3312691236.1473145     
   3177300213.1400328     
   3051099735.7563930     
   2935216554.9006591     
   3264738512.0927067     
   3153103656.8887448     
   3043342318.7209907     
   2935644455.0411863     
   2830260891.3384490     
   3144251298.8842068     
   3045453927.0768657     
   2939186255.6242743     
   2824832278.7965555     
   2701857955.1305113     
   3091970986.1972609     
   2989559937.7354212     
   2868954551.4513154     
   2727933971.7774453     
   2564752020.9578161     
   3007335687.9244471     
   2894645911.0724101     
   2772023126.3859143     
   2637571545.9934039     
   2489910350.8589115     
   2935216554.9006591     
   2792756229.9092584     
   2648085245.7842507     
   2500842980.7774487     
   2350702109.2496986     
   2830260891.3384490     
   2681582253.0592775     
   2540793873.3799791     
   2409358543.3535013     
   2289117483.4071302     
   2701857955.1305113     
   2567005430.1781802     
   2452451055.7867365     
   2360836810.3883238     
   2295789552.2712660     
   2564752020.9578161     
   2457177345.7664495     
   2385297079.7676849     
   2351308089.9292140     
   2358988779.5619469     
   2489910350.8589115     
   2342970281.6119709     
   2209087959.3650308     
   2088844544.3255532     
   1983683951.4478714     
   2350702109.2496986     
   2244198472.2742290     
   2147675008.5451899     
   2061671189.5762298     
   1987015488.4374046     
   2289117483.4071302     
   2215800964.2629447     
   2147345760.2875340     
   2083903323.5782037     
   2025668155.6964171     
   2295789552.2712660     
   2249635799.2251034     
   2201787615.3285842     
   2151772356.6198826     
   2099168150.3674018     
   2358988779.5619469     
   2334729667.1492238     
   2301885676.7959437     
   2259162099.7417679     
   2205487137.7721057     
   1983683951.4478714     
   1856596125.8875928     
   1726601329.6857729     
   1593695906.9249432     
   1458069243.6785512     
   1987015488.4374046     
   1868401613.6044254     
   1752869655.5079522     
   1641292196.2614830     
   1534804407.1410611     
   2025668155.6964171     
   1922985993.4974096     
   1829828878.2014601     
   1747699706.1459668     
   1678237509.1720586     
   2099168150.3674018     
   2015657927.3394616     
   1947397821.6101980     
   1895926251.8944757     
   1862713112.6886206     
   2205487137.7721057     
   2140342560.8948250     
   2095159161.7457778     
   2071106578.0908809     
   2069221548.0359035     
   1458069243.6785512     
   1347252936.7292953     
   1272401696.2306259     
   1241858463.1747274     
   1263023360.6836300     
   1534804407.1410611     
   1473925993.8911221     
   1446031786.8288176     
   1455039294.9953840     
   1504350780.0522513     
   1678237509.1720586     
   1650837202.1024213     
   1650730109.7654591     
   1680194753.7125475     
   1741890063.0459702     
   1862713112.6886206     
   1854255360.5906992     
   1867689441.1843388     
   1905151647.8250492     
   1969691452.9220908     
   2069221548.0359035     
   2068958115.3419716     
   2086222100.5685520     
   2123590552.9461124     
   2184857680.6616931     
   1263023360.6836300     
   1447483914.1311054     
   1716694182.3198035     
   2110899366.1351280     
   2662109429.0800247     
   1504350780.0522513     
   1613433593.1440976     
   1789491118.4839725     
   2067029119.0324495     
   2475902484.1758852     
   1741890063.0459702     
   1787280555.0817897     
   1884821167.7580857     
   2061263671.8897204     
   2341588320.3014855     
   1969691452.9220908     
   1968067043.5788848     
   2003260859.6824400     
   2093872143.4530802     
   2258415692.0359564     
   2184857680.6616931     
   2155127594.6826839     
   2145570357.6720958     
   2166719259.0883412     
   2229609704.9641247     
   5585590194.2077045     
   4398122385.8681431     
   3564158022.5530596     
   2934903811.6567116     
   2446647891.8625836     
   3684418113.0263920     
   3137165858.4635544     
   2855547080.4875422     
   2763480871.9277873     
   2822797491.2111897     
   2759255816.1993284     
   2660440077.4670234     
   2696216209.2910471     
   2845395437.3498621     
   3086505133.0100360     
   2439342539.1296496     
   2725843720.6906700     
   2967478813.2551398     
   3147621653.3115549     
   3265296244.8337970     
   2570197504.4348464     
   3127982768.2440639     
   3498011435.1818037     
   3605285171.0564208     
   3430749222.9201283     
   2446647891.8625836     
   2627479317.1461878     
   2810421126.0770311     
   2970038522.2159481     
   3091970986.1972609     
   2822797491.2111897     
   2906505457.7083883     
   2976314314.5785165     
   3025254093.4553165     
   3048484198.3837533     
   3086505133.0100360     
   3073239378.0005097     
   3053201067.3347597     
   3025709439.6372867     
   2990253933.6765556     
   3265296244.8337970     
   3159207513.3096428     
   3068354602.0631948     
   2992520449.3338881     
   2932149608.0314140     
   3430749222.9201283     
   3224692117.3600740     
   3067994697.9257221     
   2958134585.5282454     
   2894006752.3570795     
   3091970986.1972609     
   2989559937.7354212     
   2868954551.4513154     
   2727933971.7774453     
   2564752020.9578161     
   3048484198.3837533     
   2909108463.1196136     
   2766580419.7693548     
   2620588301.6332326     
   2470974251.9659286     
   2990253933.6765556     
   2835508571.2819152     
   2693956410.7709184     
   2567375160.6726274     
   2457763388.3163462     
   2932149608.0314140     
   2777535724.6052427     
   2653145872.4823294     
   2561676399.3822279     
   2506041676.7756324     
   2894006752.3570795     
   2745481315.6052785     
   2645241826.1161647     
   2595162300.2210817     
   2597399944.8559799     
   2564752020.9578161     
   2457177345.7664495     
   2385297079.7676849     
   2351308089.9292140     
   2358988779.5619469     
   2470974251.9659286     
   2429354331.8103828     
   2412437095.8940506     
   2420776796.4245157     
   2455322153.2039695     
   2457763388.3163462     
   2462339849.6879392     
   2477145703.9982524     
   2502235563.4177794     
   2537697425.7525382     
   2506041676.7756324     
   2543283710.5085173     
   2573661433.8179784     
   2597145939.9605088     
   2613722528.6646938     
   2597399944.8559799     
   2659206812.7280889     
   2695860607.6507668     
   2707103772.6995711     
   2692779436.6254582     
   2358988779.5619469     
   2334729667.1492238     
   2301885676.7959437     
   2259162099.7417679     
   2205487137.7721057     
   2455322153.2039695     
   2407934538.9268007     
   2361214026.8556657     
   2315041514.7772107     
   2269333583.0906286     
   2537697425.7525382     
   2476565280.1846571     
   2425651076.8679752     
   2385598105.1902261     
   2357001833.9308848     
   2613722528.6646938     
   2545073872.2357702     
   2496353454.1197596     
   2468401331.9039712     
   2462007828.6613226     
   2692779436.6254582     
   2618609400.7412682     
   2574556908.0382881     
   2561162012.1518350     
   2579004565.5610785     
   2205487137.7721057     
   2140342560.8948250     
   2095159161.7457778     
   2071106578.0908809     
   2069221548.0359035     
   2269333583.0906286     
   2228969105.7541246     
   2204769816.5481138     
   2197240752.1616149     
   2206818766.4121695     
   2357001833.9308848     
   2335815104.1277919     
   2326958630.8298969     
   2330593500.9312048     
   2346880238.7178268     
   2462007828.6613226     
   2455585378.2427654     
   2457771847.3558464     
   2468573134.3473268     
   2488044263.6383572     
   2579004565.5610785     
   2584036398.4029994     
   2594108484.3656087     
   2609172136.0596862     
   2629261895.0765796     
   2069221548.0359035     
   2068958115.3419716     
   2086222100.5685520     
   2123590552.9461124     
   2184857680.6616931     
   2206818766.4121695     
   2193042749.6022735     
   2193513990.6396208     
   2210202043.1791120     
   2246016338.1256208     
   2346880238.7178268     
   2321005517.6595459     
   2306809848.2106361     
   2305712105.8357825     
   2319782824.8558078     
   2488044263.6383572     
   2452196493.4284129     
   2425923077.6481519     
   2410174739.9348502     
   2406295982.8069334     
   2629261895.0765796     
   2586084691.0526514     
   2550681027.6355529     
   2523621672.7328558     
   2505669424.2446814     
   2184857680.6616931     
   2155127594.6826839     
   2145570357.6720958     
   2166719259.0883412     
   2229609704.9641247     
   2246016338.1256208     
   2181462150.1722889     
   2133608606.9866881     
   2112154711.3174531     
   2128056537.1252878     
   2319782824.8558078     
   2223690437.7315159     
   2140868867.7484002     
   2079730065.9113019     
   2050515223.9137371     
   2406295982.8069334     
   2282082516.0497284     
   2167988126.3780499     
   2070804686.0312161     
   1999400720.3152297     
   2505669424.2446814     
   2356817580.8516850     
   2215423810.3961225     
   2086517020.7634668     
   1977083092.8522906     
   2570197504.4348464     
   3127982768.2440639     
   3498011435.1818037     
   3605285171.0564208     
   3430749222.9201283     
   3294517104.9449382     
   3310357161.5552902     
   3249170011.6702118     
   3085527554.8131900     
   2806939892.2513294     
   3569169202.7216539     
   3184496084.3342233     
   2836677798.7331223     
   2538872046.8695517     
   2308657142.9388680     
   3417698565.4843168     
   2756107276.0881124     
   2270212650.6363297     
   1974692063.1999259     
   1888858426.0551901     
   3209804640.9415226     
   2254327491.0769162     
   1660183153.8017530     
   1419638817.9067996     
   1507375113.7890491     
   3430749222.9201283     
   3224692117.3600740     
   3067994697.9257221     
   2958134585.5282454     
   2894006752.3570795     
   2806939892.2513294     
   2743715185.4503078     
   2710898160.1417999     
   2707476105.5312934     
   2732952763.8972421     
   2308657142.9388680     
   2370673738.0495524     
   2442550978.8839998     
   2524024890.1885691     
   2614881149.3825741     
   1888858426.0551901     
   2066053192.1710384     
   2231064142.6797595     
   2383540110.3630795     
   2523338586.6617336     
   1507375113.7890491     
   1796789609.9434474     
   2049339902.6932042     
   2264770186.5856252     
   2443452106.3955979     
   2894006752.3570795     
   2745481315.6052785     
   2645241826.1161647     
   2595162300.2210817     
   2597399944.8559799     
   2732952763.8972421     
   2641999674.8171468     
   2583334544.0241032     
   2557364999.4559321     
   2564579288.4926786     
   2614881149.3825741     
   2569743772.8510966     
   2540613645.5206680     
   2527534476.8211536     
   2530569923.6659498     
   2523338586.6617336     
   2518778988.3332148     
   2513736575.1602721     
   2508131874.1425853     
   2501943508.0285258     
   2443452106.3955979     
   2479667735.4309812     
   2499219329.8825688     
   2501722361.2593608     
   2486983181.6888347     
   2597399944.8559799     
   2659206812.7280889     
   2695860607.6507668     
   2707103772.6995711     
   2692779436.6254582     
   2564579288.4926786     
   2603312776.5450644     
   2630477807.2862945     
   2645865337.0578947     
   2649315932.0747409     
   2530569923.6659498     
   2553120370.0070934     
   2577667262.9161196     
   2604174528.0507512     
   2632609589.0049334     
   2501943508.0285258     
   2511869811.2850661     
   2536969053.9409466     
   2577275310.1818986     
   2632802570.9403310     
   2486983181.6888347     
   2483184889.0071158     
   2507756869.1945171     
   2560695600.3580394     
   2641998015.6283865     
   2692779436.6254582     
   2618609400.7412682     
   2574556908.0382881     
   2561162012.1518350     
   2579004565.5610785     
   2649315932.0747409     
   2615168059.9545093     
   2601172490.7214446     
   2607454537.0260906     
   2634163722.4623833     
   2632609589.0049334     
   2631021696.6057129     
   2639750286.8843617     
   2658815282.5442162     
   2688244453.7952938     
   2632802570.9403310     
   2659548092.9924498     
   2686728266.0808859     
   2714345503.4090447     
   2742402832.4070168     
   2641998015.6283865     
   2695273212.9520612     
   2739012322.9267502     
   2773215437.3928409     
   2797883350.8605275     
   2579004565.5610785     
   2584036398.4029994     
   2594108484.3656087     
   2609172136.0596862     
   2629261895.0765796     
   2634163722.4623833     
   2630410917.4977980     
   2634031353.4334350     
   2645029636.9311223     
   2663445465.9616203     
   2688244453.7952938     
   2677089878.0235314     
   2675693316.5688796     
   2684073564.2564731     
   2702257756.5405602     
   2742402832.4070168     
   2724725521.4202871     
   2719310611.7787061     
   2726168024.9974470     
   2745306685.0906310     
   2797883350.8605275     
   2774000512.9928827     
   2765098248.6644883     
   2771175801.3820701     
   2792233270.1306200     
   2629261895.0765796     
   2586084691.0526514     
   2550681027.6355529     
   2523621672.7328558     
   2505669424.2446814     
   2663445465.9616203     
   2616355945.7074533     
   2575812722.0611110     
   2542136096.1723094     
   2515762506.1601896     
   2702257756.5405602     
   2652944392.6170521     
   2609122896.6268282     
   2570934830.7193089     
   2538577207.6688309     
   2745306685.0906310     
   2695583836.3802361     
   2650449965.8456068     
   2609940542.5080266     
   2574106870.4676809     
   2792233270.1306200     
   2744020067.5816441     
   2699626056.9606919     
   2659050898.4225006     
   2622294473.3347640     
   2505669424.2446814     
   2356817580.8516850     
   2215423810.3961225     
   2086517020.7634668     
   1977083092.8522906     
   2515762506.1601896     
   2348382388.7592635     
   2184225017.0285029     
   2026411303.3711684     
   1879554641.6626146     
   2538577207.6688309     
   2357860660.9668984     
   2176934632.9322405     
   1997273625.5343347     
   1821163096.6178572     
   2574106870.4676809     
   2385386783.0095749     
   2194033658.5635953     
   2000422321.4296417     
   1805149549.8780999     
   2622294473.3347640     
   2430961563.7819300     
   2235682344.5930958     
   2036456782.9199491     
   1833284905.3126853     
   3209804640.9415226     
   2254327491.0769162     
   1660183153.8017530     
   1419638817.9067996     
   1507375113.7890491     
   2945848763.1050653     
   2439251478.2970572     
   2111821001.4219120     
   1980618949.1788044     
   2064729658.9439468     
   3114517323.7847948     
   2873791613.6583834     
   2704519155.4698653     
   2622536276.8155937     
   2639105251.5372458     
   3152148192.1815553     
   3225178318.9001961     
   3294034730.1119719     
   3315166543.8052454     
   3262456261.2955432     
   2984764478.2083397     
   3487429510.0816798     
   3874155682.2908292     
   4048450814.5592332     
   3972543348.1471982     
   1507375113.7890491     
   1796789609.9434474     
   2049339902.6932042     
   2264770186.5856252     
   2443452106.3955979     
   2064729658.9439468     
   2218407111.0939541     
   2351640697.8099089     
   2463993576.4148679     
   2555630250.3593621     
   2639105251.5372458     
   2659479622.6425872     
   2676542149.7474051     
   2689650493.2686934     
   2698699995.2108917     
   3262456261.2955432     
   3151165072.0850291     
   3053525654.3540778     
   2968713275.7918324     
   2896289790.3472643     
   3972543348.1471982     
   3728736518.4571109     
   3514784279.0659089     
   3329567870.4349914     
   3172165476.2664013     
   2443452106.3955979     
   2479667735.4309812     
   2499219329.8825688     
   2501722361.2593608     
   2486983181.6888347     
   2555630250.3593621     
   2546549210.9739547     
   2539860711.7859602     
   2535339840.8482909     
   2532845551.3856301     
   2698699995.2108917     
   2641616123.2014861     
   2605305028.3026552     
   2589624778.9226875     
   2594458211.8878312     
   2896289790.3472643     
   2781118490.4857502     
   2704240247.5435414     
   2665809606.9580221     
   2666095067.2145500     
   3172165476.2664013     
   2980955862.2220154     
   2844613592.1242948     
   2764590316.0731168     
   2742841915.9775586     
   2486983181.6888347     
   2483184889.0071158     
   2507756869.1945171     
   2560695600.3580394     
   2641998015.6283865     
   2532845551.3856301     
   2533750962.3288445     
   2551837304.3059187     
   2587134133.6147604     
   2639659401.8241801     
   2594458211.8878312     
   2598347612.8665576     
   2608480099.8224592     
   2624891609.3881083     
   2647613780.1548920     
   2666095067.2145500     
   2675506951.9513850     
   2680030134.1518855     
   2679599792.7663941     
   2674182754.8417730     
   2742841915.9775586     
   2763747555.0402923     
   2768624189.2585988     
   2757298527.7399511     
   2729677161.5327401     
   2641998015.6283865     
   2695273212.9520612     
   2739012322.9267502     
   2773215437.3928409     
   2797883350.8605275     
   2639659401.8241801     
   2664084541.4108748     
   2689203087.3303185     
   2715018290.9827151     
   2741540380.0797930     
   2647613780.1548920     
   2641452074.4274526     
   2646080506.3528728     
   2661504451.0339370     
   2687753305.4516335     
   2674182754.8417730     
   2633163454.1125455     
   2612961166.8113585     
   2613649464.6741047     
   2635358417.6942706     
   2729677161.5327401     
   2646180158.0982428     
   2593639783.2662954     
   2572488549.0358415     
   2583256223.9709225     
   2797883350.8605275     
   2774000512.9928827     
   2765098248.6644883     
   2771175801.3820701     
   2792233270.1306200     
   2741540380.0797930     
   2724346724.1253386     
   2719527883.4218311     
   2727090477.7201443     
   2747044912.6139307     
   2687753305.4516335     
   2677075537.8719144     
   2676375635.6277843     
   2685670460.0057826     
   2704988181.7032261     
   2635358417.6942706     
   2631567425.0415125     
   2635471174.8098693     
   2647080167.9049482     
   2666434093.4644270     
   2583256223.9709225     
   2587221818.9208069     
   2596640550.6396527     
   2611485754.7916622     
   2631791711.6610513     
   2792233270.1306200     
   2744020067.5816441     
   2699626056.9606919     
   2659050898.4225006     
   2622294473.3347640     
   2747044912.6139307     
   2696750110.2347097     
   2651068921.4580779     
   2610034616.6532884     
   2573692146.0251255     
   2704988181.7032261     
   2654780943.8659115     
   2610115446.2530513     
   2571132439.6366992     
   2538025961.2980919     
   2666434093.4644270     
   2618374706.0122099     
   2576937649.7716231     
   2542447751.7061448     
   2515352036.4038682     
   2631791711.6610513     
   2587808403.7780361     
   2551702728.4014635     
   2524059357.1752090     
   2505675080.3187852     
   2622294473.3347640     
   2430961563.7819300     
   2235682344.5930958     
   2036456782.9199491     
   1833284905.3126853     
   2573692146.0251255     
   2385179161.2366371     
   2194029321.0743985     
   2000624602.9284034     
   1805576153.9682333     
   2538025961.2980919     
   2357604531.7546992     
   2176963050.5142860     
   1997576288.4974241     
   1821729951.2135324     
   2515352036.4038682     
   2348236685.2063603     
   2184323857.7064285     
   2026714798.0438302     
   1879985809.3717041     
   2505675080.3187852     
   2356939412.0310011     
   2215629501.9343462     
   2086725197.9631579     
   1977126255.0780737     
   2984764478.2083397     
   3487429510.0816798     
   3874155682.2908292     
   4048450814.5592332     
   3972543348.1471982     
   2747092603.3995156     
   3066030194.0033088     
   3304960263.6666641     
   3461464309.5378599     
   3537862780.2118373     
   2964855455.5712485     
   2877983965.8042989     
   2889920075.1523128     
   2987720428.2767029     
   3158711929.9471736     
   3699007085.7111688     
   3169515431.2720246     
   2873999633.4809365     
   2757449753.8146782     
   2793185055.1850686     
   5255231162.0586615     
   4239921204.8538833     
   3495981267.4862266     
   2902361365.3596940     
   2437517073.4933171     
   3972543348.1471982     
   3728736518.4571109     
   3514784279.0659089     
   3329567870.4349914     
   3172165476.2664013     
   3537862780.2118373     
   3416404532.0008945     
   3303144744.1368980     
   3197522501.7852507     
   3099201306.8496356     
   3158711929.9471736     
   3144418435.7642694     
   3122231935.2443957     
   3091927440.5918493     
   3053427908.1452031     
   2793185055.1850686     
   2865901760.3735156     
   2926316279.6155620     
   2971695348.3547320     
   3000158872.6039891     
   2437517073.4933171     
   2559889446.5547886     
   2688572059.3283424     
   2809979485.2324262     
   2915177658.9184480     
   3172165476.2664013     
   2980955862.2220154     
   2844613592.1242948     
   2764590316.0731168     
   2742841915.9775586     
   3099201306.8496356     
   2923462664.8785648     
   2781168934.2470403     
   2675172028.1436014     
   2608735648.1588407     
   3053427908.1452031     
   2893073662.3866954     
   2748278687.5649066     
   2621328357.5669613     
   2514766875.6790872     
   3000158872.6039891     
   2867234742.3031859     
   2735191827.5933299     
   2603763453.4454627     
   2472837869.7134356     
   2915177658.9184480     
   2828874936.0985708     
   2732442836.3416581     
   2621819614.5474010     
   2493658381.3015299     
   2742841915.9775586     
   2763747555.0402923     
   2768624189.2585988     
   2757298527.7399511     
   2729677161.5327401     
   2608735648.1588407     
   2623876681.5395818     
   2635588177.7581105     
   2643791631.7605457     
   2648423412.2565470     
   2514766875.6790872     
   2515670550.7207060     
   2524724232.7648644     
   2542073504.8701124     
   2567876290.4256349     
   2472837869.7134356     
   2446466003.6105490     
   2438013710.8371749     
   2448374327.0108685     
   2478626718.7264853     
   2493658381.3015299     
   2422856971.9384651     
   2377296899.1490088     
   2359620433.0698690     
   2373273866.3485274     
   2729677161.5327401     
   2646180158.0982428     
   2593639783.2662954     
   2572488549.0358415     
   2583256223.9709225     
   2648423412.2565470     
   2570855766.4857621     
   2513825006.3922372     
   2478160899.0603070     
   2464680771.7427726     
   2567876290.4256349     
   2498257308.6219578     
   2439437776.9251423     
   2392124245.3991747     
   2356989004.1352611     
   2478626718.7264853     
   2423094534.2550778     
   2369043321.5368252     
   2316428910.0720553     
   2265238605.7557693     
   2373273866.3485274     
   2340948978.6214285     
   2301403467.6837344     
   2253308077.1413975     
   2195557508.3450799     
   2583256223.9709225     
   2587221818.9208069     
   2596640550.6396527     
   2611485754.7916622     
   2631791711.6610513     
   2464680771.7427726     
   2457755234.3176827     
   2459540629.1179767     
   2470057407.3554702     
   2489363285.7679968     
   2356989004.1352611     
   2336253953.7190557     
   2327652824.0335073     
   2331345201.9841890     
   2347488220.7839932     
   2265238605.7557693     
   2226739157.0601811     
   2203929927.0007606     
   2197282467.5427394     
   2207206584.9872146     
   2195557508.3450799     
   2134218709.8089805     
   2092125719.1276803     
   2070356132.4671276     
   2069862108.3254187     
   2631791711.6610513     
   2587808403.7780361     
   2551702728.4014635     
   2524059357.1752090     
   2505675080.3187852     
   2489363285.7679968     
   2453108646.8116131     
   2426524383.8182940     
   2410568217.5885143     
   2406607994.4242549     
   2347488220.7839932     
   2321419306.4823551     
   2307118742.8600101     
   2306006693.2572908     
   2320159692.1458421     
   2207206584.9872146     
   2193265130.8678870     
   2193654601.9430337     
   2210341822.3199630     
   2246218332.8310456     
   2069862108.3254187     
   2069285598.1064465     
   2086313350.8733068     
   2123518505.9077504     
   2184648027.4923463     
   2505675080.3187852     
   2356939412.0310011     
   2215629501.9343462     
   2086725197.9631579     
   1977126255.0780737     
   2406607994.4242549     
   2282322475.1242657     
   2168130384.6098986     
   2070795128.9646277     
   1999139400.7858901     
   2320159692.1458421     
   2223914623.5627255     
   2140923492.1466928     
   2079600105.7033007     
   2050189470.3891528     
   2246218332.8310456     
   2181537574.4723506     
   2133550877.2457476     
   2111995294.7987618     
   2127881098.8797145     
   2184648027.4923463     
   2154923446.4991145     
   2145375925.1484947     
   2166614731.1805420     
   2229774665.2223945     
   5255231162.0586615     
   4239921204.8538833     
   3495981267.4862266     
   2902361365.3596940     
   2437517073.4933171     
   6544697554.1667786     
   5419202979.4893379     
   4356853408.6195078     
   3361688788.6082840     
   2516144740.0576820     
   7340729352.9894876     
   6132146704.7858667     
   4950788826.0667639     
   3825953770.7870111     
   2834366707.5528035     
   7377754009.4513359     
   6298111479.8638725     
   5275564511.0409431     
   4294766056.9527407     
   3349155930.7623405     
   6576186214.7720222     
   5911005379.5130663     
   5354426021.6107864     
   4769861371.3971853     
   4050851262.5920081     
   2437517073.4933171     
   2559889446.5547886     
   2688572059.3283424     
   2809979485.2324262     
   2915177658.9184480     
   2516144740.0576820     
   2639046619.1927910     
   2761550536.5563736     
   2880286607.6908789     
   2992973279.0605431     
   2834366707.5528035     
   2895719753.5551181     
   2970602003.4892287     
   3056538196.9004707     
   3151582224.5742946     
   3349155930.7623405     
   3315496239.0211024     
   3315220460.0597510     
   3343002845.3668685     
   3394601192.0241890     
   4050851262.5920081     
   3901049488.5020075     
   3802360935.6317806     
   3746073274.6115513     
   3725382403.3345704     
   2915177658.9184480     
   2828874936.0985708     
   2732442836.3416581     
   2621819614.5474010     
   2493658381.3015299     
   2992973279.0605431     
   2908532751.6601477     
   2818829303.9599314     
   2722636267.1483870     
   2618853720.0264363     
   3151582224.5742946     
   3049039809.6984496     
   2947500978.6840792     
   2847183934.3751554     
   2748367015.7978539     
   3394601192.0241890     
   3253386993.9151764     
   3119490357.9494586     
   2993336747.9148769     
   2875916326.5816770     
   3725382403.3345704     
   3523575771.3596416     
   3334865959.0442600     
   3158900885.6224632     
   2996888626.8338766     
   2493658381.3015299     
   2422856971.9384651     
   2377296899.1490088     
   2359620433.0698690     
   2373273866.3485274     
   2618853720.0264363     
   2515641086.7900081     
   2427798711.8156133     
   2357598544.6584845     
   2307880464.5202832     
   2748367015.7978539     
   2624837220.8451672     
   2507900658.8416147     
   2398742169.3724747     
   2298812361.4573045     
   2875916326.5816770     
   2747652697.3442044     
   2618435628.3916321     
   2488234169.1286073     
   2357048900.7241797     
   2996888626.8338766     
   2881576203.1947026     
   2759364289.1931372     
   2629455085.6467552     
   2491233998.4849367     
   2373273866.3485274     
   2340948978.6214285     
   2301403467.6837344     
   2253308077.1413975     
   2195557508.3450799     
   2307880464.5202832     
   2255154910.4370127     
   2201422006.0046864     
   2146146614.4433193     
   2088857502.5616360     
   2298812361.4573045     
   2220781020.5309782     
   2147622593.8110504     
   2079425717.5416286     
   2016332230.5842655     
   2357048900.7241797     
   2248140309.1820030     
   2148705402.0058975     
   2059225520.0916622     
   1980447399.3976140     
   2491233998.4849367     
   2344754082.3375978     
   2210561883.4639816     
   2089189938.4179010     
   1981923686.1463075     
   2195557508.3450799     
   2134218709.8089805     
   2092125719.1276803     
   2070356132.4671276     
   2069862108.3254187     
   2088857502.5616360     
   2008854764.9849823     
   1943748868.4695761     
   1894994679.8440042     
   1863968486.8770268     
   2016332230.5842655     
   1916490190.4408290     
   1826115485.2253628     
   1746672322.9484026     
   1679745980.2927606     
   1980447399.3976140     
   1863572135.8702891     
   1749923167.1990471     
   1640398008.8552592     
   1536162693.3938918     
   1981923686.1463075     
   1855054760.9231381     
   1725511605.2204497     
   1593354311.0708017     
   1458868046.3473928     
   2069862108.3254187     
   2069285598.1064465     
   2086313350.8733068     
   2123518505.9077504     
   2184648027.4923463     
   1863968486.8770268     
   1855012594.8665042     
   1867982693.2350791     
   1905024294.1168592     
   1969170455.7674315     
   1679745980.2927606     
   1651795544.6969423     
   1651134908.1496644     
   1680058168.3072114     
   1741233240.4460621     
   1536162693.3938918     
   1474822069.5396190     
   1446436992.4159076     
   1454932189.1824968     
   1503734166.0241261     
   1458868046.3473928     
   1347791022.9587345     
   1272663672.9421751     
   1241803739.3288438     
   1262624117.8390110     
   2184648027.4923463     
   2154923446.4991145     
   2145375925.1484947     
   2166614731.1805420     
   2229774665.2223945     
   1969170455.7674315     
   1967724373.4612372     
   2003089383.8515916     
   2093907281.7005930     
   2258753766.0114465     
   1741233240.4460621     
   1786893604.7026222     
   1884690548.4883475     
   2061382310.4552367     
   2341961780.0646119     
   1503734166.0241261     
   1613099563.7153614     
   1789421513.5709832     
   2067178373.0506802     
   2476189770.9381566     
   1262624117.8390110     
   1447304298.8511903     
   1716706413.0271332     
   2111023055.0348728     
   2662189114.5034647     
   6576186214.7720222     
   5911005379.5130663     
   5354426021.6107864     
   4769861371.3971853     
   4050851262.5920081     
   5674363591.8533506     
   5371571259.2642145     
   5073667547.4986544     
   4732315335.1806202     
   4317345056.4331980     
   5417311821.0294037     
   5213985053.2384167     
   5018159750.5161896     
   4821952762.1642675     
   4622276105.8258686     
   5777823786.4904127     
   5476696835.2249374     
   5239259862.8827782     
   5043371020.1598091     
   4881340724.4588470     
   6744543105.3012905     
   6203888668.3082838     
   5772970689.0637922     
   5391376038.2394648     
   5046408398.8337765     
   4050851262.5920081     
   3901049488.5020075     
   3802360935.6317806     
   3746073274.6115513     
   3725382403.3345704     
   4317345056.4331980     
   4213300422.5369167     
   4125145928.0110631     
   4050771981.2197256     
   3988831572.1990628     
   4622276105.8258686     
   4534341239.2417498     
   4444080137.7871656     
   4351162257.5906868     
   4255807835.2713652     
   4881340724.4588470     
   4809004850.1074867     
   4726119517.1137581     
   4630600425.3669415     
   4522266368.3849802     
   5046408398.8337765     
   5006174988.3894815     
   4952583308.9942665     
   4879773518.9051037     
   4786842137.2154446     
   3725382403.3345704     
   3523575771.3596416     
   3334865959.0442600     
   3158900885.6224632     
   2996888626.8338766     
   3988831572.1990628     
   3743941365.4855652     
   3506821072.6508703     
   3277533218.7208734     
   3057025238.8729877     
   4255807835.2713652     
   3976964922.4934173     
   3703132177.3025584     
   3434463930.0417209     
   3171609470.7243981     
   4522266368.3849802     
   4218609003.5372787     
   3919577640.6997142     
   3625202972.9777751     
   3335918984.6797023     
   4786842137.2154446     
   4466594835.5426502     
   4152830261.8979225     
   3845210313.9805140     
   3543953310.2746506     
   2996888626.8338766     
   2881576203.1947026     
   2759364289.1931372     
   2629455085.6467552     
   2491233998.4849367     
   3057025238.8729877     
   2953908710.3395505     
   2847901559.8853912     
   2738676758.1724410     
   2625987183.6579776     
   3171609470.7243981     
   3075058971.7045245     
   2978266697.7959533     
   2881149603.8111992     
   2783631586.3245225     
   3335918984.6797023     
   3238342193.3699784     
   3141626317.5426784     
   3045820302.1111484     
   2950994661.2690196     
   3543953310.2746506     
   3436627554.5702043     
   3329846904.4127040     
   3223750649.1134667     
   3118614668.9853549     
   2491233998.4849367     
   2344754082.3375978     
   2210561883.4639816     
   2089189938.4179010     
   1981923686.1463075     
   2625987183.6579776     
   2463600230.6817498     
   2307183231.9825273     
   2157276934.5203323     
   2014912876.3541727     
   2783631586.3245225     
   2609147468.7420692     
   2436105786.3073506     
   2264744563.4176350     
   2095511895.4709845     
   2950994661.2690196     
   2771209587.8857722     
   2589964562.9210625     
   2407211630.2831216     
   2222979650.9271159     
   3118614668.9853549     
   2941983058.5613561     
   2762404999.2910242     
   2579756089.8029766     
   2394099785.7276344     
   1981923686.1463075     
   1855054760.9231381     
   1725511605.2204497     
   1593354311.0708017     
   1458868046.3473928     
   2014912876.3541727     
   1881199262.0905902     
   1746591151.7304001     
   1611106321.8905790     
   1474790451.2053175     
   2095511895.4709845     
   1957388811.7583323     
   1820466576.8030534     
   1684726262.7625818     
   1550183980.2078974     
   2222979650.9271159     
   2080120135.9341547     
   1940248602.9997733     
   1803249705.5908241     
   1669208005.3919458     
   2394099785.7276344     
   2243637380.3609266     
   2097293448.1278486     
   1954830777.9810338     
   1816514306.5318956     
   1458868046.3473928     
   1347791022.9587345     
   1272663672.9421751     
   1241803739.3288438     
   1262624117.8390110     
   1474790451.2053175     
   1329198604.3977911     
   1198609793.8316464     
   1087756336.1944554     
   1002855552.8221884     
   1550183980.2078974     
   1399781465.3916545     
   1245779315.0958495     
   1085858778.7382998     
   917929301.59845054     
   1669208005.3919458     
   1554751232.4765315     
   1430478499.6928630     
   1296591019.2161832     
   1159355907.4206519     
   1816514306.5318956     
   1779268734.2048464     
   1737196654.8711169     
   1699184545.3700235     
   1684791667.0581491     
   1262624117.8390110     
   1447304298.8511903     
   1716706413.0271332     
   2111023055.0348728     
   2662189114.5034647     
   1002855552.8221884     
   1165405450.0042100     
   1425603312.1471732     
   1808177510.9019790     
   2333266673.7428384     
   917929301.59845054     
   963068213.53165185     
   1144305450.5073798     
   1475562974.4072256     
   1957087777.6849866     
   1159355907.4206519     
   1008138064.3390262     
   984201268.86220133     
   1160862641.6422675     
   1546085176.5799639     
   1684791667.0581491     
   1385322121.4300699     
   1129211276.8672354     
   1009695429.5317369     
   1157370099.8749976     
 </DataArray>
 <DataArray  type="Float64" Name="strain" NumberOfComponents="3" format="ascii">
  0.11264606730832893       -3.5924927411407959E-002   3.7090513245641166E-003
  0.10523929661695286       -2.8543627133634453E-002  -8.0831081387894299E-003
   9.7832525925576674E-002  -2.4006504895321912E-002  -1.3924950098374356E-002
   9.0425755234200544E-002  -2.2313560696470738E-002  -1.3816474554190494E-002
   8.3018984542824414E-002  -2.3464794537080280E-002  -7.7576815062379012E-003
   9.4991804488396059E-002  -3.2928691866186077E-002   8.5300093293723123E-003
   9.1544969351426864E-002  -2.6963096443819945E-002   4.6405857030449860E-003
   8.8098134214457724E-002  -2.3188215225844744E-002   2.7207156817627975E-003
   8.4651299077488557E-002  -2.1604048212260349E-002   2.7703992655260523E-003
   8.1204463940519445E-002  -2.2210595403066802E-002   4.7896364543344450E-003
   8.9748105576777260E-002  -2.9932456320964085E-002   1.1608530561237618E-002
   8.6280442095491516E-002  -2.5382565754005437E-002   1.6275306607006712E-002
   8.2812778614205856E-002  -2.2369925556367382E-002   1.8930872359097878E-002
   7.9345115132920141E-002  -2.0894535728050175E-002   1.9575227817510379E-002
   7.5877451651634453E-002  -2.0956396269053434E-002   1.8208372982245091E-002
   9.6914970573472398E-002  -2.6936220775742092E-002   1.2944615020160352E-002
   8.9445714849146735E-002  -2.3802035064190874E-002   2.6821054573096456E-002
   8.1976459124820961E-002  -2.1551635886890116E-002   3.4705519933630684E-002
   7.4507203400495339E-002  -2.0185023243839837E-002   3.6598011101763084E-002
   6.7037947676169565E-002  -1.9702197135040012E-002   3.2498528077493843E-002
  0.11649239947848183       -2.3939985230520155E-002   1.2538262706140724E-002
  0.10104078761239255       -2.2221504374376366E-002   3.6277829601313760E-002
   8.5589175746303287E-002  -2.0733346217412796E-002   5.0044658405361597E-002
   7.0137563880213985E-002  -1.9475510759629666E-002   5.3838749118284041E-002
   5.4685952014124684E-002  -1.8447998001026644E-002   4.7660101740080951E-002
   8.3018984542824414E-002  -2.3464794537080280E-002  -7.7576815062379012E-003
   8.2296574661198718E-002  -2.5398014870323893E-002  -4.1799181842166466E-003
   8.1574164779573022E-002  -2.6051030149375154E-002  -1.6749644926660756E-003
   8.0851754897947326E-002  -2.5423840374233259E-002  -2.4282043158535549E-004
   8.0129345016321629E-002  -2.3516445544899289E-002   1.1651399902468107E-004
   8.1204463940519445E-002  -2.2210595403066802E-002   4.7896364543344450E-003
   7.9782488112051853E-002  -2.3456250853180011E-002   6.3245031433891430E-003
   7.8360512283584288E-002  -2.3789408617515356E-002   7.5330475692304555E-003
   7.6938536455116738E-002  -2.3210068696073262E-002   8.4152697318583269E-003
   7.5516560626649187E-002  -2.1718231088853068E-002   8.9711696312725353E-003
   7.5877451651634453E-002  -2.0956396269053434E-002   1.8208372982245091E-002
   7.4502397243581917E-002  -2.1514486836035851E-002   1.7332635669918384E-002
   7.3127342835529296E-002  -2.1527787085655448E-002   1.6877063461635172E-002
   7.1752288427476676E-002  -2.0996297017912488E-002   1.6841656357395325E-002
   7.0377234019424084E-002  -1.9920016632807180E-002   1.7226414357198738E-002
   6.7037947676169565E-002  -1.9702197135040012E-002   3.2498528077493843E-002
   6.6456302055788771E-002  -1.9572722818891830E-002   2.8844479395370805E-002
   6.5874656435408019E-002  -1.9266165553795817E-002   2.6357083184547797E-002
   6.5293010815027211E-002  -1.8782525339752325E-002   2.5036339445025250E-002
   6.4711365194646431E-002  -1.8121802176761015E-002   2.4882248176802735E-002
   5.4685952014124684E-002  -1.8447998001026644E-002   4.7660101740080951E-002
   5.5644202548672583E-002  -1.7630958801747754E-002   4.0860034319746164E-002
   5.6602453083220428E-002  -1.7004544021936130E-002   3.5973106737968746E-002
   5.7560703617768300E-002  -1.6568753661591898E-002   3.2999318994748311E-002
   5.8518954152316227E-002  -1.6323587720715127E-002   3.1938671090085025E-002
   8.0129345016321629E-002  -2.3516445544899289E-002   1.1651399902468107E-004
   7.4921155310379239E-002  -2.1212058921966093E-002  -3.2475914145679852E-006
   6.9712965604436794E-002  -1.9393893766028736E-002  -1.6546281617291214E-004
   6.4504775898494349E-002  -1.8061950077085887E-002  -3.7013167525035140E-004
   5.9296586192551959E-002  -1.7216227855139099E-002  -6.1725416864688576E-004
   7.5516560626649187E-002  -2.1718231088853068E-002   8.9711696312725353E-003
   7.0407071599851434E-002  -1.9929788462362152E-002   8.0632655796290531E-003
   6.5297582573053792E-002  -1.8460633483107558E-002   7.3952165205943277E-003
   6.0188093546256066E-002  -1.7310766151088314E-002   6.9670224541676096E-003
   5.5078604519458396E-002  -1.6480186466304891E-002   6.7786833803499258E-003
   7.0377234019424084E-002  -1.9920016632807180E-002   1.7226414357198738E-002
   6.5648754298698819E-002  -1.8647518002758268E-002   1.5697301664110208E-002
   6.0920274577973554E-002  -1.7527373200186158E-002   1.4690352590558176E-002
   5.6191794857248289E-002  -1.6559582225089964E-002   1.4205567136542391E-002
   5.1463315136523052E-002  -1.5744145077470462E-002   1.4242945302062771E-002
   6.4711365194646431E-002  -1.8121802176761015E-002   2.4882248176802735E-002
   6.0646203406921326E-002  -1.7365247543154466E-002   2.2898860662029036E-002
   5.6581041619196221E-002  -1.6594112917264980E-002   2.1719945393719409E-002
   5.2515879831471074E-002  -1.5808398299091891E-002   2.1345502371873680E-002
   4.8450718043745955E-002  -1.5008103688635921E-002   2.1775531596491968E-002
   5.8518954152316227E-002  -1.6323587720715127E-002   3.1938671090085025E-002
   5.5399418924518939E-002  -1.6082977083550554E-002   2.9667942573385564E-002
   5.2279883696721652E-002  -1.5660852634343594E-002   2.8483994930077611E-002
   4.9160348468924364E-002  -1.5057214373093906E-002   2.8386828160161720E-002
   4.6040813241127077E-002  -1.4272062299801713E-002   2.9376442263637226E-002
   5.9296586192551959E-002  -1.7216227855139099E-002  -6.1725416864688576E-004
   5.7397035317219514E-002  -1.6652761653131232E-002  -1.1125929197202122E-003
   5.5497484441886957E-002  -1.6167586024005642E-002  -1.0870806134327671E-003
   5.3597933566554457E-002  -1.5760700967762512E-002  -5.4071724978399516E-004
   5.1698382691221956E-002  -1.5432106484402075E-002   5.2649717122554840E-004
   5.5078604519458396E-002  -1.6480186466304891E-002   6.7786833803499258E-003
   5.3541337385726862E-002  -1.5837536102966121E-002   6.6600388194069660E-003
   5.2004070251995355E-002  -1.5251456735280222E-002   6.7451106843048336E-003
   5.0466803118263889E-002  -1.4721948363247597E-002   7.0338989750434455E-003
   4.8929535984532369E-002  -1.4249010986868038E-002   7.5264036916231625E-003
   5.1463315136523052E-002  -1.5744145077470462E-002   1.4242945302062771E-002
   4.9971197112872345E-002  -1.5022310552800622E-002   1.4522714508479667E-002
   4.8479079089221611E-002  -1.4335327446554552E-002   1.4689065509216975E-002
   4.6986961065570945E-002  -1.3683195758732343E-002   1.4741998304275181E-002
   4.5494843041920224E-002  -1.3065915489333668E-002   1.4681512893654047E-002
   4.8450718043745955E-002  -1.5008103688635921E-002   2.1775531596491968E-002
   4.6686614498655868E-002  -1.4207085002635539E-002   2.2475434147498002E-002
   4.4922510953565725E-002  -1.3419198157829229E-002   2.2744783861304456E-002
   4.3158407408475638E-002  -1.2644443154217259E-002   2.2583580737911366E-002
   4.1394303863385558E-002  -1.1882819991799243E-002   2.1991824777318883E-002
   4.6040813241127077E-002  -1.4272062299801713E-002   2.9376442263637226E-002
   4.3687589543077388E-002  -1.3391859452470567E-002   3.0518197736461639E-002
   4.1334365845027699E-002  -1.2503068869103628E-002   3.0912265740566824E-002
   3.8981142146978009E-002  -1.1605690549701939E-002   3.0558646275951951E-002
   3.6627918448928320E-002  -1.0699724494265039E-002   2.9457339342617628E-002
   5.1698382691221956E-002  -1.5432106484402075E-002   5.2649717122554840E-004
   4.8753536115597851E-002  -1.5014392031061807E-002   7.0966215448864389E-004
   4.5808689539973746E-002  -1.4340147064880127E-002   6.8935854999996327E-004
   4.2863842964349669E-002  -1.3409371585856103E-002   4.6558635776039470E-004
   3.9918996388725536E-002  -1.2222065593990861E-002   3.8345577769050010E-005
   4.8929535984532369E-002  -1.4249010986868038E-002   7.5264036916231625E-003
   4.5884672217501365E-002  -1.3720898010386007E-002   7.3589001896570139E-003
   4.2839808450470418E-002  -1.3025862838047797E-002   7.1948308926280125E-003
   3.9794944683439415E-002  -1.2163905469852479E-002   7.0341958005370464E-003
   3.6750080916408412E-002  -1.1135025905800289E-002   6.8769949133833386E-003
   4.5494843041920224E-002  -1.3065915489333668E-002   1.4681512893654047E-002
   4.2556864876171135E-002  -1.2427403989710595E-002   1.4073732589474253E-002
   3.9618886710422033E-002  -1.1711578611215662E-002   1.3676289282920501E-002
   3.6680908544672965E-002  -1.0918439353848848E-002   1.3489182973992778E-002
   3.3742930378923869E-002  -1.0047986217609828E-002   1.3512413662691847E-002
   4.1394303863385558E-002  -1.1882819991799243E-002   2.1991824777318883E-002
   3.8770114091607084E-002  -1.1133909969034989E-002   2.0854159353940013E-002
   3.6145924319828604E-002  -1.0397294384383429E-002   2.0133733720876790E-002
   3.3521734548050144E-002  -9.6729732378449985E-003   1.9830547878127974E-002
   3.0897544776271657E-002  -8.9609465294192003E-003   1.9944601825694630E-002
   3.6627918448928320E-002  -1.0699724494265039E-002   2.9457339342617628E-002
   3.4524419863809164E-002  -9.8404159483593823E-003   2.7700180483055337E-002
   3.2420921278690118E-002  -9.0830101575512245E-003   2.6567164206497018E-002
   3.0317422693571072E-002  -8.4275071218411005E-003   2.6058290512942422E-002
   2.8213924108451915E-002  -7.8739068412287949E-003   2.6173559402391744E-002
   3.9918996388725536E-002  -1.2222065593990861E-002   3.8345577769050010E-005
   3.7476145320595400E-002  -1.1063746246904316E-002  -4.0686720856619729E-004
   3.5033294252465208E-002  -1.0219930702219493E-002  -6.5429874667333188E-004
   3.2590443184335072E-002  -9.6906189599335057E-003  -7.0394903655279784E-004
   3.0147592116204880E-002  -9.4758110200496848E-003  -5.5581807820348494E-004
   3.6750080916408412E-002  -1.1135025905800289E-002   6.8769949133833386E-003
   3.4458514384160144E-002  -1.0124884551546476E-002   6.2875991406072806E-003
   3.2166947851911931E-002  -9.3191418127460679E-003   5.8029911913674015E-003
   2.9875381319663691E-002  -8.7177976893990650E-003   5.4231710656631738E-003
   2.7583814787415450E-002  -8.3208521815054670E-003   5.1481387634951803E-003
   3.3742930378923869E-002  -1.0047986217609828E-002   1.3512413662691847E-002
   3.1509654957865341E-002  -9.1860228561879698E-003   1.2888940090422463E-002
   2.9276379536806840E-002  -8.4183529232728649E-003   1.2277260916996879E-002
   2.7043104115748326E-002  -7.7449764188635140E-003   1.1677376142414236E-002
   2.4809828694689839E-002  -7.1658933429609162E-003   1.1089285766675783E-002
   3.0897544776271657E-002  -8.9609465294192003E-003   1.9944601825694630E-002
   2.8629567041710713E-002  -8.2471611608299078E-003   1.9397155640878544E-002
   2.6361589307149699E-002  -7.5175640337995508E-003   1.8768510430214214E-002
   2.4093611572588700E-002  -6.7721551483285181E-003   1.8058666193701257E-002
   2.1825633838027735E-002  -6.0109345044169760E-003   1.7267622931339807E-002
   2.8213924108451915E-002  -7.8739068412287949E-003   2.6173559402391744E-002
   2.5818250635696260E-002  -7.3082994654715683E-003   2.5812245791976385E-002
   2.3422577162940661E-002  -6.6167751443260425E-003   2.5276739731020126E-002
   2.1026903690184978E-002  -5.7993338777934181E-003   2.4567041219523411E-002
   1.8631230217429351E-002  -4.8559756658727027E-003   2.3683150257485908E-002
   3.0147592116204880E-002  -9.4758110200496848E-003  -5.5581807820348494E-004
   2.9568468680112980E-002  -9.1740289757673565E-003  -2.7225749668602361E-004
   2.8989345244021136E-002  -8.3837949202889006E-003  -1.7162945551524311E-003
   2.8410221807929320E-002  -7.1051088536156909E-003  -4.8879292536022634E-003
   2.7831098371837393E-002  -5.3379707757463812E-003  -9.7871615920359645E-003
   2.7583814787415450E-002  -8.3208521815054670E-003   5.1481387634951803E-003
   2.5556998334011705E-002  -7.8945219163972791E-003   5.8772052742870340E-003
   2.3530181880607959E-002  -7.2050235214067837E-003   5.4384833904398411E-003
   2.1503365427204268E-002  -6.2523569965354381E-003   3.8319731119522971E-003
   1.9476548973800578E-002  -5.0365223417814242E-003   1.0576744388250958E-003
   2.4809828694689839E-002  -7.1658933429609162E-003   1.1089285766675783E-002
   2.1895128469318181E-002  -6.6150148570274236E-003   1.2038574325429374E-002
   1.8980428243946593E-002  -6.0262521225253607E-003   1.2379883734886438E-002
   1.6065728018574983E-002  -5.3996051394549702E-003   1.2113213995048153E-002
   1.3151027793203401E-002  -4.7350739078162452E-003   1.1238565105914033E-002
   2.1825633838027735E-002  -6.0109345044169760E-003   1.7267622931339807E-002
   1.8582859086032362E-002  -5.3355077976576792E-003   1.8211849656740040E-002
   1.5340084334036944E-002  -4.8474807236439238E-003   1.9107906478188726E-002
   1.2097309582041605E-002  -4.5468532823748319E-003   1.9955793395685376E-002
   8.8545348300462581E-003  -4.4336254738516212E-003   2.0755510409230793E-002
   1.8631230217429351E-002  -4.8559756658727027E-003   2.3683150257485908E-002
   1.5620190184154170E-002  -4.0560007382877128E-003   2.4397031268219682E-002
   1.2609150150879073E-002  -3.6687093247619040E-003   2.5622551620345935E-002
   9.5981101176039474E-003  -3.6941014252947699E-003   2.7359711313864471E-002
   6.5870700843287944E-003  -4.1321770398867752E-003   2.9608510348775097E-002
   2.7831098371837393E-002  -5.3379707757463812E-003  -9.7871615920359645E-003
   2.3384487912699425E-002  -4.1706728418182681E-003  -4.2425486419341851E-003
   1.8937877453561514E-002  -4.6915072069694252E-003   2.5864313392464089E-003
   1.4491266994423574E-002  -6.9004738712004909E-003   1.0699778351504707E-002
   1.0044656535285634E-002  -1.0797572834509772E-002   2.0097492394842043E-002
   1.9476548973800578E-002  -5.0365223417814242E-003   1.0576744388250958E-003
   1.6238073030644284E-002  -4.6655382585270022E-003   6.7345823052897824E-003
   1.2999597087488046E-002  -6.2474234481555424E-003   1.3543392172639668E-002
   9.7611211443319190E-003  -9.7821779106680995E-003   2.1484104040875307E-002
   6.5226452011757363E-003  -1.5269801646061953E-002   3.0556717909995701E-002
   1.3151027793203401E-002  -4.7350739078162452E-003   1.1238565105914033E-002
   1.0968221335836026E-002  -5.1604036752365134E-003   1.6783030914937602E-002
   8.7854148784686364E-003  -7.8033396893426032E-003   2.3306933694653309E-002
   6.6026084211012956E-003  -1.2663881950135722E-002   3.0810273445061626E-002
   4.4198019637339825E-003  -1.9742030457614135E-002   3.9293050166162580E-002
   8.8545348300462581E-003  -4.4336254738516212E-003   2.0755510409230793E-002
   7.5749328282746914E-003  -5.6552690919456361E-003   2.5902797187009968E-002
   6.2953308265031351E-003  -9.3592559305294143E-003   3.1877055905288040E-002
   5.0157288247316186E-003  -1.5545585989602893E-002   3.8678286564066640E-002
   3.7361268229601091E-003  -2.4214259269165872E-002   4.6306489163343512E-002
   6.5870700843287944E-003  -4.1321770398867752E-003   2.9608510348775097E-002
   6.0582075079602671E-003  -6.1501345086549808E-003   3.4093881121506464E-002
   5.5293449315916565E-003  -1.0915172171715615E-002   3.9253758804543959E-002
   5.0004823552230737E-003  -1.8427290029070634E-002   4.5088143397888025E-002
   4.4716197788545742E-003  -2.8686488080718053E-002   5.1597034901538663E-002
  0.11649239947848183       -2.3939985230520155E-002   1.2538262706140724E-002
  0.10104078761239255       -2.2221504374376366E-002   3.6277829601313760E-002
   8.5589175746303287E-002  -2.0733346217412796E-002   5.0044658405361597E-002
   7.0137563880213985E-002  -1.9475510759629666E-002   5.3838749118284041E-002
   5.4685952014124684E-002  -1.8447998001026644E-002   4.7660101740080951E-002
  0.13335474968484995       -2.0760810175094790E-002   3.2175735975725372E-002
  0.11075973745359297       -2.0275296733425346E-002   4.0873974135078206E-002
   8.8164725222336093E-002  -1.9619350904938160E-002   4.5258149655220986E-002
   6.5569712991079221E-002  -1.8792972689633133E-002   4.5328262536154004E-002
   4.2974700759822293E-002  -1.7796162087510503E-002   4.1084312777877136E-002
  0.13237637858562140       -1.7581635119669425E-002   5.0379864287836446E-002
  0.10829664144111240       -1.8329089092474327E-002   4.4437528797367121E-002
   8.4216904296603196E-002  -1.8505355592463385E-002   3.9839806119603416E-002
   6.0137167152094093E-002  -1.8110434619636656E-002   3.6586696254544998E-002
   3.6057430007584962E-002  -1.7144326173994223E-002   3.4678199202192228E-002
  0.11355728618079645       -1.4402460064244088E-002   6.7150647642474151E-002
   9.3651499574950448E-002  -1.6382881451523265E-002   4.6968493588180796E-002
   7.3745712969104524E-002  -1.7391360279988707E-002   3.3789627798508373E-002
   5.3839926363258579E-002  -1.7427896549640318E-002   2.7614050273456835E-002
   3.3934139757412628E-002  -1.6492490260477957E-002   2.8441761013025965E-002
   7.6897472470374817E-002  -1.1223285008818695E-002   8.2488086039638586E-002
   6.6824311855107427E-002  -1.4436673810572287E-002   4.8466868507519190E-002
   5.6751151239840036E-002  -1.6277364967513933E-002   2.7107614691936094E-002
   4.6677990624572660E-002  -1.6745358479643733E-002   1.8410324592889285E-002
   3.6604830009305311E-002  -1.5840654346961747E-002   2.2374998210378805E-002
   5.4685952014124684E-002  -1.8447998001026644E-002   4.7660101740080951E-002
   5.5644202548672583E-002  -1.7630958801747754E-002   4.0860034319746164E-002
   5.6602453083220428E-002  -1.7004544021936130E-002   3.5973106737968746E-002
   5.7560703617768300E-002  -1.6568753661591898E-002   3.2999318994748311E-002
   5.8518954152316227E-002  -1.6323587720715127E-002   3.1938671090085025E-002
   4.2974700759822293E-002  -1.7796162087510503E-002   4.1084312777877136E-002
   4.5361946718289484E-002  -1.6816295236339207E-002   3.8396609290875572E-002
   4.7749192676756674E-002  -1.6040748273888503E-002   3.6653756813156024E-002
   5.0136438635223810E-002  -1.5469521200158567E-002   3.5855755344717563E-002
   5.2523684593691056E-002  -1.5102614015149007E-002   3.6002604885560896E-002
   3.6057430007584962E-002  -1.7144326173994223E-002   3.4678199202192228E-002
   3.8905382560695832E-002  -1.6001631670930744E-002   3.6089164179270813E-002
   4.1753335113806758E-002  -1.5076952525841042E-002   3.7476691336355492E-002
   4.4601287666917629E-002  -1.4370288738725069E-002   3.8840780673445915E-002
   4.7449240220028555E-002  -1.3881640309582971E-002   4.0181432190542418E-002
   3.3934139757412628E-002  -1.6492490260477957E-002   2.8441761013025965E-002
   3.6274510075891650E-002  -1.5186968105522211E-002   3.3937698984931569E-002
   3.8614880394370721E-002  -1.4113156777793498E-002   3.8441910307567495E-002
   4.0955250712849729E-002  -1.3271056277291794E-002   4.1954394980933757E-002
   4.3295621031328821E-002  -1.2660666604016976E-002   4.4475153005030438E-002
   3.6604830009305311E-002  -1.5840654346961747E-002   2.2374998210378805E-002
   3.7469329263876916E-002  -1.4372304540113762E-002   3.1942213707857964E-002
   3.8333828518448521E-002  -1.3149361029746093E-002   3.9549413726791993E-002
   3.9198327773020139E-002  -1.2171823815858220E-002   4.5196598267180713E-002
   4.0062827027591758E-002  -1.1439692898450871E-002   4.8883767329024275E-002
   5.8518954152316227E-002  -1.6323587720715127E-002   3.1938671090085025E-002
   5.5399418924518939E-002  -1.6082977083550554E-002   2.9667942573385564E-002
   5.2279883696721652E-002  -1.5660852634343594E-002   2.8483994930077611E-002
   4.9160348468924364E-002  -1.5057214373093906E-002   2.8386828160161720E-002
   4.6040813241127077E-002  -1.4272062299801713E-002   2.9376442263637226E-002
   5.2523684593691056E-002  -1.5102614015149007E-002   3.6002604885560896E-002
   5.0246604882199619E-002  -1.4775963039798390E-002   3.4561036837460840E-002
   4.7969525170708238E-002  -1.4325504595045155E-002   3.3717598948581062E-002
   4.5692445459216816E-002  -1.3751238680888882E-002   3.3472291218921091E-002
   4.3415365747725421E-002  -1.3053165297329750E-002   3.3825113648481397E-002
   4.7449240220028555E-002  -1.3881640309582971E-002   4.0181432190542418E-002
   4.5525965310671393E-002  -1.3468948996046226E-002   3.9511318268402387E-002
   4.3602690401314204E-002  -1.2990156555746486E-002   3.8950683791310746E-002
   4.1679415491957070E-002  -1.2445262988683691E-002   3.8499528759267446E-002
   3.9756140582599908E-002  -1.1834268294857953E-002   3.8157853172272660E-002
   4.3295621031328821E-002  -1.2660666604016976E-002   4.4475153005030438E-002
   4.1237500209934191E-002  -1.2161934952294118E-002   4.4518786866210386E-002
   3.9179379388539597E-002  -1.1654808516448043E-002   4.4183249458266932E-002
   3.7121258567144988E-002  -1.1139287296478582E-002   4.3468540781200153E-002
   3.5063137745750428E-002  -1.0615371292386183E-002   4.2374660835010472E-002
   4.0062827027591758E-002  -1.1439692898450871E-002   4.8883767329024275E-002
   3.7381209579988084E-002  -1.0854920908541843E-002   4.9583442630884322E-002
   3.4699592132384410E-002  -1.0319460477149336E-002   4.9415295949449461E-002
   3.2017974684780751E-002  -9.8333116042734932E-003   4.8379327284719678E-002
   2.9336357237177063E-002  -9.3964742899143028E-003   4.6475536636695014E-002
   4.6040813241127077E-002  -1.4272062299801713E-002   2.9376442263637226E-002
   4.3687589543077388E-002  -1.3391859452470567E-002   3.0518197736461639E-002
   4.1334365845027699E-002  -1.2503068869103628E-002   3.0912265740566824E-002
   3.8981142146978009E-002  -1.1605690549701939E-002   3.0558646275951951E-002
   3.6627918448928320E-002  -1.0699724494265039E-002   2.9457339342617628E-002
   4.3415365747725421E-002  -1.3053165297329750E-002   3.3825113648481397E-002
   4.0563807436343857E-002  -1.2276373086992837E-002   3.4203553265064274E-002
   3.7712249124962238E-002  -1.1465950692502405E-002   3.4333011123702850E-002
   3.4860690813580730E-002  -1.0621898113859152E-002   3.4213487224397682E-002
   3.2009132502199139E-002  -9.7442153510625129E-003   3.3844981567148436E-002
   3.9756140582599908E-002  -1.1834268294857953E-002   3.8157853172272660E-002
   3.6904953368662091E-002  -1.1160886721515217E-002   3.7798019380731504E-002
   3.4053766154724316E-002  -1.0428832515901182E-002   3.7687909542021808E-002
   3.1202578940786541E-002  -9.6381056780161442E-003   3.7827523656144058E-002
   2.8351391726848724E-002  -8.7887062078599865E-003   3.8216861723097545E-002
   3.5063137745750428E-002  -1.0615371292386183E-002   4.2374660835010472E-002
   3.2711027340032110E-002  -1.0045400356037543E-002   4.1301596083463468E-002
   3.0358916934313737E-002  -9.3917143393000696E-003   4.0976960995523483E-002
   2.8006806528595454E-002  -8.6543132421731915E-003   4.1400755571190884E-002
   2.5654696122877109E-002  -7.8331970646573490E-003   4.2572979810465726E-002
   2.9336357237177063E-002  -9.3964742899143028E-003   4.6475536636695014E-002
   2.7982029350453880E-002  -8.9299139905600899E-003   4.4714283373259889E-002
   2.6627701463730655E-002  -8.3545961626986243E-003   4.4200165484207632E-002
   2.5273373577007437E-002  -7.6705208063302666E-003   4.4933182969538271E-002
   2.3919045690284246E-002  -6.8776879214549336E-003   4.6913335829252056E-002
   3.6627918448928320E-002  -1.0699724494265039E-002   2.9457339342617628E-002
   3.4524419863809164E-002  -9.8404159483593823E-003   2.7700180483055337E-002
   3.2420921278690118E-002  -9.0830101575512245E-003   2.6567164206497018E-002
   3.0317422693571072E-002  -8.4275071218411005E-003   2.6058290512942422E-002
   2.8213924108451915E-002  -7.8739068412287949E-003   2.6173559402391744E-002
   3.2009132502199139E-002  -9.7442153510625129E-003   3.3844981567148436E-002
   3.0396922397725123E-002  -8.8974208421420120E-003   3.2817359053104567E-002
   2.8784712293251108E-002  -8.1460330251268143E-003   3.2148170917347507E-002
   2.7172502188777134E-002  -7.4900519000173013E-003   3.1837417159876674E-002
   2.5560292084303132E-002  -6.9294774668126058E-003   3.1885097780692317E-002
   2.8351391726848724E-002  -8.7887062078599865E-003   3.8216861723097545E-002
   2.6964761898302464E-002  -7.9544257359247528E-003   3.7925271617764905E-002
   2.5578132069756190E-002  -7.2090558927023901E-003   3.7726407686001481E-002
   2.4191502241209903E-002  -6.5525966781930546E-003   3.7620269927806906E-002
   2.2804872412663602E-002  -5.9850480923965277E-003   3.7606858343181365E-002
   2.5654696122877109E-002  -7.8331970646573490E-003   4.2572979810465726E-002
   2.4227938365541213E-002  -7.0114306297073825E-003   4.3023918177036220E-002
   2.2801180608205268E-002  -6.2720787602778064E-003   4.3301874512458705E-002
   2.1374422850869355E-002  -5.6151414563688651E-003   4.3406848816732860E-002
   1.9947665093533434E-002  -5.0406187179801720E-003   4.3338841089858547E-002
   2.3919045690284246E-002  -6.8776879214549336E-003   4.6913335829252056E-002
   2.2186451799441342E-002  -6.0684355234901788E-003   4.8113298730918574E-002
   2.0453857908598438E-002  -5.3351016278534724E-003   4.8874571396719357E-002
   1.8721264017755548E-002  -4.6776862345449879E-003   4.9197153826654655E-002
   1.6988670126912658E-002  -4.0961893435642605E-003   4.9081046020724384E-002
   2.8213924108451915E-002  -7.8739068412287949E-003   2.6173559402391744E-002
   2.5818250635696260E-002  -7.3082994654715683E-003   2.5812245791976385E-002
   2.3422577162940661E-002  -6.6167751443260425E-003   2.5276739731020126E-002
   2.1026903690184978E-002  -5.7993338777934181E-003   2.4567041219523411E-002
   1.8631230217429351E-002  -4.8559756658727027E-003   2.3683150257485908E-002
   2.5560292084303132E-002  -6.9294774668126058E-003   3.1885097780692317E-002
   2.3063450792377704E-002  -6.3815926869018047E-003   3.1592993319510432E-002
   2.0566609500452374E-002  -5.7636805216728926E-003   3.1272745670529595E-002
   1.8069768208527008E-002  -5.0757409711256543E-003   3.0924354833750459E-002
   1.5572926916601615E-002  -4.3177740352606797E-003   3.0547820809172288E-002
   2.2804872412663602E-002  -5.9850480923965277E-003   3.7606858343181365E-002
   2.0352912564310544E-002  -5.4548859083324019E-003   3.7328073471162931E-002
   1.7900952715957513E-002  -4.9105858990193957E-003   3.7167194674088064E-002
   1.5448992867604448E-002  -4.3521480644583312E-003   3.7124221951956547E-002
   1.2997033019251425E-002  -3.7795724046486012E-003   3.7199155304767889E-002
   1.9947665093533434E-002  -5.0406187179801720E-003   4.3338841089858547E-002
   1.7686635951494750E-002  -4.5281791297628188E-003   4.3017486246934349E-002
   1.5425606809456101E-002  -4.0574912763661278E-003   4.2960086741695519E-002
   1.3164577667417432E-002  -3.6285551577907322E-003   4.3166642574141982E-002
   1.0903548525378767E-002  -3.2413707740364950E-003   4.3637153744273967E-002
   1.6988670126912658E-002  -4.0961893435642605E-003   4.9081046020724384E-002
   1.5064620953930380E-002  -3.6014723511931246E-003   4.8661231646824232E-002
   1.3140571780948115E-002  -3.2043966537127211E-003   4.8651421873351919E-002
   1.1216522607965858E-002  -2.9049622511231818E-003   4.9051616700307027E-002
   9.2924734349836280E-003  -2.7031691434243887E-003   4.9861816127689362E-002
   1.8631230217429351E-002  -4.8559756658727027E-003   2.3683150257485908E-002
   1.5620190184154170E-002  -4.0560007382877128E-003   2.4397031268219682E-002
   1.2609150150879073E-002  -3.6687093247619040E-003   2.5622551620345935E-002
   9.5981101176039474E-003  -3.6941014252947699E-003   2.7359711313864471E-002
   6.5870700843287944E-003  -4.1321770398867752E-003   2.9608510348775097E-002
   1.5572926916601615E-002  -4.3177740352606797E-003   3.0547820809172288E-002
   1.3044763076741406E-002  -3.7552577352046312E-003   3.1278541989909037E-002
   1.0516599236881224E-002  -3.6536700920843934E-003   3.2463376216083084E-002
   7.9884353970210431E-003  -4.0130111059006324E-003   3.4102323487695069E-002
   5.4602715571608340E-003  -4.8332807766531261E-003   3.6195383804744519E-002
   1.2997033019251425E-002  -3.7795724046486012E-003   3.7199155304767889E-002
   1.0894219076851550E-002  -3.4545147321212166E-003   3.7898471512630261E-002
   8.7914051344517227E-003  -3.6386308594072297E-003   3.8994374469975571E-002
   6.6885911920518751E-003  -4.3319207865064983E-003   4.0486864176803840E-002
   4.5857772496520205E-003  -5.5343845134191438E-003   4.2375940633115006E-002
   1.0903548525378767E-002  -3.2413707740364950E-003   4.3637153744273967E-002
   9.1685581844845980E-003  -3.1537717290378020E-003   4.4256819836384464E-002
   7.4335678435905155E-003  -3.6235916267298371E-003   4.5215546382023311E-002
   5.6985775026964346E-003  -4.6508304671122516E-003   4.6513333381190618E-002
   3.9635871618023226E-003  -6.2354882501855502E-003   4.8150180833886405E-002
   9.2924734349836280E-003  -2.7031691434243887E-003   4.9861816127689362E-002
   7.8677803996406170E-003  -2.8530287259546649E-003   5.0353586961170871E-002
   6.4430873642976616E-003  -3.6085523940524722E-003   5.1126891952226472E-002
   5.0183943289547062E-003  -4.9697401477183170E-003   5.2181731100855971E-002
   3.5937012936117507E-003  -6.9365919869515125E-003   5.3518104407059175E-002
   6.5870700843287944E-003  -4.1321770398867752E-003   2.9608510348775097E-002
   6.0582075079602671E-003  -6.1501345086549808E-003   3.4093881121506464E-002
   5.5293449315916565E-003  -1.0915172171715615E-002   3.9253758804543959E-002
   5.0004823552230737E-003  -1.8427290029070634E-002   4.5088143397888025E-002
   4.4716197788545742E-003  -2.8686488080718053E-002   5.1597034901538663E-002
   5.4602715571608340E-003  -4.8332807766531261E-003   3.6195383804744519E-002
   5.5050789899715180E-003  -6.9941626879085339E-003   3.8348533886825908E-002
   5.5498864227821465E-003  -1.1375340423233904E-002   4.0974517076958872E-002
   5.5946938555928305E-003  -1.7976813982629888E-002   4.4073333375143797E-002
   5.6395012884034590E-003  -2.6798583366095752E-002   4.7644982781380740E-002
   4.5857772496520205E-003  -5.5343845134191438E-003   4.2375940633115006E-002
   5.0025808893873203E-003  -7.8381908671621980E-003   4.2723654394769384E-002
   5.4193845291225992E-003  -1.1835508674751832E-002   4.3342527462221087E-002
   5.8361881688579406E-003  -1.7526337936189025E-002   4.4232559835469878E-002
   6.2529918085931224E-003  -2.4910678651473228E-002   4.5393751514516856E-002
   3.9635871618023226E-003  -6.2354882501855502E-003   4.8150180833886405E-002
   4.5507132062077016E-003  -8.6822190464154736E-003   4.7219242645337098E-002
   5.1378392506130181E-003  -1.2295676926270052E-002   4.6357789960330541E-002
   5.7249652950183954E-003  -1.7075861889747999E-002   4.5565822778866394E-002
   6.3120913394237171E-003  -2.3022773936850816E-002   4.4843341100945844E-002
   3.5937012936117507E-003  -6.9365919869515125E-003   5.3518104407059175E-002
   4.1494759404325787E-003  -9.5262472256691932E-003   5.1835298638529093E-002
   4.7052505872534345E-003  -1.2755845177787772E-002   5.0020304571287033E-002
   5.2610252340742208E-003  -1.6625385843307403E-002   4.8073122205333163E-002
   5.8167998808951182E-003  -2.1134869222228403E-002   4.5993751540667649E-002
   7.6897472470374817E-002  -1.1223285008818695E-002   8.2488086039638586E-002
   6.6824311855107427E-002  -1.4436673810572287E-002   4.8466868507519190E-002
   5.6751151239840036E-002  -1.6277364967513933E-002   2.7107614691936094E-002
   4.6677990624572660E-002  -1.6745358479643733E-002   1.8410324592889285E-002
   3.6604830009305311E-002  -1.5840654346961747E-002   2.2374998210378805E-002
   3.9348183869001463E-002  -1.2044890084882132E-002   7.0700919988828159E-002
   3.9386848047235426E-002  -1.3018755645230140E-002   5.1132819696234288E-002
   3.9425512225469403E-002  -1.3482349572655303E-002   3.9126405274107018E-002
   3.9464176403703401E-002  -1.3435671867157741E-002   3.4681676722446222E-002
   3.9502840581937357E-002  -1.2878722528737369E-002   3.7798634041251694E-002
   1.7860666791321311E-002  -1.2866495160945512E-002   6.1584490185367810E-002
   2.2910877916986781E-002  -1.1600837479887938E-002   5.5607081120410642E-002
   2.7961089042652244E-002  -1.0687334177796638E-002   5.2091080079849979E-002
   3.3011300168317735E-002  -1.0125985254671665E-002   5.1036487063685868E-002
   3.8061511293983205E-002  -9.9167907105129072E-003   5.2443302071918385E-002
   1.2434921237334390E-002  -1.3688100237008907E-002   5.5138796629257636E-002
   1.7396401464361499E-002  -1.0182919314545763E-002   6.1889652780047821E-002
   2.2357881691388620E-002  -7.8923187829380466E-003   6.6001639109164914E-002
   2.7319361918415747E-002  -6.8162986421856303E-003   6.7474755616608456E-002
   3.2280842145442828E-002  -6.9548588922885152E-003   6.6309002302378961E-002
   2.3070947207040671E-002  -1.4509705313072330E-002   5.1363839320497484E-002
   2.2843418689359574E-002  -8.7650011492035607E-003   6.9980534675146033E-002
   2.2615890171678477E-002  -5.0973033880793162E-003   8.0858082362051609E-002
   2.2388361653997352E-002  -3.5066120296995615E-003   8.3996482381213960E-002
   2.2160833136316269E-002  -3.9929270740640677E-003   7.9395734732633283E-002
   3.6604830009305311E-002  -1.5840654346961747E-002   2.2374998210378805E-002
   3.7469329263876916E-002  -1.4372304540113762E-002   3.1942213707857964E-002
   3.8333828518448521E-002  -1.3149361029746093E-002   3.9549413726791993E-002
   3.9198327773020139E-002  -1.2171823815858220E-002   4.5196598267180713E-002
   4.0062827027591758E-002  -1.1439692898450871E-002   4.8883767329024275E-002
   3.9502840581937357E-002  -1.2878722528737369E-002   3.7798634041251694E-002
   3.8819924466792097E-002  -1.2086679939170175E-002   4.3296364073418220E-002
   3.8137008351646816E-002  -1.1334722480232422E-002   4.7659278844696160E-002
   3.7454092236501549E-002  -1.0622850151924058E-002   5.0887378355085507E-002
   3.6771176121356275E-002  -9.9510629542448603E-003   5.2980662604586282E-002
   3.8061511293983205E-002  -9.9167907105129072E-003   5.2443302071918385E-002
   3.6656380026777680E-002  -9.8010553382265192E-003   5.4076867804623042E-002
   3.5251248759572161E-002  -9.5200839307188062E-003   5.5400818494095797E-002
   3.3846117492366615E-002  -9.0738764879895080E-003   5.6415154140336689E-002
   3.2440986225161089E-002  -8.4624330100389333E-003   5.7119874743345553E-002
   3.2280842145442828E-002  -6.9548588922885152E-003   6.6309002302378961E-002
   3.0978695943833727E-002  -7.5154307372829535E-003   6.4283724901472578E-002
   2.9676549742224563E-002  -7.7054453812050519E-003   6.2774032674990848E-002
   2.8374403540615437E-002  -7.5249028240550690E-003   6.1779925622933891E-002
   2.7072257339006305E-002  -6.9738030658329092E-003   6.1301403745301616E-002
   2.2160833136316269E-002  -3.9929270740640677E-003   7.9395734732633283E-002
   2.1786872217960149E-002  -5.2298061363392767E-003   7.3916935363966568E-002
   2.1412911299604036E-002  -5.8908068316915474E-003   6.9778921387381287E-002
   2.1038950381247912E-002  -5.9759291601207479E-003   6.6981692802877357E-002
   2.0664989462891803E-002  -5.4851731216269961E-003   6.5525249610454583E-002
   4.0062827027591758E-002  -1.1439692898450871E-002   4.8883767329024275E-002
   3.7381209579988084E-002  -1.0854920908541843E-002   4.9583442630884322E-002
   3.4699592132384410E-002  -1.0319460477149336E-002   4.9415295949449461E-002
   3.2017974684780751E-002  -9.8333116042734932E-003   4.8379327284719678E-002
   2.9336357237177063E-002  -9.3964742899143028E-003   4.6475536636695014E-002
   3.6771176121356275E-002  -9.9510629542448603E-003   5.2980662604586282E-002
   3.3486997638245905E-002  -9.3344961965652895E-003   5.2847226210331832E-002
   3.0202819155135535E-002  -8.7882851882555291E-003   5.2376489728358844E-002
   2.6918640672025158E-002  -8.3124299293153153E-003   5.1568453158667441E-002
   2.3634462188914795E-002  -7.9069304197451062E-003   5.0423116501257359E-002
   3.2440986225161089E-002  -8.4624330100389333E-003   5.7119874743345553E-002
   2.9084768602120475E-002  -7.8140714845889858E-003   5.6132282462123262E-002
   2.5728550979079876E-002  -7.2571098993617147E-003   5.5337911988759002E-002
   2.2372333356039262E-002  -6.7915482543573578E-003   5.4736763323252779E-002
   1.9016115732998641E-002  -6.4173865495757432E-003   5.4328836465604435E-002
   2.7072257339006305E-002  -6.9738030658329092E-003   6.1301403745301616E-002
   2.4174522471611823E-002  -6.2936467726125017E-003   5.9438611386258514E-002
   2.1276787604217404E-002  -5.7259346104680982E-003   5.8299562730650033E-002
   1.8379052736822974E-002  -5.2706665793991790E-003   5.7884257778475716E-002
   1.5481317869428505E-002  -4.9278426794063523E-003   5.8192696529735882E-002
   2.0664989462891803E-002  -5.4851731216269961E-003   6.5525249610454583E-002
   1.8756259246719989E-002  -4.7732220606361009E-003   6.2766212982737879E-002
   1.6847529030548161E-002  -4.1947593215740653E-003   6.1261441954031853E-002
   1.4938798814376340E-002  -3.7497849044411322E-003   6.1010936524336618E-002
   1.3030068598204519E-002  -3.4382988092371836E-003   6.2014696693652338E-002
   2.9336357237177063E-002  -9.3964742899143028E-003   4.6475536636695014E-002
   2.7982029350453880E-002  -8.9299139905600899E-003   4.4714283373259889E-002
   2.6627701463730655E-002  -8.3545961626986243E-003   4.4200165484207632E-002
   2.5273373577007437E-002  -7.6705208063302666E-003   4.4933182969538271E-002
   2.3919045690284246E-002  -6.8776879214549336E-003   4.6913335829252056E-002
   2.3634462188914795E-002  -7.9069304197451062E-003   5.0423116501257359E-002
   2.3287605392968425E-002  -7.5026737430881896E-003   4.9594061352586954E-002
   2.2940748597022054E-002  -7.0305469828888245E-003   4.9532813011087251E-002
   2.2593891801075697E-002  -6.4905501391468098E-003   5.0239371476758110E-002
   2.2247035005129312E-002  -5.8826832118622496E-003   5.1713736749599837E-002
   1.9016115732998641E-002  -6.4173865495757432E-003   5.4328836465604435E-002
   1.9197401460616881E-002  -6.0754334956164557E-003   5.4391091986734336E-002
   1.9378687188235117E-002  -5.7064978030790248E-003   5.4741825747822728E-002
   1.9559972915853360E-002  -5.3105794719632976E-003   5.5381037748869572E-002
   1.9741258643471593E-002  -4.8876785022695657E-003   5.6308727989874935E-002
   1.5481317869428505E-002  -4.9278426794063523E-003   5.8192696529735882E-002
   1.5711417553399123E-002  -4.6481932481445276E-003   5.9105375275701831E-002
   1.5941517237369768E-002  -4.3824486232693360E-003   5.9827203694413966E-002
   1.6171616921340403E-002  -4.1306088047798131E-003   6.0358181785872343E-002
   1.6401716605311006E-002  -3.8926737926767152E-003   6.0698309550077011E-002
   1.3030068598204519E-002  -3.4382988092371836E-003   6.2014696693652338E-002
   1.2829653671315291E-002  -3.2209530006728770E-003   6.3736911219489656E-002
   1.2629238744426063E-002  -3.0583994434595085E-003   6.4788946850861007E-002
   1.2428823817536828E-002  -2.9506381375962384E-003   6.5170803587766502E-002
   1.2228408890647607E-002  -2.8976690830841978E-003   6.4882481430206029E-002
   2.3919045690284246E-002  -6.8776879214549336E-003   4.6913335829252056E-002
   2.2186451799441342E-002  -6.0684355234901788E-003   4.8113298730918574E-002
   2.0453857908598438E-002  -5.3351016278534724E-003   4.8874571396719357E-002
   1.8721264017755548E-002  -4.6776862345449879E-003   4.9197153826654655E-002
   1.6988670126912658E-002  -4.0961893435642605E-003   4.9081046020724384E-002
   2.2247035005129312E-002  -5.8826832118622496E-003   5.1713736749599837E-002
   2.0225574937347543E-002  -5.2574823473169330E-003   5.2175197678015983E-002
   1.8204114869565802E-002  -4.6654836917927045E-003   5.2497616488419857E-002
   1.6182654801784047E-002  -4.1066872452896613E-003   5.2680993180811417E-002
   1.4161194734002291E-002  -3.5810930078078451E-003   5.2725327755191120E-002
   1.9741258643471593E-002  -4.8876785022695657E-003   5.6308727989874935E-002
   1.7730580516604574E-002  -4.4465291711436594E-003   5.6074403238347309E-002
   1.5719902389737556E-002  -3.9958657557320337E-003   5.6000684486660915E-002
   1.3709224262870520E-002  -3.5356882560345533E-003   5.6087571734816245E-002
   1.1698546136003525E-002  -3.0659966720512077E-003   5.6335064982813182E-002
   1.6401716605311006E-002  -3.8926737926767152E-003   6.0698309550077011E-002
   1.4701468537212346E-002  -3.6355759949703997E-003   5.9810915411912455E-002
   1.3001220469113669E-002  -3.3262478196713144E-003   5.9383775391443183E-002
   1.1300972401014985E-002  -2.9646892667792805E-003   5.9416889488669057E-002
   9.6007243329163054E-003  -2.5509003362946259E-003   5.9910257703589993E-002
   1.2228408890647607E-002  -2.8976690830841978E-003   6.4882481430206029E-002
   1.1138238999170880E-002  -2.8246228187971956E-003   6.3384734198711823E-002
   1.0048069107694166E-002  -2.6566298836106228E-003   6.2646889202766287E-002
   8.9578992162174451E-003  -2.3936902775241256E-003   6.2668946442369589E-002
   7.8677293247407243E-003  -2.0358040005381550E-003   6.3450905917521783E-002
   1.6988670126912658E-002  -4.0961893435642605E-003   4.9081046020724384E-002
   1.5064620953930380E-002  -3.6014723511931246E-003   4.8661231646824232E-002
   1.3140571780948115E-002  -3.2043966537127211E-003   4.8651421873351919E-002
   1.1216522607965858E-002  -2.9049622511231818E-003   4.9051616700307027E-002
   9.2924734349836280E-003  -2.7031691434243887E-003   4.9861816127689362E-002
   1.4161194734002291E-002  -3.5810930078078451E-003   5.2725327755191120E-002
   1.2607033958624198E-002  -3.1283070861399809E-003   5.2525196114630301E-002
   1.1052873183246131E-002  -2.7879355870804867E-003   5.2654836668850347E-002
   9.4987124078680582E-003  -2.5599785106287867E-003   5.3114249417851311E-002
   7.9445516324899990E-003  -2.4444358567847768E-003   5.3903434361633307E-002
   1.1698546136003525E-002  -3.0659966720512077E-003   5.6335064982813182E-002
   1.0434041352583086E-002  -2.6551418210873368E-003   5.6339842947874336E-002
   9.1695365691626500E-003  -2.3714745204484883E-003   5.6594160702069671E-002
   7.9050317857422368E-003  -2.2149947701345062E-003   5.7098018245399361E-002
   6.6405270023217750E-003  -2.1857025701454424E-003   5.7851415577863691E-002
   9.6007243329163054E-003  -2.5509003362946259E-003   5.9910257703589993E-002
   8.5456431358069910E-003  -2.1819765560344428E-003   6.0105172146555995E-002
   7.4905619386976775E-003  -1.9550134538162053E-003   6.0469393973009558E-002
   6.4354807415883918E-003  -1.8700110296403349E-003   6.1002923182951072E-002
   5.3803995444790496E-003  -1.9269692835061358E-003   6.1705759776380341E-002
   7.8677293247407243E-003  -2.0358040005381550E-003   6.3450905917521783E-002
   6.9418393082959773E-003  -1.7088112909818265E-003   6.3821183710675355E-002
   6.0159492918512303E-003  -1.5385523871841722E-003   6.4280536481670258E-002
   5.0900592754064833E-003  -1.5250272891458097E-003   6.4828964230506630E-002
   4.1641692589617640E-003  -1.6682359968666072E-003   6.5466466957183944E-002
   9.2924734349836280E-003  -2.7031691434243887E-003   4.9861816127689362E-002
   7.8677803996406170E-003  -2.8530287259546649E-003   5.0353586961170871E-002
   6.4430873642976616E-003  -3.6085523940524722E-003   5.1126891952226472E-002
   5.0183943289547062E-003  -4.9697401477183170E-003   5.2181731100855971E-002
   3.5937012936117507E-003  -6.9365919869515125E-003   5.3518104407059175E-002
   7.9445516324899990E-003  -2.4444358567847768E-003   5.3903434361633307E-002
   6.7869952803080863E-003  -2.6393843459637800E-003   5.3867588918524612E-002
   5.6294389281262014E-003  -3.3429006985810639E-003   5.4084482684164575E-002
   4.4718825759443095E-003  -4.5549849146363647E-003   5.4554115658552352E-002
   3.3143262237624038E-003  -6.2756369941299184E-003   5.5276487841689037E-002
   6.6405270023217750E-003  -2.1857025701454424E-003   5.7851415577863691E-002
   5.7213123844754715E-003  -2.4257399659732559E-003   5.7385050080294486E-002
   4.8020977666291265E-003  -3.0772490031096417E-003   5.7142628842647966E-002
   3.8828831487828092E-003  -4.1402296815547419E-003   5.7124151864924401E-002
   2.9636685309364502E-003  -5.6146820013083243E-003   5.7329619147123478E-002
   5.3803995444790496E-003  -1.9269692835061358E-003   6.1705759776380341E-002
   4.6707317121427779E-003  -2.2120955859823294E-003   6.0905970446480148E-002
   3.9610638798064889E-003  -2.8115973076384485E-003   6.0301330427676866E-002
   3.2513960474702015E-003  -3.7254744484729544E-003   5.9891839719971036E-002
   2.5417282151339003E-003  -4.9537270084868412E-003   5.9677498323362888E-002
   4.1641692589617640E-003  -1.6682359968666072E-003   6.5466466957183944E-002
   3.6352532633099899E-003  -1.9984512059919024E-003   6.4430350017082083E-002
   3.1063372676582574E-003  -2.5459456121668389E-003   6.3560587439251748E-002
   2.5774212720064901E-003  -3.3107192153911738E-003   6.2857179223693188E-002
   2.0485052763547507E-003  -4.2927720156651361E-003   6.2320125370406210E-002
   3.5937012936117507E-003  -6.9365919869515125E-003   5.3518104407059175E-002
   4.1494759404325787E-003  -9.5262472256691932E-003   5.1835298638529093E-002
   4.7052505872534345E-003  -1.2755845177787772E-002   5.0020304571287033E-002
   5.2610252340742208E-003  -1.6625385843307403E-002   4.8073122205333163E-002
   5.8167998808951182E-003  -2.1134869222228403E-002   4.5993751540667649E-002
   3.3143262237624038E-003  -6.2756369941299184E-003   5.5276487841689037E-002
   3.7515375793929495E-003  -8.5404078594075172E-003   5.2926218246938272E-002
   4.1887489350234536E-003  -1.1384848432814787E-002   5.0471010368518754E-002
   4.6259602906540340E-003  -1.4808958714351630E-002   4.7910864206430842E-002
   5.0631716462845588E-003  -1.8812738704018894E-002   4.5245779760673788E-002
   2.9636685309364502E-003  -5.6146820013083243E-003   5.7329619147123478E-002
   3.3095666104197008E-003  -7.5545684931456192E-003   5.4372158731423592E-002
   3.6554646899029861E-003  -1.0013851687841496E-002   5.1337010047097648E-002
   4.0013627693861707E-003  -1.2992531585395810E-002   4.8224173094146519E-002
   4.3472608488694942E-003  -1.6490608185809164E-002   4.5033647872568805E-002
   2.5417282151339003E-003  -4.9537270084868412E-003   5.9677498323362888E-002
   2.8235630335129019E-003  -6.5687291268836101E-003   5.6173120091984483E-002
   3.1053978518918637E-003  -8.6428549428685802E-003   5.2618303607023541E-002
   3.3872326702708176E-003  -1.1176104456440458E-002   4.9013048868480222E-002
   3.6690674886498270E-003  -1.4168477667599433E-002   4.5357355876353561E-002
   2.0485052763547507E-003  -4.2927720156651361E-003   6.2320125370406210E-002
   2.2935268486724697E-003  -5.5828897606223782E-003   5.8329102328621429E-002
   2.5385484209901887E-003  -7.2718581978952201E-003   5.4314891048296676E-002
   2.7835699933079078E-003  -9.3596773274842171E-003   5.0277491529432006E-002
   3.0285915656256268E-003  -1.1846347149389924E-002   4.6216903772027695E-002
   2.3070947207040671E-002  -1.4509705313072330E-002   5.1363839320497484E-002
   2.2843418689359574E-002  -8.7650011492035607E-003   6.9980534675146033E-002
   2.2615890171678477E-002  -5.0973033880793162E-003   8.0858082362051609E-002
   2.2388361653997352E-002  -3.5066120296995615E-003   8.3996482381213960E-002
   2.2160833136316269E-002  -3.9929270740640677E-003   7.9395734732633283E-002
   3.5666210791557282E-002  -6.1380940120188132E-003   6.3590111153404016E-002
   2.9636518583418564E-002  -3.9619229135828826E-003   7.0515908923915294E-002
   2.3606826375279839E-002  -2.6779159471032044E-003   7.3576526981254498E-002
   1.7577134167141118E-002  -2.2860731125799727E-003   7.2771965325421628E-002
   1.1547441959002390E-002  -2.7863944100130766E-003   6.8102223956416574E-002
   3.6118178082001434E-002   2.2335172890345922E-003   7.1655428785483782E-002
   2.8160290137976121E-002   8.4115532203798971E-004   6.8075171242645810E-002
   2.0202402193950794E-002  -2.5852850612705092E-004   6.4503701941206679E-002
   1.2244514249925471E-002  -1.0655341954604429E-003   6.0941020881166603E-002
   4.2866263059001507E-003  -1.5798617459621411E-003   5.7387128062525244E-002
   2.4426849078373072E-002   1.0605128590088053E-002   7.5559792216737004E-002
   1.8414733353032200E-002   5.6442335576587788E-003   6.2658321631337735E-002
   1.2402617627691331E-002   2.1608589348490817E-003   5.3639607241908374E-002
   6.3905019023504581E-003   1.5500472165917191E-004   4.8503649048448928E-002
   3.7838617700958112E-004  -3.7332908191117786E-004   4.7250447050959425E-002
   5.9222378067223802E-004   1.8976739891141514E-002   7.5303201447163570E-002
   3.9984822858684516E-004   1.0447311793279568E-002   5.4265360089990944E-002
   2.0747267650144882E-004   4.5802463758252560E-003   4.0984242883359251E-002
   1.5097124416043814E-005   1.3755436387786583E-003   3.5459849827268589E-002
  -1.7727842766934732E-004   8.3320358213978540E-004   3.7692180921718998E-002
   2.2160833136316269E-002  -3.9929270740640677E-003   7.9395734732633283E-002
   2.1786872217960149E-002  -5.2298061363392767E-003   7.3916935363966568E-002
   2.1412911299604036E-002  -5.8908068316915474E-003   6.9778921387381287E-002
   2.1038950381247912E-002  -5.9759291601207479E-003   6.6981692802877357E-002
   2.0664989462891803E-002  -5.4851731216269961E-003   6.5525249610454583E-002
   1.1547441959002390E-002  -2.7863944100130766E-003   6.8102223956416574E-002
   1.2232747188253984E-002  -3.5636771727483862E-003   6.6151540651625457E-002
   1.2918052417505575E-002  -4.0027187341315704E-003   6.4978604249968486E-002
   1.3603357646757174E-002  -4.1035190941627244E-003   6.4583414751445453E-002
   1.4288662876008766E-002  -3.8660782528416870E-003   6.4965972156056512E-002
   4.2866263059001507E-003  -1.5798617459621411E-003   5.7387128062525244E-002
   5.4681591938121714E-003  -1.8975482091574958E-003   5.8726923656038786E-002
   6.6496920817242077E-003  -2.1146306365715933E-003   6.0281427663739132E-002
   7.8312249696362302E-003  -2.2311090282045899E-003   6.2050640085626267E-002
   9.0127578575482578E-003  -2.2469833840563780E-003   6.4034560921700207E-002
   3.7838617700958112E-004  -3.7332908191117786E-004   4.7250447050959425E-002
   1.4931082346347586E-003  -2.3141924556646654E-004   5.1643084377206723E-002
   2.6078302922599365E-003  -2.2654253901153304E-004   5.5687391628693475E-002
   3.7225523498851136E-003  -3.5869896224639992E-004   5.9383368805419709E-002
   4.8372744075102850E-003  -6.2788851527117995E-004   6.2731015907385362E-002
  -1.7727842766934732E-004   8.3320358213978540E-004   3.7692180921718998E-002
   3.0759431072169968E-004   1.4347097180243407E-003   4.4900022815129031E-002
   7.9246704911275015E-004   1.6615455585483607E-003   5.1196496144831349E-002
   1.2773397875037971E-003   1.5137111037116235E-003   5.6581600910825841E-002
   1.7622125258948476E-003   9.9120635351418462E-004   6.1055337113112673E-002
   2.0664989462891803E-002  -5.4851731216269961E-003   6.5525249610454583E-002
   1.8756259246719989E-002  -4.7732220606361009E-003   6.2766212982737879E-002
   1.6847529030548161E-002  -4.1947593215740653E-003   6.1261441954031853E-002
   1.4938798814376340E-002  -3.7497849044411322E-003   6.1010936524336618E-002
   1.3030068598204519E-002  -3.4382988092371836E-003   6.2014696693652338E-002
   1.4288662876008766E-002  -3.8660782528416870E-003   6.4965972156056512E-002
   1.3423209248818423E-002  -3.4840817543813629E-003   6.3005058982231660E-002
   1.2557755621628090E-002  -3.1512151429944901E-003   6.1876433387358973E-002
   1.1692301994437748E-002  -2.8674784186813324E-003   6.1580095371438361E-002
   1.0826848367247399E-002  -2.6328715814413206E-003   6.2116044934469927E-002
   9.0127578575482578E-003  -2.2469833840563780E-003   6.4034560921700207E-002
   8.7686027992807114E-003  -2.1949414481266388E-003   6.2956129636622699E-002
   8.5244477410131581E-003  -2.1076709644148178E-003   6.2288007910438759E-002
   8.2802926827456099E-003  -1.9851719329212029E-003   6.2030195743148102E-002
   8.0361376244780514E-003  -1.8274443536455687E-003   6.2182693134750971E-002
   4.8372744075102850E-003  -6.2788851527117995E-004   6.2731015907385362E-002
   4.7924398981068206E-003  -9.0580114187190780E-004   6.2619424945910954E-002
   4.7476053887033640E-003  -1.0641267858351386E-003   6.2496165523271155E-002
   4.7027708792999022E-003  -1.1028654471611828E-003   6.2361237639466140E-002
   4.6579363698964378E-003  -1.0220171258498167E-003   6.2214641294495727E-002
   1.7622125258948476E-003   9.9120635351418462E-004   6.1055337113112673E-002
   1.4947205452967849E-003   3.8333916438285098E-004   6.1994944910096328E-002
   1.2272285646987083E-003  -2.0582607255542618E-005   6.2500906225856107E-002
   9.5973658410064035E-004  -2.2055896140129455E-004   6.2573221060391870E-002
   6.9224460350256894E-004  -2.1658989805400930E-004   6.2211889413703869E-002
   1.3030068598204519E-002  -3.4382988092371836E-003   6.2014696693652338E-002
   1.2829653671315291E-002  -3.2209530006728770E-003   6.3736911219489656E-002
   1.2629238744426063E-002  -3.0583994434595085E-003   6.4788946850861007E-002
   1.2428823817536828E-002  -2.9506381375962384E-003   6.5170803587766502E-002
   1.2228408890647607E-002  -2.8976690830841978E-003   6.4882481430206029E-002
   1.0826848367247399E-002  -2.6328715814413206E-003   6.2116044934469927E-002
   1.0128657856658320E-002  -2.4461444463450277E-003   6.3372461374978845E-002
   9.4304673460692268E-003  -2.3060468284627489E-003   6.4303505542554179E-002
   8.7322768354801197E-003  -2.2125787277938597E-003   6.4909177437195500E-002
   8.0340863248910405E-003  -2.1657401443390123E-003   6.5189477058903045E-002
   8.0361376244780514E-003  -1.8274443536455687E-003   6.2182693134750971E-002
   7.1849781517212760E-003  -1.6713358920173171E-003   6.2981474224068634E-002
   6.3338186789644972E-003  -1.5536942134661141E-003   6.3799689661984446E-002
   5.4826592062077271E-003  -1.4745193179915399E-003   6.4637339448498726E-002
   4.6314997334509431E-003  -1.4338112055940488E-003   6.5494423583611655E-002
   4.6579363698964378E-003  -1.0220171258498167E-003   6.2214641294495727E-002
   3.9986145565041719E-003  -8.9652733768948167E-004   6.2563949766758567E-002
   3.3392927431119017E-003  -8.0134159846952796E-004   6.3277499209152072E-002
   2.6799709297196310E-003  -7.3645990818913508E-004   6.4355289621676220E-002
   2.0206491163273655E-003  -7.0188226684908539E-004   6.5797321004330916E-002
   6.9224460350256894E-004  -2.1658989805400930E-004   6.2211889413703869E-002
   5.6956707100699194E-004  -1.2171878336186825E-004   6.2119888003049017E-002
   4.4688953851142188E-004  -4.8988983472705860E-005   6.2736934184056986E-002
   3.2421200601585008E-004   1.5995016132176743E-006   6.4063027956727844E-002
   2.0153447352027481E-004   3.0046671895989085E-005   6.6098169321061273E-002
   1.2228408890647607E-002  -2.8976690830841978E-003   6.4882481430206029E-002
   1.1138238999170880E-002  -2.8246228187971956E-003   6.3384734198711823E-002
   1.0048069107694166E-002  -2.6566298836106228E-003   6.2646889202766287E-002
   8.9578992162174451E-003  -2.3936902775241256E-003   6.2668946442369589E-002
   7.8677293247407243E-003  -2.0358040005381550E-003   6.3450905917521783E-002
   8.0340863248910405E-003  -2.1657401443390123E-003   6.5189477058903045E-002
   7.5790008257008920E-003  -2.1082789117822798E-003   6.4440058701622172E-002
   7.1239153265107574E-003  -1.9829428638073188E-003   6.4200906893365356E-002
   6.6688298273206090E-003  -1.7897320004146636E-003   6.4472021634133278E-002
   6.2137443281304744E-003  -1.5286463216040991E-003   6.5253402923925508E-002
   4.6314997334509431E-003  -1.4338112055940488E-003   6.5494423583611655E-002
   4.5618629400230593E-003  -1.3919350047670032E-003   6.5466262245061690E-002
   4.4922261465951824E-003  -1.3092558440041119E-003   6.5698731769011934E-002
   4.4225893531673038E-003  -1.1857737233050870E-003   6.6191832155462205E-002
   4.3529525597394217E-003  -1.0214886426703762E-003   6.6945563404412378E-002
   2.0206491163273655E-003  -7.0188226684908539E-004   6.5797321004330916E-002
   2.0868253421374040E-003  -6.7559109775201798E-004   6.6463344829030296E-002
   2.1530015679474442E-003  -6.3556882420074540E-004   6.7140363829705493E-002
   2.2191777937574700E-003  -5.8181544619562327E-004   6.7828378006356368E-002
   2.2853540195675089E-003  -5.1433096373659781E-004   6.8527387358982811E-002
   2.0153447352027481E-004   3.0046671895989085E-005   6.6098169321061273E-002
   1.5388803204390011E-004   4.0752809263355783E-005   6.7431306453528128E-002
   1.0624159056752541E-004   3.8118195602315774E-005   6.8525803075446201E-002
   5.8595149091148976E-005   2.2142830914041733E-005   6.9381659186815797E-002
   1.0948707614776010E-005  -7.1732848027084017E-006   6.9998874787636889E-002
   7.8677293247407243E-003  -2.0358040005381550E-003   6.3450905917521783E-002
   6.9418393082959773E-003  -1.7088112909818265E-003   6.3821183710675355E-002
   6.0159492918512303E-003  -1.5385523871841722E-003   6.4280536481670258E-002
   5.0900592754064833E-003  -1.5250272891458097E-003   6.4828964230506630E-002
   4.1641692589617640E-003  -1.6682359968666072E-003   6.5466466957183944E-002
   6.2137443281304744E-003  -1.5286463216040991E-003   6.5253402923925508E-002
   5.4126439679867550E-003  -1.2905217648067624E-003   6.5317323191156740E-002
   4.6115436078430147E-003  -1.1661942674524028E-003   6.5541747793148503E-002
   3.8104432476992640E-003  -1.1556638295416727E-003   6.5926676729901393E-002
   3.0093428875555550E-003  -1.2589304510745025E-003   6.6472110001414675E-002
   4.3529525597394217E-003  -1.0214886426703762E-003   6.6945563404412378E-002
   3.7480712128160863E-003  -8.7223223863167054E-004   6.6746062892036967E-002
   3.1431898658927648E-003  -7.9383614772061961E-004   6.6778496071341384E-002
   2.5383085189694433E-003  -7.8630036993742117E-004   6.7042862942325976E-002
   1.9334271720461080E-003  -8.4962490528223134E-004   6.7539163504990757E-002
   2.2853540195675089E-003  -5.1433096373659781E-004   6.8527387358982811E-002
   1.9481210427840017E-003  -4.5394271245681461E-004   6.8107402813316245E-002
   1.6108880660004807E-003  -4.2147802798878781E-004   6.7990781316248985E-002
   1.2736550892169518E-003  -4.1693691033322690E-004   6.8177522867781226E-002
   9.3642211243343855E-004  -4.4031935948993239E-004   6.8667627467912939E-002
   1.0948707614776010E-005  -7.1732848027084017E-006   6.9998874787636889E-002
   1.2793457890472593E-005  -3.5653186281514593E-005   6.9401342954994560E-002
   1.4638208166158767E-005  -4.9119908257122535E-005   6.9178603527871141E-002
   1.6482958441848411E-005  -4.7573450728935485E-005   6.9330656506266602E-002
   1.8327708717541524E-005  -3.1013813697744474E-005   6.9857501890181140E-002
   4.1641692589617640E-003  -1.6682359968666072E-003   6.5466466957183944E-002
   3.6352532633099899E-003  -1.9984512059919024E-003   6.4430350017082083E-002
   3.1063372676582574E-003  -2.5459456121668389E-003   6.3560587439251748E-002
   2.5774212720064901E-003  -3.3107192153911738E-003   6.2857179223693188E-002
   2.0485052763547507E-003  -4.2927720156651361E-003   6.2320125370406210E-002
   3.0093428875555550E-003  -1.2589304510745025E-003   6.6472110001414675E-002
   2.6379293588926628E-003  -1.5015607887031157E-003   6.5314947037027449E-002
   2.2665158302297497E-003  -1.9091214990798744E-003   6.4306434644346183E-002
   1.8951023015668644E-003  -2.4816125822045357E-003   6.3446572823370975E-002
   1.5236887729039444E-003  -3.2190340380776616E-003   6.2735361574101423E-002
   1.9334271720461080E-003  -8.4962490528223134E-004   6.7539163504990757E-002
   1.7018123198062028E-003  -1.0046703714143013E-003   6.6313303340620022E-002
   1.4701974675663081E-003  -1.2722973859928960E-003   6.5218389957389669E-002
   1.2385826153264116E-003  -1.6525059490180051E-003   6.4254423355299378E-002
   1.0069677630865081E-003  -2.1452960604899651E-003   6.3421403534348553E-002
   9.3642211243343855E-004  -4.4031935948993239E-004   6.8667627467912939E-002
   8.2690214605068459E-004  -5.0777995412516763E-004   6.7425418927860276E-002
   7.1738217966791935E-004  -6.3547327290603556E-004   6.6296453378381789E-002
   6.0786221328515281E-004  -8.2339931583153177E-004   6.5280730819477509E-002
   4.9834224690238627E-004  -1.0715580829022686E-003   6.4378251251147434E-002
   1.8327708717541524E-005  -3.1013813697744474E-005   6.9857501890181140E-002
   1.3198837626071658E-005  -1.0889536836755642E-005   6.8651293798747681E-002
   8.0699665345879135E-006   1.3508401810746751E-006   6.7540624907322822E-002
   2.9410954431111080E-006   5.7073173550595269E-006   6.6525495215906366E-002
  -2.1877756483656974E-006   2.1798946852058521E-006   6.5605904724498121E-002
   2.0485052763547507E-003  -4.2927720156651361E-003   6.2320125370406210E-002
   2.2935268486724697E-003  -5.5828897606223782E-003   5.8329102328621429E-002
   2.5385484209901887E-003  -7.2718581978952201E-003   5.4314891048296676E-002
   2.7835699933079078E-003  -9.3596773274842171E-003   5.0277491529432006E-002
   3.0285915656256268E-003  -1.1846347149389924E-002   4.6216903772027695E-002
   1.5236887729039444E-003  -3.2190340380776616E-003   6.2735361574101423E-002
   1.7360792564808242E-003  -4.1880366194159135E-003   5.8394449890499411E-002
   1.9484697400576831E-003  -5.4552710789367298E-003   5.4011464267955334E-002
   2.1608602236345489E-003  -7.0207374166398051E-003   4.9586404706469661E-002
   2.3732507072113940E-003  -8.8844356325257223E-003   4.5119271206041534E-002
   1.0069677630865081E-003  -2.1452960604899651E-003   6.3421403534348553E-002
   1.1678414575203404E-003  -2.7931834782097265E-003   5.8831222023063290E-002
   1.3287151519541865E-003  -3.6386839599782395E-003   5.4180080872433423E-002
   1.4895888463879979E-003  -4.6817975057955596E-003   4.9467980082459811E-002
   1.6504625408218648E-003  -5.9225241156617425E-003   4.4694919653142096E-002
   4.9834224690238627E-004  -1.0715580829022686E-003   6.4378251251147434E-002
   5.8881345179102092E-004  -1.3983303370034006E-003   5.9639418726311871E-002
   6.7928465667962783E-004  -1.8220968410196381E-003   5.4820740861730541E-002
   7.6975586156823473E-004  -2.3428575949512309E-003   4.9922217657402471E-002
   8.6022706645686939E-004  -2.9606125987975407E-003   4.4943849113328327E-002
  -2.1877756483656974E-006   2.1798946852058521E-006   6.5605904724498121E-002
  -1.0047607071489439E-006  -3.4771957972967726E-006   6.0819040000246516E-002
   1.7825423406780949E-007  -5.5097220611477482E-006   5.5933444235846563E-002
   1.3612691752741546E-006  -3.9176841067078971E-006   5.0949117431298707E-002
   2.5442841165013164E-006   1.2989180664391142E-006   4.5866059586601615E-002
   5.9222378067223802E-004   1.8976739891141514E-002   7.5303201447163570E-002
   3.9984822858684516E-004   1.0447311793279568E-002   5.4265360089990944E-002
   2.0747267650144882E-004   4.5802463758252560E-003   4.0984242883359251E-002
   1.5097124416043814E-005   1.3755436387786583E-003   3.5459849827268589E-002
  -1.7727842766934732E-004   8.3320358213978540E-004   3.7692180921718998E-002
  -2.3522380457600082E-002   9.8161905780888015E-003   6.4065324354702302E-002
  -1.7810141321680007E-002   5.2184165393864279E-003   5.4878335970367897E-002
  -1.2097902185759932E-002   2.1975278651649166E-003   4.9743852811503619E-002
  -6.3856630498398499E-003   7.5352455542432306E-004   4.8661874878109232E-002
  -6.7342391391976911E-004   8.8640661016470279E-004   5.1632402170184721E-002
  -3.6053646282942879E-002   6.5564126503611653E-004   5.7301839979364041E-002
  -2.8141011384088376E-002  -1.0478714506712006E-005   5.8880227251941170E-002
  -2.0228376485233856E-002  -1.8519064549547132E-004   6.0806900824917291E-002
  -1.2315741586379346E-002   1.3150547206990625E-004   6.3081860698292275E-002
  -4.4031066875248343E-003   9.3960963818945364E-004   6.5705106872066155E-002
  -3.7001573695356144E-002  -8.5049080480165823E-003   5.5012748321148650E-002
  -3.0592761958638245E-002  -5.2393739683998658E-003   6.6271033934710580E-002
  -2.4183950221920346E-002  -2.5679091561558072E-003   7.4173386923600246E-002
  -1.7775138485202437E-002  -4.9051361128438654E-004   7.8719807287817953E-002
  -1.1366326748484538E-002   9.9281266621426001E-004   7.9910295027363437E-002
  -2.6366162694839858E-002  -1.7665457361069281E-002   5.7198049380056348E-002
  -2.5165393045329623E-002  -1.0468269222292992E-002   7.7050756018676170E-002
  -2.3964623395819378E-002  -4.9506276668161986E-003   8.9843311107552781E-002
  -2.2763853746309140E-002  -1.1125326946388042E-003   9.5575714646686211E-002
  -2.1563084096798892E-002   1.0460156942391219E-003   9.4247966636076541E-002
  -1.7727842766934732E-004   8.3320358213978540E-004   3.7692180921718998E-002
   3.0759431072169968E-004   1.4347097180243407E-003   4.4900022815129031E-002
   7.9246704911275015E-004   1.6615455585483607E-003   5.1196496144831349E-002
   1.2773397875037971E-003   1.5137111037116235E-003   5.6581600910825841E-002
   1.7622125258948476E-003   9.9120635351418462E-004   6.1055337113112673E-002
  -6.7342391391976911E-004   8.8640661016470279E-004   5.1632402170184721E-002
  -8.9398305693985658E-004   1.6211657927720086E-003   5.5438742756483042E-002
  -1.1145421999599475E-003   1.9827938666327483E-003   5.8745588143666871E-002
  -1.3351013429800333E-003   1.9712908317466998E-003   6.1552938331736237E-002
  -1.5556604860001259E-003   1.5866566881140298E-003   6.3860793320691139E-002
  -4.4031066875248343E-003   9.3960963818945364E-004   6.5705106872066155E-002
  -4.9172243473627909E-003   1.8076218675196210E-003   6.6111485337866857E-002
  -5.4313420072007465E-003   2.3040421747170803E-003   6.6430241969146236E-002
  -5.9454596670387100E-003   2.4288705597818872E-003   6.6661376765904362E-002
  -6.4595773268766726E-003   2.1821070227139028E-003   6.6804889728141331E-002
  -1.1366326748484538E-002   9.9281266621426001E-004   7.9910295027363437E-002
  -1.1762129560547108E-002   1.9940779422672888E-003   7.6918250559280379E-002
  -1.2157932372609676E-002   2.6252904828013846E-003   7.4250457621269361E-002
  -1.2553735184672248E-002   2.8864502878169357E-003   7.1906916213330244E-002
  -1.2949537996734813E-002   2.7775573573137896E-003   6.9887626335463221E-002
  -2.1563084096798892E-002   1.0460156942391219E-003   9.4247966636076541E-002
  -2.1428698696492811E-002   2.1805340170148457E-003   8.7859038420723734E-002
  -2.1294313296186720E-002   2.9465387908857582E-003   8.2206235100036162E-002
  -2.1159927895880629E-002   3.3440300158521681E-003   7.7289556674014007E-002
  -2.1025542495574541E-002   3.3730076919136209E-003   7.3109003142657059E-002
   1.7622125258948476E-003   9.9120635351418462E-004   6.1055337113112673E-002
   1.4947205452967849E-003   3.8333916438285098E-004   6.1994944910096328E-002
   1.2272285646987083E-003  -2.0582607255542618E-005   6.2500906225856107E-002
   9.5973658410064035E-004  -2.2055896140129455E-004   6.2573221060391870E-002
   6.9224460350256894E-004  -2.1658989805400930E-004   6.2211889413703869E-002
  -1.5556604860001259E-003   1.5866566881140298E-003   6.3860793320691139E-002
  -2.0196419778762548E-003   1.0891278338361066E-003   6.3627157811113610E-002
  -2.4836234697523871E-003   7.3894066701435390E-004   6.3434189760204027E-002
  -2.9476049616285272E-003   5.3609518764867470E-004   6.3281889167962402E-002
  -3.4115864535046551E-003   4.8059139573936038E-004   6.3170256034388306E-002
  -6.4595773268766726E-003   2.1821070227139028E-003   6.6804889728141331E-002
  -6.6457343901390837E-003   1.7949165032894038E-003   6.5341407181965988E-002
  -6.8318914534015087E-003   1.4984639412842921E-003   6.4392906034350272E-002
  -7.0180485166639224E-003   1.2927493366986405E-003   6.3959386285294184E-002
  -7.2042055799263448E-003   1.1777726895325358E-003   6.4040847934797626E-002
  -1.2949537996734813E-002   2.7775573573137896E-003   6.9887626335463221E-002
  -1.2383556691491736E-002   2.5007051727425969E-003   6.7137693022653419E-002
  -1.1817575386248644E-002   2.2579872155543204E-003   6.5377055048294913E-002
  -1.1251594081005564E-002   2.0494034857486080E-003   6.4605712412387828E-002
  -1.0685612775762486E-002   1.8749539833257528E-003   6.4823665114932080E-002
  -2.1025542495574541E-002   3.3730076919136209E-003   7.3109003142657059E-002
  -1.9233108881934170E-002   3.2064938421959288E-003   6.9016015333175862E-002
  -1.7440675268293813E-002   3.0175104898241684E-003   6.6386636802037824E-002
  -1.5648241654653446E-002   2.8060576347985859E-003   6.5220867549242958E-002
  -1.3855808041013086E-002   2.5721352771190253E-003   6.5518707574791335E-002
   6.9224460350256894E-004  -2.1658989805400930E-004   6.2211889413703869E-002
   5.6956707100699194E-004  -1.2171878336186825E-004   6.2119888003049017E-002
   4.4688953851142188E-004  -4.8988983472705860E-005   6.2736934184056986E-002
   3.2421200601585008E-004   1.5995016132176743E-006   6.4063027956727844E-002
   2.0153447352027481E-004   3.0046671895989085E-005   6.6098169321061273E-002
  -3.4115864535046551E-003   4.8059139573936038E-004   6.3170256034388306E-002
  -2.9679154461277526E-003   5.0343742035902084E-004   6.3240375817928185E-002
  -2.5242444387508431E-003   5.3564139058111249E-004   6.3734145089550553E-002
  -2.0805734313739319E-003   5.7720330640525022E-004   6.4651563849254773E-002
  -1.6369024239970172E-003   6.2812316783178446E-004   6.5992632097041315E-002
  -7.2042055799263448E-003   1.1777726895325358E-003   6.4040847934797626E-002
  -6.4795841362575608E-003   1.1285936240798544E-003   6.4304588172937813E-002
  -5.7549626925887847E-003   1.1202717646350349E-003   6.4706579795579505E-002
  -5.0303412489200120E-003   1.1528071111973921E-003   6.5246822802722787E-002
  -4.3057198052512246E-003   1.2261996637674133E-003   6.5925317194367589E-002
  -1.0685612775762486E-002   1.8749539833257528E-003   6.4823665114932080E-002
  -9.9654389993824484E-003   1.7537498278007713E-003   6.5312525068077679E-002
  -9.2452652230024229E-003   1.7049021386887388E-003   6.5654238302144188E-002
  -8.5250914466223869E-003   1.7284109159894237E-003   6.5848804817131651E-002
  -7.8049176702423631E-003   1.8242761597032919E-003   6.5896224613040316E-002
  -1.3855808041013086E-002   2.5721352771190253E-003   6.5518707574791335E-002
  -1.3425480035502417E-002   2.3789060315216881E-003   6.6264186503347755E-002
  -1.2995152029991738E-002   2.2895325127427896E-003   6.6577120609244506E-002
  -1.2564824024481060E-002   2.3040147207816254E-003   6.6457509892481600E-002
  -1.2134496018970389E-002   2.4223526556388375E-003   6.5905354353058887E-002
   2.0153447352027481E-004   3.0046671895989085E-005   6.6098169321061273E-002
   1.5388803204390011E-004   4.0752809263355783E-005   6.7431306453528128E-002
   1.0624159056752541E-004   3.8118195602315774E-005   6.8525803075446201E-002
   5.8595149091148976E-005   2.2142830914041733E-005   6.9381659186815797E-002
   1.0948707614776010E-005  -7.1732848027084017E-006   6.9998874787636889E-002
  -1.6369024239970172E-003   6.2812316783178446E-004   6.5992632097041315E-002
  -1.7951413414064553E-003   6.6199622064722075E-004   6.6595040623460333E-002
  -1.9533802588158899E-003   6.5241771063800913E-004   6.7214904708562090E-002
  -2.1116191762253289E-003   5.9938763780435778E-004   6.7852224352346183E-002
  -2.2698580936347627E-003   5.0290600214675241E-004   6.8506999554812764E-002
  -4.3057198052512246E-003   1.2261996637674133E-003   6.5925317194367589E-002
  -4.3184551293626947E-003   1.2832396320310024E-003   6.5766886302942723E-002
  -4.3311904534741570E-003   1.2667172256734666E-003   6.5882007039431353E-002
  -4.3439257775856228E-003   1.1766324446951699E-003   6.6270679403833438E-002
  -4.3566611016970895E-003   1.0129852890960467E-003   6.6932903396149046E-002
  -7.8049176702423631E-003   1.8242761597032919E-003   6.5896224613040316E-002
  -7.4160533318248121E-003   1.9044830434146592E-003   6.4946843491974826E-002
  -7.0271889934072533E-003   1.8810167407090975E-003   6.4527110068054006E-002
  -6.6383246549897024E-003   1.7538772515857341E-003   6.4637024341277646E-002
  -6.2494603165721445E-003   1.5230645760455908E-003   6.5276586311645832E-002
  -1.2134496018970389E-002   2.4223526556388375E-003   6.5905354353058887E-002
  -1.1087935948792794E-002   2.5257264547985936E-003   6.4134912190556781E-002
  -1.0041375878615200E-002   2.4953162557445341E-003   6.3150213794430032E-002
  -8.9948158084376117E-003   2.3311220584763884E-003   6.2951259164678919E-002
  -7.9482557382600169E-003   2.0331438629948018E-003   6.3538048301303163E-002
   1.0948707614776010E-005  -7.1732848027084017E-006   6.9998874787636889E-002
   1.2793457890472593E-005  -3.5653186281514593E-005   6.9401342954994560E-002
   1.4638208166158767E-005  -4.9119908257122535E-005   6.9178603527871141E-002
   1.6482958441848411E-005  -4.7573450728935485E-005   6.9330656506266602E-002
   1.8327708717541524E-005  -3.1013813697744474E-005   6.9857501890181140E-002
  -2.2698580936347627E-003   5.0290600214675241E-004   6.8506999554812764E-002
  -1.9276800109842805E-003   4.0775942910203922E-004   6.8099579875990579E-002
  -1.5855019283338018E-003   3.5873454410778605E-004   6.7998034456398848E-002
  -1.2433238456833213E-003   3.5583134716433984E-004   6.8202363296038182E-002
  -9.0114576303284080E-004   3.9904983827110385E-004   6.8712566394907804E-002
  -4.3566611016970895E-003   1.0129852890960467E-003   6.6932903396149046E-002
  -3.7430678329600413E-003   8.5117204448548200E-004   6.6746704379694044E-002
  -3.1294745642230157E-003   7.6658899647261136E-004   6.6797461476181708E-002
  -2.5158812954859831E-003   7.5923614505728904E-004   6.7085174685611523E-002
  -1.9022880267489418E-003   8.2911349023989667E-004   6.7609844007983894E-002
  -6.2494603165721445E-003   1.5230645760455908E-003   6.5276586311645832E-002
  -5.4333700080368046E-003   1.2945846598689803E-003   6.5342716466105399E-002
  -4.6172796995014656E-003   1.1744434488371452E-003   6.5576884587219220E-002
  -3.8011893909661301E-003   1.1626409429504568E-003   6.5979090674986973E-002
  -2.9850990824307868E-003   1.2591771422088838E-003   6.6549334729409104E-002
  -7.9482557382600169E-003   2.0331438629948018E-003   6.3538048301303163E-002
  -6.9985865362146016E-003   1.7379972752524786E-003   6.3887616135224423E-002
  -6.0489173341691828E-003   1.5822979012021510E-003   6.4336303789511551E-002
  -5.0992481321237640E-003   1.5660457408434650E-003   6.4884111264164601E-002
  -4.1495789300783487E-003   1.6892407941775378E-003   6.5531038559183630E-002
   1.8327708717541524E-005  -3.1013813697744474E-005   6.9857501890181140E-002
   1.3198837626071658E-005  -1.0889536836755642E-005   6.8651293798747681E-002
   8.0699665345879135E-006   1.3508401810746751E-006   6.7540624907322822E-002
   2.9410954431111080E-006   5.7073173550595269E-006   6.6525495215906366E-002
  -2.1877756483656974E-006   2.1798946852058521E-006   6.5605904724498121E-002
  -9.0114576303284080E-004   3.9904983827110385E-004   6.8712566394907804E-002
  -8.0153977744113966E-004   4.9085810137872166E-004   6.7455472146237483E-002
  -7.0193379184945934E-004   6.3372422043830867E-004   6.6312308410925086E-002
  -6.0232780625776600E-004   8.2764819544853957E-004   6.5283075188970571E-002
  -5.0272182066607787E-004   1.0726300264102262E-003   6.4367772480374175E-002
  -1.9022880267489418E-003   8.2911349023989667E-004   6.7609844007983894E-002
  -1.6795558711244591E-003   9.9260573959433773E-004   6.6360805357871477E-002
  -1.4568237154999764E-003   1.2660976006951957E-003   6.5244088534466435E-002
  -1.2340915598755015E-003   1.6495890735421272E-003   6.4259693537768947E-002
  -1.0113594042510110E-003   2.1430801581352465E-003   6.3407620367779305E-002
  -2.9850990824307868E-003   1.2591771422088838E-003   6.6549334729409104E-002
  -2.6208494434238885E-003   1.4943533778098844E-003   6.5367293433649304E-002
  -2.2565998044169898E-003   1.8984709809520897E-003   6.4335965277946758E-002
  -1.8923501654100846E-003   2.4715299516359941E-003   6.3455350262301355E-002
  -1.5281005264031929E-003   3.2135302898607110E-003   6.2725448386713401E-002
  -4.1495789300783487E-003   1.6892407941775378E-003   6.5531038559183630E-002
  -3.6254204943394069E-003   1.9961010160253756E-003   6.4474936373571490E-002
  -3.1012620586004722E-003   2.5308443612092890E-003   6.3587938641366304E-002
  -2.5771036228615391E-003   3.2934708297294099E-003   6.2870045362567933E-002
  -2.0529451871225957E-003   4.2839804215853983E-003   6.2321256537176573E-002
  -2.1877756483656974E-006   2.1798946852058521E-006   6.5605904724498121E-002
  -1.0047607071489439E-006  -3.4771957972967726E-006   6.0819040000246516E-002
   1.7825423406780949E-007  -5.5097220611477482E-006   5.5933444235846563E-002
   1.3612691752741546E-006  -3.9176841067078971E-006   5.0949117431298707E-002
   2.5442841165013164E-006   1.2989180664391142E-006   4.5866059586601615E-002
  -5.0272182066607787E-004   1.0726300264102262E-003   6.4367772480374175E-002
  -5.9088077771891206E-004   1.3935527457213936E-003   5.9634417528193040E-002
  -6.7903973477175493E-004   1.8152993857808719E-003   5.4821109672172463E-002
  -7.6719869182459433E-004   2.3378699465877242E-003   4.9927848912312389E-002
  -8.5535764887743199E-004   2.9612644281422629E-003   4.4954635248612540E-002
  -1.0113594042510110E-003   2.1430801581352465E-003   6.3407620367779305E-002
  -1.1700821969890390E-003   2.7905826872401951E-003   5.8824974544197994E-002
  -1.3288049897270688E-003   3.6361084936225585E-003   5.4181153953085981E-002
  -1.4875277824650665E-003   4.6796575772819343E-003   4.9476158594443292E-002
  -1.6462505752031127E-003   5.9212299382183087E-003   4.4709988468269568E-002
  -1.5281005264031929E-003   3.2135302898607110E-003   6.2725448386713401E-002
  -1.7386090185175142E-003   4.1876126287589410E-003   5.8390711048261094E-002
  -1.9491175106318430E-003   5.4569176014644116E-003   5.4013577078586963E-002
  -2.1596260027461891E-003   7.0214452079760334E-003   4.9594046477691035E-002
  -2.3701344948605070E-003   8.8811954482942435E-003   4.5132119245573477E-002
  -2.0529451871225957E-003   4.2839804215853983E-003   6.2321256537176573E-002
  -2.2964612423043707E-003   5.5846425702777980E-003   5.8331627040382639E-002
  -2.5399772974861248E-003   7.2777267093064590E-003   5.4318379048675924E-002
  -2.7834933526678946E-003   9.3632328386705141E-003   5.0281512562056124E-002
  -3.0270094078496540E-003   1.1841160958370178E-002   4.6221027580523266E-002
  -2.6366162694839858E-002  -1.7665457361069281E-002   5.7198049380056348E-002
  -2.5165393045329623E-002  -1.0468269222292992E-002   7.7050756018676170E-002
  -2.3964623395819378E-002  -4.9506276668161986E-003   8.9843311107552781E-002
  -2.2763853746309140E-002  -1.1125326946388042E-003   9.5575714646686211E-002
  -2.1563084096798892E-002   1.0460156942391219E-003   9.4247966636076541E-002
  -1.7027858443856510E-002  -3.4207028388041349E-003   6.3699948653838712E-002
  -2.0629153003059925E-002  -3.8267175206099791E-004   7.0473763155597002E-002
  -2.4230447562263363E-002   2.0160507861903959E-003   7.4703600789671060E-002
  -2.7831742121466767E-002   3.7754647759499389E-003   7.6389461556061106E-002
  -3.1433036680670205E-002   4.8955702172176485E-003   7.5531345454766891E-002
  -2.1867106104868604E-002   1.0824051683461039E-002   6.5522571858184137E-002
  -2.5754290190726659E-002   9.7029257181710515E-003   6.0257732257888483E-002
  -2.9641474276584676E-002   8.9827292391969626E-003   5.6965090471967739E-002
  -3.3528658362442738E-002   8.6634622465387098E-003   5.5644646500421849E-002
  -3.7415842448300790E-002   8.7451247401962307E-003   5.6296400343250980E-002
  -4.0883905677876094E-002   2.5068806205726213E-002   6.2665918993092498E-002
  -4.0540804608329706E-002   1.9788523188403101E-002   4.6402663325550667E-002
  -4.0197703538783311E-002   1.5949407692203502E-002   3.6627780154442749E-002
  -3.9854602469236979E-002   1.3551459717127467E-002   3.3341269479768870E-002
  -3.9511501399690591E-002   1.2594679263174813E-002   3.6543131301528767E-002
  -7.4078257162878969E-002   3.9313560727991359E-002   5.5129990058564005E-002
  -6.4988696255869144E-002   2.9874120658635095E-002   2.8908556358583581E-002
  -5.5899135348859319E-002   2.2916086145210068E-002   1.3691669837096188E-002
  -4.6809574441849522E-002   1.8439457187716224E-002   9.4793304941016843E-003
  -3.7720013534839711E-002   1.6444233786153395E-002   1.6271538329600155E-002
  -2.1563084096798892E-002   1.0460156942391219E-003   9.4247966636076541E-002
  -2.1428698696492811E-002   2.1805340170148457E-003   8.7859038420723734E-002
  -2.1294313296186720E-002   2.9465387908857582E-003   8.2206235100036162E-002
  -2.1159927895880629E-002   3.3440300158521681E-003   7.7289556674014007E-002
  -2.1025542495574541E-002   3.3730076919136209E-003   7.3109003142657059E-002
  -3.1433036680670205E-002   4.8955702172176485E-003   7.5531345454766891E-002
  -3.0806584305082037E-002   5.5548323219287987E-003   7.2460060299508577E-002
  -3.0180131929493870E-002   5.9317163020185526E-003   6.9636784200149210E-002
  -2.9553679553905674E-002   6.0262221574870906E-003   6.7061517156688635E-002
  -2.8927227178317534E-002   5.8383498883343710E-003   6.4734259169126923E-002
  -3.7415842448300790E-002   8.7451247401962307E-003   5.6296400343250980E-002
  -3.6785438936196929E-002   8.9291306268428350E-003   5.6628893672370617E-002
  -3.6155035424093096E-002   8.9168938131513401E-003   5.6721280218622709E-002
  -3.5524631911989270E-002   8.7084142991221778E-003   5.6573559982007249E-002
  -3.4894228399885409E-002   8.3036920847550100E-003   5.6185732962524201E-002
  -3.9511501399690591E-002   1.2594679263174813E-002   3.6543131301528767E-002
  -3.9365262589837510E-002   1.2303428931756663E-002   4.0365538539309714E-002
  -3.9219023779984437E-002   1.1902071324284131E-002   4.3459723155456750E-002
  -3.9072784970131322E-002   1.1390606440757071E-002   4.5825685149969729E-002
  -3.8926546160278262E-002   1.0769034281175621E-002   4.7463424522848893E-002
  -3.7720013534839711E-002   1.6444233786153395E-002   1.6271538329600155E-002
  -3.8546055266003791E-002   1.5677727236670824E-002   2.3669994900325869E-002
  -3.9372096997167857E-002   1.4887248835416922E-002   2.9852113010651243E-002
  -4.0198138728331945E-002   1.4072798582392188E-002   3.4817892660576305E-002
  -4.1024180459496004E-002   1.3234376477596344E-002   3.8567333850100860E-002
  -2.1025542495574541E-002   3.3730076919136209E-003   7.3109003142657059E-002
  -1.9233108881934170E-002   3.2064938421959288E-003   6.9016015333175862E-002
  -1.7440675268293813E-002   3.0175104898241684E-003   6.6386636802037824E-002
  -1.5648241654653446E-002   2.8060576347985859E-003   6.5220867549242958E-002
  -1.3855808041013086E-002   2.5721352771190253E-003   6.5518707574791335E-002
  -2.8927227178317534E-002   5.8383498883343710E-003   6.4734259169126923E-002
  -2.5968553758902741E-002   5.5111103347321444E-003   6.2269172374786297E-002
  -2.3009880339487958E-002   5.1875143368520782E-003   6.0672955913651336E-002
  -2.0051206920073165E-002   4.8675618946946234E-003   5.9945609785722061E-002
  -1.7092533500658393E-002   4.5512530082592595E-003   6.0087133990998465E-002
  -3.4894228399885409E-002   8.3036920847550100E-003   5.6185732962524201E-002
  -3.1364054119833708E-002   7.8157268272682073E-003   5.5374660241700444E-002
  -2.7833879839782031E-002   7.3575181838799950E-003   5.4837718908944767E-002
  -2.4303705559730319E-002   6.9290661545905515E-003   5.4574908964257249E-002
  -2.0773531279678632E-002   6.5303707393995214E-003   5.4586230407637951E-002
  -3.8926546160278262E-002   1.0769034281175621E-002   4.7463424522848893E-002
  -3.5419609964727157E-002   1.0120343319804485E-002   4.8332478933918142E-002
  -3.1912673769176052E-002   9.5275220309079915E-003   4.8880925787918084E-002
  -2.8405737573624947E-002   8.9905704144864242E-003   4.9108765084848571E-002
  -2.4898801378073827E-002   8.5094884705397694E-003   4.9015996824709807E-002
  -4.1024180459496004E-002   1.3234376477596344E-002   3.8567333850100860E-002
  -3.8135221293582974E-002   1.2424959812340458E-002   4.1142628451439567E-002
  -3.5246262127669979E-002   1.1697525877935780E-002   4.2802576550571181E-002
  -3.2357302961756956E-002   1.1052074674382340E-002   4.3547178147496271E-002
  -2.9468343795843954E-002   1.0488606201680017E-002   4.3376433242214296E-002
  -1.3855808041013086E-002   2.5721352771190253E-003   6.5518707574791335E-002
  -1.3425480035502417E-002   2.3789060315216881E-003   6.6264186503347755E-002
  -1.2995152029991738E-002   2.2895325127427896E-003   6.6577120609244506E-002
  -1.2564824024481060E-002   2.3040147207816254E-003   6.6457509892481600E-002
  -1.2134496018970389E-002   2.4223526556388375E-003   6.5905354353058887E-002
  -1.7092533500658393E-002   4.5512530082592595E-003   6.0087133990998465E-002
  -1.6930148751507751E-002   4.2598728099058625E-003   6.0627976940109296E-002
  -1.6767764002357070E-002   4.0147064319942666E-003   6.1065478199159917E-002
  -1.6605379253206418E-002   3.8157538745235316E-003   6.1399637768150134E-002
  -1.6442994504055772E-002   3.6630151374944520E-003   6.1630455647080029E-002
  -2.0773531279678632E-002   6.5303707393995214E-003   5.4586230407637951E-002
  -2.0549886654288731E-002   6.1408395882903144E-003   5.4864795470926556E-002
  -2.0326242028898781E-002   5.7398803512456256E-003   5.5369221976754153E-002
  -2.0102597403508879E-002   5.3274930282655470E-003   5.6099509925120666E-002
  -1.9878952778118957E-002   4.9036776193500664E-003   5.7055659316026047E-002
  -2.4898801378073827E-002   8.5094884705397694E-003   4.9015996824709807E-002
  -2.4284693743845356E-002   8.0218063666746275E-003   4.8974642095799395E-002
  -2.3670586109616844E-002   7.4650542704970992E-003   4.9488351942027206E-002
  -2.3056478475388359E-002   6.8392321820075078E-003   5.0557126363393219E-002
  -2.2442370841159860E-002   6.1443401012056809E-003   5.2180965359897365E-002
  -2.9468343795843954E-002   1.0488606201680017E-002   4.3376433242214296E-002
  -2.8134570020177607E-002   9.9027731450589407E-003   4.2957516814727925E-002
  -2.6800796244511288E-002   9.1902281897485449E-003   4.3422868094979195E-002
  -2.5467022468844955E-002   8.3509713357494339E-003   4.4772487082967882E-002
  -2.4133248693178622E-002   7.3850025830611843E-003   4.7006373778693988E-002
  -1.2134496018970389E-002   2.4223526556388375E-003   6.5905354353058887E-002
  -1.1087935948792794E-002   2.5257264547985936E-003   6.4134912190556781E-002
  -1.0041375878615200E-002   2.4953162557445341E-003   6.3150213794430032E-002
  -8.9948158084376117E-003   2.3311220584763884E-003   6.2951259164678919E-002
  -7.9482557382600169E-003   2.0331438629948018E-003   6.3538048301303163E-002
  -1.6442994504055772E-002   3.6630151374944520E-003   6.1630455647080029E-002
  -1.4760682801026256E-002   3.4968996981893374E-003   6.0479185950472636E-002
  -1.3078371097996772E-002   3.2578170338906642E-003   5.9813675753193435E-002
  -1.1396059394967262E-002   2.9457671445981687E-003   5.9633925055242690E-002
  -9.7137476919378005E-003   2.5607500303124198E-003   5.9939933856619887E-002
  -1.9878952778118957E-002   4.9036776193500664E-003   5.7055659316026047E-002
  -1.7860873709284859E-002   4.4680729415802201E-003   5.6584378858533790E-002
  -1.5842794640450755E-002   4.0203178120371136E-003   5.6298873633322435E-002
  -1.3824715571616670E-002   3.5604122307202786E-003   5.6199143640391948E-002
  -1.1806636502782585E-002   3.0883561976300378E-003   5.6285188879742459E-002
  -2.2442370841159860E-002   6.1443401012056809E-003   5.2180965359897365E-002
  -2.0388508673568503E-002   5.4392461849711443E-003   5.2450490914740411E-002
  -1.8334646505977159E-002   4.7828185901833478E-003   5.2605807434816867E-002
  -1.6280784338385795E-002   4.1750573168421682E-003   5.2646914920126922E-002
  -1.4226922170794461E-002   3.6159623649476558E-003   5.2573813370670623E-002
  -2.4133248693178622E-002   7.3850025830611843E-003   4.7006373778693988E-002
  -2.2343587693877315E-002   6.4104194283619020E-003   4.8077522119092164E-002
  -2.0553926694575980E-002   5.5453193683297763E-003   4.8734477157676814E-002
  -1.8764265695274659E-002   4.7897024029640786E-003   4.8977238894447661E-002
  -1.6974604695973339E-002   4.1435685322651628E-003   4.8805807329404871E-002
  -7.9482557382600169E-003   2.0331438629948018E-003   6.3538048301303163E-002
  -6.9985865362146016E-003   1.7379972752524786E-003   6.3887616135224423E-002
  -6.0489173341691828E-003   1.5822979012021510E-003   6.4336303789511551E-002
  -5.0992481321237640E-003   1.5660457408434650E-003   6.4884111264164601E-002
  -4.1495789300783487E-003   1.6892407941775378E-003   6.5531038559183630E-002
  -9.7137476919378005E-003   2.5607500303124198E-003   5.9939933856619887E-002
  -8.6292995477759912E-003   2.2058405234600120E-003   6.0134078781900580E-002
  -7.5448514036142063E-003   1.9841134564677343E-003   6.0498661771047957E-002
  -6.4604032594524265E-003   1.8955688293356351E-003   6.1033682824062518E-002
  -5.3759551152906121E-003   1.9402066420637354E-003   6.1739141940943154E-002
  -1.1806636502782585E-002   3.0883561976300378E-003   5.6285188879742459E-002
  -1.0516091173003582E-002   2.6736837716674344E-003   5.6317646122550719E-002
  -9.2255458432245908E-003   2.3859290117333037E-003   5.6591859672726744E-002
  -7.9350005134455788E-003   2.2250919178274688E-003   5.7107829530270528E-002
  -6.6444551836665668E-003   2.1911724899500440E-003   5.7865555695181675E-002
  -1.4226922170794461E-002   3.6159623649476558E-003   5.2573813370670623E-002
  -1.2658961411897408E-002   3.1415270198749679E-003   5.2438318157174930E-002
  -1.1091000653000352E-002   2.7877445669988246E-003   5.2615897494547648E-002
  -9.5230398941033041E-003   2.5546150063192486E-003   5.3106551382788927E-002
  -7.9550791352062441E-003   2.4421383378365746E-003   5.3910279821898700E-002
  -1.6974604695973339E-002   4.1435685322651628E-003   4.8805807329404871E-002
  -1.5057910264457380E-002   3.6093702680825013E-003   4.8496094885773111E-002
  -1.3141215832941450E-002   3.1895601222645675E-003   4.8570775236510766E-002
  -1.1224521401425519E-002   2.8841380948111672E-003   4.9029848381617808E-002
  -9.3078269699095606E-003   2.6931041857226612E-003   4.9873314321093987E-002
  -4.1495789300783487E-003   1.6892407941775378E-003   6.5531038559183630E-002
  -3.6254204943394069E-003   1.9961010160253756E-003   6.4474936373571490E-002
  -3.1012620586004722E-003   2.5308443612092890E-003   6.3587938641366304E-002
  -2.5771036228615391E-003   3.2934708297294099E-003   6.2870045362567933E-002
  -2.0529451871225957E-003   4.2839804215853983E-003   6.2321256537176573E-002
  -5.3759551152906121E-003   1.9402066420637354E-003   6.1739141940943154E-002
  -4.6684178353559626E-003   2.2116591320291978E-003   6.0929355281931830E-002
  -3.9608805554213200E-003   2.8035585366097127E-003   6.0317221857904918E-002
  -3.2533432754866792E-003   3.7159048558043015E-003   5.9902741668862461E-002
  -2.5458059955520071E-003   4.9486980896135124E-003   5.9685914714804666E-002
  -6.6444551836665668E-003   2.1911724899500440E-003   5.7865555695181675E-002
  -5.7249902779585096E-003   2.4272172480336029E-003   5.7394648354049171E-002
  -4.8055253722504394E-003   3.0762727120099281E-003   5.7149943029478775E-002
  -3.8860604665423609E-003   4.1383388818793075E-003   5.7131439721470702E-002
  -2.9665955608342860E-003   5.6134157576415711E-003   5.7339138430025000E-002
  -7.9550791352062441E-003   2.4421383378365746E-003   5.3910279821898700E-002
  -6.7951378221470186E-003   2.6427753640375501E-003   5.3870815589923411E-002
  -5.6351965090877939E-003   3.3489868874100256E-003   5.4086102156088223E-002
  -4.4752551960285962E-003   4.5607729079539232E-003   5.4556139520393065E-002
  -3.3153138829693442E-003   6.2781334256696575E-003   5.5280927682837745E-002
  -9.3078269699095606E-003   2.6931041857226612E-003   4.9873314321093987E-002
  -7.8788604679214808E-003   2.8583334800418303E-003   5.0357856989554750E-002
  -6.4498939659334148E-003   3.6217010628105395E-003   5.1125699237733024E-002
  -5.0209274639453488E-003   4.9832069340292537E-003   5.2176841065629059E-002
  -3.5919609619572690E-003   6.9428510936975218E-003   5.3511282473242883E-002
  -2.0529451871225957E-003   4.2839804215853983E-003   6.2321256537176573E-002
  -2.2964612423043707E-003   5.5846425702777980E-003   5.8331627040382639E-002
  -2.5399772974861248E-003   7.2777267093064590E-003   5.4318379048675924E-002
  -2.7834933526678946E-003   9.3632328386705141E-003   5.0281512562056124E-002
  -3.0270094078496540E-003   1.1841160958370178E-002   4.6221027580523266E-002
  -2.5458059955520071E-003   4.9486980896135124E-003   5.9685914714804666E-002
  -2.8265873643122559E-003   6.5695435112619327E-003   5.6178749368191949E-002
  -3.1073687330725342E-003   8.6460463939728449E-003   5.2620671889335224E-002
  -3.3881501018327232E-003   1.1178206737747005E-002   4.9011682278235130E-002
  -3.6689314705930579E-003   1.4166024542583866E-002   4.5351780534890640E-002
  -2.9665955608342860E-003   5.6134157576415711E-003   5.7339138430025000E-002
  -3.3119358805039599E-003   7.5544444522455678E-003   5.4377672704320562E-002
  -3.6572762001736191E-003   1.0014366078639689E-002   5.1338001209041376E-002
  -4.0026165198433182E-003   1.2993180636823722E-002   4.8220123944187336E-002
  -4.3479568395129002E-003   1.6490888126797776E-002   4.5024040909758201E-002
  -3.3153138829693442E-003   6.2781334256696575E-003   5.5280927682837745E-002
  -3.7525067908794050E-003   8.5393453932296748E-003   5.2928397048768720E-002
  -4.1896996987894940E-003   1.1382685763306193E-002   5.0470367007794031E-002
  -4.6268926066995219E-003   1.4808154535900104E-002   4.7906837559913221E-002
  -5.0640855146096174E-003   1.8815751711011575E-002   4.5237808705126281E-002
  -3.5919609619572690E-003   6.9428510936975218E-003   5.3511282473242883E-002
  -4.1483000954386645E-003   9.5242463342128936E-003   5.1830922401536084E-002
  -4.7046392289200739E-003   1.2751005447973085E-002   5.0017769285592761E-002
  -5.2609783624014278E-003   1.6623128434977305E-002   4.8071823125412361E-002
  -5.8173174958828788E-003   2.1140615295225373E-002   4.5993083920995215E-002
  -7.4078257162878969E-002   3.9313560727991359E-002   5.5129990058564005E-002
  -6.4988696255869144E-002   2.9874120658635095E-002   2.8908556358583581E-002
  -5.5899135348859319E-002   2.2916086145210068E-002   1.3691669837096188E-002
  -4.6809574441849522E-002   1.8439457187716224E-002   9.4793304941016843E-003
  -3.7720013534839711E-002   1.6444233786153395E-002   1.6271538329600155E-002
 -0.10667879889653023        3.0863226395939747E-002   3.5836737236680682E-002
  -8.9027243615810853E-002   2.5915921022347660E-002   2.4309910263688450E-002
  -7.1375688335091600E-002   2.2031186326970431E-002   1.8902524859622377E-002
  -5.3724133054372285E-002   1.9209022309807894E-002   1.9614581024482186E-002
  -3.6072577773652977E-002   1.7449428970860159E-002   2.6446078758268127E-002
 -0.12391416921548262        2.2412892063888107E-002   2.1745036549419450E-002
 -0.10258572517062081        2.1957721386060225E-002   2.3493981425699223E-002
  -8.1257281125758946E-002   2.1146286508730711E-002   2.6477262261338064E-002
  -5.9928837080897072E-002   1.9978587431899619E-002   3.0694879056335916E-002
  -3.8600393036035262E-002   1.8454624155566951E-002   3.6146831810692892E-002
 -0.12578436811973628        1.3962557731836495E-002   1.2854887996780945E-002
 -0.10566414092029890        1.7999521749772762E-002   2.6460769844616122E-002
  -8.5543913720861384E-002   2.0261386690491073E-002   3.6415882042243435E-002
  -6.5423686521423996E-002   2.0748152553991456E-002   4.2720224589662903E-002
  -4.5303459321986546E-002   1.9459819340273757E-002   4.5373797486874499E-002
 -0.11228939560929124        5.5122233997848546E-003   9.1662915787644739E-003
  -9.8262490864845120E-002   1.4041322113485410E-002   3.3210275520438759E-002
  -8.4235586120399025E-002   1.9376486872251394E-002   4.8718384202338344E-002
  -7.0208681375952917E-002   2.1517717676083053E-002   5.5690617624463104E-002
  -5.6181776631506836E-002   2.0465014524980507E-002   5.4126975786812970E-002
  -3.7720013534839711E-002   1.6444233786153395E-002   1.6271538329600155E-002
  -3.8546055266003791E-002   1.5677727236670824E-002   2.3669994900325869E-002
  -3.9372096997167857E-002   1.4887248835416922E-002   2.9852113010651243E-002
  -4.0198138728331945E-002   1.4072798582392188E-002   3.4817892660576305E-002
  -4.1024180459496004E-002   1.3234376477596344E-002   3.8567333850100860E-002
  -3.6072577773652977E-002   1.7449428970860159E-002   2.6446078758268127E-002
  -3.7780099348667558E-002   1.6299426462495326E-002   3.0070462487564537E-002
  -3.9487620923682187E-002   1.5306034937081214E-002   3.3148224989560271E-002
  -4.1195142498696796E-002   1.4469254394618047E-002   3.5679366264255247E-002
  -4.2902664073711343E-002   1.3789084835105547E-002   3.7663886311649575E-002
  -3.8600393036035262E-002   1.8454624155566951E-002   3.6146831810692892E-002
  -4.0519677221800714E-002   1.6921125688319827E-002   3.6177725533281940E-002
  -4.2438961407566256E-002   1.5724821038745507E-002   3.6331715261669895E-002
  -4.4358245593331735E-002   1.4865710206843796E-002   3.6608800995856859E-002
  -4.6277529779097243E-002   1.4343793192614890E-002   3.7008982735842674E-002
  -4.5303459321986546E-002   1.9459819340273757E-002   4.5373797486874499E-002
  -4.6764788885403231E-002   1.7542824914144328E-002   4.1991784037478039E-002
  -4.8226118448819945E-002   1.6143607140409771E-002   3.9402583826980170E-002
  -4.9687448012236700E-002   1.5262166019069601E-002   3.7606196855380837E-002
  -5.1148777575653337E-002   1.4898501550124219E-002   3.6602623122680172E-002
  -5.6181776631506836E-002   2.0465014524980507E-002   5.4126975786812970E-002
  -5.6515434339475090E-002   1.8164524139968830E-002   4.7512638000152901E-002
  -5.6849092047443400E-002   1.6562393242074064E-002   4.2360830685491013E-002
  -5.7182749755411696E-002   1.5658621831295343E-002   3.8671553842827569E-002
  -5.7516407463379937E-002   1.5453209907633492E-002   3.6444807472162277E-002
  -4.1024180459496004E-002   1.3234376477596344E-002   3.8567333850100860E-002
  -3.8135221293582974E-002   1.2424959812340458E-002   4.1142628451439567E-002
  -3.5246262127669979E-002   1.1697525877935780E-002   4.2802576550571181E-002
  -3.2357302961756956E-002   1.1052074674382340E-002   4.3547178147496271E-002
  -2.9468343795843954E-002   1.0488606201680017E-002   4.3376433242214296E-002
  -4.2902664073711343E-002   1.3789084835105547E-002   3.7663886311649575E-002
  -4.0689941337442977E-002   1.3186584438787008E-002   3.9022263931523998E-002
  -3.8477218601174534E-002   1.2582811385905029E-002   3.9943515194316034E-002
  -3.6264495864906092E-002   1.1977765676459702E-002   4.0427640100025815E-002
  -3.4051773128637677E-002   1.1371447310450811E-002   4.0474638648653416E-002
  -4.6277529779097243E-002   1.4343793192614890E-002   3.7008982735842674E-002
  -4.4262823327348787E-002   1.3948209065233461E-002   3.7067187986838376E-002
  -4.2248116875600358E-002   1.3468096893874050E-002   3.7166487025876223E-002
  -4.0233410423851930E-002   1.2903456678536785E-002   3.7306879852956457E-002
  -3.8218703972103474E-002   1.2254288419221493E-002   3.7488366468078904E-002
  -5.1148777575653337E-002   1.4898501550124219E-002   3.6602623122680172E-002
  -4.8853867263300453E-002   1.4709833691679906E-002   3.5277400617382652E-002
  -4.6558956950947507E-002   1.4353382401843268E-002   3.4471492045251788E-002
  -4.4264046638594526E-002   1.3829147680613895E-002   3.4184897406287662E-002
  -4.1969136326241677E-002   1.3137129527992342E-002   3.4417616700490393E-002
  -5.7516407463379937E-002   1.5453209907633492E-002   3.6444807472162277E-002
  -5.4463073145297941E-002   1.5471458318126435E-002   3.3652901823156722E-002
  -5.1409738827215917E-002   1.5238667909812320E-002   3.1858530252442757E-002
  -4.8356404509133866E-002   1.4754838682691201E-002   3.1061692760019882E-002
  -4.5303070191051897E-002   1.4019970636762913E-002   3.1262389345888486E-002
  -2.9468343795843954E-002   1.0488606201680017E-002   4.3376433242214296E-002
  -2.8134570020177607E-002   9.9027731450589407E-003   4.2957516814727925E-002
  -2.6800796244511288E-002   9.1902281897485449E-003   4.3422868094979195E-002
  -2.5467022468844955E-002   8.3509713357494339E-003   4.4772487082967882E-002
  -2.4133248693178622E-002   7.3850025830611843E-003   4.7006373778693988E-002
  -3.4051773128637677E-002   1.1371447310450811E-002   4.0474638648653416E-002
  -3.2002387006737999E-002   1.0715859633368824E-002   4.0191576416854724E-002
  -2.9953000884838356E-002   9.9630059907036550E-003   4.0455471169785179E-002
  -2.7903614762938709E-002   9.1128863824557205E-003   4.1266322907444863E-002
  -2.5854228641039034E-002   8.1655008086244374E-003   4.2624131629833528E-002
  -3.8218703972103474E-002   1.2254288419221493E-002   3.7488366468078904E-002
  -3.5791016226978875E-002   1.1528946121678763E-002   3.7370604365073667E-002
  -3.3363328481854235E-002   1.0735783791658779E-002   3.7462488523789375E-002
  -3.0935640736729570E-002   9.8748014291618440E-003   3.7764018944225868E-002
  -2.8507952991604996E-002   8.9459990341876350E-003   3.8275195626383124E-002
  -4.1969136326241677E-002   1.3137129527992342E-002   3.4417616700490393E-002
  -3.9500457680900318E-002   1.2342032609988673E-002   3.4494600659384700E-002
  -3.7031779035559050E-002   1.1508561592613896E-002   3.4443920156991423E-002
  -3.4563100390217746E-002   1.0636716475867938E-002   3.4265575193310749E-002
  -3.2094421744876422E-002   9.7264972597509713E-003   3.3959565768342574E-002
  -4.5303070191051897E-002   1.4019970636762913E-002   3.1262389345888486E-002
  -4.3130711368502245E-002   1.3155119098298529E-002   3.1563565299788154E-002
  -4.0958352545952648E-002   1.2281339393568971E-002   3.1399766069391905E-002
  -3.8785993723403037E-002   1.1398631522574299E-002   3.0770991654699917E-002
  -3.6613634900853398E-002   1.0506995485314086E-002   2.9677242055711983E-002
  -2.4133248693178622E-002   7.3850025830611843E-003   4.7006373778693988E-002
  -2.2343587693877315E-002   6.4104194283619020E-003   4.8077522119092164E-002
  -2.0553926694575980E-002   5.5453193683297763E-003   4.8734477157676814E-002
  -1.8764265695274659E-002   4.7897024029640786E-003   4.8977238894447661E-002
  -1.6974604695973339E-002   4.1435685322651628E-003   4.8805807329404871E-002
  -2.5854228641039034E-002   8.1655008086244374E-003   4.2624131629833528E-002
  -2.4355065957691463E-002   7.2243838357908818E-003   4.2995873684509023E-002
  -2.2855903274343829E-002   6.3930700305361854E-003   4.3200812409090572E-002
  -2.1356740590996223E-002   5.6715593928599456E-003   4.3238947803578523E-002
  -1.9857577907648624E-002   5.0598519227620375E-003   4.3110279867972501E-002
  -2.8507952991604996E-002   8.9459990341876350E-003   3.8275195626383124E-002
  -2.7051898652491104E-002   8.0383482432199449E-003   3.7947851468247362E-002
  -2.5595844313377331E-002   7.2408206927427193E-003   3.7701093951737805E-002
  -2.4139789974263529E-002   6.5534163827557050E-003   3.7534923076854583E-002
  -2.2683735635149666E-002   5.9761353132589679E-003   3.7449338843597274E-002
  -3.2094421744876422E-002   9.7264972597509713E-003   3.3959565768342574E-002
  -3.0434085778276467E-002   8.8523126506491884E-003   3.2933455470307377E-002
  -2.8773749811676456E-002   8.0885713549491908E-003   3.2235321785618345E-002
  -2.7113413845076477E-002   7.4352733726515182E-003   3.1865164714275696E-002
  -2.5453077878476438E-002   6.8924187037558149E-003   3.1822984256278747E-002
  -3.6613634900853398E-002   1.0506995485314086E-002   2.9677242055711983E-002
  -3.4501627335047330E-002   9.6662770580779322E-003   2.7952685690689261E-002
  -3.2389619769241235E-002   8.9363220171559676E-003   2.6803495910732333E-002
  -3.0277612203435181E-002   8.3171303625473522E-003   2.6229672715841812E-002
  -2.8165604637629071E-002   7.8087020942526619E-003   2.6231216106017308E-002
  -1.6974604695973339E-002   4.1435685322651628E-003   4.8805807329404871E-002
  -1.5057910264457380E-002   3.6093702680825013E-003   4.8496094885773111E-002
  -1.3141215832941450E-002   3.1895601222645675E-003   4.8570775236510766E-002
  -1.1224521401425519E-002   2.8841380948111672E-003   4.9029848381617808E-002
  -9.3078269699095606E-003   2.6931041857226612E-003   4.9873314321093987E-002
  -1.9857577907648624E-002   5.0598519227620375E-003   4.3110279867972501E-002
  -1.7623524345121544E-002   4.5282310933211223E-003   4.2872728361206924E-002
  -1.5389470782594450E-002   4.0469803776152780E-003   4.2885502322094177E-002
  -1.3155417220067377E-002   3.6160997756444144E-003   4.3148601750634313E-002
  -1.0921363657540276E-002   3.2355892874081915E-003   4.3662026646827834E-002
  -2.2683735635149666E-002   5.9761353132589679E-003   3.7449338843597274E-002
  -2.0266390268327879E-002   5.4470919185601319E-003   3.7219930269067780E-002
  -1.7849044901505948E-002   4.9044006329660994E-003   3.7106779835474835E-002
  -1.5431699534684078E-002   4.3480614564775505E-003   3.7109887542818493E-002
  -1.3014354167862174E-002   3.7780743890938884E-003   3.7229253391098921E-002
  -2.5453077878476438E-002   6.8924187037558149E-003   3.1822984256278747E-002
  -2.2986508034076116E-002   6.3659527437987251E-003   3.1537700609355630E-002
  -2.0519938189675790E-002   5.7618208883171984E-003   3.1234607776652643E-002
  -1.8053368345275440E-002   5.0800231373106866E-003   3.0913705758169971E-002
  -1.5586798500875146E-002   4.3205594907795020E-003   3.0574994553907643E-002
  -2.8165604637629071E-002   7.8087020942526619E-003   2.6231216106017308E-002
  -2.5783877642366615E-002   7.2848135690377624E-003   2.5826039382070287E-002
  -2.3402150647104158E-002   6.6192411436677145E-003   2.5268986145627559E-002
  -2.1020423651841702E-002   5.8119848181440101E-003   2.4560056396688706E-002
  -1.8638696656579246E-002   4.8630445924650045E-003   2.3699250135253869E-002
  -9.3078269699095606E-003   2.6931041857226612E-003   4.9873314321093987E-002
  -7.8788604679214808E-003   2.8583334800418303E-003   5.0357856989554750E-002
  -6.4498939659334148E-003   3.6217010628105395E-003   5.1125699237733024E-002
  -5.0209274639453488E-003   4.9832069340292537E-003   5.2176841065629059E-002
  -3.5919609619572690E-003   6.9428510936975218E-003   5.3511282473242883E-002
  -1.0921363657540276E-002   3.2355892874081915E-003   4.3662026646827834E-002
  -9.1808418811780562E-003   3.1567913677167936E-003   4.4270967843155873E-002
  -7.4403201048158230E-003   3.6310484713798774E-003   4.5219720008514375E-002
  -5.6997983284536070E-003   4.6583605983968393E-003   4.6508283142903561E-002
  -3.9592765520913703E-003   6.2387277487681025E-003   4.8136657246323100E-002
  -1.3014354167862174E-002   3.7780743890938884E-003   3.7229253391098921E-002
  -1.0905765727812915E-002   3.4552492553922010E-003   3.7917509850198677E-002
  -8.7971772877636321E-003   3.6403958799491182E-003   3.9002088667641835E-002
  -6.6885888477143628E-003   4.3335142627645394E-003   4.0482989843428581E-002
  -4.5800004076650899E-003   5.5346044038387943E-003   4.2360213377558631E-002
  -1.5586798500875146E-002   4.3205594907795020E-003   3.0574994553907643E-002
  -1.3053632007825951E-002   3.7537071430672198E-003   3.1297483010683587E-002
  -1.0520465514776789E-002   3.6497432885186296E-003   3.2472805215115683E-002
  -7.9872990217276403E-003   4.0086679271324043E-003   3.4100961167204208E-002
  -5.4541325286784331E-003   4.8304810589092084E-003   3.6181950866949156E-002
  -1.8638696656579246E-002   4.8630445924650045E-003   2.3699250135253869E-002
  -1.5624440721217298E-002   4.0521650307427937E-003   2.4410887324610164E-002
  -1.2610184785855350E-002   3.6590906970878079E-003   2.5631869650935668E-002
  -9.5959288504934015E-003   3.6838215914998529E-003   2.7362197114230269E-002
  -6.5816729151314535E-003   4.1263577139799557E-003   2.9601869714494522E-002
  -3.5919609619572690E-003   6.9428510936975218E-003   5.3511282473242883E-002
  -4.1483000954386645E-003   9.5242463342128936E-003   5.1830922401536084E-002
  -4.7046392289200739E-003   1.2751005447973085E-002   5.0017769285592761E-002
  -5.2609783624014278E-003   1.6623128434977305E-002   4.8071823125412361E-002
  -5.8173174958828788E-003   2.1140615295225373E-002   4.5993083920995215E-002
  -3.9592765520913703E-003   6.2387277487681025E-003   4.8136657246323100E-002
  -4.5475287587981444E-003   8.6806457364360656E-003   4.7211474142429821E-002
  -5.1357809655049533E-003   1.2292610375342461E-002   4.6355257936322447E-002
  -5.7240331722117899E-003   1.7074621665487455E-002   4.5568008628001033E-002
  -6.3122853789185362E-003   2.3026679606870992E-002   4.4849726217465857E-002
  -4.5800004076650899E-003   5.5346044038387943E-003   4.2360213377558631E-002
  -4.9984057455744087E-003   7.8370451386586826E-003   4.2714890019472984E-002
  -5.4168110834837517E-003   1.1834215302711643E-002   4.3340293501195920E-002
  -5.8352164213929837E-003   1.7526114895997501E-002   4.4236423822728244E-002
  -6.2536217593024135E-003   2.4912743918516611E-002   4.5403280984068761E-002
  -5.4541325286784331E-003   4.8304810589092084E-003   3.6181950866949156E-002
  -5.5009310557674442E-003   6.9934445408813550E-003   3.8341170032665323E-002
  -5.5477295828564813E-003   1.1375820230081032E-002   4.0972875980213173E-002
  -5.5945281099454231E-003   1.7977608126507821E-002   4.4077068709593256E-002
  -5.6413266370344203E-003   2.6798808230162230E-002   4.7653748220804371E-002
  -6.5816729151314535E-003   4.1263577139799557E-003   2.9601869714494522E-002
  -6.0551046893772553E-003   6.1498439431042495E-003   3.4090314182007253E-002
  -5.5285364636230849E-003   1.0917425157450283E-002   3.9253005373374450E-002
  -5.0019682378687341E-003   1.8429101357017828E-002   4.5089943288596140E-002
  -4.4754000121146609E-003   2.8684872541807849E-002   5.1601127927672685E-002
 -0.11228939560929124        5.5122233997848546E-003   9.1662915787644739E-003
  -9.8262490864845120E-002   1.4041322113485410E-002   3.3210275520438759E-002
  -8.4235586120399025E-002   1.9376486872251394E-002   4.8718384202338344E-002
  -7.0208681375952917E-002   2.1517717676083053E-002   5.5690617624463104E-002
  -5.6181776631506836E-002   2.0465014524980507E-002   5.4126975786812970E-002
  -9.6125238552559999E-002   1.6088940193346057E-002   1.4046039117365738E-002
  -8.9013946492206716E-002   1.9016493584895822E-002   2.7510511052214665E-002
  -8.1902654431853295E-002   2.0792036410617831E-002   3.5679632878652889E-002
  -7.4791362371499942E-002   2.1415568670512170E-002   3.8553404596680385E-002
  -6.7680070311146576E-002   2.0887090364578725E-002   3.6131826206297180E-002
  -8.9987883817955375E-002   2.6665656986907343E-002   1.2303279639263157E-002
  -8.6551679290330572E-002   2.3991665056306344E-002   1.7230162956393069E-002
  -8.3115474762705727E-002   2.2207585948984386E-002   2.0102221316476480E-002
  -7.9679270235080937E-002   2.1313419664941290E-002   2.0919454719513540E-002
  -7.6243065707456079E-002   2.1309166204176944E-002   1.9681863165504132E-002
  -9.3877331405477438E-002   3.7242373780468505E-002   3.9380131444566972E-003
  -9.0875689259216852E-002   2.8966836527716977E-002   2.3692312329740631E-003
  -8.7874047112956377E-002   2.3623135487350937E-002   1.9861495158096775E-003
  -8.4872404966695902E-002   2.1211270659370240E-002   2.7887679929626012E-003
  -8.1870762820435386E-002   2.1731242043775162E-002   4.7770866644333901E-003
 -0.10779358131512584        4.7819090574029777E-002  -1.1049760367053962E-002
 -0.10198597639886553        3.3942007999127388E-002  -1.7072284118042014E-002
  -9.6178371482605218E-002   2.5038685025717350E-002  -1.8668582523348326E-002
  -9.0370766566344907E-002   2.1109121653799322E-002  -1.5838655582972476E-002
  -8.4563161650084595E-002   2.2153317883373269E-002  -8.5825032969148451E-003
  -5.6181776631506836E-002   2.0465014524980507E-002   5.4126975786812970E-002
  -5.6515434339475090E-002   1.8164524139968830E-002   4.7512638000152901E-002
  -5.6849092047443400E-002   1.6562393242074064E-002   4.2360830685491013E-002
  -5.7182749755411696E-002   1.5658621831295343E-002   3.8671553842827569E-002
  -5.7516407463379937E-002   1.5453209907633492E-002   3.6444807472162277E-002
  -6.7680070311146576E-002   2.0887090364578725E-002   3.6131826206297180E-002
  -6.6820340456606425E-002   1.9853510287525578E-002   3.2603727048830078E-002
  -6.5960610602066344E-002   1.8961737234060895E-002   2.9999872544381440E-002
  -6.5100880747526194E-002   1.8211771204184636E-002   2.8320262692951237E-002
  -6.4241150892986099E-002   1.7603612197897078E-002   2.7564897494539553E-002
  -7.6243065707456079E-002   2.1309166204176944E-002   1.9681863165504132E-002
  -7.4728234109387351E-002   2.1542496435082104E-002   1.8683450173701745E-002
  -7.3213402511318554E-002   2.1361081226047948E-002   1.8070996015937903E-002
  -7.1698570913249840E-002   2.0764920577073822E-002   1.7844500692213008E-002
  -7.0183739315181057E-002   1.9754014488160526E-002   1.8003964202526770E-002
  -8.1870762820435386E-002   2.1731242043775162E-002   4.7770866644333901E-003
  -8.0239115297817812E-002   2.3231482582638852E-002   5.7518073747675601E-003
  -7.8607467775200113E-002   2.3760425218034890E-002   6.5742011001608605E-003
  -7.6975820252582469E-002   2.3318069949963119E-002   7.2442678406129963E-003
  -7.5344172729964798E-002   2.1904416778423988E-002   7.7620075961243006E-003
  -8.4563161650084595E-002   2.2153317883373269E-002  -8.5825032969148451E-003
  -8.3352984021897836E-002   2.4920468730195322E-002  -6.1912013479721306E-003
  -8.2142806393711021E-002   2.6159769210021805E-002  -4.4905122029500893E-003
  -8.0932628765524206E-002   2.5871219322852322E-002  -3.4804358618485513E-003
  -7.9722451137337447E-002   2.4054819068687450E-002  -3.1609723246680543E-003
  -5.7516407463379937E-002   1.5453209907633492E-002   3.6444807472162277E-002
  -5.4463073145297941E-002   1.5471458318126435E-002   3.3652901823156722E-002
  -5.1409738827215917E-002   1.5238667909812320E-002   3.1858530252442757E-002
  -4.8356404509133866E-002   1.4754838682691201E-002   3.1061692760019882E-002
  -4.5303070191051897E-002   1.4019970636762913E-002   3.1262389345888486E-002
  -6.4241150892986099E-002   1.7603612197897078E-002   2.7564897494539553E-002
  -6.0307809903191317E-002   1.7033662700605690E-002   2.5279406034165369E-002
  -5.6374468913396564E-002   1.6398325197719027E-002   2.3756393838925402E-002
  -5.2441127923601866E-002   1.5697599689236515E-002   2.2995860908819395E-002
  -4.8507786933807029E-002   1.4931486175158826E-002   2.2997807243847701E-002
  -7.0183739315181057E-002   1.9754014488160526E-002   1.8003964202526770E-002
  -6.5605446466830752E-002   1.8595867083085180E-002   1.6410537743995229E-002
  -6.1027153618480504E-002   1.7557982485625900E-002   1.5344535737441073E-002
  -5.6448860770130165E-002   1.6640360695782216E-002   1.4805958182863441E-002
  -5.1870567921779936E-002   1.5843001713554766E-002   1.4794805080262971E-002
  -7.5344172729964798E-002   2.1904416778423988E-002   7.7620075961243006E-003
  -7.0355982836216163E-002   2.0158071465564441E-002   7.0462969526472047E-003
  -6.5367792942467556E-002   1.8717639773532302E-002   6.6229559479898462E-003
  -6.0379603048718963E-002   1.7583121702327668E-002   6.4919845821522666E-003
  -5.5391413154970315E-002   1.6754517251950582E-002   6.6533828551345285E-003
  -7.9722451137337447E-002   2.4054819068687450E-002  -3.1609723246680543E-003
  -7.4559419011347661E-002   2.1720275848043813E-002  -2.8133163398798011E-003
  -6.9396386885357875E-002   1.9877297061439453E-002  -2.4083455294280909E-003
  -6.4233354759368033E-002   1.8525882708873419E-002  -1.9460598933147416E-003
  -5.9070322633378303E-002   1.7666032790346398E-002  -1.4264594315381851E-003
  -4.5303070191051897E-002   1.4019970636762913E-002   3.1262389345888486E-002
  -4.3130711368502245E-002   1.3155119098298529E-002   3.1563565299788154E-002
  -4.0958352545952648E-002   1.2281339393568971E-002   3.1399766069391905E-002
  -3.8785993723403037E-002   1.1398631522574299E-002   3.0770991654699917E-002
  -3.6613634900853398E-002   1.0506995485314086E-002   2.9677242055711983E-002
  -4.8507786933807029E-002   1.4931486175158826E-002   2.2997807243847701E-002
  -4.6708957685443780E-002   1.4135783263749452E-002   2.3231005084972639E-002
  -4.4910128437080532E-002   1.3346289563271913E-002   2.3182118962020742E-002
  -4.3111299188717284E-002   1.2563005073726409E-002   2.2851148874991761E-002
  -4.1312469940353980E-002   1.1785929795113059E-002   2.2238094823886112E-002
  -5.1870567921779936E-002   1.5843001713554766E-002   1.4794805080262971E-002
  -5.0262377027383967E-002   1.5116447429199681E-002   1.4975162185810423E-002
  -4.8654186132988046E-002   1.4411239732974514E-002   1.5056326547500366E-002
  -4.7045995238592070E-002   1.3727378624878517E-002   1.5038298165332132E-002
  -4.5437804344196156E-002   1.3064864104912366E-002   1.4921077039306202E-002
  -5.5391413154970315E-002   1.6754517251950582E-002   6.6533828551345285E-003
  -5.3790969394322694E-002   1.6097111594650534E-002   6.7960366023020712E-003
  -5.2190525633675176E-002   1.5476189902677063E-002   7.0223888258306565E-003
  -5.0590081873027638E-002   1.4891752176030459E-002   7.3324395257205891E-003
  -4.8989638112380038E-002   1.4343798414711506E-002   7.7261887019718783E-003
  -5.9070322633378303E-002   1.7666032790346398E-002  -1.4264594315381851E-003
  -5.7294734786260126E-002   1.7077775760100611E-002  -1.3063716655532520E-003
  -5.5519146939141895E-002   1.6541140072379834E-002  -9.1969420298784743E-004
  -5.3743559092023691E-002   1.6056125727182791E-002  -2.6642704384265831E-004
  -5.1967971244905486E-002   1.5622732724510424E-002   6.5342981188276639E-004
  -3.6613634900853398E-002   1.0506995485314086E-002   2.9677242055711983E-002
  -3.4501627335047330E-002   9.6662770580779322E-003   2.7952685690689261E-002
  -3.2389619769241235E-002   8.9363220171559676E-003   2.6803495910732333E-002
  -3.0277612203435181E-002   8.3171303625473522E-003   2.6229672715841812E-002
  -2.8165604637629071E-002   7.8087020942526619E-003   2.6231216106017308E-002
  -4.1312469940353980E-002   1.1785929795113059E-002   2.2238094823886112E-002
  -3.8711460563328887E-002   1.1025844323533429E-002   2.1069941215399124E-002
  -3.6110451186303821E-002   1.0293529255087919E-002   2.0304424644283586E-002
  -3.3509441809278784E-002   9.5889845897773468E-003   1.9941545110540249E-002
  -3.0908432432253719E-002   8.9122103276016995E-003   1.9981302614168639E-002
  -4.5437804344196156E-002   1.3064864104912366E-002   1.4921077039306202E-002
  -4.2520522703646327E-002   1.2385411588988510E-002   1.4226333204175323E-002
  -3.9603241063096421E-002   1.1650736493020106E-002   1.3761496858722175E-002
  -3.6685959422546571E-002   1.0860838817007511E-002   1.3526568002946930E-002
  -3.3768677781996687E-002   1.0015718560950793E-002   1.3521546636849152E-002
  -4.8989638112380038E-002   1.4343798414711506E-002   7.7261887019718783E-003
  -4.5928813755999581E-002   1.3744978854443632E-002   7.4218616570182194E-003
  -4.2867989399619069E-002   1.3007943730952286E-002   7.1747125540483278E-003
  -3.9807165043238620E-002   1.2132693044237758E-002   6.9847413930619624E-003
  -3.6746340686858107E-002   1.1119226794299969E-002   6.8519481740590624E-003
  -5.1967971244905486E-002   1.5622732724510424E-002   6.5342981188276639E-004
  -4.8936333720388636E-002   1.5104546119898865E-002   6.5652657392767377E-004
  -4.5904696195871675E-002   1.4365150968884188E-002   5.4407173026177480E-004
  -4.2873058671354769E-002   1.3404547271467546E-002   3.1606528088533314E-004
  -3.9841421146837863E-002   1.2222735027648923E-002  -2.7492774201443027E-005
  -2.8165604637629071E-002   7.8087020942526619E-003   2.6231216106017308E-002
  -2.5783877642366615E-002   7.2848135690377624E-003   2.5826039382070287E-002
  -2.3402150647104158E-002   6.6192411436677145E-003   2.5268986145627559E-002
  -2.1020423651841702E-002   5.8119848181440101E-003   2.4560056396688706E-002
  -1.8638696656579246E-002   4.8630445924650045E-003   2.3699250135253869E-002
  -3.0908432432253719E-002   8.9122103276016995E-003   1.9981302614168639E-002
  -2.8638411517298429E-002   8.2342784147115267E-003   1.9412993964933067E-002
  -2.6368390602343222E-002   7.5262607972574891E-003   1.8773149667579148E-002
  -2.4098369687388002E-002   6.7881574752399199E-003   1.8061769722106991E-002
  -2.1828348772432782E-002   6.0199684486584859E-003   1.7278854128516263E-002
  -3.3768677781996687E-002   1.0015718560950793E-002   1.3521546636849152E-002
  -3.1530022082971051E-002   9.1837432603856239E-003   1.2901704257915897E-002
  -2.9291366383945396E-002   8.4332804508470555E-003   1.2290667095241986E-002
  -2.7052710684919698E-002   7.7643301323359441E-003   1.1688435148827336E-002
  -2.4814054985894105E-002   7.1768923048520228E-003   1.1095008418672059E-002
  -3.6746340686858107E-002   1.1119226794299969E-002   6.8519481740590624E-003
  -3.4458709339384344E-002   1.0133208106059222E-002   6.2921702610190117E-003
  -3.2171077991910546E-002   9.3403001044368925E-003   5.8215384286157516E-003
  -2.9883446644436772E-002   8.7405027894319667E-003   5.4400526768494471E-003
  -2.7595815296962985E-002   8.3338161610457540E-003   5.1477130057201378E-003
  -3.9841421146837863E-002   1.2222735027648923E-002  -2.7492774201443027E-005
  -3.7424473286538307E-002   1.1082672951733152E-002  -4.1560802575757450E-004
  -3.5007525426238806E-002   1.0247319758026341E-002  -6.3423633229897636E-004
  -3.2590577565939305E-002   9.7166754465283084E-003  -6.8337769382600944E-004
  -3.0173629705639748E-002   9.4907400172390410E-003  -5.6303211033859046E-004
  -1.8638696656579246E-002   4.8630445924650045E-003   2.3699250135253869E-002
  -1.5624440721217298E-002   4.0521650307427937E-003   2.4410887324610164E-002
  -1.2610184785855350E-002   3.6590906970878079E-003   2.5631869650935668E-002
  -9.5959288504934015E-003   3.6838215914998529E-003   2.7362197114230269E-002
  -6.5816729151314535E-003   4.1263577139799557E-003   2.9601869714494522E-002
  -2.1828348772432782E-002   6.0199684486584859E-003   1.7278854128516263E-002
  -1.8583787153632070E-002   5.3330684488486768E-003   1.8220632259821234E-002
  -1.5339225534831344E-002   4.8388322071449552E-003   1.9113676621034636E-002
  -1.2094663916030646E-002   4.5372597235479248E-003   1.9957987212156247E-002
  -8.8501022972299059E-003   4.4283509980571623E-003   2.0753564033186289E-002
  -2.4814054985894105E-002   7.1768923048520228E-003   1.1095008418672059E-002
  -2.1897266590715482E-002   6.6139718669543379E-003   1.2041786021964623E-002
  -1.8980478195536915E-002   6.0185737172022136E-003   1.2381750948104578E-002
  -1.6063689800358313E-002   5.3906978555955526E-003   1.2114903197092255E-002
  -1.3146901405179781E-002   4.7303442821344244E-003   1.1241242768927101E-002
  -2.7595815296962985E-002   8.3338161610457540E-003   5.1477130057201378E-003
  -2.5564879032467493E-002   7.8948752850603321E-003   5.8743486110394358E-003
  -2.3533942767971949E-002   7.1983152272592499E-003   5.4360926321454436E-003
  -2.1503006503476481E-002   6.2441359876429584E-003   3.8329450690376896E-003
  -1.9472070238980902E-002   5.0323375662112146E-003   1.0649059217167703E-003
  -3.0173629705639748E-002   9.4907400172390410E-003  -5.6303211033859046E-004
  -2.9586624478888157E-002   9.1757787031663263E-003  -2.8167997295353020E-004
  -2.8999619252136621E-002   8.3780567373166748E-003  -1.7232983268428703E-003
  -2.8412614025385030E-002   7.0975741196911551E-003  -4.8878871720063194E-003
  -2.7825608798633494E-002   5.3343308502891151E-003  -9.7754465084444186E-003
  -6.5816729151314535E-003   4.1263577139799557E-003   2.9601869714494522E-002
  -6.0551046893772553E-003   6.1498439431042495E-003   3.4090314182007253E-002
  -5.5285364636230849E-003   1.0917425157450283E-002   3.9253005373374450E-002
  -5.0019682378687341E-003   1.8429101357017828E-002   4.5089943288596140E-002
  -4.4754000121146609E-003   2.8684872541807849E-002   5.1601127927672685E-002
  -8.8501022972299059E-003   4.4283509980571623E-003   2.0753564033186289E-002
  -7.5729053050392903E-003   5.6554109344049697E-003   2.5901705092825911E-002
  -6.2957083128486607E-003   9.3617444363248148E-003   3.1876856961484012E-002
  -5.0185113206580451E-003   1.5547351503815379E-002   3.8679019639159928E-002
  -3.7413143284674155E-003   2.4212232136877843E-002   4.6308193125854435E-002
  -1.3146901405179781E-002   4.7303442821344244E-003   1.1241242768927101E-002
  -1.0966311561389094E-002   5.1609779257056898E-003   1.6784259001043411E-002
  -8.7857217175983868E-003   7.8060637151986939E-003   2.3307050127341591E-002
  -6.6051318738077867E-003   1.2665601650612878E-002   3.0809616147822107E-002
  -4.4245420300172145E-003   1.9739591731947836E-002   3.9291957062483673E-002
  -1.9472070238980902E-002   5.0323375662112146E-003   1.0649059217167703E-003
  -1.6235323458426598E-002   4.6665449170071871E-003   6.7379759066594630E-003
  -1.2998576677872372E-002   6.2503829940738984E-003   1.3543584870947752E-002
  -9.7618298973180216E-003   9.7838517974097369E-003   2.1481732814581253E-002
  -6.5250831167638426E-003   1.5266951327018052E-002   3.0552419737560371E-002
  -2.7825608798633494E-002   5.3343308502891151E-003  -9.7754465084444186E-003
  -2.3379940996151927E-002   4.1721119083080183E-003  -4.2371441903260032E-003
  -1.8934273193670359E-002   4.6947022729470489E-003   2.5864611923016312E-003
  -1.4488605391188764E-002   6.9021019442074699E-003   1.0695369639438394E-002
  -1.0042937588707224E-002   1.0794310922087824E-002   2.0089581151084168E-002
 </DataArray>
 </PointData>
 </Piece>
 </UnstructuredGrid>
 </VTKFile>
