 <VTKFile type="UnstructuredGrid"  version="0.1"   >
 <UnstructuredGrid>
 <Piece  NumberOfPoints="          1600 "  NumberOfCells="         1024 ">
 <Points>
 <DataArray  type="Float64" NumberOfComponents="3"  format="ascii" >
   0.0000000000000000        0.0000000000000000        0.0000000000000000     
   3.1250000000000000E-002   0.0000000000000000        0.0000000000000000     
   6.2500000000000000E-002   0.0000000000000000        0.0000000000000000     
   9.3750000000000000E-002   0.0000000000000000        0.0000000000000000     
  0.12500000000000000        0.0000000000000000        0.0000000000000000     
   0.0000000000000000        3.1250000000000000E-002   0.0000000000000000     
   3.1250000000000000E-002   3.1250000000000000E-002   0.0000000000000000     
   6.2500000000000000E-002   3.1250000000000000E-002   0.0000000000000000     
   9.3750000000000000E-002   3.1250000000000000E-002   0.0000000000000000     
  0.12500000000000000        3.1250000000000000E-002   0.0000000000000000     
   0.0000000000000000        6.2500000000000000E-002   0.0000000000000000     
   3.1250000000000000E-002   6.2500000000000000E-002   0.0000000000000000     
   6.2500000000000000E-002   6.2500000000000000E-002   0.0000000000000000     
   9.3750000000000000E-002   6.2500000000000000E-002   0.0000000000000000     
  0.12500000000000000        6.2500000000000000E-002   0.0000000000000000     
   0.0000000000000000        9.3750000000000000E-002   0.0000000000000000     
   3.1250000000000000E-002   9.3750000000000000E-002   0.0000000000000000     
   6.2500000000000000E-002   9.3750000000000000E-002   0.0000000000000000     
   9.3750000000000000E-002   9.3750000000000000E-002   0.0000000000000000     
  0.12500000000000000        9.3750000000000000E-002   0.0000000000000000     
   0.0000000000000000       0.12500000000000000        0.0000000000000000     
   3.1250000000000000E-002  0.12500000000000000        0.0000000000000000     
   6.2500000000000000E-002  0.12500000000000000        0.0000000000000000     
   9.3750000000000000E-002  0.12500000000000000        0.0000000000000000     
  0.12500000000000000       0.12500000000000000        0.0000000000000000     
  0.12500000000000000        0.0000000000000000        0.0000000000000000     
  0.15625000000000000        0.0000000000000000        0.0000000000000000     
  0.18750000000000000        0.0000000000000000        0.0000000000000000     
  0.21875000000000000        0.0000000000000000        0.0000000000000000     
  0.25000000000000000        0.0000000000000000        0.0000000000000000     
  0.12500000000000000        3.1250000000000000E-002   0.0000000000000000     
  0.15625000000000000        3.1250000000000000E-002   0.0000000000000000     
  0.18750000000000000        3.1250000000000000E-002   0.0000000000000000     
  0.21875000000000000        3.1250000000000000E-002   0.0000000000000000     
  0.25000000000000000        3.1250000000000000E-002   0.0000000000000000     
  0.12500000000000000        6.2500000000000000E-002   0.0000000000000000     
  0.15625000000000000        6.2500000000000000E-002   0.0000000000000000     
  0.18750000000000000        6.2500000000000000E-002   0.0000000000000000     
  0.21875000000000000        6.2500000000000000E-002   0.0000000000000000     
  0.25000000000000000        6.2500000000000000E-002   0.0000000000000000     
  0.12500000000000000        9.3750000000000000E-002   0.0000000000000000     
  0.15625000000000000        9.3750000000000000E-002   0.0000000000000000     
  0.18750000000000000        9.3750000000000000E-002   0.0000000000000000     
  0.21875000000000000        9.3750000000000000E-002   0.0000000000000000     
  0.25000000000000000        9.3750000000000000E-002   0.0000000000000000     
  0.12500000000000000       0.12500000000000000        0.0000000000000000     
  0.15625000000000000       0.12500000000000000        0.0000000000000000     
  0.18750000000000000       0.12500000000000000        0.0000000000000000     
  0.21875000000000000       0.12500000000000000        0.0000000000000000     
  0.25000000000000000       0.12500000000000000        0.0000000000000000     
  0.25000000000000000        0.0000000000000000        0.0000000000000000     
  0.28125000000000000        0.0000000000000000        0.0000000000000000     
  0.31250000000000000        0.0000000000000000        0.0000000000000000     
  0.34375000000000000        0.0000000000000000        0.0000000000000000     
  0.37500000000000000        0.0000000000000000        0.0000000000000000     
  0.25000000000000000        3.1250000000000000E-002   0.0000000000000000     
  0.28125000000000000        3.1250000000000000E-002   0.0000000000000000     
  0.31250000000000000        3.1250000000000000E-002   0.0000000000000000     
  0.34375000000000000        3.1250000000000000E-002   0.0000000000000000     
  0.37500000000000000        3.1250000000000000E-002   0.0000000000000000     
  0.25000000000000000        6.2500000000000000E-002   0.0000000000000000     
  0.28125000000000000        6.2500000000000000E-002   0.0000000000000000     
  0.31250000000000000        6.2500000000000000E-002   0.0000000000000000     
  0.34375000000000000        6.2500000000000000E-002   0.0000000000000000     
  0.37500000000000000        6.2500000000000000E-002   0.0000000000000000     
  0.25000000000000000        9.3750000000000000E-002   0.0000000000000000     
  0.28125000000000000        9.3750000000000000E-002   0.0000000000000000     
  0.31250000000000000        9.3750000000000000E-002   0.0000000000000000     
  0.34375000000000000        9.3750000000000000E-002   0.0000000000000000     
  0.37500000000000000        9.3750000000000000E-002   0.0000000000000000     
  0.25000000000000000       0.12500000000000000        0.0000000000000000     
  0.28125000000000000       0.12500000000000000        0.0000000000000000     
  0.31250000000000000       0.12500000000000000        0.0000000000000000     
  0.34375000000000000       0.12500000000000000        0.0000000000000000     
  0.37500000000000000       0.12500000000000000        0.0000000000000000     
  0.37500000000000000        0.0000000000000000        0.0000000000000000     
  0.40625000000000000        0.0000000000000000        0.0000000000000000     
  0.43750000000000000        0.0000000000000000        0.0000000000000000     
  0.46875000000000000        0.0000000000000000        0.0000000000000000     
  0.50000000000000000        0.0000000000000000        0.0000000000000000     
  0.37500000000000000        3.1250000000000000E-002   0.0000000000000000     
  0.40625000000000000        3.1250000000000000E-002   0.0000000000000000     
  0.43750000000000000        3.1250000000000000E-002   0.0000000000000000     
  0.46875000000000000        3.1250000000000000E-002   0.0000000000000000     
  0.50000000000000000        3.1250000000000000E-002   0.0000000000000000     
  0.37500000000000000        6.2500000000000000E-002   0.0000000000000000     
  0.40625000000000000        6.2500000000000000E-002   0.0000000000000000     
  0.43750000000000000        6.2500000000000000E-002   0.0000000000000000     
  0.46875000000000000        6.2500000000000000E-002   0.0000000000000000     
  0.50000000000000000        6.2500000000000000E-002   0.0000000000000000     
  0.37500000000000000        9.3750000000000000E-002   0.0000000000000000     
  0.40625000000000000        9.3750000000000000E-002   0.0000000000000000     
  0.43750000000000000        9.3750000000000000E-002   0.0000000000000000     
  0.46875000000000000        9.3750000000000000E-002   0.0000000000000000     
  0.50000000000000000        9.3750000000000000E-002   0.0000000000000000     
  0.37500000000000000       0.12500000000000000        0.0000000000000000     
  0.40625000000000000       0.12500000000000000        0.0000000000000000     
  0.43750000000000000       0.12500000000000000        0.0000000000000000     
  0.46875000000000000       0.12500000000000000        0.0000000000000000     
  0.50000000000000000       0.12500000000000000        0.0000000000000000     
  0.50000000000000000        0.0000000000000000        0.0000000000000000     
  0.53125000000000000        0.0000000000000000        0.0000000000000000     
  0.56250000000000000        0.0000000000000000        0.0000000000000000     
  0.59375000000000000        0.0000000000000000        0.0000000000000000     
  0.62500000000000000        0.0000000000000000        0.0000000000000000     
  0.50000000000000000        3.1250000000000000E-002   0.0000000000000000     
  0.53125000000000000        3.1250000000000000E-002   0.0000000000000000     
  0.56250000000000000        3.1250000000000000E-002   0.0000000000000000     
  0.59375000000000000        3.1250000000000000E-002   0.0000000000000000     
  0.62500000000000000        3.1250000000000000E-002   0.0000000000000000     
  0.50000000000000000        6.2500000000000000E-002   0.0000000000000000     
  0.53125000000000000        6.2500000000000000E-002   0.0000000000000000     
  0.56250000000000000        6.2500000000000000E-002   0.0000000000000000     
  0.59375000000000000        6.2500000000000000E-002   0.0000000000000000     
  0.62500000000000000        6.2500000000000000E-002   0.0000000000000000     
  0.50000000000000000        9.3750000000000000E-002   0.0000000000000000     
  0.53125000000000000        9.3750000000000000E-002   0.0000000000000000     
  0.56250000000000000        9.3750000000000000E-002   0.0000000000000000     
  0.59375000000000000        9.3750000000000000E-002   0.0000000000000000     
  0.62500000000000000        9.3750000000000000E-002   0.0000000000000000     
  0.50000000000000000       0.12500000000000000        0.0000000000000000     
  0.53125000000000000       0.12500000000000000        0.0000000000000000     
  0.56250000000000000       0.12500000000000000        0.0000000000000000     
  0.59375000000000000       0.12500000000000000        0.0000000000000000     
  0.62500000000000000       0.12500000000000000        0.0000000000000000     
  0.62500000000000000        0.0000000000000000        0.0000000000000000     
  0.65625000000000000        0.0000000000000000        0.0000000000000000     
  0.68750000000000000        0.0000000000000000        0.0000000000000000     
  0.71875000000000000        0.0000000000000000        0.0000000000000000     
  0.75000000000000000        0.0000000000000000        0.0000000000000000     
  0.62500000000000000        3.1250000000000000E-002   0.0000000000000000     
  0.65625000000000000        3.1250000000000000E-002   0.0000000000000000     
  0.68750000000000000        3.1250000000000000E-002   0.0000000000000000     
  0.71875000000000000        3.1250000000000000E-002   0.0000000000000000     
  0.75000000000000000        3.1250000000000000E-002   0.0000000000000000     
  0.62500000000000000        6.2500000000000000E-002   0.0000000000000000     
  0.65625000000000000        6.2500000000000000E-002   0.0000000000000000     
  0.68750000000000000        6.2500000000000000E-002   0.0000000000000000     
  0.71875000000000000        6.2500000000000000E-002   0.0000000000000000     
  0.75000000000000000        6.2500000000000000E-002   0.0000000000000000     
  0.62500000000000000        9.3750000000000000E-002   0.0000000000000000     
  0.65625000000000000        9.3750000000000000E-002   0.0000000000000000     
  0.68750000000000000        9.3750000000000000E-002   0.0000000000000000     
  0.71875000000000000        9.3750000000000000E-002   0.0000000000000000     
  0.75000000000000000        9.3750000000000000E-002   0.0000000000000000     
  0.62500000000000000       0.12500000000000000        0.0000000000000000     
  0.65625000000000000       0.12500000000000000        0.0000000000000000     
  0.68750000000000000       0.12500000000000000        0.0000000000000000     
  0.71875000000000000       0.12500000000000000        0.0000000000000000     
  0.75000000000000000       0.12500000000000000        0.0000000000000000     
  0.75000000000000000        0.0000000000000000        0.0000000000000000     
  0.78125000000000000        0.0000000000000000        0.0000000000000000     
  0.81250000000000000        0.0000000000000000        0.0000000000000000     
  0.84375000000000000        0.0000000000000000        0.0000000000000000     
  0.87500000000000000        0.0000000000000000        0.0000000000000000     
  0.75000000000000000        3.1250000000000000E-002   0.0000000000000000     
  0.78125000000000000        3.1250000000000000E-002   0.0000000000000000     
  0.81250000000000000        3.1250000000000000E-002   0.0000000000000000     
  0.84375000000000000        3.1250000000000000E-002   0.0000000000000000     
  0.87500000000000000        3.1250000000000000E-002   0.0000000000000000     
  0.75000000000000000        6.2500000000000000E-002   0.0000000000000000     
  0.78125000000000000        6.2500000000000000E-002   0.0000000000000000     
  0.81250000000000000        6.2500000000000000E-002   0.0000000000000000     
  0.84375000000000000        6.2500000000000000E-002   0.0000000000000000     
  0.87500000000000000        6.2500000000000000E-002   0.0000000000000000     
  0.75000000000000000        9.3750000000000000E-002   0.0000000000000000     
  0.78125000000000000        9.3750000000000000E-002   0.0000000000000000     
  0.81250000000000000        9.3750000000000000E-002   0.0000000000000000     
  0.84375000000000000        9.3750000000000000E-002   0.0000000000000000     
  0.87500000000000000        9.3750000000000000E-002   0.0000000000000000     
  0.75000000000000000       0.12500000000000000        0.0000000000000000     
  0.78125000000000000       0.12500000000000000        0.0000000000000000     
  0.81250000000000000       0.12500000000000000        0.0000000000000000     
  0.84375000000000000       0.12500000000000000        0.0000000000000000     
  0.87500000000000000       0.12500000000000000        0.0000000000000000     
  0.87500000000000000        0.0000000000000000        0.0000000000000000     
  0.90625000000000000        0.0000000000000000        0.0000000000000000     
  0.93750000000000000        0.0000000000000000        0.0000000000000000     
  0.96875000000000000        0.0000000000000000        0.0000000000000000     
   1.0000000000000000        0.0000000000000000        0.0000000000000000     
  0.87500000000000000        3.1250000000000000E-002   0.0000000000000000     
  0.90625000000000000        3.1250000000000000E-002   0.0000000000000000     
  0.93750000000000000        3.1250000000000000E-002   0.0000000000000000     
  0.96875000000000000        3.1250000000000000E-002   0.0000000000000000     
   1.0000000000000000        3.1250000000000000E-002   0.0000000000000000     
  0.87500000000000000        6.2500000000000000E-002   0.0000000000000000     
  0.90625000000000000        6.2500000000000000E-002   0.0000000000000000     
  0.93750000000000000        6.2500000000000000E-002   0.0000000000000000     
  0.96875000000000000        6.2500000000000000E-002   0.0000000000000000     
   1.0000000000000000        6.2500000000000000E-002   0.0000000000000000     
  0.87500000000000000        9.3750000000000000E-002   0.0000000000000000     
  0.90625000000000000        9.3750000000000000E-002   0.0000000000000000     
  0.93750000000000000        9.3750000000000000E-002   0.0000000000000000     
  0.96875000000000000        9.3750000000000000E-002   0.0000000000000000     
   1.0000000000000000        9.3750000000000000E-002   0.0000000000000000     
  0.87500000000000000       0.12500000000000000        0.0000000000000000     
  0.90625000000000000       0.12500000000000000        0.0000000000000000     
  0.93750000000000000       0.12500000000000000        0.0000000000000000     
  0.96875000000000000       0.12500000000000000        0.0000000000000000     
   1.0000000000000000       0.12500000000000000        0.0000000000000000     
   0.0000000000000000       0.12500000000000000        0.0000000000000000     
   3.1250000000000000E-002  0.12500000000000000        0.0000000000000000     
   6.2500000000000000E-002  0.12500000000000000        0.0000000000000000     
   9.3750000000000000E-002  0.12500000000000000        0.0000000000000000     
  0.12500000000000000       0.12500000000000000        0.0000000000000000     
   0.0000000000000000       0.15625000000000000        0.0000000000000000     
   3.1250000000000000E-002  0.15625000000000000        0.0000000000000000     
   6.2500000000000000E-002  0.15625000000000000        0.0000000000000000     
   9.3750000000000000E-002  0.15625000000000000        0.0000000000000000     
  0.12500000000000000       0.15625000000000000        0.0000000000000000     
   0.0000000000000000       0.18750000000000000        0.0000000000000000     
   3.1250000000000000E-002  0.18750000000000000        0.0000000000000000     
   6.2500000000000000E-002  0.18750000000000000        0.0000000000000000     
   9.3750000000000000E-002  0.18750000000000000        0.0000000000000000     
  0.12500000000000000       0.18750000000000000        0.0000000000000000     
   0.0000000000000000       0.21875000000000000        0.0000000000000000     
   3.1250000000000000E-002  0.21875000000000000        0.0000000000000000     
   6.2500000000000000E-002  0.21875000000000000        0.0000000000000000     
   9.3750000000000000E-002  0.21875000000000000        0.0000000000000000     
  0.12500000000000000       0.21875000000000000        0.0000000000000000     
   0.0000000000000000       0.25000000000000000        0.0000000000000000     
   3.1250000000000000E-002  0.25000000000000000        0.0000000000000000     
   6.2500000000000000E-002  0.25000000000000000        0.0000000000000000     
   9.3750000000000000E-002  0.25000000000000000        0.0000000000000000     
  0.12500000000000000       0.25000000000000000        0.0000000000000000     
  0.12500000000000000       0.12500000000000000        0.0000000000000000     
  0.15625000000000000       0.12500000000000000        0.0000000000000000     
  0.18750000000000000       0.12500000000000000        0.0000000000000000     
  0.21875000000000000       0.12500000000000000        0.0000000000000000     
  0.25000000000000000       0.12500000000000000        0.0000000000000000     
  0.12500000000000000       0.15625000000000000        0.0000000000000000     
  0.15625000000000000       0.15625000000000000        0.0000000000000000     
  0.18750000000000000       0.15625000000000000        0.0000000000000000     
  0.21875000000000000       0.15625000000000000        0.0000000000000000     
  0.25000000000000000       0.15625000000000000        0.0000000000000000     
  0.12500000000000000       0.18750000000000000        0.0000000000000000     
  0.15625000000000000       0.18750000000000000        0.0000000000000000     
  0.18750000000000000       0.18750000000000000        0.0000000000000000     
  0.21875000000000000       0.18750000000000000        0.0000000000000000     
  0.25000000000000000       0.18750000000000000        0.0000000000000000     
  0.12500000000000000       0.21875000000000000        0.0000000000000000     
  0.15625000000000000       0.21875000000000000        0.0000000000000000     
  0.18750000000000000       0.21875000000000000        0.0000000000000000     
  0.21875000000000000       0.21875000000000000        0.0000000000000000     
  0.25000000000000000       0.21875000000000000        0.0000000000000000     
  0.12500000000000000       0.25000000000000000        0.0000000000000000     
  0.15625000000000000       0.25000000000000000        0.0000000000000000     
  0.18750000000000000       0.25000000000000000        0.0000000000000000     
  0.21875000000000000       0.25000000000000000        0.0000000000000000     
  0.25000000000000000       0.25000000000000000        0.0000000000000000     
  0.25000000000000000       0.12500000000000000        0.0000000000000000     
  0.28125000000000000       0.12500000000000000        0.0000000000000000     
  0.31250000000000000       0.12500000000000000        0.0000000000000000     
  0.34375000000000000       0.12500000000000000        0.0000000000000000     
  0.37500000000000000       0.12500000000000000        0.0000000000000000     
  0.25000000000000000       0.15625000000000000        0.0000000000000000     
  0.28125000000000000       0.15625000000000000        0.0000000000000000     
  0.31250000000000000       0.15625000000000000        0.0000000000000000     
  0.34375000000000000       0.15625000000000000        0.0000000000000000     
  0.37500000000000000       0.15625000000000000        0.0000000000000000     
  0.25000000000000000       0.18750000000000000        0.0000000000000000     
  0.28125000000000000       0.18750000000000000        0.0000000000000000     
  0.31250000000000000       0.18750000000000000        0.0000000000000000     
  0.34375000000000000       0.18750000000000000        0.0000000000000000     
  0.37500000000000000       0.18750000000000000        0.0000000000000000     
  0.25000000000000000       0.21875000000000000        0.0000000000000000     
  0.28125000000000000       0.21875000000000000        0.0000000000000000     
  0.31250000000000000       0.21875000000000000        0.0000000000000000     
  0.34375000000000000       0.21875000000000000        0.0000000000000000     
  0.37500000000000000       0.21875000000000000        0.0000000000000000     
  0.25000000000000000       0.25000000000000000        0.0000000000000000     
  0.28125000000000000       0.25000000000000000        0.0000000000000000     
  0.31250000000000000       0.25000000000000000        0.0000000000000000     
  0.34375000000000000       0.25000000000000000        0.0000000000000000     
  0.37500000000000000       0.25000000000000000        0.0000000000000000     
  0.37500000000000000       0.12500000000000000        0.0000000000000000     
  0.40625000000000000       0.12500000000000000        0.0000000000000000     
  0.43750000000000000       0.12500000000000000        0.0000000000000000     
  0.46875000000000000       0.12500000000000000        0.0000000000000000     
  0.50000000000000000       0.12500000000000000        0.0000000000000000     
  0.37500000000000000       0.15625000000000000        0.0000000000000000     
  0.40625000000000000       0.15625000000000000        0.0000000000000000     
  0.43750000000000000       0.15625000000000000        0.0000000000000000     
  0.46875000000000000       0.15625000000000000        0.0000000000000000     
  0.50000000000000000       0.15625000000000000        0.0000000000000000     
  0.37500000000000000       0.18750000000000000        0.0000000000000000     
  0.40625000000000000       0.18750000000000000        0.0000000000000000     
  0.43750000000000000       0.18750000000000000        0.0000000000000000     
  0.46875000000000000       0.18750000000000000        0.0000000000000000     
  0.50000000000000000       0.18750000000000000        0.0000000000000000     
  0.37500000000000000       0.21875000000000000        0.0000000000000000     
  0.40625000000000000       0.21875000000000000        0.0000000000000000     
  0.43750000000000000       0.21875000000000000        0.0000000000000000     
  0.46875000000000000       0.21875000000000000        0.0000000000000000     
  0.50000000000000000       0.21875000000000000        0.0000000000000000     
  0.37500000000000000       0.25000000000000000        0.0000000000000000     
  0.40625000000000000       0.25000000000000000        0.0000000000000000     
  0.43750000000000000       0.25000000000000000        0.0000000000000000     
  0.46875000000000000       0.25000000000000000        0.0000000000000000     
  0.50000000000000000       0.25000000000000000        0.0000000000000000     
  0.50000000000000000       0.12500000000000000        0.0000000000000000     
  0.53125000000000000       0.12500000000000000        0.0000000000000000     
  0.56250000000000000       0.12500000000000000        0.0000000000000000     
  0.59375000000000000       0.12500000000000000        0.0000000000000000     
  0.62500000000000000       0.12500000000000000        0.0000000000000000     
  0.50000000000000000       0.15625000000000000        0.0000000000000000     
  0.53125000000000000       0.15625000000000000        0.0000000000000000     
  0.56250000000000000       0.15625000000000000        0.0000000000000000     
  0.59375000000000000       0.15625000000000000        0.0000000000000000     
  0.62500000000000000       0.15625000000000000        0.0000000000000000     
  0.50000000000000000       0.18750000000000000        0.0000000000000000     
  0.53125000000000000       0.18750000000000000        0.0000000000000000     
  0.56250000000000000       0.18750000000000000        0.0000000000000000     
  0.59375000000000000       0.18750000000000000        0.0000000000000000     
  0.62500000000000000       0.18750000000000000        0.0000000000000000     
  0.50000000000000000       0.21875000000000000        0.0000000000000000     
  0.53125000000000000       0.21875000000000000        0.0000000000000000     
  0.56250000000000000       0.21875000000000000        0.0000000000000000     
  0.59375000000000000       0.21875000000000000        0.0000000000000000     
  0.62500000000000000       0.21875000000000000        0.0000000000000000     
  0.50000000000000000       0.25000000000000000        0.0000000000000000     
  0.53125000000000000       0.25000000000000000        0.0000000000000000     
  0.56250000000000000       0.25000000000000000        0.0000000000000000     
  0.59375000000000000       0.25000000000000000        0.0000000000000000     
  0.62500000000000000       0.25000000000000000        0.0000000000000000     
  0.62500000000000000       0.12500000000000000        0.0000000000000000     
  0.65625000000000000       0.12500000000000000        0.0000000000000000     
  0.68750000000000000       0.12500000000000000        0.0000000000000000     
  0.71875000000000000       0.12500000000000000        0.0000000000000000     
  0.75000000000000000       0.12500000000000000        0.0000000000000000     
  0.62500000000000000       0.15625000000000000        0.0000000000000000     
  0.65625000000000000       0.15625000000000000        0.0000000000000000     
  0.68750000000000000       0.15625000000000000        0.0000000000000000     
  0.71875000000000000       0.15625000000000000        0.0000000000000000     
  0.75000000000000000       0.15625000000000000        0.0000000000000000     
  0.62500000000000000       0.18750000000000000        0.0000000000000000     
  0.65625000000000000       0.18750000000000000        0.0000000000000000     
  0.68750000000000000       0.18750000000000000        0.0000000000000000     
  0.71875000000000000       0.18750000000000000        0.0000000000000000     
  0.75000000000000000       0.18750000000000000        0.0000000000000000     
  0.62500000000000000       0.21875000000000000        0.0000000000000000     
  0.65625000000000000       0.21875000000000000        0.0000000000000000     
  0.68750000000000000       0.21875000000000000        0.0000000000000000     
  0.71875000000000000       0.21875000000000000        0.0000000000000000     
  0.75000000000000000       0.21875000000000000        0.0000000000000000     
  0.62500000000000000       0.25000000000000000        0.0000000000000000     
  0.65625000000000000       0.25000000000000000        0.0000000000000000     
  0.68750000000000000       0.25000000000000000        0.0000000000000000     
  0.71875000000000000       0.25000000000000000        0.0000000000000000     
  0.75000000000000000       0.25000000000000000        0.0000000000000000     
  0.75000000000000000       0.12500000000000000        0.0000000000000000     
  0.78125000000000000       0.12500000000000000        0.0000000000000000     
  0.81250000000000000       0.12500000000000000        0.0000000000000000     
  0.84375000000000000       0.12500000000000000        0.0000000000000000     
  0.87500000000000000       0.12500000000000000        0.0000000000000000     
  0.75000000000000000       0.15625000000000000        0.0000000000000000     
  0.78125000000000000       0.15625000000000000        0.0000000000000000     
  0.81250000000000000       0.15625000000000000        0.0000000000000000     
  0.84375000000000000       0.15625000000000000        0.0000000000000000     
  0.87500000000000000       0.15625000000000000        0.0000000000000000     
  0.75000000000000000       0.18750000000000000        0.0000000000000000     
  0.78125000000000000       0.18750000000000000        0.0000000000000000     
  0.81250000000000000       0.18750000000000000        0.0000000000000000     
  0.84375000000000000       0.18750000000000000        0.0000000000000000     
  0.87500000000000000       0.18750000000000000        0.0000000000000000     
  0.75000000000000000       0.21875000000000000        0.0000000000000000     
  0.78125000000000000       0.21875000000000000        0.0000000000000000     
  0.81250000000000000       0.21875000000000000        0.0000000000000000     
  0.84375000000000000       0.21875000000000000        0.0000000000000000     
  0.87500000000000000       0.21875000000000000        0.0000000000000000     
  0.75000000000000000       0.25000000000000000        0.0000000000000000     
  0.78125000000000000       0.25000000000000000        0.0000000000000000     
  0.81250000000000000       0.25000000000000000        0.0000000000000000     
  0.84375000000000000       0.25000000000000000        0.0000000000000000     
  0.87500000000000000       0.25000000000000000        0.0000000000000000     
  0.87500000000000000       0.12500000000000000        0.0000000000000000     
  0.90625000000000000       0.12500000000000000        0.0000000000000000     
  0.93750000000000000       0.12500000000000000        0.0000000000000000     
  0.96875000000000000       0.12500000000000000        0.0000000000000000     
   1.0000000000000000       0.12500000000000000        0.0000000000000000     
  0.87500000000000000       0.15625000000000000        0.0000000000000000     
  0.90625000000000000       0.15625000000000000        0.0000000000000000     
  0.93750000000000000       0.15625000000000000        0.0000000000000000     
  0.96875000000000000       0.15625000000000000        0.0000000000000000     
   1.0000000000000000       0.15625000000000000        0.0000000000000000     
  0.87500000000000000       0.18750000000000000        0.0000000000000000     
  0.90625000000000000       0.18750000000000000        0.0000000000000000     
  0.93750000000000000       0.18750000000000000        0.0000000000000000     
  0.96875000000000000       0.18750000000000000        0.0000000000000000     
   1.0000000000000000       0.18750000000000000        0.0000000000000000     
  0.87500000000000000       0.21875000000000000        0.0000000000000000     
  0.90625000000000000       0.21875000000000000        0.0000000000000000     
  0.93750000000000000       0.21875000000000000        0.0000000000000000     
  0.96875000000000000       0.21875000000000000        0.0000000000000000     
   1.0000000000000000       0.21875000000000000        0.0000000000000000     
  0.87500000000000000       0.25000000000000000        0.0000000000000000     
  0.90625000000000000       0.25000000000000000        0.0000000000000000     
  0.93750000000000000       0.25000000000000000        0.0000000000000000     
  0.96875000000000000       0.25000000000000000        0.0000000000000000     
   1.0000000000000000       0.25000000000000000        0.0000000000000000     
   0.0000000000000000       0.25000000000000000        0.0000000000000000     
   3.1250000000000000E-002  0.25000000000000000        0.0000000000000000     
   6.2500000000000000E-002  0.25000000000000000        0.0000000000000000     
   9.3750000000000000E-002  0.25000000000000000        0.0000000000000000     
  0.12500000000000000       0.25000000000000000        0.0000000000000000     
   0.0000000000000000       0.28125000000000000        0.0000000000000000     
   3.1250000000000000E-002  0.28125000000000000        0.0000000000000000     
   6.2500000000000000E-002  0.28125000000000000        0.0000000000000000     
   9.3750000000000000E-002  0.28125000000000000        0.0000000000000000     
  0.12500000000000000       0.28125000000000000        0.0000000000000000     
   0.0000000000000000       0.31250000000000000        0.0000000000000000     
   3.1250000000000000E-002  0.31250000000000000        0.0000000000000000     
   6.2500000000000000E-002  0.31250000000000000        0.0000000000000000     
   9.3750000000000000E-002  0.31250000000000000        0.0000000000000000     
  0.12500000000000000       0.31250000000000000        0.0000000000000000     
   0.0000000000000000       0.34375000000000000        0.0000000000000000     
   3.1250000000000000E-002  0.34375000000000000        0.0000000000000000     
   6.2500000000000000E-002  0.34375000000000000        0.0000000000000000     
   9.3750000000000000E-002  0.34375000000000000        0.0000000000000000     
  0.12500000000000000       0.34375000000000000        0.0000000000000000     
   0.0000000000000000       0.37500000000000000        0.0000000000000000     
   3.1250000000000000E-002  0.37500000000000000        0.0000000000000000     
   6.2500000000000000E-002  0.37500000000000000        0.0000000000000000     
   9.3750000000000000E-002  0.37500000000000000        0.0000000000000000     
  0.12500000000000000       0.37500000000000000        0.0000000000000000     
  0.12500000000000000       0.25000000000000000        0.0000000000000000     
  0.15625000000000000       0.25000000000000000        0.0000000000000000     
  0.18750000000000000       0.25000000000000000        0.0000000000000000     
  0.21875000000000000       0.25000000000000000        0.0000000000000000     
  0.25000000000000000       0.25000000000000000        0.0000000000000000     
  0.12500000000000000       0.28125000000000000        0.0000000000000000     
  0.15625000000000000       0.28125000000000000        0.0000000000000000     
  0.18750000000000000       0.28125000000000000        0.0000000000000000     
  0.21875000000000000       0.28125000000000000        0.0000000000000000     
  0.25000000000000000       0.28125000000000000        0.0000000000000000     
  0.12500000000000000       0.31250000000000000        0.0000000000000000     
  0.15625000000000000       0.31250000000000000        0.0000000000000000     
  0.18750000000000000       0.31250000000000000        0.0000000000000000     
  0.21875000000000000       0.31250000000000000        0.0000000000000000     
  0.25000000000000000       0.31250000000000000        0.0000000000000000     
  0.12500000000000000       0.34375000000000000        0.0000000000000000     
  0.15625000000000000       0.34375000000000000        0.0000000000000000     
  0.18750000000000000       0.34375000000000000        0.0000000000000000     
  0.21875000000000000       0.34375000000000000        0.0000000000000000     
  0.25000000000000000       0.34375000000000000        0.0000000000000000     
  0.12500000000000000       0.37500000000000000        0.0000000000000000     
  0.15625000000000000       0.37500000000000000        0.0000000000000000     
  0.18750000000000000       0.37500000000000000        0.0000000000000000     
  0.21875000000000000       0.37500000000000000        0.0000000000000000     
  0.25000000000000000       0.37500000000000000        0.0000000000000000     
  0.25000000000000000       0.25000000000000000        0.0000000000000000     
  0.28125000000000000       0.25000000000000000        0.0000000000000000     
  0.31250000000000000       0.25000000000000000        0.0000000000000000     
  0.34375000000000000       0.25000000000000000        0.0000000000000000     
  0.37500000000000000       0.25000000000000000        0.0000000000000000     
  0.25000000000000000       0.28125000000000000        0.0000000000000000     
  0.28125000000000000       0.28125000000000000        0.0000000000000000     
  0.31250000000000000       0.28125000000000000        0.0000000000000000     
  0.34375000000000000       0.28125000000000000        0.0000000000000000     
  0.37500000000000000       0.28125000000000000        0.0000000000000000     
  0.25000000000000000       0.31250000000000000        0.0000000000000000     
  0.28125000000000000       0.31250000000000000        0.0000000000000000     
  0.31250000000000000       0.31250000000000000        0.0000000000000000     
  0.34375000000000000       0.31250000000000000        0.0000000000000000     
  0.37500000000000000       0.31250000000000000        0.0000000000000000     
  0.25000000000000000       0.34375000000000000        0.0000000000000000     
  0.28125000000000000       0.34375000000000000        0.0000000000000000     
  0.31250000000000000       0.34375000000000000        0.0000000000000000     
  0.34375000000000000       0.34375000000000000        0.0000000000000000     
  0.37500000000000000       0.34375000000000000        0.0000000000000000     
  0.25000000000000000       0.37500000000000000        0.0000000000000000     
  0.28125000000000000       0.37500000000000000        0.0000000000000000     
  0.31250000000000000       0.37500000000000000        0.0000000000000000     
  0.34375000000000000       0.37500000000000000        0.0000000000000000     
  0.37500000000000000       0.37500000000000000        0.0000000000000000     
  0.37500000000000000       0.25000000000000000        0.0000000000000000     
  0.40625000000000000       0.25000000000000000        0.0000000000000000     
  0.43750000000000000       0.25000000000000000        0.0000000000000000     
  0.46875000000000000       0.25000000000000000        0.0000000000000000     
  0.50000000000000000       0.25000000000000000        0.0000000000000000     
  0.37500000000000000       0.28125000000000000        0.0000000000000000     
  0.40625000000000000       0.28125000000000000        0.0000000000000000     
  0.43750000000000000       0.28125000000000000        0.0000000000000000     
  0.46875000000000000       0.28125000000000000        0.0000000000000000     
  0.50000000000000000       0.28125000000000000        0.0000000000000000     
  0.37500000000000000       0.31250000000000000        0.0000000000000000     
  0.40625000000000000       0.31250000000000000        0.0000000000000000     
  0.43750000000000000       0.31250000000000000        0.0000000000000000     
  0.46875000000000000       0.31250000000000000        0.0000000000000000     
  0.50000000000000000       0.31250000000000000        0.0000000000000000     
  0.37500000000000000       0.34375000000000000        0.0000000000000000     
  0.40625000000000000       0.34375000000000000        0.0000000000000000     
  0.43750000000000000       0.34375000000000000        0.0000000000000000     
  0.46875000000000000       0.34375000000000000        0.0000000000000000     
  0.50000000000000000       0.34375000000000000        0.0000000000000000     
  0.37500000000000000       0.37500000000000000        0.0000000000000000     
  0.40625000000000000       0.37500000000000000        0.0000000000000000     
  0.43750000000000000       0.37500000000000000        0.0000000000000000     
  0.46875000000000000       0.37500000000000000        0.0000000000000000     
  0.50000000000000000       0.37500000000000000        0.0000000000000000     
  0.50000000000000000       0.25000000000000000        0.0000000000000000     
  0.53125000000000000       0.25000000000000000        0.0000000000000000     
  0.56250000000000000       0.25000000000000000        0.0000000000000000     
  0.59375000000000000       0.25000000000000000        0.0000000000000000     
  0.62500000000000000       0.25000000000000000        0.0000000000000000     
  0.50000000000000000       0.28125000000000000        0.0000000000000000     
  0.53125000000000000       0.28125000000000000        0.0000000000000000     
  0.56250000000000000       0.28125000000000000        0.0000000000000000     
  0.59375000000000000       0.28125000000000000        0.0000000000000000     
  0.62500000000000000       0.28125000000000000        0.0000000000000000     
  0.50000000000000000       0.31250000000000000        0.0000000000000000     
  0.53125000000000000       0.31250000000000000        0.0000000000000000     
  0.56250000000000000       0.31250000000000000        0.0000000000000000     
  0.59375000000000000       0.31250000000000000        0.0000000000000000     
  0.62500000000000000       0.31250000000000000        0.0000000000000000     
  0.50000000000000000       0.34375000000000000        0.0000000000000000     
  0.53125000000000000       0.34375000000000000        0.0000000000000000     
  0.56250000000000000       0.34375000000000000        0.0000000000000000     
  0.59375000000000000       0.34375000000000000        0.0000000000000000     
  0.62500000000000000       0.34375000000000000        0.0000000000000000     
  0.50000000000000000       0.37500000000000000        0.0000000000000000     
  0.53125000000000000       0.37500000000000000        0.0000000000000000     
  0.56250000000000000       0.37500000000000000        0.0000000000000000     
  0.59375000000000000       0.37500000000000000        0.0000000000000000     
  0.62500000000000000       0.37500000000000000        0.0000000000000000     
  0.62500000000000000       0.25000000000000000        0.0000000000000000     
  0.65625000000000000       0.25000000000000000        0.0000000000000000     
  0.68750000000000000       0.25000000000000000        0.0000000000000000     
  0.71875000000000000       0.25000000000000000        0.0000000000000000     
  0.75000000000000000       0.25000000000000000        0.0000000000000000     
  0.62500000000000000       0.28125000000000000        0.0000000000000000     
  0.65625000000000000       0.28125000000000000        0.0000000000000000     
  0.68750000000000000       0.28125000000000000        0.0000000000000000     
  0.71875000000000000       0.28125000000000000        0.0000000000000000     
  0.75000000000000000       0.28125000000000000        0.0000000000000000     
  0.62500000000000000       0.31250000000000000        0.0000000000000000     
  0.65625000000000000       0.31250000000000000        0.0000000000000000     
  0.68750000000000000       0.31250000000000000        0.0000000000000000     
  0.71875000000000000       0.31250000000000000        0.0000000000000000     
  0.75000000000000000       0.31250000000000000        0.0000000000000000     
  0.62500000000000000       0.34375000000000000        0.0000000000000000     
  0.65625000000000000       0.34375000000000000        0.0000000000000000     
  0.68750000000000000       0.34375000000000000        0.0000000000000000     
  0.71875000000000000       0.34375000000000000        0.0000000000000000     
  0.75000000000000000       0.34375000000000000        0.0000000000000000     
  0.62500000000000000       0.37500000000000000        0.0000000000000000     
  0.65625000000000000       0.37500000000000000        0.0000000000000000     
  0.68750000000000000       0.37500000000000000        0.0000000000000000     
  0.71875000000000000       0.37500000000000000        0.0000000000000000     
  0.75000000000000000       0.37500000000000000        0.0000000000000000     
  0.75000000000000000       0.25000000000000000        0.0000000000000000     
  0.78125000000000000       0.25000000000000000        0.0000000000000000     
  0.81250000000000000       0.25000000000000000        0.0000000000000000     
  0.84375000000000000       0.25000000000000000        0.0000000000000000     
  0.87500000000000000       0.25000000000000000        0.0000000000000000     
  0.75000000000000000       0.28125000000000000        0.0000000000000000     
  0.78125000000000000       0.28125000000000000        0.0000000000000000     
  0.81250000000000000       0.28125000000000000        0.0000000000000000     
  0.84375000000000000       0.28125000000000000        0.0000000000000000     
  0.87500000000000000       0.28125000000000000        0.0000000000000000     
  0.75000000000000000       0.31250000000000000        0.0000000000000000     
  0.78125000000000000       0.31250000000000000        0.0000000000000000     
  0.81250000000000000       0.31250000000000000        0.0000000000000000     
  0.84375000000000000       0.31250000000000000        0.0000000000000000     
  0.87500000000000000       0.31250000000000000        0.0000000000000000     
  0.75000000000000000       0.34375000000000000        0.0000000000000000     
  0.78125000000000000       0.34375000000000000        0.0000000000000000     
  0.81250000000000000       0.34375000000000000        0.0000000000000000     
  0.84375000000000000       0.34375000000000000        0.0000000000000000     
  0.87500000000000000       0.34375000000000000        0.0000000000000000     
  0.75000000000000000       0.37500000000000000        0.0000000000000000     
  0.78125000000000000       0.37500000000000000        0.0000000000000000     
  0.81250000000000000       0.37500000000000000        0.0000000000000000     
  0.84375000000000000       0.37500000000000000        0.0000000000000000     
  0.87500000000000000       0.37500000000000000        0.0000000000000000     
  0.87500000000000000       0.25000000000000000        0.0000000000000000     
  0.90625000000000000       0.25000000000000000        0.0000000000000000     
  0.93750000000000000       0.25000000000000000        0.0000000000000000     
  0.96875000000000000       0.25000000000000000        0.0000000000000000     
   1.0000000000000000       0.25000000000000000        0.0000000000000000     
  0.87500000000000000       0.28125000000000000        0.0000000000000000     
  0.90625000000000000       0.28125000000000000        0.0000000000000000     
  0.93750000000000000       0.28125000000000000        0.0000000000000000     
  0.96875000000000000       0.28125000000000000        0.0000000000000000     
   1.0000000000000000       0.28125000000000000        0.0000000000000000     
  0.87500000000000000       0.31250000000000000        0.0000000000000000     
  0.90625000000000000       0.31250000000000000        0.0000000000000000     
  0.93750000000000000       0.31250000000000000        0.0000000000000000     
  0.96875000000000000       0.31250000000000000        0.0000000000000000     
   1.0000000000000000       0.31250000000000000        0.0000000000000000     
  0.87500000000000000       0.34375000000000000        0.0000000000000000     
  0.90625000000000000       0.34375000000000000        0.0000000000000000     
  0.93750000000000000       0.34375000000000000        0.0000000000000000     
  0.96875000000000000       0.34375000000000000        0.0000000000000000     
   1.0000000000000000       0.34375000000000000        0.0000000000000000     
  0.87500000000000000       0.37500000000000000        0.0000000000000000     
  0.90625000000000000       0.37500000000000000        0.0000000000000000     
  0.93750000000000000       0.37500000000000000        0.0000000000000000     
  0.96875000000000000       0.37500000000000000        0.0000000000000000     
   1.0000000000000000       0.37500000000000000        0.0000000000000000     
   0.0000000000000000       0.37500000000000000        0.0000000000000000     
   3.1250000000000000E-002  0.37500000000000000        0.0000000000000000     
   6.2500000000000000E-002  0.37500000000000000        0.0000000000000000     
   9.3750000000000000E-002  0.37500000000000000        0.0000000000000000     
  0.12500000000000000       0.37500000000000000        0.0000000000000000     
   0.0000000000000000       0.40625000000000000        0.0000000000000000     
   3.1250000000000000E-002  0.40625000000000000        0.0000000000000000     
   6.2500000000000000E-002  0.40625000000000000        0.0000000000000000     
   9.3750000000000000E-002  0.40625000000000000        0.0000000000000000     
  0.12500000000000000       0.40625000000000000        0.0000000000000000     
   0.0000000000000000       0.43750000000000000        0.0000000000000000     
   3.1250000000000000E-002  0.43750000000000000        0.0000000000000000     
   6.2500000000000000E-002  0.43750000000000000        0.0000000000000000     
   9.3750000000000000E-002  0.43750000000000000        0.0000000000000000     
  0.12500000000000000       0.43750000000000000        0.0000000000000000     
   0.0000000000000000       0.46875000000000000        0.0000000000000000     
   3.1250000000000000E-002  0.46875000000000000        0.0000000000000000     
   6.2500000000000000E-002  0.46875000000000000        0.0000000000000000     
   9.3750000000000000E-002  0.46875000000000000        0.0000000000000000     
  0.12500000000000000       0.46875000000000000        0.0000000000000000     
   0.0000000000000000       0.50000000000000000        0.0000000000000000     
   3.1250000000000000E-002  0.50000000000000000        0.0000000000000000     
   6.2500000000000000E-002  0.50000000000000000        0.0000000000000000     
   9.3750000000000000E-002  0.50000000000000000        0.0000000000000000     
  0.12500000000000000       0.50000000000000000        0.0000000000000000     
  0.12500000000000000       0.37500000000000000        0.0000000000000000     
  0.15625000000000000       0.37500000000000000        0.0000000000000000     
  0.18750000000000000       0.37500000000000000        0.0000000000000000     
  0.21875000000000000       0.37500000000000000        0.0000000000000000     
  0.25000000000000000       0.37500000000000000        0.0000000000000000     
  0.12500000000000000       0.40625000000000000        0.0000000000000000     
  0.15625000000000000       0.40625000000000000        0.0000000000000000     
  0.18750000000000000       0.40625000000000000        0.0000000000000000     
  0.21875000000000000       0.40625000000000000        0.0000000000000000     
  0.25000000000000000       0.40625000000000000        0.0000000000000000     
  0.12500000000000000       0.43750000000000000        0.0000000000000000     
  0.15625000000000000       0.43750000000000000        0.0000000000000000     
  0.18750000000000000       0.43750000000000000        0.0000000000000000     
  0.21875000000000000       0.43750000000000000        0.0000000000000000     
  0.25000000000000000       0.43750000000000000        0.0000000000000000     
  0.12500000000000000       0.46875000000000000        0.0000000000000000     
  0.15625000000000000       0.46875000000000000        0.0000000000000000     
  0.18750000000000000       0.46875000000000000        0.0000000000000000     
  0.21875000000000000       0.46875000000000000        0.0000000000000000     
  0.25000000000000000       0.46875000000000000        0.0000000000000000     
  0.12500000000000000       0.50000000000000000        0.0000000000000000     
  0.15625000000000000       0.50000000000000000        0.0000000000000000     
  0.18750000000000000       0.50000000000000000        0.0000000000000000     
  0.21875000000000000       0.50000000000000000        0.0000000000000000     
  0.25000000000000000       0.50000000000000000        0.0000000000000000     
  0.25000000000000000       0.37500000000000000        0.0000000000000000     
  0.28125000000000000       0.37500000000000000        0.0000000000000000     
  0.31250000000000000       0.37500000000000000        0.0000000000000000     
  0.34375000000000000       0.37500000000000000        0.0000000000000000     
  0.37500000000000000       0.37500000000000000        0.0000000000000000     
  0.25000000000000000       0.40625000000000000        0.0000000000000000     
  0.28125000000000000       0.40625000000000000        0.0000000000000000     
  0.31250000000000000       0.40625000000000000        0.0000000000000000     
  0.34375000000000000       0.40625000000000000        0.0000000000000000     
  0.37500000000000000       0.40625000000000000        0.0000000000000000     
  0.25000000000000000       0.43750000000000000        0.0000000000000000     
  0.28125000000000000       0.43750000000000000        0.0000000000000000     
  0.31250000000000000       0.43750000000000000        0.0000000000000000     
  0.34375000000000000       0.43750000000000000        0.0000000000000000     
  0.37500000000000000       0.43750000000000000        0.0000000000000000     
  0.25000000000000000       0.46875000000000000        0.0000000000000000     
  0.28125000000000000       0.46875000000000000        0.0000000000000000     
  0.31250000000000000       0.46875000000000000        0.0000000000000000     
  0.34375000000000000       0.46875000000000000        0.0000000000000000     
  0.37500000000000000       0.46875000000000000        0.0000000000000000     
  0.25000000000000000       0.50000000000000000        0.0000000000000000     
  0.28125000000000000       0.50000000000000000        0.0000000000000000     
  0.31250000000000000       0.50000000000000000        0.0000000000000000     
  0.34375000000000000       0.50000000000000000        0.0000000000000000     
  0.37500000000000000       0.50000000000000000        0.0000000000000000     
  0.37500000000000000       0.37500000000000000        0.0000000000000000     
  0.40625000000000000       0.37500000000000000        0.0000000000000000     
  0.43750000000000000       0.37500000000000000        0.0000000000000000     
  0.46875000000000000       0.37500000000000000        0.0000000000000000     
  0.50000000000000000       0.37500000000000000        0.0000000000000000     
  0.37500000000000000       0.40625000000000000        0.0000000000000000     
  0.40625000000000000       0.40625000000000000        0.0000000000000000     
  0.43750000000000000       0.40625000000000000        0.0000000000000000     
  0.46875000000000000       0.40625000000000000        0.0000000000000000     
  0.50000000000000000       0.40625000000000000        0.0000000000000000     
  0.37500000000000000       0.43750000000000000        0.0000000000000000     
  0.40625000000000000       0.43750000000000000        0.0000000000000000     
  0.43750000000000000       0.43750000000000000        0.0000000000000000     
  0.46875000000000000       0.43750000000000000        0.0000000000000000     
  0.50000000000000000       0.43750000000000000        0.0000000000000000     
  0.37500000000000000       0.46875000000000000        0.0000000000000000     
  0.40625000000000000       0.46875000000000000        0.0000000000000000     
  0.43750000000000000       0.46875000000000000        0.0000000000000000     
  0.46875000000000000       0.46875000000000000        0.0000000000000000     
  0.50000000000000000       0.46875000000000000        0.0000000000000000     
  0.37500000000000000       0.50000000000000000        0.0000000000000000     
  0.40625000000000000       0.50000000000000000        0.0000000000000000     
  0.43750000000000000       0.50000000000000000        0.0000000000000000     
  0.46875000000000000       0.50000000000000000        0.0000000000000000     
  0.50000000000000000       0.50000000000000000        0.0000000000000000     
  0.50000000000000000       0.37500000000000000        0.0000000000000000     
  0.53125000000000000       0.37500000000000000        0.0000000000000000     
  0.56250000000000000       0.37500000000000000        0.0000000000000000     
  0.59375000000000000       0.37500000000000000        0.0000000000000000     
  0.62500000000000000       0.37500000000000000        0.0000000000000000     
  0.50000000000000000       0.40625000000000000        0.0000000000000000     
  0.53125000000000000       0.40625000000000000        0.0000000000000000     
  0.56250000000000000       0.40625000000000000        0.0000000000000000     
  0.59375000000000000       0.40625000000000000        0.0000000000000000     
  0.62500000000000000       0.40625000000000000        0.0000000000000000     
  0.50000000000000000       0.43750000000000000        0.0000000000000000     
  0.53125000000000000       0.43750000000000000        0.0000000000000000     
  0.56250000000000000       0.43750000000000000        0.0000000000000000     
  0.59375000000000000       0.43750000000000000        0.0000000000000000     
  0.62500000000000000       0.43750000000000000        0.0000000000000000     
  0.50000000000000000       0.46875000000000000        0.0000000000000000     
  0.53125000000000000       0.46875000000000000        0.0000000000000000     
  0.56250000000000000       0.46875000000000000        0.0000000000000000     
  0.59375000000000000       0.46875000000000000        0.0000000000000000     
  0.62500000000000000       0.46875000000000000        0.0000000000000000     
  0.50000000000000000       0.50000000000000000        0.0000000000000000     
  0.53125000000000000       0.50000000000000000        0.0000000000000000     
  0.56250000000000000       0.50000000000000000        0.0000000000000000     
  0.59375000000000000       0.50000000000000000        0.0000000000000000     
  0.62500000000000000       0.50000000000000000        0.0000000000000000     
  0.62500000000000000       0.37500000000000000        0.0000000000000000     
  0.65625000000000000       0.37500000000000000        0.0000000000000000     
  0.68750000000000000       0.37500000000000000        0.0000000000000000     
  0.71875000000000000       0.37500000000000000        0.0000000000000000     
  0.75000000000000000       0.37500000000000000        0.0000000000000000     
  0.62500000000000000       0.40625000000000000        0.0000000000000000     
  0.65625000000000000       0.40625000000000000        0.0000000000000000     
  0.68750000000000000       0.40625000000000000        0.0000000000000000     
  0.71875000000000000       0.40625000000000000        0.0000000000000000     
  0.75000000000000000       0.40625000000000000        0.0000000000000000     
  0.62500000000000000       0.43750000000000000        0.0000000000000000     
  0.65625000000000000       0.43750000000000000        0.0000000000000000     
  0.68750000000000000       0.43750000000000000        0.0000000000000000     
  0.71875000000000000       0.43750000000000000        0.0000000000000000     
  0.75000000000000000       0.43750000000000000        0.0000000000000000     
  0.62500000000000000       0.46875000000000000        0.0000000000000000     
  0.65625000000000000       0.46875000000000000        0.0000000000000000     
  0.68750000000000000       0.46875000000000000        0.0000000000000000     
  0.71875000000000000       0.46875000000000000        0.0000000000000000     
  0.75000000000000000       0.46875000000000000        0.0000000000000000     
  0.62500000000000000       0.50000000000000000        0.0000000000000000     
  0.65625000000000000       0.50000000000000000        0.0000000000000000     
  0.68750000000000000       0.50000000000000000        0.0000000000000000     
  0.71875000000000000       0.50000000000000000        0.0000000000000000     
  0.75000000000000000       0.50000000000000000        0.0000000000000000     
  0.75000000000000000       0.37500000000000000        0.0000000000000000     
  0.78125000000000000       0.37500000000000000        0.0000000000000000     
  0.81250000000000000       0.37500000000000000        0.0000000000000000     
  0.84375000000000000       0.37500000000000000        0.0000000000000000     
  0.87500000000000000       0.37500000000000000        0.0000000000000000     
  0.75000000000000000       0.40625000000000000        0.0000000000000000     
  0.78125000000000000       0.40625000000000000        0.0000000000000000     
  0.81250000000000000       0.40625000000000000        0.0000000000000000     
  0.84375000000000000       0.40625000000000000        0.0000000000000000     
  0.87500000000000000       0.40625000000000000        0.0000000000000000     
  0.75000000000000000       0.43750000000000000        0.0000000000000000     
  0.78125000000000000       0.43750000000000000        0.0000000000000000     
  0.81250000000000000       0.43750000000000000        0.0000000000000000     
  0.84375000000000000       0.43750000000000000        0.0000000000000000     
  0.87500000000000000       0.43750000000000000        0.0000000000000000     
  0.75000000000000000       0.46875000000000000        0.0000000000000000     
  0.78125000000000000       0.46875000000000000        0.0000000000000000     
  0.81250000000000000       0.46875000000000000        0.0000000000000000     
  0.84375000000000000       0.46875000000000000        0.0000000000000000     
  0.87500000000000000       0.46875000000000000        0.0000000000000000     
  0.75000000000000000       0.50000000000000000        0.0000000000000000     
  0.78125000000000000       0.50000000000000000        0.0000000000000000     
  0.81250000000000000       0.50000000000000000        0.0000000000000000     
  0.84375000000000000       0.50000000000000000        0.0000000000000000     
  0.87500000000000000       0.50000000000000000        0.0000000000000000     
  0.87500000000000000       0.37500000000000000        0.0000000000000000     
  0.90625000000000000       0.37500000000000000        0.0000000000000000     
  0.93750000000000000       0.37500000000000000        0.0000000000000000     
  0.96875000000000000       0.37500000000000000        0.0000000000000000     
   1.0000000000000000       0.37500000000000000        0.0000000000000000     
  0.87500000000000000       0.40625000000000000        0.0000000000000000     
  0.90625000000000000       0.40625000000000000        0.0000000000000000     
  0.93750000000000000       0.40625000000000000        0.0000000000000000     
  0.96875000000000000       0.40625000000000000        0.0000000000000000     
   1.0000000000000000       0.40625000000000000        0.0000000000000000     
  0.87500000000000000       0.43750000000000000        0.0000000000000000     
  0.90625000000000000       0.43750000000000000        0.0000000000000000     
  0.93750000000000000       0.43750000000000000        0.0000000000000000     
  0.96875000000000000       0.43750000000000000        0.0000000000000000     
   1.0000000000000000       0.43750000000000000        0.0000000000000000     
  0.87500000000000000       0.46875000000000000        0.0000000000000000     
  0.90625000000000000       0.46875000000000000        0.0000000000000000     
  0.93750000000000000       0.46875000000000000        0.0000000000000000     
  0.96875000000000000       0.46875000000000000        0.0000000000000000     
   1.0000000000000000       0.46875000000000000        0.0000000000000000     
  0.87500000000000000       0.50000000000000000        0.0000000000000000     
  0.90625000000000000       0.50000000000000000        0.0000000000000000     
  0.93750000000000000       0.50000000000000000        0.0000000000000000     
  0.96875000000000000       0.50000000000000000        0.0000000000000000     
   1.0000000000000000       0.50000000000000000        0.0000000000000000     
   0.0000000000000000       0.50000000000000000        0.0000000000000000     
   3.1250000000000000E-002  0.50000000000000000        0.0000000000000000     
   6.2500000000000000E-002  0.50000000000000000        0.0000000000000000     
   9.3750000000000000E-002  0.50000000000000000        0.0000000000000000     
  0.12500000000000000       0.50000000000000000        0.0000000000000000     
   0.0000000000000000       0.53125000000000000        0.0000000000000000     
   3.1250000000000000E-002  0.53125000000000000        0.0000000000000000     
   6.2500000000000000E-002  0.53125000000000000        0.0000000000000000     
   9.3750000000000000E-002  0.53125000000000000        0.0000000000000000     
  0.12500000000000000       0.53125000000000000        0.0000000000000000     
   0.0000000000000000       0.56250000000000000        0.0000000000000000     
   3.1250000000000000E-002  0.56250000000000000        0.0000000000000000     
   6.2500000000000000E-002  0.56250000000000000        0.0000000000000000     
   9.3750000000000000E-002  0.56250000000000000        0.0000000000000000     
  0.12500000000000000       0.56250000000000000        0.0000000000000000     
   0.0000000000000000       0.59375000000000000        0.0000000000000000     
   3.1250000000000000E-002  0.59375000000000000        0.0000000000000000     
   6.2500000000000000E-002  0.59375000000000000        0.0000000000000000     
   9.3750000000000000E-002  0.59375000000000000        0.0000000000000000     
  0.12500000000000000       0.59375000000000000        0.0000000000000000     
   0.0000000000000000       0.62500000000000000        0.0000000000000000     
   3.1250000000000000E-002  0.62500000000000000        0.0000000000000000     
   6.2500000000000000E-002  0.62500000000000000        0.0000000000000000     
   9.3750000000000000E-002  0.62500000000000000        0.0000000000000000     
  0.12500000000000000       0.62500000000000000        0.0000000000000000     
  0.12500000000000000       0.50000000000000000        0.0000000000000000     
  0.15625000000000000       0.50000000000000000        0.0000000000000000     
  0.18750000000000000       0.50000000000000000        0.0000000000000000     
  0.21875000000000000       0.50000000000000000        0.0000000000000000     
  0.25000000000000000       0.50000000000000000        0.0000000000000000     
  0.12500000000000000       0.53125000000000000        0.0000000000000000     
  0.15625000000000000       0.53125000000000000        0.0000000000000000     
  0.18750000000000000       0.53125000000000000        0.0000000000000000     
  0.21875000000000000       0.53125000000000000        0.0000000000000000     
  0.25000000000000000       0.53125000000000000        0.0000000000000000     
  0.12500000000000000       0.56250000000000000        0.0000000000000000     
  0.15625000000000000       0.56250000000000000        0.0000000000000000     
  0.18750000000000000       0.56250000000000000        0.0000000000000000     
  0.21875000000000000       0.56250000000000000        0.0000000000000000     
  0.25000000000000000       0.56250000000000000        0.0000000000000000     
  0.12500000000000000       0.59375000000000000        0.0000000000000000     
  0.15625000000000000       0.59375000000000000        0.0000000000000000     
  0.18750000000000000       0.59375000000000000        0.0000000000000000     
  0.21875000000000000       0.59375000000000000        0.0000000000000000     
  0.25000000000000000       0.59375000000000000        0.0000000000000000     
  0.12500000000000000       0.62500000000000000        0.0000000000000000     
  0.15625000000000000       0.62500000000000000        0.0000000000000000     
  0.18750000000000000       0.62500000000000000        0.0000000000000000     
  0.21875000000000000       0.62500000000000000        0.0000000000000000     
  0.25000000000000000       0.62500000000000000        0.0000000000000000     
  0.25000000000000000       0.50000000000000000        0.0000000000000000     
  0.28125000000000000       0.50000000000000000        0.0000000000000000     
  0.31250000000000000       0.50000000000000000        0.0000000000000000     
  0.34375000000000000       0.50000000000000000        0.0000000000000000     
  0.37500000000000000       0.50000000000000000        0.0000000000000000     
  0.25000000000000000       0.53125000000000000        0.0000000000000000     
  0.28125000000000000       0.53125000000000000        0.0000000000000000     
  0.31250000000000000       0.53125000000000000        0.0000000000000000     
  0.34375000000000000       0.53125000000000000        0.0000000000000000     
  0.37500000000000000       0.53125000000000000        0.0000000000000000     
  0.25000000000000000       0.56250000000000000        0.0000000000000000     
  0.28125000000000000       0.56250000000000000        0.0000000000000000     
  0.31250000000000000       0.56250000000000000        0.0000000000000000     
  0.34375000000000000       0.56250000000000000        0.0000000000000000     
  0.37500000000000000       0.56250000000000000        0.0000000000000000     
  0.25000000000000000       0.59375000000000000        0.0000000000000000     
  0.28125000000000000       0.59375000000000000        0.0000000000000000     
  0.31250000000000000       0.59375000000000000        0.0000000000000000     
  0.34375000000000000       0.59375000000000000        0.0000000000000000     
  0.37500000000000000       0.59375000000000000        0.0000000000000000     
  0.25000000000000000       0.62500000000000000        0.0000000000000000     
  0.28125000000000000       0.62500000000000000        0.0000000000000000     
  0.31250000000000000       0.62500000000000000        0.0000000000000000     
  0.34375000000000000       0.62500000000000000        0.0000000000000000     
  0.37500000000000000       0.62500000000000000        0.0000000000000000     
  0.37500000000000000       0.50000000000000000        0.0000000000000000     
  0.40625000000000000       0.50000000000000000        0.0000000000000000     
  0.43750000000000000       0.50000000000000000        0.0000000000000000     
  0.46875000000000000       0.50000000000000000        0.0000000000000000     
  0.50000000000000000       0.50000000000000000        0.0000000000000000     
  0.37500000000000000       0.53125000000000000        0.0000000000000000     
  0.40625000000000000       0.53125000000000000        0.0000000000000000     
  0.43750000000000000       0.53125000000000000        0.0000000000000000     
  0.46875000000000000       0.53125000000000000        0.0000000000000000     
  0.50000000000000000       0.53125000000000000        0.0000000000000000     
  0.37500000000000000       0.56250000000000000        0.0000000000000000     
  0.40625000000000000       0.56250000000000000        0.0000000000000000     
  0.43750000000000000       0.56250000000000000        0.0000000000000000     
  0.46875000000000000       0.56250000000000000        0.0000000000000000     
  0.50000000000000000       0.56250000000000000        0.0000000000000000     
  0.37500000000000000       0.59375000000000000        0.0000000000000000     
  0.40625000000000000       0.59375000000000000        0.0000000000000000     
  0.43750000000000000       0.59375000000000000        0.0000000000000000     
  0.46875000000000000       0.59375000000000000        0.0000000000000000     
  0.50000000000000000       0.59375000000000000        0.0000000000000000     
  0.37500000000000000       0.62500000000000000        0.0000000000000000     
  0.40625000000000000       0.62500000000000000        0.0000000000000000     
  0.43750000000000000       0.62500000000000000        0.0000000000000000     
  0.46875000000000000       0.62500000000000000        0.0000000000000000     
  0.50000000000000000       0.62500000000000000        0.0000000000000000     
  0.50000000000000000       0.50000000000000000        0.0000000000000000     
  0.53125000000000000       0.50000000000000000        0.0000000000000000     
  0.56250000000000000       0.50000000000000000        0.0000000000000000     
  0.59375000000000000       0.50000000000000000        0.0000000000000000     
  0.62500000000000000       0.50000000000000000        0.0000000000000000     
  0.50000000000000000       0.53125000000000000        0.0000000000000000     
  0.53125000000000000       0.53125000000000000        0.0000000000000000     
  0.56250000000000000       0.53125000000000000        0.0000000000000000     
  0.59375000000000000       0.53125000000000000        0.0000000000000000     
  0.62500000000000000       0.53125000000000000        0.0000000000000000     
  0.50000000000000000       0.56250000000000000        0.0000000000000000     
  0.53125000000000000       0.56250000000000000        0.0000000000000000     
  0.56250000000000000       0.56250000000000000        0.0000000000000000     
  0.59375000000000000       0.56250000000000000        0.0000000000000000     
  0.62500000000000000       0.56250000000000000        0.0000000000000000     
  0.50000000000000000       0.59375000000000000        0.0000000000000000     
  0.53125000000000000       0.59375000000000000        0.0000000000000000     
  0.56250000000000000       0.59375000000000000        0.0000000000000000     
  0.59375000000000000       0.59375000000000000        0.0000000000000000     
  0.62500000000000000       0.59375000000000000        0.0000000000000000     
  0.50000000000000000       0.62500000000000000        0.0000000000000000     
  0.53125000000000000       0.62500000000000000        0.0000000000000000     
  0.56250000000000000       0.62500000000000000        0.0000000000000000     
  0.59375000000000000       0.62500000000000000        0.0000000000000000     
  0.62500000000000000       0.62500000000000000        0.0000000000000000     
  0.62500000000000000       0.50000000000000000        0.0000000000000000     
  0.65625000000000000       0.50000000000000000        0.0000000000000000     
  0.68750000000000000       0.50000000000000000        0.0000000000000000     
  0.71875000000000000       0.50000000000000000        0.0000000000000000     
  0.75000000000000000       0.50000000000000000        0.0000000000000000     
  0.62500000000000000       0.53125000000000000        0.0000000000000000     
  0.65625000000000000       0.53125000000000000        0.0000000000000000     
  0.68750000000000000       0.53125000000000000        0.0000000000000000     
  0.71875000000000000       0.53125000000000000        0.0000000000000000     
  0.75000000000000000       0.53125000000000000        0.0000000000000000     
  0.62500000000000000       0.56250000000000000        0.0000000000000000     
  0.65625000000000000       0.56250000000000000        0.0000000000000000     
  0.68750000000000000       0.56250000000000000        0.0000000000000000     
  0.71875000000000000       0.56250000000000000        0.0000000000000000     
  0.75000000000000000       0.56250000000000000        0.0000000000000000     
  0.62500000000000000       0.59375000000000000        0.0000000000000000     
  0.65625000000000000       0.59375000000000000        0.0000000000000000     
  0.68750000000000000       0.59375000000000000        0.0000000000000000     
  0.71875000000000000       0.59375000000000000        0.0000000000000000     
  0.75000000000000000       0.59375000000000000        0.0000000000000000     
  0.62500000000000000       0.62500000000000000        0.0000000000000000     
  0.65625000000000000       0.62500000000000000        0.0000000000000000     
  0.68750000000000000       0.62500000000000000        0.0000000000000000     
  0.71875000000000000       0.62500000000000000        0.0000000000000000     
  0.75000000000000000       0.62500000000000000        0.0000000000000000     
  0.75000000000000000       0.50000000000000000        0.0000000000000000     
  0.78125000000000000       0.50000000000000000        0.0000000000000000     
  0.81250000000000000       0.50000000000000000        0.0000000000000000     
  0.84375000000000000       0.50000000000000000        0.0000000000000000     
  0.87500000000000000       0.50000000000000000        0.0000000000000000     
  0.75000000000000000       0.53125000000000000        0.0000000000000000     
  0.78125000000000000       0.53125000000000000        0.0000000000000000     
  0.81250000000000000       0.53125000000000000        0.0000000000000000     
  0.84375000000000000       0.53125000000000000        0.0000000000000000     
  0.87500000000000000       0.53125000000000000        0.0000000000000000     
  0.75000000000000000       0.56250000000000000        0.0000000000000000     
  0.78125000000000000       0.56250000000000000        0.0000000000000000     
  0.81250000000000000       0.56250000000000000        0.0000000000000000     
  0.84375000000000000       0.56250000000000000        0.0000000000000000     
  0.87500000000000000       0.56250000000000000        0.0000000000000000     
  0.75000000000000000       0.59375000000000000        0.0000000000000000     
  0.78125000000000000       0.59375000000000000        0.0000000000000000     
  0.81250000000000000       0.59375000000000000        0.0000000000000000     
  0.84375000000000000       0.59375000000000000        0.0000000000000000     
  0.87500000000000000       0.59375000000000000        0.0000000000000000     
  0.75000000000000000       0.62500000000000000        0.0000000000000000     
  0.78125000000000000       0.62500000000000000        0.0000000000000000     
  0.81250000000000000       0.62500000000000000        0.0000000000000000     
  0.84375000000000000       0.62500000000000000        0.0000000000000000     
  0.87500000000000000       0.62500000000000000        0.0000000000000000     
  0.87500000000000000       0.50000000000000000        0.0000000000000000     
  0.90625000000000000       0.50000000000000000        0.0000000000000000     
  0.93750000000000000       0.50000000000000000        0.0000000000000000     
  0.96875000000000000       0.50000000000000000        0.0000000000000000     
   1.0000000000000000       0.50000000000000000        0.0000000000000000     
  0.87500000000000000       0.53125000000000000        0.0000000000000000     
  0.90625000000000000       0.53125000000000000        0.0000000000000000     
  0.93750000000000000       0.53125000000000000        0.0000000000000000     
  0.96875000000000000       0.53125000000000000        0.0000000000000000     
   1.0000000000000000       0.53125000000000000        0.0000000000000000     
  0.87500000000000000       0.56250000000000000        0.0000000000000000     
  0.90625000000000000       0.56250000000000000        0.0000000000000000     
  0.93750000000000000       0.56250000000000000        0.0000000000000000     
  0.96875000000000000       0.56250000000000000        0.0000000000000000     
   1.0000000000000000       0.56250000000000000        0.0000000000000000     
  0.87500000000000000       0.59375000000000000        0.0000000000000000     
  0.90625000000000000       0.59375000000000000        0.0000000000000000     
  0.93750000000000000       0.59375000000000000        0.0000000000000000     
  0.96875000000000000       0.59375000000000000        0.0000000000000000     
   1.0000000000000000       0.59375000000000000        0.0000000000000000     
  0.87500000000000000       0.62500000000000000        0.0000000000000000     
  0.90625000000000000       0.62500000000000000        0.0000000000000000     
  0.93750000000000000       0.62500000000000000        0.0000000000000000     
  0.96875000000000000       0.62500000000000000        0.0000000000000000     
   1.0000000000000000       0.62500000000000000        0.0000000000000000     
   0.0000000000000000       0.62500000000000000        0.0000000000000000     
   3.1250000000000000E-002  0.62500000000000000        0.0000000000000000     
   6.2500000000000000E-002  0.62500000000000000        0.0000000000000000     
   9.3750000000000000E-002  0.62500000000000000        0.0000000000000000     
  0.12500000000000000       0.62500000000000000        0.0000000000000000     
   0.0000000000000000       0.65625000000000000        0.0000000000000000     
   3.1250000000000000E-002  0.65625000000000000        0.0000000000000000     
   6.2500000000000000E-002  0.65625000000000000        0.0000000000000000     
   9.3750000000000000E-002  0.65625000000000000        0.0000000000000000     
  0.12500000000000000       0.65625000000000000        0.0000000000000000     
   0.0000000000000000       0.68750000000000000        0.0000000000000000     
   3.1250000000000000E-002  0.68750000000000000        0.0000000000000000     
   6.2500000000000000E-002  0.68750000000000000        0.0000000000000000     
   9.3750000000000000E-002  0.68750000000000000        0.0000000000000000     
  0.12500000000000000       0.68750000000000000        0.0000000000000000     
   0.0000000000000000       0.71875000000000000        0.0000000000000000     
   3.1250000000000000E-002  0.71875000000000000        0.0000000000000000     
   6.2500000000000000E-002  0.71875000000000000        0.0000000000000000     
   9.3750000000000000E-002  0.71875000000000000        0.0000000000000000     
  0.12500000000000000       0.71875000000000000        0.0000000000000000     
   0.0000000000000000       0.75000000000000000        0.0000000000000000     
   3.1250000000000000E-002  0.75000000000000000        0.0000000000000000     
   6.2500000000000000E-002  0.75000000000000000        0.0000000000000000     
   9.3750000000000000E-002  0.75000000000000000        0.0000000000000000     
  0.12500000000000000       0.75000000000000000        0.0000000000000000     
  0.12500000000000000       0.62500000000000000        0.0000000000000000     
  0.15625000000000000       0.62500000000000000        0.0000000000000000     
  0.18750000000000000       0.62500000000000000        0.0000000000000000     
  0.21875000000000000       0.62500000000000000        0.0000000000000000     
  0.25000000000000000       0.62500000000000000        0.0000000000000000     
  0.12500000000000000       0.65625000000000000        0.0000000000000000     
  0.15625000000000000       0.65625000000000000        0.0000000000000000     
  0.18750000000000000       0.65625000000000000        0.0000000000000000     
  0.21875000000000000       0.65625000000000000        0.0000000000000000     
  0.25000000000000000       0.65625000000000000        0.0000000000000000     
  0.12500000000000000       0.68750000000000000        0.0000000000000000     
  0.15625000000000000       0.68750000000000000        0.0000000000000000     
  0.18750000000000000       0.68750000000000000        0.0000000000000000     
  0.21875000000000000       0.68750000000000000        0.0000000000000000     
  0.25000000000000000       0.68750000000000000        0.0000000000000000     
  0.12500000000000000       0.71875000000000000        0.0000000000000000     
  0.15625000000000000       0.71875000000000000        0.0000000000000000     
  0.18750000000000000       0.71875000000000000        0.0000000000000000     
  0.21875000000000000       0.71875000000000000        0.0000000000000000     
  0.25000000000000000       0.71875000000000000        0.0000000000000000     
  0.12500000000000000       0.75000000000000000        0.0000000000000000     
  0.15625000000000000       0.75000000000000000        0.0000000000000000     
  0.18750000000000000       0.75000000000000000        0.0000000000000000     
  0.21875000000000000       0.75000000000000000        0.0000000000000000     
  0.25000000000000000       0.75000000000000000        0.0000000000000000     
  0.25000000000000000       0.62500000000000000        0.0000000000000000     
  0.28125000000000000       0.62500000000000000        0.0000000000000000     
  0.31250000000000000       0.62500000000000000        0.0000000000000000     
  0.34375000000000000       0.62500000000000000        0.0000000000000000     
  0.37500000000000000       0.62500000000000000        0.0000000000000000     
  0.25000000000000000       0.65625000000000000        0.0000000000000000     
  0.28125000000000000       0.65625000000000000        0.0000000000000000     
  0.31250000000000000       0.65625000000000000        0.0000000000000000     
  0.34375000000000000       0.65625000000000000        0.0000000000000000     
  0.37500000000000000       0.65625000000000000        0.0000000000000000     
  0.25000000000000000       0.68750000000000000        0.0000000000000000     
  0.28125000000000000       0.68750000000000000        0.0000000000000000     
  0.31250000000000000       0.68750000000000000        0.0000000000000000     
  0.34375000000000000       0.68750000000000000        0.0000000000000000     
  0.37500000000000000       0.68750000000000000        0.0000000000000000     
  0.25000000000000000       0.71875000000000000        0.0000000000000000     
  0.28125000000000000       0.71875000000000000        0.0000000000000000     
  0.31250000000000000       0.71875000000000000        0.0000000000000000     
  0.34375000000000000       0.71875000000000000        0.0000000000000000     
  0.37500000000000000       0.71875000000000000        0.0000000000000000     
  0.25000000000000000       0.75000000000000000        0.0000000000000000     
  0.28125000000000000       0.75000000000000000        0.0000000000000000     
  0.31250000000000000       0.75000000000000000        0.0000000000000000     
  0.34375000000000000       0.75000000000000000        0.0000000000000000     
  0.37500000000000000       0.75000000000000000        0.0000000000000000     
  0.37500000000000000       0.62500000000000000        0.0000000000000000     
  0.40625000000000000       0.62500000000000000        0.0000000000000000     
  0.43750000000000000       0.62500000000000000        0.0000000000000000     
  0.46875000000000000       0.62500000000000000        0.0000000000000000     
  0.50000000000000000       0.62500000000000000        0.0000000000000000     
  0.37500000000000000       0.65625000000000000        0.0000000000000000     
  0.40625000000000000       0.65625000000000000        0.0000000000000000     
  0.43750000000000000       0.65625000000000000        0.0000000000000000     
  0.46875000000000000       0.65625000000000000        0.0000000000000000     
  0.50000000000000000       0.65625000000000000        0.0000000000000000     
  0.37500000000000000       0.68750000000000000        0.0000000000000000     
  0.40625000000000000       0.68750000000000000        0.0000000000000000     
  0.43750000000000000       0.68750000000000000        0.0000000000000000     
  0.46875000000000000       0.68750000000000000        0.0000000000000000     
  0.50000000000000000       0.68750000000000000        0.0000000000000000     
  0.37500000000000000       0.71875000000000000        0.0000000000000000     
  0.40625000000000000       0.71875000000000000        0.0000000000000000     
  0.43750000000000000       0.71875000000000000        0.0000000000000000     
  0.46875000000000000       0.71875000000000000        0.0000000000000000     
  0.50000000000000000       0.71875000000000000        0.0000000000000000     
  0.37500000000000000       0.75000000000000000        0.0000000000000000     
  0.40625000000000000       0.75000000000000000        0.0000000000000000     
  0.43750000000000000       0.75000000000000000        0.0000000000000000     
  0.46875000000000000       0.75000000000000000        0.0000000000000000     
  0.50000000000000000       0.75000000000000000        0.0000000000000000     
  0.50000000000000000       0.62500000000000000        0.0000000000000000     
  0.53125000000000000       0.62500000000000000        0.0000000000000000     
  0.56250000000000000       0.62500000000000000        0.0000000000000000     
  0.59375000000000000       0.62500000000000000        0.0000000000000000     
  0.62500000000000000       0.62500000000000000        0.0000000000000000     
  0.50000000000000000       0.65625000000000000        0.0000000000000000     
  0.53125000000000000       0.65625000000000000        0.0000000000000000     
  0.56250000000000000       0.65625000000000000        0.0000000000000000     
  0.59375000000000000       0.65625000000000000        0.0000000000000000     
  0.62500000000000000       0.65625000000000000        0.0000000000000000     
  0.50000000000000000       0.68750000000000000        0.0000000000000000     
  0.53125000000000000       0.68750000000000000        0.0000000000000000     
  0.56250000000000000       0.68750000000000000        0.0000000000000000     
  0.59375000000000000       0.68750000000000000        0.0000000000000000     
  0.62500000000000000       0.68750000000000000        0.0000000000000000     
  0.50000000000000000       0.71875000000000000        0.0000000000000000     
  0.53125000000000000       0.71875000000000000        0.0000000000000000     
  0.56250000000000000       0.71875000000000000        0.0000000000000000     
  0.59375000000000000       0.71875000000000000        0.0000000000000000     
  0.62500000000000000       0.71875000000000000        0.0000000000000000     
  0.50000000000000000       0.75000000000000000        0.0000000000000000     
  0.53125000000000000       0.75000000000000000        0.0000000000000000     
  0.56250000000000000       0.75000000000000000        0.0000000000000000     
  0.59375000000000000       0.75000000000000000        0.0000000000000000     
  0.62500000000000000       0.75000000000000000        0.0000000000000000     
  0.62500000000000000       0.62500000000000000        0.0000000000000000     
  0.65625000000000000       0.62500000000000000        0.0000000000000000     
  0.68750000000000000       0.62500000000000000        0.0000000000000000     
  0.71875000000000000       0.62500000000000000        0.0000000000000000     
  0.75000000000000000       0.62500000000000000        0.0000000000000000     
  0.62500000000000000       0.65625000000000000        0.0000000000000000     
  0.65625000000000000       0.65625000000000000        0.0000000000000000     
  0.68750000000000000       0.65625000000000000        0.0000000000000000     
  0.71875000000000000       0.65625000000000000        0.0000000000000000     
  0.75000000000000000       0.65625000000000000        0.0000000000000000     
  0.62500000000000000       0.68750000000000000        0.0000000000000000     
  0.65625000000000000       0.68750000000000000        0.0000000000000000     
  0.68750000000000000       0.68750000000000000        0.0000000000000000     
  0.71875000000000000       0.68750000000000000        0.0000000000000000     
  0.75000000000000000       0.68750000000000000        0.0000000000000000     
  0.62500000000000000       0.71875000000000000        0.0000000000000000     
  0.65625000000000000       0.71875000000000000        0.0000000000000000     
  0.68750000000000000       0.71875000000000000        0.0000000000000000     
  0.71875000000000000       0.71875000000000000        0.0000000000000000     
  0.75000000000000000       0.71875000000000000        0.0000000000000000     
  0.62500000000000000       0.75000000000000000        0.0000000000000000     
  0.65625000000000000       0.75000000000000000        0.0000000000000000     
  0.68750000000000000       0.75000000000000000        0.0000000000000000     
  0.71875000000000000       0.75000000000000000        0.0000000000000000     
  0.75000000000000000       0.75000000000000000        0.0000000000000000     
  0.75000000000000000       0.62500000000000000        0.0000000000000000     
  0.78125000000000000       0.62500000000000000        0.0000000000000000     
  0.81250000000000000       0.62500000000000000        0.0000000000000000     
  0.84375000000000000       0.62500000000000000        0.0000000000000000     
  0.87500000000000000       0.62500000000000000        0.0000000000000000     
  0.75000000000000000       0.65625000000000000        0.0000000000000000     
  0.78125000000000000       0.65625000000000000        0.0000000000000000     
  0.81250000000000000       0.65625000000000000        0.0000000000000000     
  0.84375000000000000       0.65625000000000000        0.0000000000000000     
  0.87500000000000000       0.65625000000000000        0.0000000000000000     
  0.75000000000000000       0.68750000000000000        0.0000000000000000     
  0.78125000000000000       0.68750000000000000        0.0000000000000000     
  0.81250000000000000       0.68750000000000000        0.0000000000000000     
  0.84375000000000000       0.68750000000000000        0.0000000000000000     
  0.87500000000000000       0.68750000000000000        0.0000000000000000     
  0.75000000000000000       0.71875000000000000        0.0000000000000000     
  0.78125000000000000       0.71875000000000000        0.0000000000000000     
  0.81250000000000000       0.71875000000000000        0.0000000000000000     
  0.84375000000000000       0.71875000000000000        0.0000000000000000     
  0.87500000000000000       0.71875000000000000        0.0000000000000000     
  0.75000000000000000       0.75000000000000000        0.0000000000000000     
  0.78125000000000000       0.75000000000000000        0.0000000000000000     
  0.81250000000000000       0.75000000000000000        0.0000000000000000     
  0.84375000000000000       0.75000000000000000        0.0000000000000000     
  0.87500000000000000       0.75000000000000000        0.0000000000000000     
  0.87500000000000000       0.62500000000000000        0.0000000000000000     
  0.90625000000000000       0.62500000000000000        0.0000000000000000     
  0.93750000000000000       0.62500000000000000        0.0000000000000000     
  0.96875000000000000       0.62500000000000000        0.0000000000000000     
   1.0000000000000000       0.62500000000000000        0.0000000000000000     
  0.87500000000000000       0.65625000000000000        0.0000000000000000     
  0.90625000000000000       0.65625000000000000        0.0000000000000000     
  0.93750000000000000       0.65625000000000000        0.0000000000000000     
  0.96875000000000000       0.65625000000000000        0.0000000000000000     
   1.0000000000000000       0.65625000000000000        0.0000000000000000     
  0.87500000000000000       0.68750000000000000        0.0000000000000000     
  0.90625000000000000       0.68750000000000000        0.0000000000000000     
  0.93750000000000000       0.68750000000000000        0.0000000000000000     
  0.96875000000000000       0.68750000000000000        0.0000000000000000     
   1.0000000000000000       0.68750000000000000        0.0000000000000000     
  0.87500000000000000       0.71875000000000000        0.0000000000000000     
  0.90625000000000000       0.71875000000000000        0.0000000000000000     
  0.93750000000000000       0.71875000000000000        0.0000000000000000     
  0.96875000000000000       0.71875000000000000        0.0000000000000000     
   1.0000000000000000       0.71875000000000000        0.0000000000000000     
  0.87500000000000000       0.75000000000000000        0.0000000000000000     
  0.90625000000000000       0.75000000000000000        0.0000000000000000     
  0.93750000000000000       0.75000000000000000        0.0000000000000000     
  0.96875000000000000       0.75000000000000000        0.0000000000000000     
   1.0000000000000000       0.75000000000000000        0.0000000000000000     
   0.0000000000000000       0.75000000000000000        0.0000000000000000     
   3.1250000000000000E-002  0.75000000000000000        0.0000000000000000     
   6.2500000000000000E-002  0.75000000000000000        0.0000000000000000     
   9.3750000000000000E-002  0.75000000000000000        0.0000000000000000     
  0.12500000000000000       0.75000000000000000        0.0000000000000000     
   0.0000000000000000       0.78125000000000000        0.0000000000000000     
   3.1250000000000000E-002  0.78125000000000000        0.0000000000000000     
   6.2500000000000000E-002  0.78125000000000000        0.0000000000000000     
   9.3750000000000000E-002  0.78125000000000000        0.0000000000000000     
  0.12500000000000000       0.78125000000000000        0.0000000000000000     
   0.0000000000000000       0.81250000000000000        0.0000000000000000     
   3.1250000000000000E-002  0.81250000000000000        0.0000000000000000     
   6.2500000000000000E-002  0.81250000000000000        0.0000000000000000     
   9.3750000000000000E-002  0.81250000000000000        0.0000000000000000     
  0.12500000000000000       0.81250000000000000        0.0000000000000000     
   0.0000000000000000       0.84375000000000000        0.0000000000000000     
   3.1250000000000000E-002  0.84375000000000000        0.0000000000000000     
   6.2500000000000000E-002  0.84375000000000000        0.0000000000000000     
   9.3750000000000000E-002  0.84375000000000000        0.0000000000000000     
  0.12500000000000000       0.84375000000000000        0.0000000000000000     
   0.0000000000000000       0.87500000000000000        0.0000000000000000     
   3.1250000000000000E-002  0.87500000000000000        0.0000000000000000     
   6.2500000000000000E-002  0.87500000000000000        0.0000000000000000     
   9.3750000000000000E-002  0.87500000000000000        0.0000000000000000     
  0.12500000000000000       0.87500000000000000        0.0000000000000000     
  0.12500000000000000       0.75000000000000000        0.0000000000000000     
  0.15625000000000000       0.75000000000000000        0.0000000000000000     
  0.18750000000000000       0.75000000000000000        0.0000000000000000     
  0.21875000000000000       0.75000000000000000        0.0000000000000000     
  0.25000000000000000       0.75000000000000000        0.0000000000000000     
  0.12500000000000000       0.78125000000000000        0.0000000000000000     
  0.15625000000000000       0.78125000000000000        0.0000000000000000     
  0.18750000000000000       0.78125000000000000        0.0000000000000000     
  0.21875000000000000       0.78125000000000000        0.0000000000000000     
  0.25000000000000000       0.78125000000000000        0.0000000000000000     
  0.12500000000000000       0.81250000000000000        0.0000000000000000     
  0.15625000000000000       0.81250000000000000        0.0000000000000000     
  0.18750000000000000       0.81250000000000000        0.0000000000000000     
  0.21875000000000000       0.81250000000000000        0.0000000000000000     
  0.25000000000000000       0.81250000000000000        0.0000000000000000     
  0.12500000000000000       0.84375000000000000        0.0000000000000000     
  0.15625000000000000       0.84375000000000000        0.0000000000000000     
  0.18750000000000000       0.84375000000000000        0.0000000000000000     
  0.21875000000000000       0.84375000000000000        0.0000000000000000     
  0.25000000000000000       0.84375000000000000        0.0000000000000000     
  0.12500000000000000       0.87500000000000000        0.0000000000000000     
  0.15625000000000000       0.87500000000000000        0.0000000000000000     
  0.18750000000000000       0.87500000000000000        0.0000000000000000     
  0.21875000000000000       0.87500000000000000        0.0000000000000000     
  0.25000000000000000       0.87500000000000000        0.0000000000000000     
  0.25000000000000000       0.75000000000000000        0.0000000000000000     
  0.28125000000000000       0.75000000000000000        0.0000000000000000     
  0.31250000000000000       0.75000000000000000        0.0000000000000000     
  0.34375000000000000       0.75000000000000000        0.0000000000000000     
  0.37500000000000000       0.75000000000000000        0.0000000000000000     
  0.25000000000000000       0.78125000000000000        0.0000000000000000     
  0.28125000000000000       0.78125000000000000        0.0000000000000000     
  0.31250000000000000       0.78125000000000000        0.0000000000000000     
  0.34375000000000000       0.78125000000000000        0.0000000000000000     
  0.37500000000000000       0.78125000000000000        0.0000000000000000     
  0.25000000000000000       0.81250000000000000        0.0000000000000000     
  0.28125000000000000       0.81250000000000000        0.0000000000000000     
  0.31250000000000000       0.81250000000000000        0.0000000000000000     
  0.34375000000000000       0.81250000000000000        0.0000000000000000     
  0.37500000000000000       0.81250000000000000        0.0000000000000000     
  0.25000000000000000       0.84375000000000000        0.0000000000000000     
  0.28125000000000000       0.84375000000000000        0.0000000000000000     
  0.31250000000000000       0.84375000000000000        0.0000000000000000     
  0.34375000000000000       0.84375000000000000        0.0000000000000000     
  0.37500000000000000       0.84375000000000000        0.0000000000000000     
  0.25000000000000000       0.87500000000000000        0.0000000000000000     
  0.28125000000000000       0.87500000000000000        0.0000000000000000     
  0.31250000000000000       0.87500000000000000        0.0000000000000000     
  0.34375000000000000       0.87500000000000000        0.0000000000000000     
  0.37500000000000000       0.87500000000000000        0.0000000000000000     
  0.37500000000000000       0.75000000000000000        0.0000000000000000     
  0.40625000000000000       0.75000000000000000        0.0000000000000000     
  0.43750000000000000       0.75000000000000000        0.0000000000000000     
  0.46875000000000000       0.75000000000000000        0.0000000000000000     
  0.50000000000000000       0.75000000000000000        0.0000000000000000     
  0.37500000000000000       0.78125000000000000        0.0000000000000000     
  0.40625000000000000       0.78125000000000000        0.0000000000000000     
  0.43750000000000000       0.78125000000000000        0.0000000000000000     
  0.46875000000000000       0.78125000000000000        0.0000000000000000     
  0.50000000000000000       0.78125000000000000        0.0000000000000000     
  0.37500000000000000       0.81250000000000000        0.0000000000000000     
  0.40625000000000000       0.81250000000000000        0.0000000000000000     
  0.43750000000000000       0.81250000000000000        0.0000000000000000     
  0.46875000000000000       0.81250000000000000        0.0000000000000000     
  0.50000000000000000       0.81250000000000000        0.0000000000000000     
  0.37500000000000000       0.84375000000000000        0.0000000000000000     
  0.40625000000000000       0.84375000000000000        0.0000000000000000     
  0.43750000000000000       0.84375000000000000        0.0000000000000000     
  0.46875000000000000       0.84375000000000000        0.0000000000000000     
  0.50000000000000000       0.84375000000000000        0.0000000000000000     
  0.37500000000000000       0.87500000000000000        0.0000000000000000     
  0.40625000000000000       0.87500000000000000        0.0000000000000000     
  0.43750000000000000       0.87500000000000000        0.0000000000000000     
  0.46875000000000000       0.87500000000000000        0.0000000000000000     
  0.50000000000000000       0.87500000000000000        0.0000000000000000     
  0.50000000000000000       0.75000000000000000        0.0000000000000000     
  0.53125000000000000       0.75000000000000000        0.0000000000000000     
  0.56250000000000000       0.75000000000000000        0.0000000000000000     
  0.59375000000000000       0.75000000000000000        0.0000000000000000     
  0.62500000000000000       0.75000000000000000        0.0000000000000000     
  0.50000000000000000       0.78125000000000000        0.0000000000000000     
  0.53125000000000000       0.78125000000000000        0.0000000000000000     
  0.56250000000000000       0.78125000000000000        0.0000000000000000     
  0.59375000000000000       0.78125000000000000        0.0000000000000000     
  0.62500000000000000       0.78125000000000000        0.0000000000000000     
  0.50000000000000000       0.81250000000000000        0.0000000000000000     
  0.53125000000000000       0.81250000000000000        0.0000000000000000     
  0.56250000000000000       0.81250000000000000        0.0000000000000000     
  0.59375000000000000       0.81250000000000000        0.0000000000000000     
  0.62500000000000000       0.81250000000000000        0.0000000000000000     
  0.50000000000000000       0.84375000000000000        0.0000000000000000     
  0.53125000000000000       0.84375000000000000        0.0000000000000000     
  0.56250000000000000       0.84375000000000000        0.0000000000000000     
  0.59375000000000000       0.84375000000000000        0.0000000000000000     
  0.62500000000000000       0.84375000000000000        0.0000000000000000     
  0.50000000000000000       0.87500000000000000        0.0000000000000000     
  0.53125000000000000       0.87500000000000000        0.0000000000000000     
  0.56250000000000000       0.87500000000000000        0.0000000000000000     
  0.59375000000000000       0.87500000000000000        0.0000000000000000     
  0.62500000000000000       0.87500000000000000        0.0000000000000000     
  0.62500000000000000       0.75000000000000000        0.0000000000000000     
  0.65625000000000000       0.75000000000000000        0.0000000000000000     
  0.68750000000000000       0.75000000000000000        0.0000000000000000     
  0.71875000000000000       0.75000000000000000        0.0000000000000000     
  0.75000000000000000       0.75000000000000000        0.0000000000000000     
  0.62500000000000000       0.78125000000000000        0.0000000000000000     
  0.65625000000000000       0.78125000000000000        0.0000000000000000     
  0.68750000000000000       0.78125000000000000        0.0000000000000000     
  0.71875000000000000       0.78125000000000000        0.0000000000000000     
  0.75000000000000000       0.78125000000000000        0.0000000000000000     
  0.62500000000000000       0.81250000000000000        0.0000000000000000     
  0.65625000000000000       0.81250000000000000        0.0000000000000000     
  0.68750000000000000       0.81250000000000000        0.0000000000000000     
  0.71875000000000000       0.81250000000000000        0.0000000000000000     
  0.75000000000000000       0.81250000000000000        0.0000000000000000     
  0.62500000000000000       0.84375000000000000        0.0000000000000000     
  0.65625000000000000       0.84375000000000000        0.0000000000000000     
  0.68750000000000000       0.84375000000000000        0.0000000000000000     
  0.71875000000000000       0.84375000000000000        0.0000000000000000     
  0.75000000000000000       0.84375000000000000        0.0000000000000000     
  0.62500000000000000       0.87500000000000000        0.0000000000000000     
  0.65625000000000000       0.87500000000000000        0.0000000000000000     
  0.68750000000000000       0.87500000000000000        0.0000000000000000     
  0.71875000000000000       0.87500000000000000        0.0000000000000000     
  0.75000000000000000       0.87500000000000000        0.0000000000000000     
  0.75000000000000000       0.75000000000000000        0.0000000000000000     
  0.78125000000000000       0.75000000000000000        0.0000000000000000     
  0.81250000000000000       0.75000000000000000        0.0000000000000000     
  0.84375000000000000       0.75000000000000000        0.0000000000000000     
  0.87500000000000000       0.75000000000000000        0.0000000000000000     
  0.75000000000000000       0.78125000000000000        0.0000000000000000     
  0.78125000000000000       0.78125000000000000        0.0000000000000000     
  0.81250000000000000       0.78125000000000000        0.0000000000000000     
  0.84375000000000000       0.78125000000000000        0.0000000000000000     
  0.87500000000000000       0.78125000000000000        0.0000000000000000     
  0.75000000000000000       0.81250000000000000        0.0000000000000000     
  0.78125000000000000       0.81250000000000000        0.0000000000000000     
  0.81250000000000000       0.81250000000000000        0.0000000000000000     
  0.84375000000000000       0.81250000000000000        0.0000000000000000     
  0.87500000000000000       0.81250000000000000        0.0000000000000000     
  0.75000000000000000       0.84375000000000000        0.0000000000000000     
  0.78125000000000000       0.84375000000000000        0.0000000000000000     
  0.81250000000000000       0.84375000000000000        0.0000000000000000     
  0.84375000000000000       0.84375000000000000        0.0000000000000000     
  0.87500000000000000       0.84375000000000000        0.0000000000000000     
  0.75000000000000000       0.87500000000000000        0.0000000000000000     
  0.78125000000000000       0.87500000000000000        0.0000000000000000     
  0.81250000000000000       0.87500000000000000        0.0000000000000000     
  0.84375000000000000       0.87500000000000000        0.0000000000000000     
  0.87500000000000000       0.87500000000000000        0.0000000000000000     
  0.87500000000000000       0.75000000000000000        0.0000000000000000     
  0.90625000000000000       0.75000000000000000        0.0000000000000000     
  0.93750000000000000       0.75000000000000000        0.0000000000000000     
  0.96875000000000000       0.75000000000000000        0.0000000000000000     
   1.0000000000000000       0.75000000000000000        0.0000000000000000     
  0.87500000000000000       0.78125000000000000        0.0000000000000000     
  0.90625000000000000       0.78125000000000000        0.0000000000000000     
  0.93750000000000000       0.78125000000000000        0.0000000000000000     
  0.96875000000000000       0.78125000000000000        0.0000000000000000     
   1.0000000000000000       0.78125000000000000        0.0000000000000000     
  0.87500000000000000       0.81250000000000000        0.0000000000000000     
  0.90625000000000000       0.81250000000000000        0.0000000000000000     
  0.93750000000000000       0.81250000000000000        0.0000000000000000     
  0.96875000000000000       0.81250000000000000        0.0000000000000000     
   1.0000000000000000       0.81250000000000000        0.0000000000000000     
  0.87500000000000000       0.84375000000000000        0.0000000000000000     
  0.90625000000000000       0.84375000000000000        0.0000000000000000     
  0.93750000000000000       0.84375000000000000        0.0000000000000000     
  0.96875000000000000       0.84375000000000000        0.0000000000000000     
   1.0000000000000000       0.84375000000000000        0.0000000000000000     
  0.87500000000000000       0.87500000000000000        0.0000000000000000     
  0.90625000000000000       0.87500000000000000        0.0000000000000000     
  0.93750000000000000       0.87500000000000000        0.0000000000000000     
  0.96875000000000000       0.87500000000000000        0.0000000000000000     
   1.0000000000000000       0.87500000000000000        0.0000000000000000     
   0.0000000000000000       0.87500000000000000        0.0000000000000000     
   3.1250000000000000E-002  0.87500000000000000        0.0000000000000000     
   6.2500000000000000E-002  0.87500000000000000        0.0000000000000000     
   9.3750000000000000E-002  0.87500000000000000        0.0000000000000000     
  0.12500000000000000       0.87500000000000000        0.0000000000000000     
   0.0000000000000000       0.90625000000000000        0.0000000000000000     
   3.1250000000000000E-002  0.90625000000000000        0.0000000000000000     
   6.2500000000000000E-002  0.90625000000000000        0.0000000000000000     
   9.3750000000000000E-002  0.90625000000000000        0.0000000000000000     
  0.12500000000000000       0.90625000000000000        0.0000000000000000     
   0.0000000000000000       0.93750000000000000        0.0000000000000000     
   3.1250000000000000E-002  0.93750000000000000        0.0000000000000000     
   6.2500000000000000E-002  0.93750000000000000        0.0000000000000000     
   9.3750000000000000E-002  0.93750000000000000        0.0000000000000000     
  0.12500000000000000       0.93750000000000000        0.0000000000000000     
   0.0000000000000000       0.96875000000000000        0.0000000000000000     
   3.1250000000000000E-002  0.96875000000000000        0.0000000000000000     
   6.2500000000000000E-002  0.96875000000000000        0.0000000000000000     
   9.3750000000000000E-002  0.96875000000000000        0.0000000000000000     
  0.12500000000000000       0.96875000000000000        0.0000000000000000     
   0.0000000000000000        1.0000000000000000        0.0000000000000000     
   3.1250000000000000E-002   1.0000000000000000        0.0000000000000000     
   6.2500000000000000E-002   1.0000000000000000        0.0000000000000000     
   9.3750000000000000E-002   1.0000000000000000        0.0000000000000000     
  0.12500000000000000        1.0000000000000000        0.0000000000000000     
  0.12500000000000000       0.87500000000000000        0.0000000000000000     
  0.15625000000000000       0.87500000000000000        0.0000000000000000     
  0.18750000000000000       0.87500000000000000        0.0000000000000000     
  0.21875000000000000       0.87500000000000000        0.0000000000000000     
  0.25000000000000000       0.87500000000000000        0.0000000000000000     
  0.12500000000000000       0.90625000000000000        0.0000000000000000     
  0.15625000000000000       0.90625000000000000        0.0000000000000000     
  0.18750000000000000       0.90625000000000000        0.0000000000000000     
  0.21875000000000000       0.90625000000000000        0.0000000000000000     
  0.25000000000000000       0.90625000000000000        0.0000000000000000     
  0.12500000000000000       0.93750000000000000        0.0000000000000000     
  0.15625000000000000       0.93750000000000000        0.0000000000000000     
  0.18750000000000000       0.93750000000000000        0.0000000000000000     
  0.21875000000000000       0.93750000000000000        0.0000000000000000     
  0.25000000000000000       0.93750000000000000        0.0000000000000000     
  0.12500000000000000       0.96875000000000000        0.0000000000000000     
  0.15625000000000000       0.96875000000000000        0.0000000000000000     
  0.18750000000000000       0.96875000000000000        0.0000000000000000     
  0.21875000000000000       0.96875000000000000        0.0000000000000000     
  0.25000000000000000       0.96875000000000000        0.0000000000000000     
  0.12500000000000000        1.0000000000000000        0.0000000000000000     
  0.15625000000000000        1.0000000000000000        0.0000000000000000     
  0.18750000000000000        1.0000000000000000        0.0000000000000000     
  0.21875000000000000        1.0000000000000000        0.0000000000000000     
  0.25000000000000000        1.0000000000000000        0.0000000000000000     
  0.25000000000000000       0.87500000000000000        0.0000000000000000     
  0.28125000000000000       0.87500000000000000        0.0000000000000000     
  0.31250000000000000       0.87500000000000000        0.0000000000000000     
  0.34375000000000000       0.87500000000000000        0.0000000000000000     
  0.37500000000000000       0.87500000000000000        0.0000000000000000     
  0.25000000000000000       0.90625000000000000        0.0000000000000000     
  0.28125000000000000       0.90625000000000000        0.0000000000000000     
  0.31250000000000000       0.90625000000000000        0.0000000000000000     
  0.34375000000000000       0.90625000000000000        0.0000000000000000     
  0.37500000000000000       0.90625000000000000        0.0000000000000000     
  0.25000000000000000       0.93750000000000000        0.0000000000000000     
  0.28125000000000000       0.93750000000000000        0.0000000000000000     
  0.31250000000000000       0.93750000000000000        0.0000000000000000     
  0.34375000000000000       0.93750000000000000        0.0000000000000000     
  0.37500000000000000       0.93750000000000000        0.0000000000000000     
  0.25000000000000000       0.96875000000000000        0.0000000000000000     
  0.28125000000000000       0.96875000000000000        0.0000000000000000     
  0.31250000000000000       0.96875000000000000        0.0000000000000000     
  0.34375000000000000       0.96875000000000000        0.0000000000000000     
  0.37500000000000000       0.96875000000000000        0.0000000000000000     
  0.25000000000000000        1.0000000000000000        0.0000000000000000     
  0.28125000000000000        1.0000000000000000        0.0000000000000000     
  0.31250000000000000        1.0000000000000000        0.0000000000000000     
  0.34375000000000000        1.0000000000000000        0.0000000000000000     
  0.37500000000000000        1.0000000000000000        0.0000000000000000     
  0.37500000000000000       0.87500000000000000        0.0000000000000000     
  0.40625000000000000       0.87500000000000000        0.0000000000000000     
  0.43750000000000000       0.87500000000000000        0.0000000000000000     
  0.46875000000000000       0.87500000000000000        0.0000000000000000     
  0.50000000000000000       0.87500000000000000        0.0000000000000000     
  0.37500000000000000       0.90625000000000000        0.0000000000000000     
  0.40625000000000000       0.90625000000000000        0.0000000000000000     
  0.43750000000000000       0.90625000000000000        0.0000000000000000     
  0.46875000000000000       0.90625000000000000        0.0000000000000000     
  0.50000000000000000       0.90625000000000000        0.0000000000000000     
  0.37500000000000000       0.93750000000000000        0.0000000000000000     
  0.40625000000000000       0.93750000000000000        0.0000000000000000     
  0.43750000000000000       0.93750000000000000        0.0000000000000000     
  0.46875000000000000       0.93750000000000000        0.0000000000000000     
  0.50000000000000000       0.93750000000000000        0.0000000000000000     
  0.37500000000000000       0.96875000000000000        0.0000000000000000     
  0.40625000000000000       0.96875000000000000        0.0000000000000000     
  0.43750000000000000       0.96875000000000000        0.0000000000000000     
  0.46875000000000000       0.96875000000000000        0.0000000000000000     
  0.50000000000000000       0.96875000000000000        0.0000000000000000     
  0.37500000000000000        1.0000000000000000        0.0000000000000000     
  0.40625000000000000        1.0000000000000000        0.0000000000000000     
  0.43750000000000000        1.0000000000000000        0.0000000000000000     
  0.46875000000000000        1.0000000000000000        0.0000000000000000     
  0.50000000000000000        1.0000000000000000        0.0000000000000000     
  0.50000000000000000       0.87500000000000000        0.0000000000000000     
  0.53125000000000000       0.87500000000000000        0.0000000000000000     
  0.56250000000000000       0.87500000000000000        0.0000000000000000     
  0.59375000000000000       0.87500000000000000        0.0000000000000000     
  0.62500000000000000       0.87500000000000000        0.0000000000000000     
  0.50000000000000000       0.90625000000000000        0.0000000000000000     
  0.53125000000000000       0.90625000000000000        0.0000000000000000     
  0.56250000000000000       0.90625000000000000        0.0000000000000000     
  0.59375000000000000       0.90625000000000000        0.0000000000000000     
  0.62500000000000000       0.90625000000000000        0.0000000000000000     
  0.50000000000000000       0.93750000000000000        0.0000000000000000     
  0.53125000000000000       0.93750000000000000        0.0000000000000000     
  0.56250000000000000       0.93750000000000000        0.0000000000000000     
  0.59375000000000000       0.93750000000000000        0.0000000000000000     
  0.62500000000000000       0.93750000000000000        0.0000000000000000     
  0.50000000000000000       0.96875000000000000        0.0000000000000000     
  0.53125000000000000       0.96875000000000000        0.0000000000000000     
  0.56250000000000000       0.96875000000000000        0.0000000000000000     
  0.59375000000000000       0.96875000000000000        0.0000000000000000     
  0.62500000000000000       0.96875000000000000        0.0000000000000000     
  0.50000000000000000        1.0000000000000000        0.0000000000000000     
  0.53125000000000000        1.0000000000000000        0.0000000000000000     
  0.56250000000000000        1.0000000000000000        0.0000000000000000     
  0.59375000000000000        1.0000000000000000        0.0000000000000000     
  0.62500000000000000        1.0000000000000000        0.0000000000000000     
  0.62500000000000000       0.87500000000000000        0.0000000000000000     
  0.65625000000000000       0.87500000000000000        0.0000000000000000     
  0.68750000000000000       0.87500000000000000        0.0000000000000000     
  0.71875000000000000       0.87500000000000000        0.0000000000000000     
  0.75000000000000000       0.87500000000000000        0.0000000000000000     
  0.62500000000000000       0.90625000000000000        0.0000000000000000     
  0.65625000000000000       0.90625000000000000        0.0000000000000000     
  0.68750000000000000       0.90625000000000000        0.0000000000000000     
  0.71875000000000000       0.90625000000000000        0.0000000000000000     
  0.75000000000000000       0.90625000000000000        0.0000000000000000     
  0.62500000000000000       0.93750000000000000        0.0000000000000000     
  0.65625000000000000       0.93750000000000000        0.0000000000000000     
  0.68750000000000000       0.93750000000000000        0.0000000000000000     
  0.71875000000000000       0.93750000000000000        0.0000000000000000     
  0.75000000000000000       0.93750000000000000        0.0000000000000000     
  0.62500000000000000       0.96875000000000000        0.0000000000000000     
  0.65625000000000000       0.96875000000000000        0.0000000000000000     
  0.68750000000000000       0.96875000000000000        0.0000000000000000     
  0.71875000000000000       0.96875000000000000        0.0000000000000000     
  0.75000000000000000       0.96875000000000000        0.0000000000000000     
  0.62500000000000000        1.0000000000000000        0.0000000000000000     
  0.65625000000000000        1.0000000000000000        0.0000000000000000     
  0.68750000000000000        1.0000000000000000        0.0000000000000000     
  0.71875000000000000        1.0000000000000000        0.0000000000000000     
  0.75000000000000000        1.0000000000000000        0.0000000000000000     
  0.75000000000000000       0.87500000000000000        0.0000000000000000     
  0.78125000000000000       0.87500000000000000        0.0000000000000000     
  0.81250000000000000       0.87500000000000000        0.0000000000000000     
  0.84375000000000000       0.87500000000000000        0.0000000000000000     
  0.87500000000000000       0.87500000000000000        0.0000000000000000     
  0.75000000000000000       0.90625000000000000        0.0000000000000000     
  0.78125000000000000       0.90625000000000000        0.0000000000000000     
  0.81250000000000000       0.90625000000000000        0.0000000000000000     
  0.84375000000000000       0.90625000000000000        0.0000000000000000     
  0.87500000000000000       0.90625000000000000        0.0000000000000000     
  0.75000000000000000       0.93750000000000000        0.0000000000000000     
  0.78125000000000000       0.93750000000000000        0.0000000000000000     
  0.81250000000000000       0.93750000000000000        0.0000000000000000     
  0.84375000000000000       0.93750000000000000        0.0000000000000000     
  0.87500000000000000       0.93750000000000000        0.0000000000000000     
  0.75000000000000000       0.96875000000000000        0.0000000000000000     
  0.78125000000000000       0.96875000000000000        0.0000000000000000     
  0.81250000000000000       0.96875000000000000        0.0000000000000000     
  0.84375000000000000       0.96875000000000000        0.0000000000000000     
  0.87500000000000000       0.96875000000000000        0.0000000000000000     
  0.75000000000000000        1.0000000000000000        0.0000000000000000     
  0.78125000000000000        1.0000000000000000        0.0000000000000000     
  0.81250000000000000        1.0000000000000000        0.0000000000000000     
  0.84375000000000000        1.0000000000000000        0.0000000000000000     
  0.87500000000000000        1.0000000000000000        0.0000000000000000     
  0.87500000000000000       0.87500000000000000        0.0000000000000000     
  0.90625000000000000       0.87500000000000000        0.0000000000000000     
  0.93750000000000000       0.87500000000000000        0.0000000000000000     
  0.96875000000000000       0.87500000000000000        0.0000000000000000     
   1.0000000000000000       0.87500000000000000        0.0000000000000000     
  0.87500000000000000       0.90625000000000000        0.0000000000000000     
  0.90625000000000000       0.90625000000000000        0.0000000000000000     
  0.93750000000000000       0.90625000000000000        0.0000000000000000     
  0.96875000000000000       0.90625000000000000        0.0000000000000000     
   1.0000000000000000       0.90625000000000000        0.0000000000000000     
  0.87500000000000000       0.93750000000000000        0.0000000000000000     
  0.90625000000000000       0.93750000000000000        0.0000000000000000     
  0.93750000000000000       0.93750000000000000        0.0000000000000000     
  0.96875000000000000       0.93750000000000000        0.0000000000000000     
   1.0000000000000000       0.93750000000000000        0.0000000000000000     
  0.87500000000000000       0.96875000000000000        0.0000000000000000     
  0.90625000000000000       0.96875000000000000        0.0000000000000000     
  0.93750000000000000       0.96875000000000000        0.0000000000000000     
  0.96875000000000000       0.96875000000000000        0.0000000000000000     
   1.0000000000000000       0.96875000000000000        0.0000000000000000     
  0.87500000000000000        1.0000000000000000        0.0000000000000000     
  0.90625000000000000        1.0000000000000000        0.0000000000000000     
  0.93750000000000000        1.0000000000000000        0.0000000000000000     
  0.96875000000000000        1.0000000000000000        0.0000000000000000     
   1.0000000000000000        1.0000000000000000        0.0000000000000000     
 </DataArray>
 </Points>
 <Cells>
 <DataArray  type="Int32"  Name="connectivity"  format="ascii">
           0           1           6           5
           1           2           7           6
           2           3           8           7
           3           4           9           8
           5           6          11          10
           6           7          12          11
           7           8          13          12
           8           9          14          13
          10          11          16          15
          11          12          17          16
          12          13          18          17
          13          14          19          18
          15          16          21          20
          16          17          22          21
          17          18          23          22
          18          19          24          23
          25          26          31          30
          26          27          32          31
          27          28          33          32
          28          29          34          33
          30          31          36          35
          31          32          37          36
          32          33          38          37
          33          34          39          38
          35          36          41          40
          36          37          42          41
          37          38          43          42
          38          39          44          43
          40          41          46          45
          41          42          47          46
          42          43          48          47
          43          44          49          48
          50          51          56          55
          51          52          57          56
          52          53          58          57
          53          54          59          58
          55          56          61          60
          56          57          62          61
          57          58          63          62
          58          59          64          63
          60          61          66          65
          61          62          67          66
          62          63          68          67
          63          64          69          68
          65          66          71          70
          66          67          72          71
          67          68          73          72
          68          69          74          73
          75          76          81          80
          76          77          82          81
          77          78          83          82
          78          79          84          83
          80          81          86          85
          81          82          87          86
          82          83          88          87
          83          84          89          88
          85          86          91          90
          86          87          92          91
          87          88          93          92
          88          89          94          93
          90          91          96          95
          91          92          97          96
          92          93          98          97
          93          94          99          98
         100         101         106         105
         101         102         107         106
         102         103         108         107
         103         104         109         108
         105         106         111         110
         106         107         112         111
         107         108         113         112
         108         109         114         113
         110         111         116         115
         111         112         117         116
         112         113         118         117
         113         114         119         118
         115         116         121         120
         116         117         122         121
         117         118         123         122
         118         119         124         123
         125         126         131         130
         126         127         132         131
         127         128         133         132
         128         129         134         133
         130         131         136         135
         131         132         137         136
         132         133         138         137
         133         134         139         138
         135         136         141         140
         136         137         142         141
         137         138         143         142
         138         139         144         143
         140         141         146         145
         141         142         147         146
         142         143         148         147
         143         144         149         148
         150         151         156         155
         151         152         157         156
         152         153         158         157
         153         154         159         158
         155         156         161         160
         156         157         162         161
         157         158         163         162
         158         159         164         163
         160         161         166         165
         161         162         167         166
         162         163         168         167
         163         164         169         168
         165         166         171         170
         166         167         172         171
         167         168         173         172
         168         169         174         173
         175         176         181         180
         176         177         182         181
         177         178         183         182
         178         179         184         183
         180         181         186         185
         181         182         187         186
         182         183         188         187
         183         184         189         188
         185         186         191         190
         186         187         192         191
         187         188         193         192
         188         189         194         193
         190         191         196         195
         191         192         197         196
         192         193         198         197
         193         194         199         198
         200         201         206         205
         201         202         207         206
         202         203         208         207
         203         204         209         208
         205         206         211         210
         206         207         212         211
         207         208         213         212
         208         209         214         213
         210         211         216         215
         211         212         217         216
         212         213         218         217
         213         214         219         218
         215         216         221         220
         216         217         222         221
         217         218         223         222
         218         219         224         223
         225         226         231         230
         226         227         232         231
         227         228         233         232
         228         229         234         233
         230         231         236         235
         231         232         237         236
         232         233         238         237
         233         234         239         238
         235         236         241         240
         236         237         242         241
         237         238         243         242
         238         239         244         243
         240         241         246         245
         241         242         247         246
         242         243         248         247
         243         244         249         248
         250         251         256         255
         251         252         257         256
         252         253         258         257
         253         254         259         258
         255         256         261         260
         256         257         262         261
         257         258         263         262
         258         259         264         263
         260         261         266         265
         261         262         267         266
         262         263         268         267
         263         264         269         268
         265         266         271         270
         266         267         272         271
         267         268         273         272
         268         269         274         273
         275         276         281         280
         276         277         282         281
         277         278         283         282
         278         279         284         283
         280         281         286         285
         281         282         287         286
         282         283         288         287
         283         284         289         288
         285         286         291         290
         286         287         292         291
         287         288         293         292
         288         289         294         293
         290         291         296         295
         291         292         297         296
         292         293         298         297
         293         294         299         298
         300         301         306         305
         301         302         307         306
         302         303         308         307
         303         304         309         308
         305         306         311         310
         306         307         312         311
         307         308         313         312
         308         309         314         313
         310         311         316         315
         311         312         317         316
         312         313         318         317
         313         314         319         318
         315         316         321         320
         316         317         322         321
         317         318         323         322
         318         319         324         323
         325         326         331         330
         326         327         332         331
         327         328         333         332
         328         329         334         333
         330         331         336         335
         331         332         337         336
         332         333         338         337
         333         334         339         338
         335         336         341         340
         336         337         342         341
         337         338         343         342
         338         339         344         343
         340         341         346         345
         341         342         347         346
         342         343         348         347
         343         344         349         348
         350         351         356         355
         351         352         357         356
         352         353         358         357
         353         354         359         358
         355         356         361         360
         356         357         362         361
         357         358         363         362
         358         359         364         363
         360         361         366         365
         361         362         367         366
         362         363         368         367
         363         364         369         368
         365         366         371         370
         366         367         372         371
         367         368         373         372
         368         369         374         373
         375         376         381         380
         376         377         382         381
         377         378         383         382
         378         379         384         383
         380         381         386         385
         381         382         387         386
         382         383         388         387
         383         384         389         388
         385         386         391         390
         386         387         392         391
         387         388         393         392
         388         389         394         393
         390         391         396         395
         391         392         397         396
         392         393         398         397
         393         394         399         398
         400         401         406         405
         401         402         407         406
         402         403         408         407
         403         404         409         408
         405         406         411         410
         406         407         412         411
         407         408         413         412
         408         409         414         413
         410         411         416         415
         411         412         417         416
         412         413         418         417
         413         414         419         418
         415         416         421         420
         416         417         422         421
         417         418         423         422
         418         419         424         423
         425         426         431         430
         426         427         432         431
         427         428         433         432
         428         429         434         433
         430         431         436         435
         431         432         437         436
         432         433         438         437
         433         434         439         438
         435         436         441         440
         436         437         442         441
         437         438         443         442
         438         439         444         443
         440         441         446         445
         441         442         447         446
         442         443         448         447
         443         444         449         448
         450         451         456         455
         451         452         457         456
         452         453         458         457
         453         454         459         458
         455         456         461         460
         456         457         462         461
         457         458         463         462
         458         459         464         463
         460         461         466         465
         461         462         467         466
         462         463         468         467
         463         464         469         468
         465         466         471         470
         466         467         472         471
         467         468         473         472
         468         469         474         473
         475         476         481         480
         476         477         482         481
         477         478         483         482
         478         479         484         483
         480         481         486         485
         481         482         487         486
         482         483         488         487
         483         484         489         488
         485         486         491         490
         486         487         492         491
         487         488         493         492
         488         489         494         493
         490         491         496         495
         491         492         497         496
         492         493         498         497
         493         494         499         498
         500         501         506         505
         501         502         507         506
         502         503         508         507
         503         504         509         508
         505         506         511         510
         506         507         512         511
         507         508         513         512
         508         509         514         513
         510         511         516         515
         511         512         517         516
         512         513         518         517
         513         514         519         518
         515         516         521         520
         516         517         522         521
         517         518         523         522
         518         519         524         523
         525         526         531         530
         526         527         532         531
         527         528         533         532
         528         529         534         533
         530         531         536         535
         531         532         537         536
         532         533         538         537
         533         534         539         538
         535         536         541         540
         536         537         542         541
         537         538         543         542
         538         539         544         543
         540         541         546         545
         541         542         547         546
         542         543         548         547
         543         544         549         548
         550         551         556         555
         551         552         557         556
         552         553         558         557
         553         554         559         558
         555         556         561         560
         556         557         562         561
         557         558         563         562
         558         559         564         563
         560         561         566         565
         561         562         567         566
         562         563         568         567
         563         564         569         568
         565         566         571         570
         566         567         572         571
         567         568         573         572
         568         569         574         573
         575         576         581         580
         576         577         582         581
         577         578         583         582
         578         579         584         583
         580         581         586         585
         581         582         587         586
         582         583         588         587
         583         584         589         588
         585         586         591         590
         586         587         592         591
         587         588         593         592
         588         589         594         593
         590         591         596         595
         591         592         597         596
         592         593         598         597
         593         594         599         598
         600         601         606         605
         601         602         607         606
         602         603         608         607
         603         604         609         608
         605         606         611         610
         606         607         612         611
         607         608         613         612
         608         609         614         613
         610         611         616         615
         611         612         617         616
         612         613         618         617
         613         614         619         618
         615         616         621         620
         616         617         622         621
         617         618         623         622
         618         619         624         623
         625         626         631         630
         626         627         632         631
         627         628         633         632
         628         629         634         633
         630         631         636         635
         631         632         637         636
         632         633         638         637
         633         634         639         638
         635         636         641         640
         636         637         642         641
         637         638         643         642
         638         639         644         643
         640         641         646         645
         641         642         647         646
         642         643         648         647
         643         644         649         648
         650         651         656         655
         651         652         657         656
         652         653         658         657
         653         654         659         658
         655         656         661         660
         656         657         662         661
         657         658         663         662
         658         659         664         663
         660         661         666         665
         661         662         667         666
         662         663         668         667
         663         664         669         668
         665         666         671         670
         666         667         672         671
         667         668         673         672
         668         669         674         673
         675         676         681         680
         676         677         682         681
         677         678         683         682
         678         679         684         683
         680         681         686         685
         681         682         687         686
         682         683         688         687
         683         684         689         688
         685         686         691         690
         686         687         692         691
         687         688         693         692
         688         689         694         693
         690         691         696         695
         691         692         697         696
         692         693         698         697
         693         694         699         698
         700         701         706         705
         701         702         707         706
         702         703         708         707
         703         704         709         708
         705         706         711         710
         706         707         712         711
         707         708         713         712
         708         709         714         713
         710         711         716         715
         711         712         717         716
         712         713         718         717
         713         714         719         718
         715         716         721         720
         716         717         722         721
         717         718         723         722
         718         719         724         723
         725         726         731         730
         726         727         732         731
         727         728         733         732
         728         729         734         733
         730         731         736         735
         731         732         737         736
         732         733         738         737
         733         734         739         738
         735         736         741         740
         736         737         742         741
         737         738         743         742
         738         739         744         743
         740         741         746         745
         741         742         747         746
         742         743         748         747
         743         744         749         748
         750         751         756         755
         751         752         757         756
         752         753         758         757
         753         754         759         758
         755         756         761         760
         756         757         762         761
         757         758         763         762
         758         759         764         763
         760         761         766         765
         761         762         767         766
         762         763         768         767
         763         764         769         768
         765         766         771         770
         766         767         772         771
         767         768         773         772
         768         769         774         773
         775         776         781         780
         776         777         782         781
         777         778         783         782
         778         779         784         783
         780         781         786         785
         781         782         787         786
         782         783         788         787
         783         784         789         788
         785         786         791         790
         786         787         792         791
         787         788         793         792
         788         789         794         793
         790         791         796         795
         791         792         797         796
         792         793         798         797
         793         794         799         798
         800         801         806         805
         801         802         807         806
         802         803         808         807
         803         804         809         808
         805         806         811         810
         806         807         812         811
         807         808         813         812
         808         809         814         813
         810         811         816         815
         811         812         817         816
         812         813         818         817
         813         814         819         818
         815         816         821         820
         816         817         822         821
         817         818         823         822
         818         819         824         823
         825         826         831         830
         826         827         832         831
         827         828         833         832
         828         829         834         833
         830         831         836         835
         831         832         837         836
         832         833         838         837
         833         834         839         838
         835         836         841         840
         836         837         842         841
         837         838         843         842
         838         839         844         843
         840         841         846         845
         841         842         847         846
         842         843         848         847
         843         844         849         848
         850         851         856         855
         851         852         857         856
         852         853         858         857
         853         854         859         858
         855         856         861         860
         856         857         862         861
         857         858         863         862
         858         859         864         863
         860         861         866         865
         861         862         867         866
         862         863         868         867
         863         864         869         868
         865         866         871         870
         866         867         872         871
         867         868         873         872
         868         869         874         873
         875         876         881         880
         876         877         882         881
         877         878         883         882
         878         879         884         883
         880         881         886         885
         881         882         887         886
         882         883         888         887
         883         884         889         888
         885         886         891         890
         886         887         892         891
         887         888         893         892
         888         889         894         893
         890         891         896         895
         891         892         897         896
         892         893         898         897
         893         894         899         898
         900         901         906         905
         901         902         907         906
         902         903         908         907
         903         904         909         908
         905         906         911         910
         906         907         912         911
         907         908         913         912
         908         909         914         913
         910         911         916         915
         911         912         917         916
         912         913         918         917
         913         914         919         918
         915         916         921         920
         916         917         922         921
         917         918         923         922
         918         919         924         923
         925         926         931         930
         926         927         932         931
         927         928         933         932
         928         929         934         933
         930         931         936         935
         931         932         937         936
         932         933         938         937
         933         934         939         938
         935         936         941         940
         936         937         942         941
         937         938         943         942
         938         939         944         943
         940         941         946         945
         941         942         947         946
         942         943         948         947
         943         944         949         948
         950         951         956         955
         951         952         957         956
         952         953         958         957
         953         954         959         958
         955         956         961         960
         956         957         962         961
         957         958         963         962
         958         959         964         963
         960         961         966         965
         961         962         967         966
         962         963         968         967
         963         964         969         968
         965         966         971         970
         966         967         972         971
         967         968         973         972
         968         969         974         973
         975         976         981         980
         976         977         982         981
         977         978         983         982
         978         979         984         983
         980         981         986         985
         981         982         987         986
         982         983         988         987
         983         984         989         988
         985         986         991         990
         986         987         992         991
         987         988         993         992
         988         989         994         993
         990         991         996         995
         991         992         997         996
         992         993         998         997
         993         994         999         998
        1000        1001        1006        1005
        1001        1002        1007        1006
        1002        1003        1008        1007
        1003        1004        1009        1008
        1005        1006        1011        1010
        1006        1007        1012        1011
        1007        1008        1013        1012
        1008        1009        1014        1013
        1010        1011        1016        1015
        1011        1012        1017        1016
        1012        1013        1018        1017
        1013        1014        1019        1018
        1015        1016        1021        1020
        1016        1017        1022        1021
        1017        1018        1023        1022
        1018        1019        1024        1023
        1025        1026        1031        1030
        1026        1027        1032        1031
        1027        1028        1033        1032
        1028        1029        1034        1033
        1030        1031        1036        1035
        1031        1032        1037        1036
        1032        1033        1038        1037
        1033        1034        1039        1038
        1035        1036        1041        1040
        1036        1037        1042        1041
        1037        1038        1043        1042
        1038        1039        1044        1043
        1040        1041        1046        1045
        1041        1042        1047        1046
        1042        1043        1048        1047
        1043        1044        1049        1048
        1050        1051        1056        1055
        1051        1052        1057        1056
        1052        1053        1058        1057
        1053        1054        1059        1058
        1055        1056        1061        1060
        1056        1057        1062        1061
        1057        1058        1063        1062
        1058        1059        1064        1063
        1060        1061        1066        1065
        1061        1062        1067        1066
        1062        1063        1068        1067
        1063        1064        1069        1068
        1065        1066        1071        1070
        1066        1067        1072        1071
        1067        1068        1073        1072
        1068        1069        1074        1073
        1075        1076        1081        1080
        1076        1077        1082        1081
        1077        1078        1083        1082
        1078        1079        1084        1083
        1080        1081        1086        1085
        1081        1082        1087        1086
        1082        1083        1088        1087
        1083        1084        1089        1088
        1085        1086        1091        1090
        1086        1087        1092        1091
        1087        1088        1093        1092
        1088        1089        1094        1093
        1090        1091        1096        1095
        1091        1092        1097        1096
        1092        1093        1098        1097
        1093        1094        1099        1098
        1100        1101        1106        1105
        1101        1102        1107        1106
        1102        1103        1108        1107
        1103        1104        1109        1108
        1105        1106        1111        1110
        1106        1107        1112        1111
        1107        1108        1113        1112
        1108        1109        1114        1113
        1110        1111        1116        1115
        1111        1112        1117        1116
        1112        1113        1118        1117
        1113        1114        1119        1118
        1115        1116        1121        1120
        1116        1117        1122        1121
        1117        1118        1123        1122
        1118        1119        1124        1123
        1125        1126        1131        1130
        1126        1127        1132        1131
        1127        1128        1133        1132
        1128        1129        1134        1133
        1130        1131        1136        1135
        1131        1132        1137        1136
        1132        1133        1138        1137
        1133        1134        1139        1138
        1135        1136        1141        1140
        1136        1137        1142        1141
        1137        1138        1143        1142
        1138        1139        1144        1143
        1140        1141        1146        1145
        1141        1142        1147        1146
        1142        1143        1148        1147
        1143        1144        1149        1148
        1150        1151        1156        1155
        1151        1152        1157        1156
        1152        1153        1158        1157
        1153        1154        1159        1158
        1155        1156        1161        1160
        1156        1157        1162        1161
        1157        1158        1163        1162
        1158        1159        1164        1163
        1160        1161        1166        1165
        1161        1162        1167        1166
        1162        1163        1168        1167
        1163        1164        1169        1168
        1165        1166        1171        1170
        1166        1167        1172        1171
        1167        1168        1173        1172
        1168        1169        1174        1173
        1175        1176        1181        1180
        1176        1177        1182        1181
        1177        1178        1183        1182
        1178        1179        1184        1183
        1180        1181        1186        1185
        1181        1182        1187        1186
        1182        1183        1188        1187
        1183        1184        1189        1188
        1185        1186        1191        1190
        1186        1187        1192        1191
        1187        1188        1193        1192
        1188        1189        1194        1193
        1190        1191        1196        1195
        1191        1192        1197        1196
        1192        1193        1198        1197
        1193        1194        1199        1198
        1200        1201        1206        1205
        1201        1202        1207        1206
        1202        1203        1208        1207
        1203        1204        1209        1208
        1205        1206        1211        1210
        1206        1207        1212        1211
        1207        1208        1213        1212
        1208        1209        1214        1213
        1210        1211        1216        1215
        1211        1212        1217        1216
        1212        1213        1218        1217
        1213        1214        1219        1218
        1215        1216        1221        1220
        1216        1217        1222        1221
        1217        1218        1223        1222
        1218        1219        1224        1223
        1225        1226        1231        1230
        1226        1227        1232        1231
        1227        1228        1233        1232
        1228        1229        1234        1233
        1230        1231        1236        1235
        1231        1232        1237        1236
        1232        1233        1238        1237
        1233        1234        1239        1238
        1235        1236        1241        1240
        1236        1237        1242        1241
        1237        1238        1243        1242
        1238        1239        1244        1243
        1240        1241        1246        1245
        1241        1242        1247        1246
        1242        1243        1248        1247
        1243        1244        1249        1248
        1250        1251        1256        1255
        1251        1252        1257        1256
        1252        1253        1258        1257
        1253        1254        1259        1258
        1255        1256        1261        1260
        1256        1257        1262        1261
        1257        1258        1263        1262
        1258        1259        1264        1263
        1260        1261        1266        1265
        1261        1262        1267        1266
        1262        1263        1268        1267
        1263        1264        1269        1268
        1265        1266        1271        1270
        1266        1267        1272        1271
        1267        1268        1273        1272
        1268        1269        1274        1273
        1275        1276        1281        1280
        1276        1277        1282        1281
        1277        1278        1283        1282
        1278        1279        1284        1283
        1280        1281        1286        1285
        1281        1282        1287        1286
        1282        1283        1288        1287
        1283        1284        1289        1288
        1285        1286        1291        1290
        1286        1287        1292        1291
        1287        1288        1293        1292
        1288        1289        1294        1293
        1290        1291        1296        1295
        1291        1292        1297        1296
        1292        1293        1298        1297
        1293        1294        1299        1298
        1300        1301        1306        1305
        1301        1302        1307        1306
        1302        1303        1308        1307
        1303        1304        1309        1308
        1305        1306        1311        1310
        1306        1307        1312        1311
        1307        1308        1313        1312
        1308        1309        1314        1313
        1310        1311        1316        1315
        1311        1312        1317        1316
        1312        1313        1318        1317
        1313        1314        1319        1318
        1315        1316        1321        1320
        1316        1317        1322        1321
        1317        1318        1323        1322
        1318        1319        1324        1323
        1325        1326        1331        1330
        1326        1327        1332        1331
        1327        1328        1333        1332
        1328        1329        1334        1333
        1330        1331        1336        1335
        1331        1332        1337        1336
        1332        1333        1338        1337
        1333        1334        1339        1338
        1335        1336        1341        1340
        1336        1337        1342        1341
        1337        1338        1343        1342
        1338        1339        1344        1343
        1340        1341        1346        1345
        1341        1342        1347        1346
        1342        1343        1348        1347
        1343        1344        1349        1348
        1350        1351        1356        1355
        1351        1352        1357        1356
        1352        1353        1358        1357
        1353        1354        1359        1358
        1355        1356        1361        1360
        1356        1357        1362        1361
        1357        1358        1363        1362
        1358        1359        1364        1363
        1360        1361        1366        1365
        1361        1362        1367        1366
        1362        1363        1368        1367
        1363        1364        1369        1368
        1365        1366        1371        1370
        1366        1367        1372        1371
        1367        1368        1373        1372
        1368        1369        1374        1373
        1375        1376        1381        1380
        1376        1377        1382        1381
        1377        1378        1383        1382
        1378        1379        1384        1383
        1380        1381        1386        1385
        1381        1382        1387        1386
        1382        1383        1388        1387
        1383        1384        1389        1388
        1385        1386        1391        1390
        1386        1387        1392        1391
        1387        1388        1393        1392
        1388        1389        1394        1393
        1390        1391        1396        1395
        1391        1392        1397        1396
        1392        1393        1398        1397
        1393        1394        1399        1398
        1400        1401        1406        1405
        1401        1402        1407        1406
        1402        1403        1408        1407
        1403        1404        1409        1408
        1405        1406        1411        1410
        1406        1407        1412        1411
        1407        1408        1413        1412
        1408        1409        1414        1413
        1410        1411        1416        1415
        1411        1412        1417        1416
        1412        1413        1418        1417
        1413        1414        1419        1418
        1415        1416        1421        1420
        1416        1417        1422        1421
        1417        1418        1423        1422
        1418        1419        1424        1423
        1425        1426        1431        1430
        1426        1427        1432        1431
        1427        1428        1433        1432
        1428        1429        1434        1433
        1430        1431        1436        1435
        1431        1432        1437        1436
        1432        1433        1438        1437
        1433        1434        1439        1438
        1435        1436        1441        1440
        1436        1437        1442        1441
        1437        1438        1443        1442
        1438        1439        1444        1443
        1440        1441        1446        1445
        1441        1442        1447        1446
        1442        1443        1448        1447
        1443        1444        1449        1448
        1450        1451        1456        1455
        1451        1452        1457        1456
        1452        1453        1458        1457
        1453        1454        1459        1458
        1455        1456        1461        1460
        1456        1457        1462        1461
        1457        1458        1463        1462
        1458        1459        1464        1463
        1460        1461        1466        1465
        1461        1462        1467        1466
        1462        1463        1468        1467
        1463        1464        1469        1468
        1465        1466        1471        1470
        1466        1467        1472        1471
        1467        1468        1473        1472
        1468        1469        1474        1473
        1475        1476        1481        1480
        1476        1477        1482        1481
        1477        1478        1483        1482
        1478        1479        1484        1483
        1480        1481        1486        1485
        1481        1482        1487        1486
        1482        1483        1488        1487
        1483        1484        1489        1488
        1485        1486        1491        1490
        1486        1487        1492        1491
        1487        1488        1493        1492
        1488        1489        1494        1493
        1490        1491        1496        1495
        1491        1492        1497        1496
        1492        1493        1498        1497
        1493        1494        1499        1498
        1500        1501        1506        1505
        1501        1502        1507        1506
        1502        1503        1508        1507
        1503        1504        1509        1508
        1505        1506        1511        1510
        1506        1507        1512        1511
        1507        1508        1513        1512
        1508        1509        1514        1513
        1510        1511        1516        1515
        1511        1512        1517        1516
        1512        1513        1518        1517
        1513        1514        1519        1518
        1515        1516        1521        1520
        1516        1517        1522        1521
        1517        1518        1523        1522
        1518        1519        1524        1523
        1525        1526        1531        1530
        1526        1527        1532        1531
        1527        1528        1533        1532
        1528        1529        1534        1533
        1530        1531        1536        1535
        1531        1532        1537        1536
        1532        1533        1538        1537
        1533        1534        1539        1538
        1535        1536        1541        1540
        1536        1537        1542        1541
        1537        1538        1543        1542
        1538        1539        1544        1543
        1540        1541        1546        1545
        1541        1542        1547        1546
        1542        1543        1548        1547
        1543        1544        1549        1548
        1550        1551        1556        1555
        1551        1552        1557        1556
        1552        1553        1558        1557
        1553        1554        1559        1558
        1555        1556        1561        1560
        1556        1557        1562        1561
        1557        1558        1563        1562
        1558        1559        1564        1563
        1560        1561        1566        1565
        1561        1562        1567        1566
        1562        1563        1568        1567
        1563        1564        1569        1568
        1565        1566        1571        1570
        1566        1567        1572        1571
        1567        1568        1573        1572
        1568        1569        1574        1573
        1575        1576        1581        1580
        1576        1577        1582        1581
        1577        1578        1583        1582
        1578        1579        1584        1583
        1580        1581        1586        1585
        1581        1582        1587        1586
        1582        1583        1588        1587
        1583        1584        1589        1588
        1585        1586        1591        1590
        1586        1587        1592        1591
        1587        1588        1593        1592
        1588        1589        1594        1593
        1590        1591        1596        1595
        1591        1592        1597        1596
        1592        1593        1598        1597
        1593        1594        1599        1598
 </DataArray>
 <DataArray  type="Int32"  Name="offsets"  format="ascii"> 
           4
           8
          12
          16
          20
          24
          28
          32
          36
          40
          44
          48
          52
          56
          60
          64
          68
          72
          76
          80
          84
          88
          92
          96
         100
         104
         108
         112
         116
         120
         124
         128
         132
         136
         140
         144
         148
         152
         156
         160
         164
         168
         172
         176
         180
         184
         188
         192
         196
         200
         204
         208
         212
         216
         220
         224
         228
         232
         236
         240
         244
         248
         252
         256
         260
         264
         268
         272
         276
         280
         284
         288
         292
         296
         300
         304
         308
         312
         316
         320
         324
         328
         332
         336
         340
         344
         348
         352
         356
         360
         364
         368
         372
         376
         380
         384
         388
         392
         396
         400
         404
         408
         412
         416
         420
         424
         428
         432
         436
         440
         444
         448
         452
         456
         460
         464
         468
         472
         476
         480
         484
         488
         492
         496
         500
         504
         508
         512
         516
         520
         524
         528
         532
         536
         540
         544
         548
         552
         556
         560
         564
         568
         572
         576
         580
         584
         588
         592
         596
         600
         604
         608
         612
         616
         620
         624
         628
         632
         636
         640
         644
         648
         652
         656
         660
         664
         668
         672
         676
         680
         684
         688
         692
         696
         700
         704
         708
         712
         716
         720
         724
         728
         732
         736
         740
         744
         748
         752
         756
         760
         764
         768
         772
         776
         780
         784
         788
         792
         796
         800
         804
         808
         812
         816
         820
         824
         828
         832
         836
         840
         844
         848
         852
         856
         860
         864
         868
         872
         876
         880
         884
         888
         892
         896
         900
         904
         908
         912
         916
         920
         924
         928
         932
         936
         940
         944
         948
         952
         956
         960
         964
         968
         972
         976
         980
         984
         988
         992
         996
        1000
        1004
        1008
        1012
        1016
        1020
        1024
        1028
        1032
        1036
        1040
        1044
        1048
        1052
        1056
        1060
        1064
        1068
        1072
        1076
        1080
        1084
        1088
        1092
        1096
        1100
        1104
        1108
        1112
        1116
        1120
        1124
        1128
        1132
        1136
        1140
        1144
        1148
        1152
        1156
        1160
        1164
        1168
        1172
        1176
        1180
        1184
        1188
        1192
        1196
        1200
        1204
        1208
        1212
        1216
        1220
        1224
        1228
        1232
        1236
        1240
        1244
        1248
        1252
        1256
        1260
        1264
        1268
        1272
        1276
        1280
        1284
        1288
        1292
        1296
        1300
        1304
        1308
        1312
        1316
        1320
        1324
        1328
        1332
        1336
        1340
        1344
        1348
        1352
        1356
        1360
        1364
        1368
        1372
        1376
        1380
        1384
        1388
        1392
        1396
        1400
        1404
        1408
        1412
        1416
        1420
        1424
        1428
        1432
        1436
        1440
        1444
        1448
        1452
        1456
        1460
        1464
        1468
        1472
        1476
        1480
        1484
        1488
        1492
        1496
        1500
        1504
        1508
        1512
        1516
        1520
        1524
        1528
        1532
        1536
        1540
        1544
        1548
        1552
        1556
        1560
        1564
        1568
        1572
        1576
        1580
        1584
        1588
        1592
        1596
        1600
        1604
        1608
        1612
        1616
        1620
        1624
        1628
        1632
        1636
        1640
        1644
        1648
        1652
        1656
        1660
        1664
        1668
        1672
        1676
        1680
        1684
        1688
        1692
        1696
        1700
        1704
        1708
        1712
        1716
        1720
        1724
        1728
        1732
        1736
        1740
        1744
        1748
        1752
        1756
        1760
        1764
        1768
        1772
        1776
        1780
        1784
        1788
        1792
        1796
        1800
        1804
        1808
        1812
        1816
        1820
        1824
        1828
        1832
        1836
        1840
        1844
        1848
        1852
        1856
        1860
        1864
        1868
        1872
        1876
        1880
        1884
        1888
        1892
        1896
        1900
        1904
        1908
        1912
        1916
        1920
        1924
        1928
        1932
        1936
        1940
        1944
        1948
        1952
        1956
        1960
        1964
        1968
        1972
        1976
        1980
        1984
        1988
        1992
        1996
        2000
        2004
        2008
        2012
        2016
        2020
        2024
        2028
        2032
        2036
        2040
        2044
        2048
        2052
        2056
        2060
        2064
        2068
        2072
        2076
        2080
        2084
        2088
        2092
        2096
        2100
        2104
        2108
        2112
        2116
        2120
        2124
        2128
        2132
        2136
        2140
        2144
        2148
        2152
        2156
        2160
        2164
        2168
        2172
        2176
        2180
        2184
        2188
        2192
        2196
        2200
        2204
        2208
        2212
        2216
        2220
        2224
        2228
        2232
        2236
        2240
        2244
        2248
        2252
        2256
        2260
        2264
        2268
        2272
        2276
        2280
        2284
        2288
        2292
        2296
        2300
        2304
        2308
        2312
        2316
        2320
        2324
        2328
        2332
        2336
        2340
        2344
        2348
        2352
        2356
        2360
        2364
        2368
        2372
        2376
        2380
        2384
        2388
        2392
        2396
        2400
        2404
        2408
        2412
        2416
        2420
        2424
        2428
        2432
        2436
        2440
        2444
        2448
        2452
        2456
        2460
        2464
        2468
        2472
        2476
        2480
        2484
        2488
        2492
        2496
        2500
        2504
        2508
        2512
        2516
        2520
        2524
        2528
        2532
        2536
        2540
        2544
        2548
        2552
        2556
        2560
        2564
        2568
        2572
        2576
        2580
        2584
        2588
        2592
        2596
        2600
        2604
        2608
        2612
        2616
        2620
        2624
        2628
        2632
        2636
        2640
        2644
        2648
        2652
        2656
        2660
        2664
        2668
        2672
        2676
        2680
        2684
        2688
        2692
        2696
        2700
        2704
        2708
        2712
        2716
        2720
        2724
        2728
        2732
        2736
        2740
        2744
        2748
        2752
        2756
        2760
        2764
        2768
        2772
        2776
        2780
        2784
        2788
        2792
        2796
        2800
        2804
        2808
        2812
        2816
        2820
        2824
        2828
        2832
        2836
        2840
        2844
        2848
        2852
        2856
        2860
        2864
        2868
        2872
        2876
        2880
        2884
        2888
        2892
        2896
        2900
        2904
        2908
        2912
        2916
        2920
        2924
        2928
        2932
        2936
        2940
        2944
        2948
        2952
        2956
        2960
        2964
        2968
        2972
        2976
        2980
        2984
        2988
        2992
        2996
        3000
        3004
        3008
        3012
        3016
        3020
        3024
        3028
        3032
        3036
        3040
        3044
        3048
        3052
        3056
        3060
        3064
        3068
        3072
        3076
        3080
        3084
        3088
        3092
        3096
        3100
        3104
        3108
        3112
        3116
        3120
        3124
        3128
        3132
        3136
        3140
        3144
        3148
        3152
        3156
        3160
        3164
        3168
        3172
        3176
        3180
        3184
        3188
        3192
        3196
        3200
        3204
        3208
        3212
        3216
        3220
        3224
        3228
        3232
        3236
        3240
        3244
        3248
        3252
        3256
        3260
        3264
        3268
        3272
        3276
        3280
        3284
        3288
        3292
        3296
        3300
        3304
        3308
        3312
        3316
        3320
        3324
        3328
        3332
        3336
        3340
        3344
        3348
        3352
        3356
        3360
        3364
        3368
        3372
        3376
        3380
        3384
        3388
        3392
        3396
        3400
        3404
        3408
        3412
        3416
        3420
        3424
        3428
        3432
        3436
        3440
        3444
        3448
        3452
        3456
        3460
        3464
        3468
        3472
        3476
        3480
        3484
        3488
        3492
        3496
        3500
        3504
        3508
        3512
        3516
        3520
        3524
        3528
        3532
        3536
        3540
        3544
        3548
        3552
        3556
        3560
        3564
        3568
        3572
        3576
        3580
        3584
        3588
        3592
        3596
        3600
        3604
        3608
        3612
        3616
        3620
        3624
        3628
        3632
        3636
        3640
        3644
        3648
        3652
        3656
        3660
        3664
        3668
        3672
        3676
        3680
        3684
        3688
        3692
        3696
        3700
        3704
        3708
        3712
        3716
        3720
        3724
        3728
        3732
        3736
        3740
        3744
        3748
        3752
        3756
        3760
        3764
        3768
        3772
        3776
        3780
        3784
        3788
        3792
        3796
        3800
        3804
        3808
        3812
        3816
        3820
        3824
        3828
        3832
        3836
        3840
        3844
        3848
        3852
        3856
        3860
        3864
        3868
        3872
        3876
        3880
        3884
        3888
        3892
        3896
        3900
        3904
        3908
        3912
        3916
        3920
        3924
        3928
        3932
        3936
        3940
        3944
        3948
        3952
        3956
        3960
        3964
        3968
        3972
        3976
        3980
        3984
        3988
        3992
        3996
        4000
        4004
        4008
        4012
        4016
        4020
        4024
        4028
        4032
        4036
        4040
        4044
        4048
        4052
        4056
        4060
        4064
        4068
        4072
        4076
        4080
        4084
        4088
        4092
        4096
 </DataArray>
 <DataArray  type="UInt8"  Name="types"  format="ascii">
 9
 9
 9
 9
 9
 9
 9
 9
 9
 9
 9
 9
 9
 9
 9
 9
 9
 9
 9
 9
 9
 9
 9
 9
 9
 9
 9
 9
 9
 9
 9
 9
 9
 9
 9
 9
 9
 9
 9
 9
 9
 9
 9
 9
 9
 9
 9
 9
 9
 9
 9
 9
 9
 9
 9
 9
 9
 9
 9
 9
 9
 9
 9
 9
 9
 9
 9
 9
 9
 9
 9
 9
 9
 9
 9
 9
 9
 9
 9
 9
 9
 9
 9
 9
 9
 9
 9
 9
 9
 9
 9
 9
 9
 9
 9
 9
 9
 9
 9
 9
 9
 9
 9
 9
 9
 9
 9
 9
 9
 9
 9
 9
 9
 9
 9
 9
 9
 9
 9
 9
 9
 9
 9
 9
 9
 9
 9
 9
 9
 9
 9
 9
 9
 9
 9
 9
 9
 9
 9
 9
 9
 9
 9
 9
 9
 9
 9
 9
 9
 9
 9
 9
 9
 9
 9
 9
 9
 9
 9
 9
 9
 9
 9
 9
 9
 9
 9
 9
 9
 9
 9
 9
 9
 9
 9
 9
 9
 9
 9
 9
 9
 9
 9
 9
 9
 9
 9
 9
 9
 9
 9
 9
 9
 9
 9
 9
 9
 9
 9
 9
 9
 9
 9
 9
 9
 9
 9
 9
 9
 9
 9
 9
 9
 9
 9
 9
 9
 9
 9
 9
 9
 9
 9
 9
 9
 9
 9
 9
 9
 9
 9
 9
 9
 9
 9
 9
 9
 9
 9
 9
 9
 9
 9
 9
 9
 9
 9
 9
 9
 9
 9
 9
 9
 9
 9
 9
 9
 9
 9
 9
 9
 9
 9
 9
 9
 9
 9
 9
 9
 9
 9
 9
 9
 9
 9
 9
 9
 9
 9
 9
 9
 9
 9
 9
 9
 9
 9
 9
 9
 9
 9
 9
 9
 9
 9
 9
 9
 9
 9
 9
 9
 9
 9
 9
 9
 9
 9
 9
 9
 9
 9
 9
 9
 9
 9
 9
 9
 9
 9
 9
 9
 9
 9
 9
 9
 9
 9
 9
 9
 9
 9
 9
 9
 9
 9
 9
 9
 9
 9
 9
 9
 9
 9
 9
 9
 9
 9
 9
 9
 9
 9
 9
 9
 9
 9
 9
 9
 9
 9
 9
 9
 9
 9
 9
 9
 9
 9
 9
 9
 9
 9
 9
 9
 9
 9
 9
 9
 9
 9
 9
 9
 9
 9
 9
 9
 9
 9
 9
 9
 9
 9
 9
 9
 9
 9
 9
 9
 9
 9
 9
 9
 9
 9
 9
 9
 9
 9
 9
 9
 9
 9
 9
 9
 9
 9
 9
 9
 9
 9
 9
 9
 9
 9
 9
 9
 9
 9
 9
 9
 9
 9
 9
 9
 9
 9
 9
 9
 9
 9
 9
 9
 9
 9
 9
 9
 9
 9
 9
 9
 9
 9
 9
 9
 9
 9
 9
 9
 9
 9
 9
 9
 9
 9
 9
 9
 9
 9
 9
 9
 9
 9
 9
 9
 9
 9
 9
 9
 9
 9
 9
 9
 9
 9
 9
 9
 9
 9
 9
 9
 9
 9
 9
 9
 9
 9
 9
 9
 9
 9
 9
 9
 9
 9
 9
 9
 9
 9
 9
 9
 9
 9
 9
 9
 9
 9
 9
 9
 9
 9
 9
 9
 9
 9
 9
 9
 9
 9
 9
 9
 9
 9
 9
 9
 9
 9
 9
 9
 9
 9
 9
 9
 9
 9
 9
 9
 9
 9
 9
 9
 9
 9
 9
 9
 9
 9
 9
 9
 9
 9
 9
 9
 9
 9
 9
 9
 9
 9
 9
 9
 9
 9
 9
 9
 9
 9
 9
 9
 9
 9
 9
 9
 9
 9
 9
 9
 9
 9
 9
 9
 9
 9
 9
 9
 9
 9
 9
 9
 9
 9
 9
 9
 9
 9
 9
 9
 9
 9
 9
 9
 9
 9
 9
 9
 9
 9
 9
 9
 9
 9
 9
 9
 9
 9
 9
 9
 9
 9
 9
 9
 9
 9
 9
 9
 9
 9
 9
 9
 9
 9
 9
 9
 9
 9
 9
 9
 9
 9
 9
 9
 9
 9
 9
 9
 9
 9
 9
 9
 9
 9
 9
 9
 9
 9
 9
 9
 9
 9
 9
 9
 9
 9
 9
 9
 9
 9
 9
 9
 9
 9
 9
 9
 9
 9
 9
 9
 9
 9
 9
 9
 9
 9
 9
 9
 9
 9
 9
 9
 9
 9
 9
 9
 9
 9
 9
 9
 9
 9
 9
 9
 9
 9
 9
 9
 9
 9
 9
 9
 9
 9
 9
 9
 9
 9
 9
 9
 9
 9
 9
 9
 9
 9
 9
 9
 9
 9
 9
 9
 9
 9
 9
 9
 9
 9
 9
 9
 9
 9
 9
 9
 9
 9
 9
 9
 9
 9
 9
 9
 9
 9
 9
 9
 9
 9
 9
 9
 9
 9
 9
 9
 9
 9
 9
 9
 9
 9
 9
 9
 9
 9
 9
 9
 9
 9
 9
 9
 9
 9
 9
 9
 9
 9
 9
 9
 9
 9
 9
 9
 9
 9
 9
 9
 9
 9
 9
 9
 9
 9
 9
 9
 9
 9
 9
 9
 9
 9
 9
 9
 9
 9
 9
 9
 9
 9
 9
 9
 9
 9
 9
 9
 9
 9
 9
 9
 9
 9
 9
 9
 9
 9
 9
 9
 9
 9
 9
 9
 9
 9
 9
 9
 9
 9
 9
 9
 9
 9
 9
 9
 9
 9
 9
 9
 9
 9
 9
 9
 9
 9
 9
 9
 9
 9
 9
 9
 9
 9
 9
 9
 9
 9
 9
 9
 9
 9
 9
 9
 9
 9
 9
 9
 9
 9
 9
 9
 9
 9
 9
 9
 9
 9
 9
 9
 9
 9
 9
 9
 9
 9
 9
 9
 9
 9
 9
 9
 9
 9
 9
 9
 9
 9
 9
 9
 9
 9
 9
 9
 9
 9
 9
 9
 9
 9
 9
 9
 9
 9
 9
 9
 9
 9
 9
 9
 9
 9
 9
 9
 9
 9
 9
 9
 9
 9
 9
 9
 9
 9
 9
 9
 9
 9
 9
 9
 9
 9
 9
 9
 9
 9
 9
 9
 9
 9
 9
 9
 9
 9
 9
 9
 9
 9
 9
 9
 9
 9
 9
 9
 9
 9
 9
 9
 9
 9
 9
 9
 9
 9
 9
 9
 9
 9
 9
 9
 9
 9
 9
 9
 9
 9
 9
 9
 9
 9
 9
 9
 9
 9
 9
 9
 9
 9
 9
 9
 9
 9
 9
 </DataArray>
 </Cells> 
 <PointData>
 <DataArray  type="Float64" Name="disp" NumberOfComponents="3" format="ascii">
   0.0000000000000000        0.0000000000000000        0.0000000000000000     
   6.0960702817251964E-003   3.7901712366840107E-003   0.0000000000000000     
   1.1666080366118072E-002   7.3237644880036982E-003   0.0000000000000000     
   1.6710030253178625E-002   1.0600779753959063E-002   0.0000000000000000     
   2.1227919942906858E-002   1.3621217034550104E-002   0.0000000000000000     
   0.0000000000000000        0.0000000000000000        0.0000000000000000     
   4.8910707449098742E-003   3.0222077167916970E-003   0.0000000000000000     
   9.5734454792716396E-003   6.0608283193749907E-003   0.0000000000000000     
   1.4047124203085296E-002   9.1158618077498768E-003   0.0000000000000000     
   1.8312106916350844E-002   1.2187308181916360E-002   0.0000000000000000     
   0.0000000000000000        0.0000000000000000        0.0000000000000000     
   3.9533841207920854E-003   2.4253928949737567E-003   0.0000000000000000     
   7.9102936061203888E-003   5.0634326962285068E-003   0.0000000000000000     
   1.1870728455984908E-002   7.9141194037642502E-003   0.0000000000000000     
   1.5834688670385649E-002   1.0977453017580987E-002   0.0000000000000000     
   0.0000000000000000        0.0000000000000000        0.0000000000000000     
   3.2830104093718301E-003   1.9997267712301902E-003   0.0000000000000000     
   6.6766247466643162E-003   4.3315776185642507E-003   0.0000000000000000     
   1.0180843011877459E-002   6.9955525420021814E-003   0.0000000000000000     
   1.3795665205011258E-002   9.9916515415439805E-003   0.0000000000000000     
   0.0000000000000000        0.0000000000000000        0.0000000000000000     
   2.8799496106491091E-003   1.7452093455609962E-003   0.0000000000000000     
   5.8724389009034263E-003   3.8652630863822194E-003   0.0000000000000000     
   8.9774678707629507E-003   6.3601612224636695E-003   0.0000000000000000     
   1.2195036520227685E-002   9.2299037538053456E-003   0.0000000000000000     
   2.1227919942906858E-002   1.3621217034550104E-002   0.0000000000000000     
   2.5432741406761127E-002   1.6615060710765777E-002   0.0000000000000000     
   2.9537486616199791E-002   1.9812295163595041E-002   0.0000000000000000     
   3.3542155571222837E-002   2.3212920393037892E-002   0.0000000000000000     
   3.7446748271830282E-002   2.6816936399094334E-002   0.0000000000000000     
   1.8312106916350844E-002   1.2187308181916360E-002   0.0000000000000000     
   2.2406612642027840E-002   1.5343285353856517E-002   0.0000000000000000     
   2.6368860403075827E-002   1.8651911235552418E-002   0.0000000000000000     
   3.0198850199494802E-002   2.2113185827004066E-002   0.0000000000000000     
   3.3896582031284775E-002   2.5727109128211464E-002   0.0000000000000000     
   1.5834688670385649E-002   1.0977453017580987E-002   0.0000000000000000     
   1.9730341373591337E-002   1.4212283655267126E-002   0.0000000000000000     
   2.3485853689870714E-002   1.7577461434411069E-002   0.0000000000000000     
   2.7101225619223776E-002   2.1072986355012827E-002   0.0000000000000000     
   3.0576457161650521E-002   2.4698858417072384E-002   0.0000000000000000     
   1.3795665205011258E-002   9.9916515415439805E-003   0.0000000000000000     
   1.7403927601451624E-002   1.3222055614997603E-002   0.0000000000000000     
   2.0888466476584461E-002   1.6588945760170996E-002   0.0000000000000000     
   2.4249281830409763E-002   2.0092321977064159E-002   0.0000000000000000     
   2.7486373662927537E-002   2.3732184265677095E-002   0.0000000000000000     
   1.2195036520227685E-002   9.2299037538053456E-003   0.0000000000000000     
   1.5427371325608697E-002   1.2372601233047953E-002   0.0000000000000000     
   1.8576698763217051E-002   1.5686364212832201E-002   0.0000000000000000     
   2.1643018833052759E-002   1.9171192693158076E-002   0.0000000000000000     
   2.4626331535115811E-002   2.2827086674025596E-002   0.0000000000000000     
   3.7446748271830282E-002   2.6816936399094334E-002   0.0000000000000000     
   4.1254927295411213E-002   3.0621359617682583E-002   0.0000000000000000     
   4.4970355219354739E-002   3.4623206484720857E-002   0.0000000000000000     
   4.8593032043660833E-002   3.8822477000209160E-002   0.0000000000000000     
   5.2122957768329523E-002   4.3219171164147488E-002   0.0000000000000000     
   3.3896582031284775E-002   2.5727109128211464E-002   0.0000000000000000     
   3.7484855837016218E-002   2.9523309047920557E-002   0.0000000000000000     
   4.0986471555259613E-002   3.3531413494877309E-002   0.0000000000000000     
   4.4401429186014953E-002   3.7751422469081704E-002   0.0000000000000000     
   4.7729728729282245E-002   4.2183335970533739E-002   0.0000000000000000     
   3.0576457161650521E-002   2.4698858417072384E-002   0.0000000000000000     
   3.3940808705313213E-002   2.8499795318804352E-002   0.0000000000000000     
   3.7223540638374082E-002   3.2520514758423338E-002   0.0000000000000000     
   4.0424652960833155E-002   3.6761016735929311E-002   0.0000000000000000     
   4.3544145672690410E-002   4.1221301251322305E-002   0.0000000000000000     
   2.7486373662927537E-002   2.3732184265677095E-002   0.0000000000000000     
   3.0622785900302197E-002   2.7550818430333964E-002   0.0000000000000000     
   3.3681562468698162E-002   3.1590510275358932E-002   0.0000000000000000     
   3.6662703368115439E-002   3.5851259800752010E-002   0.0000000000000000     
   3.9566208598554004E-002   4.0333067006513179E-002   0.0000000000000000     
   2.4626331535115811E-002   2.2827086674025596E-002   0.0000000000000000     
   2.7530787421983179E-002   2.6676378382509393E-002   0.0000000000000000     
   3.0360537046231848E-002   3.0741400045684118E-002   0.0000000000000000     
   3.3115580407861799E-002   3.5022151663549786E-002   0.0000000000000000     
   3.5795917506873054E-002   3.9518633236106375E-002   0.0000000000000000     
   5.2122957768329523E-002   4.3219171164147488E-002   0.0000000000000000     
   5.5554706207065402E-002   4.7811981674695428E-002   0.0000000000000000     
   5.8882851173573100E-002   5.2599601230012526E-002   0.0000000000000000     
   6.2107392667852625E-002   5.7582029830098823E-002   0.0000000000000000     
   6.5228330689903968E-002   6.2759267474954292E-002   0.0000000000000000     
   4.7729728729282245E-002   4.2183335970533739E-002   0.0000000000000000     
   5.0968283655083539E-002   4.6817065742466080E-002   0.0000000000000000     
   5.4114007433440921E-002   5.1642523528111370E-002   0.0000000000000000     
   5.7166900064354362E-002   5.6659709327469610E-002   0.0000000000000000     
   6.0126961547823876E-002   6.1868623140540792E-002   0.0000000000000000     
   4.3544145672690410E-002   4.1221301251322305E-002   0.0000000000000000     
   4.6580846551013140E-002   4.5886972765863371E-002   0.0000000000000000     
   4.9533583372868645E-002   5.0743635740813538E-002   0.0000000000000000     
   5.2402356138256931E-002   5.5791290176172813E-002   0.0000000000000000     
   5.5187164847177977E-002   6.1029936071941203E-002   0.0000000000000000     
   3.9566208598554004E-002   4.0333067006513179E-002   0.0000000000000000     
   4.2392394894854191E-002   4.5021702744887246E-002   0.0000000000000000     
   4.5141578991856314E-002   4.9902937868119009E-002   0.0000000000000000     
   4.7813760889560332E-002   5.4976772376208440E-002   0.0000000000000000     
   5.0408940587966286E-002   6.0243206269155559E-002   0.0000000000000000     
   3.5795917506873054E-002   3.9518633236106375E-002   0.0000000000000000     
   3.8402928686606719E-002   4.4221255679537753E-002   0.0000000000000000     
   4.0937994290403894E-002   4.9120429910027782E-002   0.0000000000000000     
   4.3401114318264593E-002   5.4216155927576490E-002   0.0000000000000000     
   4.5792288770188802E-002   5.9508433732183827E-002   0.0000000000000000     
   6.5228330689903968E-002   6.2759267474954292E-002   0.0000000000000000     
   6.8253485435456424E-002   6.8131445763095877E-002   0.0000000000000000     
   7.1190677100239325E-002   7.3698696293040489E-002   0.0000000000000000     
   7.4039905684252644E-002   7.9461019064788127E-002   0.0000000000000000     
   7.6801171187496409E-002   8.5418414078338806E-002   0.0000000000000000     
   6.0126961547823876E-002   6.1868623140540792E-002   0.0000000000000000     
   6.2996192745891466E-002   6.7269449353456454E-002   0.0000000000000000     
   6.5776594520599141E-002   7.2862372352348131E-002   0.0000000000000000     
   6.8468166871946887E-002   7.8647392137215819E-002   0.0000000000000000     
   7.1070909799934731E-002   8.4624508708059529E-002   0.0000000000000000     
   5.5187164847177977E-002   6.1029936071941203E-002   0.0000000000000000     
   5.7886458646310313E-002   6.6458730566822569E-002   0.0000000000000000     
   6.0498686682332443E-002   7.2076830799520708E-002   0.0000000000000000     
   6.3023848955244363E-002   7.7884236770035628E-002   0.0000000000000000     
   6.5461945465046079E-002   8.3880948478367356E-002   0.0000000000000000     
   5.0408940587966286E-002   6.0243206269155559E-002   0.0000000000000000     
   5.2924283136712998E-002   6.5699289403194194E-002   0.0000000000000000     
   5.5356953585439253E-002   7.1342071634558191E-002   0.0000000000000000     
   5.7706951934145073E-002   7.7171552963247556E-002   0.0000000000000000     
   5.9974278182830451E-002   8.3187733389262303E-002   0.0000000000000000     
   4.5792288770188802E-002   5.9508433732183827E-002   0.0000000000000000     
   4.8109666217099473E-002   6.4991125862571358E-002   0.0000000000000000     
   5.0351395229919542E-002   7.0658094857460621E-002   0.0000000000000000     
   5.2517475808649003E-002   7.6509340716851601E-002   0.0000000000000000     
   5.4607907953287856E-002   8.2544863440744326E-002   0.0000000000000000     
   7.6801171187496409E-002   8.5418414078338806E-002   0.0000000000000000     
   7.9469577315781553E-002   9.1542306076421873E-002   0.0000000000000000     
   8.2040227774919039E-002   9.7804119801766745E-002   0.0000000000000000     
   8.4513122564908866E-002  0.10420385525437340        0.0000000000000000     
   8.6888261685751034E-002  0.11074151243424184        0.0000000000000000     
   7.1070909799934731E-002   8.4624508708059529E-002   0.0000000000000000     
   7.3584913503333849E-002   9.0769511839684333E-002   0.0000000000000000     
   7.6010268180915427E-002   9.7058191306895303E-002   0.0000000000000000     
   7.8346973832679509E-002  0.10349054710969248        0.0000000000000000     
   8.0595030458626024E-002  0.11006657924807584        0.0000000000000000     
   6.5461945465046079E-002   8.3880948478367356E-002   0.0000000000000000     
   6.7816038825335420E-002   9.0046535195393157E-002   0.0000000000000000     
   7.0089191649710225E-002   9.6360566191990349E-002   0.0000000000000000     
   7.2281403938170494E-002  0.10282304146815886        0.0000000000000000     
   7.4392675690716240E-002  0.10943396102389877        0.0000000000000000     
   5.9974278182830451E-002   8.3187733389262303E-002   0.0000000000000000     
   6.2162953281786282E-002   8.9373376143548372E-002   0.0000000000000000     
   6.4276998181303419E-002   9.5711244457051786E-002   0.0000000000000000     
   6.6316412881381875E-002  0.10220133832977255        0.0000000000000000     
   6.8281197382021652E-002  0.10884365776171069        0.0000000000000000     
   5.4607907953287856E-002   8.2544863440744326E-002   0.0000000000000000     
   5.6625656872686420E-002   8.8750034684149964E-002   0.0000000000000000     
   5.8573687775695001E-002   9.5110226102079698E-002   0.0000000000000000     
   6.0452000662313612E-002  0.10162543769453355        0.0000000000000000     
   6.2260595532542248E-002  0.10829566946151153        0.0000000000000000     
   8.6888261685751034E-002  0.11074151243424184        0.0000000000000000     
   8.9159259338230240E-002  0.11742843544326120        0.0000000000000000     
   9.1319729723131196E-002  0.12427596838332064        0.0000000000000000     
   9.3369672840453929E-002  0.13128411125442016        0.0000000000000000     
   9.5309088690198385E-002  0.13845286405655971        0.0000000000000000     
   8.0595030458626024E-002  0.11006657924807584        0.0000000000000000     
   8.2749794393388254E-002  0.11679066266250333        0.0000000000000000     
   8.4806621971599411E-002  0.12366717229343302        0.0000000000000000     
   8.6765513193259480E-002  0.13069610814086488        0.0000000000000000     
   8.8626468058368491E-002  0.13787747020479893        0.0000000000000000     
   7.4392675690716240E-002  0.10943396102389877        0.0000000000000000     
   7.6419169865525619E-002  0.11619198295367056        0.0000000000000000     
   7.8357049420776828E-002  0.12309576535193471        0.0000000000000000     
   8.0206314356469868E-002  0.13014530821869127        0.0000000000000000     
   8.1966964672604725E-002  0.13734061155394017        0.0000000000000000     
   6.8281197382021652E-002  0.10884365776171069        0.0000000000000000     
   7.0167385754642306E-002  0.11563239631676282        0.0000000000000000     
   7.1971012070663434E-002  0.12256174755882564        0.0000000000000000     
   7.3692076330085052E-002  0.12963171148789923        0.0000000000000000     
   7.5330578532907130E-002  0.13684228810398349        0.0000000000000000     
   6.2260595532542248E-002  0.10829566946151153        0.0000000000000000     
   6.3994442060738330E-002  0.11511190275178013        0.0000000000000000     
   6.5648509921259257E-002  0.12206511891410586        0.0000000000000000     
   6.7222799114105045E-002  0.12915531794848875        0.0000000000000000     
   6.8717309639275692E-002  0.13638249985492878        0.0000000000000000     
   9.5309088690198385E-002  0.13845286405655971        0.0000000000000000     
   9.7089583266796731E-002  0.14572825124493771        0.0000000000000000     
   9.8662762564681067E-002  0.15305629727475253        0.0000000000000000     
  0.10002862658385141       0.16043700214600418        0.0000000000000000     
  0.10118717532430774       0.16787036585869261        0.0000000000000000     
   8.8626468058368491E-002  0.13787747020479893        0.0000000000000000     
   9.0383161476887394E-002  0.14517013612522636        0.0000000000000000     
   9.2029268358777200E-002  0.15253298354213840        0.0000000000000000     
   9.3564788704037893E-002  0.15996601245553513        0.0000000000000000     
   9.4989722512669517E-002  0.16746922286541643        0.0000000000000000     
   8.1966964672604725E-002  0.13734061155394017        0.0000000000000000     
   8.3657343030262982E-002  0.14465100482029786        0.0000000000000000     
   8.5295792090526151E-002  0.15204581748038079        0.0000000000000000     
   8.6882311853394290E-002  0.15952504953418886        0.0000000000000000     
   8.8416902318867341E-002  0.16708870098172213        0.0000000000000000     
   7.5330578532907130E-002  0.13684228810398349        0.0000000000000000     
   7.6912127926923507E-002  0.14417085733015231        0.0000000000000000     
   7.8462333759927977E-002  0.15159479908947962        0.0000000000000000     
   7.9981196031920568E-002  0.15911411338196541        0.0000000000000000     
   8.1468714742901266E-002  0.16672880020760966        0.0000000000000000     
   6.8717309639275692E-002  0.13638249985492878        0.0000000000000000     
   7.0147516166868956E-002  0.14372969365478960        0.0000000000000000     
   7.1528893366982649E-002  0.15117992836943497        0.0000000000000000     
   7.2861441239616728E-002  0.15873320399886476        0.0000000000000000     
   7.4145159784771250E-002  0.16638952054307909        0.0000000000000000     
   0.0000000000000000        0.0000000000000000        0.0000000000000000     
   2.8799496106491091E-003   1.7452093455609962E-003   0.0000000000000000     
   5.8724389009034263E-003   3.8652630863822194E-003   0.0000000000000000     
   8.9774678707629507E-003   6.3601612224636695E-003   0.0000000000000000     
   1.2195036520227685E-002   9.2299037538053456E-003   0.0000000000000000     
   0.0000000000000000        0.0000000000000000        0.0000000000000000     
   2.6103048934775536E-003   1.5892344286986247E-003   0.0000000000000000     
   5.2896815301707182E-003   3.5572330087313736E-003   0.0000000000000000     
   8.0381299100794942E-003   5.9039957400982470E-003   0.0000000000000000     
   1.0855650033203880E-002   8.6295226227992433E-003   0.0000000000000000     
   0.0000000000000000        0.0000000000000000        0.0000000000000000     
   2.3401794267107973E-003   1.4591958313755241E-003   0.0000000000000000     
   4.7202980957991962E-003   3.3002312946606729E-003   0.0000000000000000     
   7.1403560072651967E-003   5.5231063898554464E-003   0.0000000000000000     
   9.6003531611088006E-003   8.1278211169598467E-003   0.0000000000000000     
   0.0000000000000000        0.0000000000000000        0.0000000000000000     
   2.0695732103488389E-003   1.3550935535916943E-003   0.0000000000000000     
   4.1642885977888596E-003   3.0942579441701171E-003   0.0000000000000000     
   6.2841461623200610E-003   5.2174931717352676E-003   0.0000000000000000     
   8.4291459039424459E-003   7.7247992362871479E-003   0.0000000000000000     
   0.0000000000000000        0.0000000000000000        0.0000000000000000     
   1.7984862443916790E-003   1.2769275953471357E-003   0.0000000000000000     
   3.6216530361397074E-003   2.9393129572597063E-003   0.0000000000000000     
   5.4695003752440862E-003   4.9871560857377116E-003   0.0000000000000000     
   7.3420282617048136E-003   7.4204569807811522E-003   0.0000000000000000     
   1.2195036520227685E-002   9.2299037538053456E-003   0.0000000000000000     
   1.5427371325608697E-002   1.2372601233047953E-002   0.0000000000000000     
   1.8576698763217051E-002   1.5686364212832201E-002   0.0000000000000000     
   2.1643018833052759E-002   1.9171192693158076E-002   0.0000000000000000     
   2.4626331535115811E-002   2.2827086674025596E-002   0.0000000000000000     
   1.0855650033203880E-002   8.6295226227992433E-003   0.0000000000000000     
   1.3688920824153348E-002   1.1651689501201467E-002   0.0000000000000000     
   1.6484621207537374E-002   1.4888372219672017E-002   0.0000000000000000     
   1.9242751183355944E-002   1.8339570778210891E-002   0.0000000000000000     
   2.1963310751609070E-002   2.2005285176818087E-002   0.0000000000000000     
   9.6003531611088006E-003   8.1278211169598467E-003   0.0000000000000000     
   1.2076824375176371E-002   1.1047089411241440E-002   0.0000000000000000     
   1.4546304467314265E-002   1.4213625207967791E-002   0.0000000000000000     
   1.7008793437522492E-002   1.7627428507138911E-002   0.0000000000000000     
   1.9464291285801051E-002   2.1288499308754785E-002   0.0000000000000000     
   8.4291459039424459E-003   7.7247992362871479E-003   0.0000000000000000     
   1.0591081978677757E-002   1.0558800963167865E-002   0.0000000000000000     
   1.2761748542547741E-002   1.3662123177719527E-002   0.0000000000000000     
   1.4941145595552400E-002   1.7034765879942133E-002   0.0000000000000000     
   1.7129273137691730E-002   2.0676729069835684E-002   0.0000000000000000     
   7.3420282617048136E-003   7.4204569807811522E-003   0.0000000000000000     
   9.2316936346575097E-003   1.0186824156980748E-002   0.0000000000000000     
   1.1130953433237797E-002   1.3233866128927218E-002   0.0000000000000000     
   1.3039807657445670E-002   1.6561582896620568E-002   0.0000000000000000     
   1.4958256307281132E-002   2.0169974460060785E-002   0.0000000000000000     
   2.4626331535115811E-002   2.2827086674025596E-002   0.0000000000000000     
   2.7530787421983179E-002   2.6676378382509393E-002   0.0000000000000000     
   3.0360537046231848E-002   3.0741400045684118E-002   0.0000000000000000     
   3.3115580407861799E-002   3.5022151663549786E-002   0.0000000000000000     
   3.5795917506873054E-002   3.9518633236106375E-002   0.0000000000000000     
   2.1963310751609070E-002   2.2005285176818087E-002   0.0000000000000000     
   2.4629680016212557E-002   2.5883113960205460E-002   0.0000000000000000     
   2.7225239081082202E-002   2.9970655673084854E-002   0.0000000000000000     
   2.9749987946218009E-002   3.4267910315456271E-002   0.0000000000000000     
   3.2203926611619971E-002   3.8774877887319710E-002   0.0000000000000000     
   1.9464291285801051E-002   2.1288499308754785E-002   0.0000000000000000     
   2.1884330428846722E-002   2.5177663948296989E-002   0.0000000000000000     
   2.4240443283356301E-002   2.9275748761247108E-002   0.0000000000000000     
   2.6532629849329789E-002   3.3582753747605124E-002   0.0000000000000000     
   2.8760890126767184E-002   3.8098678907371036E-002   0.0000000000000000     
   1.7129273137691730E-002   2.0676729069835684E-002   0.0000000000000000     
   1.9294738659885669E-002   2.4560028346783998E-002   0.0000000000000000     
   2.1406149653054145E-002   2.8656679310170879E-002   0.0000000000000000     
   2.3463506117197150E-002   3.2966681959996344E-002   0.0000000000000000     
   2.5466808052314688E-002   3.7490036296260382E-002   0.0000000000000000     
   1.4958256307281132E-002   2.0169974460060785E-002   0.0000000000000000     
   1.6860904709329411E-002   2.4030207155666460E-002   0.0000000000000000     
   1.8722358190175731E-002   2.8113447319856173E-002   0.0000000000000000     
   2.0542616749820088E-002   3.2419694952629925E-002   0.0000000000000000     
   2.2321680388262488E-002   3.6948950053987704E-002   0.0000000000000000     
   3.5795917506873054E-002   3.9518633236106375E-002   0.0000000000000000     
   3.8402928686606719E-002   4.4221255679537753E-002   0.0000000000000000     
   4.0937994290403894E-002   4.9120429910027782E-002   0.0000000000000000     
   4.3401114318264593E-002   5.4216155927576490E-002   0.0000000000000000     
   4.5792288770188802E-002   5.9508433732183827E-002   0.0000000000000000     
   3.2203926611619971E-002   3.8774877887319710E-002   0.0000000000000000     
   3.4588825031263370E-002   4.3487209799827523E-002   0.0000000000000000     
   3.6906453159123456E-002   4.8400557464132077E-002   0.0000000000000000     
   3.9156810995200235E-002   5.3514920880233380E-002   0.0000000000000000     
   4.1339898539493714E-002   5.8830300048131438E-002   0.0000000000000000     
   2.8760890126767184E-002   3.8098678907371036E-002   0.0000000000000000     
   3.0926461033816823E-002   4.2821143335769238E-002   0.0000000000000000     
   3.3030579488627039E-002   4.7747766128024095E-002   0.0000000000000000     
   3.5073245491197821E-002   5.2878547284135616E-002   0.0000000000000000     
   3.7054459041529188E-002   5.8213486804103792E-002   0.0000000000000000     
   2.5466808052314688E-002   3.7490036296260382E-002   0.0000000000000000     
   2.7415836694267080E-002   4.2223056287362892E-002   0.0000000000000000     
   2.9310373278914639E-002   4.7162055901703831E-002   0.0000000000000000     
   3.1150417806257363E-002   5.2307035139283163E-002   0.0000000000000000     
   3.2935970276295259E-002   5.7657994000100916E-002   0.0000000000000000     
   2.2321680388262488E-002   3.6948950053987704E-002   0.0000000000000000     
   2.4056952012614142E-002   4.1692948654608500E-002   0.0000000000000000     
   2.5745834529986262E-002   4.6643426785171270E-002   0.0000000000000000     
   2.7388327940378848E-002   5.1800384445676036E-002   0.0000000000000000     
   2.8984432243791901E-002   5.7163821636122776E-002   0.0000000000000000     
   4.5792288770188802E-002   5.9508433732183827E-002   0.0000000000000000     
   4.8109666217099473E-002   6.4991125862571358E-002   0.0000000000000000     
   5.0351395229919542E-002   7.0658094857460621E-002   0.0000000000000000     
   5.2517475808649003E-002   7.6509340716851601E-002   0.0000000000000000     
   5.4607907953287856E-002   8.2544863440744326E-002   0.0000000000000000     
   4.1339898539493714E-002   5.8830300048131438E-002   0.0000000000000000     
   4.3455416081361407E-002   6.4337385024301932E-002   0.0000000000000000     
   4.5503063910160874E-002   7.0026865865220597E-002   0.0000000000000000     
   4.7482842025892105E-002   7.5898742570887440E-002   0.0000000000000000     
   4.9394750428555102E-002   8.1953015141302446E-002   0.0000000000000000     
   3.7054459041529188E-002   5.8213486804103792E-002   0.0000000000000000     
   3.8974340923390430E-002   6.3741211967733788E-002   0.0000000000000000     
   4.0833011920550805E-002   6.9450350054830759E-002   0.0000000000000000     
   4.2630472033010340E-002   7.5340901065394733E-002   0.0000000000000000     
   4.4366721260769015E-002   8.1412864999425655E-002   0.0000000000000000     
   3.2935970276295259E-002   5.7657994000100916E-002   0.0000000000000000     
   3.4666440743186512E-002   6.3202606692866925E-002   0.0000000000000000     
   3.6341239261089321E-002   6.8928547426291120E-002   0.0000000000000000     
   3.7960365830003687E-002   7.4835816200373453E-002   0.0000000000000000     
   3.9523820449929595E-002   8.0924413015113952E-002   0.0000000000000000     
   2.8984432243791901E-002   5.7163821636122776E-002   0.0000000000000000     
   3.0531715540749679E-002   6.2721569199701357E-002   0.0000000000000000     
   3.2027745931776430E-002   6.8461457979601639E-002   0.0000000000000000     
   3.3472523416872152E-002   7.4383487975823628E-002   0.0000000000000000     
   3.4866047996036847E-002   8.0487659188367325E-002   0.0000000000000000     
   5.4607907953287856E-002   8.2544863440744326E-002   0.0000000000000000     
   5.6625656872686420E-002   8.8750034684149964E-002   0.0000000000000000     
   5.8573687775695001E-002   9.5110226102079698E-002   0.0000000000000000     
   6.0452000662313612E-002  0.10162543769453355        0.0000000000000000     
   6.2260595532542248E-002  0.10829566946151153        0.0000000000000000     
   4.9394750428555102E-002   8.1953015141302446E-002   0.0000000000000000     
   5.1240179074891763E-002   8.8176990853216078E-002   0.0000000000000000     
   5.3020517921644021E-002   9.4557976983378797E-002   0.0000000000000000     
   5.4735766968811855E-002  0.10109597353179060        0.0000000000000000     
   5.6385926216395273E-002  0.10779098049845150        0.0000000000000000     
   4.4366721260769015E-002   8.1412864999425655E-002   0.0000000000000000     
   4.6042549365258256E-002   8.7654724686764926E-002   0.0000000000000000     
   4.7658746107909489E-002   9.4054962957253851E-002   0.0000000000000000     
   4.9215311488722706E-002  0.10061357981089243        0.0000000000000000     
   5.0712245507697908E-002  0.10733057524768071        0.0000000000000000     
   3.9523820449929595E-002   8.0924413015113952E-002   0.0000000000000000     
   4.1032767743785906E-002   8.7183236184796467E-002   0.0000000000000000     
   4.2488372334491424E-002   9.3601184023704834E-002   0.0000000000000000     
   4.3890634222046185E-002  0.10017825653183907        0.0000000000000000     
   4.5239553406450146E-002  0.10691445370919918        0.0000000000000000     
   3.4866047996036847E-002   8.0487659188367325E-002   0.0000000000000000     
   3.6210834210474684E-002   8.6762525347310715E-002   0.0000000000000000     
   3.7509396601389827E-002   9.3196640182731771E-002   0.0000000000000000     
   3.8761735168782258E-002   9.9790003694630508E-002   0.0000000000000000     
   3.9967849912651995E-002  0.10654261588300690        0.0000000000000000     
   6.2260595532542248E-002  0.10829566946151153        0.0000000000000000     
   6.3994442060738330E-002  0.11511190275178013        0.0000000000000000     
   6.5648509921259257E-002  0.12206511891410586        0.0000000000000000     
   6.7222799114105045E-002  0.12915531794848875        0.0000000000000000     
   6.8717309639275692E-002  0.13638249985492878        0.0000000000000000     
   5.6385926216395273E-002  0.10779098049845150        0.0000000000000000     
   5.7964792085333672E-002  0.11463179810071504        0.0000000000000000     
   5.9466160996566424E-002  0.12160722655593481        0.0000000000000000     
   6.0890032950093542E-002  0.12871726586411081        0.0000000000000000     
   6.2236407945915027E-002  0.13596191602524302        0.0000000000000000     
   5.0712245507697908E-002  0.10733057524768071        0.0000000000000000     
   5.2142889129948286E-002  0.11419337820556005        0.0000000000000000     
   5.3500583320587061E-002  0.12118941762247190        0.0000000000000000     
   5.4785328079614233E-002  0.12831869349841626        0.0000000000000000     
   5.5997123407029781E-002  0.13558120583339314        0.0000000000000000     
   4.5239553406450146E-002  0.10691445370919918        0.0000000000000000     
   4.6528733194582193E-002  0.11379664306631521        0.0000000000000000     
   4.7751776893321177E-002  0.12081169211371720        0.0000000000000000     
   4.8908684502667096E-002  0.12795960085140518        0.0000000000000000     
   4.9999456022619952E-002  0.13524036927937910        0.0000000000000000     
   3.9967849912651995E-002  0.10654261588300690        0.0000000000000000     
   4.1122324279235380E-002  0.11344159268298043        0.0000000000000000     
   4.2219741714768777E-002  0.12047405002967065        0.0000000000000000     
   4.3260102219252146E-002  0.12763998792307749        0.0000000000000000     
   4.4243405792685528E-002  0.13493940636320095        0.0000000000000000     
   6.8717309639275692E-002  0.13638249985492878        0.0000000000000000     
   7.0147516166868956E-002  0.14372969365478960        0.0000000000000000     
   7.1528893366982649E-002  0.15117992836943497        0.0000000000000000     
   7.2861441239616728E-002  0.15873320399886476        0.0000000000000000     
   7.4145159784771250E-002  0.16638952054307909        0.0000000000000000     
   6.2236407945915027E-002  0.13596191602524302        0.0000000000000000     
   6.3506160774848330E-002  0.14332795891939495        0.0000000000000000     
   6.4700166227710951E-002  0.15080217642663010        0.0000000000000000     
   6.5818424304502826E-002  0.15838456854694843        0.0000000000000000     
   6.6860935005223998E-002  0.16607513528034992        0.0000000000000000     
   5.5997123407029781E-002  0.13558120583339314        0.0000000000000000     
   5.7130714775610623E-002  0.14296609824915354        0.0000000000000000     
   5.8180847658133653E-002  0.15046251436744842        0.0000000000000000     
   5.9147522054598854E-002  0.15807045418827784        0.0000000000000000     
   6.0030737965006242E-002  0.16578991771164170        0.0000000000000000     
   4.9999456022619952E-002  0.13524036927937910        0.0000000000000000     
   5.1021178169155822E-002  0.14264411164406526        0.0000000000000000     
   5.1970937658250775E-002  0.15016094219188988        0.0000000000000000     
   5.2848734489904833E-002  0.15779086092285294        0.0000000000000000     
   5.3654568664117983E-002  0.16553386783695442        0.0000000000000000     
   4.4243405792685528E-002  0.13493940636320095        0.0000000000000000     
   4.5177550955483911E-002  0.14236199910413025        0.0000000000000000     
   4.6070436228062325E-002  0.14989745989995454        0.0000000000000000     
   4.6922061610420750E-002  0.15754578875067379        0.0000000000000000     
   4.7732427102559191E-002  0.16530698565628807        0.0000000000000000     
   0.0000000000000000        0.0000000000000000        0.0000000000000000     
   1.7984862443916790E-003   1.2769275953471357E-003   0.0000000000000000     
   3.6216530361397074E-003   2.9393129572597063E-003   0.0000000000000000     
   5.4695003752440862E-003   4.9871560857377116E-003   0.0000000000000000     
   7.3420282617048136E-003   7.4204569807811522E-003   0.0000000000000000     
   0.0000000000000000        0.0000000000000000        0.0000000000000000     
   1.5351968139934286E-003   1.2175836862102331E-003   0.0000000000000000     
   3.0997374949773560E-003   2.8208906654152927E-003   0.0000000000000000     
   4.6936220429517825E-003   4.8099209376151796E-003   0.0000000000000000     
   6.3168504579167077E-003   7.1846745028098938E-003   0.0000000000000000     
   0.0000000000000000        0.0000000000000000        0.0000000000000000     
   1.2879832043081988E-003   1.1699475557493716E-003   0.0000000000000000     
   2.6058880584274194E-003   2.7244854001227301E-003   0.0000000000000000     
   3.9537145623576627E-003   4.6636135331200763E-003   0.0000000000000000     
   5.3314627160989288E-003   6.9873319547414095E-003   0.0000000000000000     
   0.0000000000000000        0.0000000000000000        0.0000000000000000     
   1.0568454153359896E-003   1.1340192039645514E-003   0.0000000000000000     
   2.1401047264898985E-003   2.6500971613820181E-003   0.0000000000000000     
   3.2497779334617269E-003   4.5482338722524010E-003   0.0000000000000000     
   4.3858650362514741E-003   6.8284293365756983E-003   0.0000000000000000     
   0.0000000000000000        0.0000000000000000        0.0000000000000000     
   8.4178344707680096E-004   1.1097986308557721E-003   0.0000000000000000     
   1.7023874991647925E-003   2.5977259491931559E-003   0.0000000000000000     
   2.5818121562639750E-003   4.4637819550121518E-003   0.0000000000000000     
   3.4800574183743477E-003   6.7079666483127603E-003   0.0000000000000000     
   7.3420282617048136E-003   7.4204569807811522E-003   0.0000000000000000     
   9.2316936346575097E-003   1.0186824156980748E-002   0.0000000000000000     
   1.1130953433237797E-002   1.3233866128927218E-002   0.0000000000000000     
   1.3039807657445670E-002   1.6561582896620568E-002   0.0000000000000000     
   1.4958256307281132E-002   2.0169974460060785E-002   0.0000000000000000     
   6.3168504579167077E-003   7.1846745028098938E-003   0.0000000000000000     
   7.9568606684460065E-003   9.8955903363649473E-003   0.0000000000000000     
   9.6010906031135552E-003   1.2893107413645856E-002   0.0000000000000000     
   1.1249540261919348E-002   1.6177225734652620E-002   0.0000000000000000     
   1.2902209644863393E-002   1.9747945299385231E-002   0.0000000000000000     
   5.3314627160989288E-003   6.9873319547414095E-003   0.0000000000000000     
   6.7247844053736194E-003   9.6495308450053260E-003   0.0000000000000000     
   8.1193315159041393E-003   1.2604100383930429E-002   0.0000000000000000     
   9.5151040476904834E-003   1.5851040571516709E-002   0.0000000000000000     
   1.0912102000732660E-002   1.9390351407764180E-002   0.0000000000000000     
   4.3858650362514741E-003   6.8284293365756983E-003   0.0000000000000000     
   5.5354648454403466E-003   9.4486456829018847E-003   0.0000000000000000     
   6.6856761716095475E-003   1.2366845039780935E-002   0.0000000000000000     
   7.8364990147590779E-003   1.5583027407212846E-002   0.0000000000000000     
   8.9879333748889359E-003   1.9097192785197621E-002   0.0000000000000000     
   3.4800574183743477E-003   6.7079666483127603E-003   0.0000000000000000     
   4.3889019886461907E-003   9.2929348500546197E-003   0.0000000000000000     
   5.3001245702297842E-003   1.2181341381197372E-002   0.0000000000000000     
   6.2137251631251269E-003   1.5373186241741017E-002   0.0000000000000000     
   7.1297037673322206E-003   1.8868469431685554E-002   0.0000000000000000     
   1.4958256307281132E-002   2.0169974460060785E-002   0.0000000000000000     
   1.6860904709329411E-002   2.4030207155666460E-002   0.0000000000000000     
   1.8722358190175731E-002   2.8113447319856173E-002   0.0000000000000000     
   2.0542616749820088E-002   3.2419694952629925E-002   0.0000000000000000     
   2.2321680388262488E-002   3.6948950053987704E-002   0.0000000000000000     
   1.2902209644863393E-002   1.9747945299385231E-002   0.0000000000000000     
   1.4542715922423696E-002   2.3578962467307778E-002   0.0000000000000000     
   1.6154676265078279E-002   2.7643973597884335E-002   0.0000000000000000     
   1.7738090672827132E-002   3.1942978691114877E-002   0.0000000000000000     
   1.9292959145670262E-002   3.6475977746999441E-002   0.0000000000000000     
   1.0912102000732660E-002   1.9390351407764180E-002   0.0000000000000000     
   1.2300059644414291E-002   2.3197056374071334E-002   0.0000000000000000     
   1.3668711248119008E-002   2.7246178951836685E-002   0.0000000000000000     
   1.5018056811846809E-002   3.1537719141060239E-002   0.0000000000000000     
   1.6348096335597695E-002   3.6071676941741980E-002   0.0000000000000000     
   8.9879333748889359E-003   1.9097192785197621E-002   0.0000000000000000     
   1.0132935875301195E-002   2.2884488875957135E-002   0.0000000000000000     
   1.1264463139297921E-002   2.6920063381713256E-002   0.0000000000000000     
   1.2382515166879118E-002   3.1203916302465991E-002   0.0000000000000000     
   1.3487091958044787E-002   3.5736047638215335E-002   0.0000000000000000     
   7.1297037673322206E-003   1.8868469431685554E-002   0.0000000000000000     
   8.0413446150844024E-003   2.2641259972965167E-002   0.0000000000000000     
   8.9419319386150175E-003   2.6665626887514025E-002   0.0000000000000000     
   9.8314657379240597E-003   3.0941570175332139E-002   0.0000000000000000     
   1.0709946013011534E-002   3.5469089836419505E-002   0.0000000000000000     
   2.2321680388262488E-002   3.6948950053987704E-002   0.0000000000000000     
   2.4056952012614142E-002   4.1692948654608500E-002   0.0000000000000000     
   2.5745834529986262E-002   4.6643426785171270E-002   0.0000000000000000     
   2.7388327940378848E-002   5.1800384445676036E-002   0.0000000000000000     
   2.8984432243791901E-002   5.7163821636122776E-002   0.0000000000000000     
   1.9292959145670262E-002   3.6475977746999441E-002   0.0000000000000000     
   2.0814376494465173E-002   4.1229316567068415E-002   0.0000000000000000     
   2.2297437530069346E-002   4.6189340952852230E-002   0.0000000000000000     
   2.3742142252482799E-002   5.1356050904350879E-002   0.0000000000000000     
   2.5148490661705530E-002   5.6729446421564370E-002   0.0000000000000000     
   1.6348096335597695E-002   3.6071676941741980E-002   0.0000000000000000     
   1.7652679645427317E-002   4.0830656154305027E-002   0.0000000000000000     
   1.8925656567391334E-002   4.5797260579172487E-002   0.0000000000000000     
   2.0167027101489734E-002   5.0971490216344367E-002   0.0000000000000000     
   2.1376791247722529E-002   5.6353345065820667E-002   0.0000000000000000     
   1.3487091958044787E-002   3.5736047638215335E-002   0.0000000000000000     
   1.4571861465500595E-002   4.0496967416318350E-002   0.0000000000000000     
   1.5630491641952217E-002   4.5467185664132069E-002   0.0000000000000000     
   1.6662982487399662E-002   5.0646702381656507E-002   0.0000000000000000     
   1.7669334001842913E-002   5.6035517568891649E-002   0.0000000000000000     
   1.0709946013011534E-002   3.5469089836419505E-002   0.0000000000000000     
   1.1571921954684997E-002   4.0228250353108362E-002   0.0000000000000000     
   1.2411942753752007E-002   4.5199116207730962E-002   0.0000000000000000     
   1.3230008410212567E-002   5.0381687400287284E-002   0.0000000000000000     
   1.4026118924066674E-002   5.5775963930777349E-002   0.0000000000000000     
   2.8984432243791901E-002   5.7163821636122776E-002   0.0000000000000000     
   3.0531715540749679E-002   6.2721569199701357E-002   0.0000000000000000     
   3.2027745931776430E-002   6.8461457979601639E-002   0.0000000000000000     
   3.3472523416872152E-002   7.4383487975823628E-002   0.0000000000000000     
   3.4866047996036847E-002   8.0487659188367325E-002   0.0000000000000000     
   2.5148490661705530E-002   5.6729446421564370E-002   0.0000000000000000     
   2.6512300773504624E-002   6.2297824008243678E-002   0.0000000000000000     
   2.7829390603647183E-002   6.8049480168139817E-002   0.0000000000000000     
   2.9099760152133201E-002   7.3984414901252779E-002   0.0000000000000000     
   3.0323409418962683E-002   8.0102628207582571E-002   0.0000000000000000     
   2.1376791247722529E-002   5.6353345065820667E-002   0.0000000000000000     
   2.2550331898876057E-002   6.1931095638500515E-002   0.0000000000000000     
   2.3683031947736643E-002   6.7693012445283099E-002   0.0000000000000000     
   2.4774891394304287E-002   7.3639095486168413E-002   0.0000000000000000     
   2.5825910238579001E-002   7.9769344761156463E-002   0.0000000000000000     
   1.7669334001842913E-002   5.6035517568891649E-002   0.0000000000000000     
   1.8645808916863970E-002   6.1621384090471854E-002   0.0000000000000000     
   1.9588669964044802E-002   6.7392054811031485E-002   0.0000000000000000     
   2.0497917143385412E-002   7.3347529730570502E-002   0.0000000000000000     
   2.1373550454885808E-002   7.9487808849088973E-002   0.0000000000000000     
   1.4026118924066674E-002   5.5775963930777349E-002   0.0000000000000000     
   1.4798731827468360E-002   6.1368689364157722E-002   0.0000000000000000     
   1.5546304652571662E-002   6.7146607265384961E-002   0.0000000000000000     
   1.6268837399376575E-002   7.3109717634459115E-002   0.0000000000000000     
   1.6966330067883104E-002   7.9258020471380128E-002   0.0000000000000000     
   3.4866047996036847E-002   8.0487659188367325E-002   0.0000000000000000     
   3.6210834210474684E-002   8.6762525347310715E-002   0.0000000000000000     
   3.7509396601389827E-002   9.3196640182731771E-002   0.0000000000000000     
   3.8761735168782258E-002   9.9790003694630508E-002   0.0000000000000000     
   3.9967849912651995E-002  0.10654261588300690        0.0000000000000000     
   3.0323409418962683E-002   8.0102628207582571E-002   0.0000000000000000     
   3.1504107326170816E-002   8.6392045844553580E-002   0.0000000000000000     
   3.2645622795792799E-002   9.2840593569590193E-002   0.0000000000000000     
   3.3747955827828628E-002   9.9448271382692396E-002   0.0000000000000000     
   3.4811106422278304E-002  0.10621507928386020        0.0000000000000000     
   2.5825910238579001E-002   7.9769344761156463E-002   0.0000000000000000     
   2.6839945651720491E-002   8.6071251346770961E-002   0.0000000000000000     
   2.7820854804888474E-002   9.2532306319535601E-002   0.0000000000000000     
   2.8768637698082949E-002   9.9152509679450468E-002   0.0000000000000000     
   2.9683294331303917E-002  0.10593186142651545        0.0000000000000000     
   2.1373550454885808E-002   7.9487808849088973E-002   0.0000000000000000     
   2.2218349187123711E-002   8.5800141853962827E-002   0.0000000000000000     
   2.3035092628676847E-002   9.2271778432568050E-002   0.0000000000000000     
   2.3823780779545216E-002   9.8902718584904653E-002   0.0000000000000000     
   2.4584413639728825E-002  0.10569296231097262        0.0000000000000000     
   1.6966330067883104E-002   7.9258020471380128E-002   0.0000000000000000     
   1.7639317932380473E-002   8.5578717366129209E-002   0.0000000000000000     
   1.8288336267157920E-002   9.2059009908687484E-002   0.0000000000000000     
   1.8913385072215440E-002   9.8698898099054994E-002   0.0000000000000000     
   1.9514464347553030E-002  0.10549838193723171        0.0000000000000000     
   3.9967849912651995E-002  0.10654261588300690        0.0000000000000000     
   4.1122324279235380E-002  0.11344159268298043        0.0000000000000000     
   4.2219741714768777E-002  0.12047405002967065        0.0000000000000000     
   4.3260102219252146E-002  0.12763998792307749        0.0000000000000000     
   4.4243405792685528E-002  0.13493940636320095        0.0000000000000000     
   3.4811106422278304E-002  0.10621507928386020        0.0000000000000000     
   3.5830825996719710E-002  0.11312869524628372        0.0000000000000000     
   3.6802865968730725E-002  0.12017679724315303        0.0000000000000000     
   3.7727226338311347E-002  0.12735938527446811        0.0000000000000000     
   3.8603907105461577E-002  0.13467645934022898        0.0000000000000000     
   2.9683294331303917E-002  0.10593186142651545        0.0000000000000000     
   3.0561401959847023E-002  0.11285841894695292        0.0000000000000000     
   3.1399537839007931E-002  0.11992023962698506        0.0000000000000000     
   3.2197701968786643E-002  0.12711732346661198        0.0000000000000000     
   3.2955894349183161E-002  0.13444967046583353        0.0000000000000000     
   2.4584413639728825E-002  0.10569296231097262        0.0000000000000000     
   2.5314052168617332E-002  0.11263076378498801        0.0000000000000000     
   2.6009757325600402E-002  0.11970437718116682        0.0000000000000000     
   2.6671529110678060E-002  0.12691380249950904        0.0000000000000000     
   2.7299367523850270E-002  0.13425903974001466        0.0000000000000000     
   1.9514464347553030E-002  0.10549838193723171        0.0000000000000000     
   2.0088776623030623E-002  0.11244572976038901        0.0000000000000000     
   2.0633524428508132E-002  0.11952920990569821        0.0000000000000000     
   2.1148707763985562E-002  0.12674882237315935        0.0000000000000000     
   2.1634326629462915E-002  0.13410456716277233        0.0000000000000000     
   4.4243405792685528E-002  0.13493940636320095        0.0000000000000000     
   4.5177550955483911E-002  0.14236199910413025        0.0000000000000000     
   4.6070436228062325E-002  0.14989745989995454        0.0000000000000000     
   4.6922061610420750E-002  0.15754578875067379        0.0000000000000000     
   4.7732427102559191E-002  0.16530698565628807        0.0000000000000000     
   3.8603907105461577E-002  0.13467645934022898        0.0000000000000000     
   3.9451828065576434E-002  0.14211673390798971        0.0000000000000000     
   4.0289909014050940E-002  0.14966892344530430        0.0000000000000000     
   4.1118149950885072E-002  0.15733302795217283        0.0000000000000000     
   4.1936550876078851E-002  0.16510904742859522        0.0000000000000000     
   3.2955894349183161E-002  0.13444967046583353        0.0000000000000000     
   3.3696004430414893E-002  0.14190528933428495        0.0000000000000000     
   3.4439921662699255E-002  0.14947218878160123        0.0000000000000000     
   3.5187646046036268E-002  0.15715036880778238        0.0000000000000000     
   3.5939177580425918E-002  0.16493982941282845        0.0000000000000000     
   2.7299367523850270E-002  0.13425903974001466        0.0000000000000000     
   2.7910080049999279E-002  0.14172766538301601        0.0000000000000000     
   2.8520474174007299E-002  0.14930725590884528        0.0000000000000000     
   2.9130549895874335E-002  0.15699781131750254        0.0000000000000000     
   2.9740307215600382E-002  0.16479933160898769        0.0000000000000000     
   2.1634326629462915E-002  0.13410456716277233        0.0000000000000000     
   2.2094054924329601E-002  0.14158386205418289        0.0000000000000000     
   2.2531566547975057E-002  0.14917412482703651        0.0000000000000000     
   2.2946861500399273E-002  0.15687535548133322        0.0000000000000000     
   2.3339939781602252E-002  0.16468755401707300        0.0000000000000000     
   0.0000000000000000        0.0000000000000000        0.0000000000000000     
   8.4178344707680096E-004   1.1097986308557721E-003   0.0000000000000000     
   1.7023874991647925E-003   2.5977259491931559E-003   0.0000000000000000     
   2.5818121562639750E-003   4.4637819550121518E-003   0.0000000000000000     
   3.4800574183743477E-003   6.7079666483127603E-003   0.0000000000000000     
   0.0000000000000000        0.0000000000000000        0.0000000000000000     
   6.3390393820685195E-004   1.0937277825568868E-003   0.0000000000000000     
   1.2782251492011493E-003   2.5615335876456105E-003   0.0000000000000000     
   1.9329636329828916E-003   4.4034174152661719E-003   0.0000000000000000     
   2.5981193895520793E-003   6.6193792654185698E-003   0.0000000000000000     
   0.0000000000000000        0.0000000000000000        0.0000000000000000     
   4.2431352740236196E-004   1.0822486052017475E-003   0.0000000000000000     
   8.5310644934801600E-004   2.5356819008288465E-003   0.0000000000000000     
   1.2863787658369621E-003   4.3602998868812973E-003   0.0000000000000000     
   1.7241304768692003E-003   6.5561025633590992E-003   0.0000000000000000     
   0.0000000000000000        0.0000000000000000        0.0000000000000000     
   2.1301221466333062E-004   1.0753610987903543E-003   0.0000000000000000     
   4.2703139960539291E-004   2.5201708887428644E-003   0.0000000000000000     
   6.4205755482618686E-004   4.3344293698575299E-003   0.0000000000000000     
   8.5809068032571226E-004   6.5181365421343512E-003   0.0000000000000000     
   0.0000000000000000        0.0000000000000000        0.0000000000000000     
  -1.0241915822384318E-014   1.0730652633227076E-003   0.0000000000000000     
  -2.6720108330796633E-014   2.5150005513876641E-003   0.0000000000000000     
  -4.9434631735345569E-014   4.3258058641948696E-003   0.0000000000000000     
  -7.8385377615813878E-014   6.5054812017443231E-003   0.0000000000000000     
   3.4800574183743477E-003   6.7079666483127603E-003   0.0000000000000000     
   4.3889019886461907E-003   9.2929348500546197E-003   0.0000000000000000     
   5.3001245702297842E-003   1.2181341381197372E-002   0.0000000000000000     
   6.2137251631251269E-003   1.5373186241741017E-002   0.0000000000000000     
   7.1297037673322206E-003   1.8868469431685554E-002   0.0000000000000000     
   2.5981193895520793E-003   6.6193792654185698E-003   0.0000000000000000     
   3.2707072354305426E-003   9.1764516403671226E-003   0.0000000000000000     
   3.9477419871401121E-003   1.2041667042376147E-002   0.0000000000000000     
   4.6292236446807897E-003   1.5215025471445645E-002   0.0000000000000000     
   5.3151522080525726E-003   1.8696526927575615E-002   0.0000000000000000     
   1.7241304768692003E-003   6.5561025633590992E-003   0.0000000000000000     
   2.1664919862327920E-003   9.0932493477429762E-003   0.0000000000000000     
   2.6135936977157979E-003   1.1941899657513659E-002   0.0000000000000000     
   3.0654356113182174E-003   1.5102053492671141E-002   0.0000000000000000     
   3.5220177270400520E-003   1.8573710853215422E-002   0.0000000000000000     
   8.5809068032571226E-004   6.5181365421343512E-003   0.0000000000000000     
   1.0762562410529398E-003   9.0433279721821892E-003   0.0000000000000000     
   1.2976797019568402E-003   1.1882039226609907E-002   0.0000000000000000     
   1.5223610630374133E-003   1.5034270305417506E-002   0.0000000000000000     
   1.7503003242946590E-003   1.8500021208604982E-002   0.0000000000000000     
  -7.8385377615813878E-014   6.5054812017443231E-003   0.0000000000000000     
  -1.0901350622986167E-013   9.0266875136847547E-003   0.0000000000000000     
  -1.3675978481186152E-013   1.1862085749664892E-002   0.0000000000000000     
  -1.6162444036664329E-013   1.5011675909684739E-002   0.0000000000000000     
  -1.8360703582520621E-013   1.8475457993744292E-002   0.0000000000000000     
   7.1297037673322206E-003   1.8868469431685554E-002   0.0000000000000000     
   8.0413446150844024E-003   2.2641259972965167E-002   0.0000000000000000     
   8.9419319386150175E-003   2.6665626887514025E-002   0.0000000000000000     
   9.8314657379240597E-003   3.0941570175332139E-002   0.0000000000000000     
   1.0709946013011534E-002   3.5469089836419505E-002   0.0000000000000000     
   5.3151522080525726E-003   1.8696526927575615E-002   0.0000000000000000     
   5.9983918223021444E-003   2.2458770318214090E-002   0.0000000000000000     
   6.6718066324761840E-003   2.6474354550809084E-002   0.0000000000000000     
   7.3353966385746932E-003   3.0743279625360612E-002   0.0000000000000000     
   7.9891618405976729E-003   3.5265545541868677E-002   0.0000000000000000     
   3.5220177270400520E-003   1.8573710853215422E-002   0.0000000000000000     
   3.9771834554926380E-003   2.2328420564822538E-002   0.0000000000000000     
   4.4247762072873132E-003   2.6337731453168509E-002   0.0000000000000000     
   4.8647959824240760E-003   3.0601643518253348E-002   0.0000000000000000     
   5.2972427809029289E-003   3.5120156760077036E-002   0.0000000000000000     
   1.7503003242946590E-003   1.8500021208604982E-002   0.0000000000000000     
   1.9777195146558854E-003   2.2250210712790524E-002   0.0000000000000000     
   2.2008406630484026E-003   2.6255757594592304E-002   0.0000000000000000     
   2.4196637694722093E-003   3.0516661854010325E-002   0.0000000000000000     
   2.6341888339273057E-003   3.5032923491044587E-002   0.0000000000000000     
  -1.8360703582520621E-013   1.8475457993744292E-002   0.0000000000000000     
  -2.0811293226924432E-013   2.2224140762118035E-002   0.0000000000000000     
  -2.4054635236817057E-013   2.6228432975080460E-002   0.0000000000000000     
  -2.8090812282614147E-013   3.0488334632631557E-002   0.0000000000000000     
  -3.2919782351481519E-013   3.5003845734771333E-002   0.0000000000000000     
   1.0709946013011534E-002   3.5469089836419505E-002   0.0000000000000000     
   1.1571921954684997E-002   4.0228250353108362E-002   0.0000000000000000     
   1.2411942753752007E-002   4.5199116207730962E-002   0.0000000000000000     
   1.3230008410212567E-002   5.0381687400287284E-002   0.0000000000000000     
   1.4026118924066674E-002   5.5775963930777349E-002   0.0000000000000000     
   7.9891618405976729E-003   3.5265545541868677E-002   0.0000000000000000     
   8.6290517002977265E-003   4.0021548030535148E-002   0.0000000000000000     
   9.2510156794274670E-003   4.4991682821561921E-002   0.0000000000000000     
   9.8550537779868910E-003   5.0175949914949017E-002   0.0000000000000000     
   1.0441165995976000E-002   5.5574349310696408E-002   0.0000000000000000     
   5.2972427809029289E-003   3.5120156760077036E-002   0.0000000000000000     
   5.7194412896559863E-003   3.9873903514458776E-002   0.0000000000000000     
   6.1287161956153635E-003   4.4843516117217770E-002   0.0000000000000000     
   6.5250674987810623E-003   5.0028994568354017E-002   0.0000000000000000     
   6.9084951991530801E-003   5.5430338867867510E-002   0.0000000000000000     
   2.6341888339273057E-003   3.5032923491044587E-002   0.0000000000000000     
   2.8430907227597751E-003   3.9785316804879255E-002   0.0000000000000000     
   3.0450443023156996E-003   4.4754616094698482E-002   0.0000000000000000     
   3.2400495725950786E-003   4.9940821360502284E-002   0.0000000000000000     
   3.4281065335979135E-003   5.5343932602290646E-002   0.0000000000000000     
  -3.2919782351481519E-013   3.5003845734771333E-002   0.0000000000000000     
  -3.9090703330552090E-013   3.9755787901796576E-002   0.0000000000000000     
  -4.7152619265730666E-013   4.4724982754004071E-002   0.0000000000000000     
  -5.7105778168264204E-013   4.9911430291393818E-002   0.0000000000000000     
  -6.8949923895389453E-013   5.5315130513965825E-002   0.0000000000000000     
   1.4026118924066674E-002   5.5775963930777349E-002   0.0000000000000000     
   1.4798731827468360E-002   6.1368689364157722E-002   0.0000000000000000     
   1.5546304652571662E-002   6.7146607265384961E-002   0.0000000000000000     
   1.6268837399376575E-002   7.3109717634459115E-002   0.0000000000000000     
   1.6966330067883104E-002   7.9258020471380128E-002   0.0000000000000000     
   1.0441165995976000E-002   5.5574349310696408E-002   0.0000000000000000     
   1.1010045480882958E-002   6.1172526338174049E-002   0.0000000000000000     
   1.1562385380195932E-002   6.6956126326751839E-002   0.0000000000000000     
   1.2098185693914914E-002   7.2925149276429818E-002   0.0000000000000000     
   1.2617446422039914E-002   7.9079595187207946E-002   0.0000000000000000     
   6.9084951991530801E-003   5.5430338867867510E-002   0.0000000000000000     
   7.2806947273014750E-003   6.1032409891136785E-002   0.0000000000000000     
   7.6433615137963037E-003   6.6820068513540373E-002   0.0000000000000000     
   7.9964955586375678E-003   7.2793314735078274E-002   0.0000000000000000     
   8.3400968618252674E-003   7.8952148555750473E-002   0.0000000000000000     
   3.4281065335979135E-003   5.5343932602290646E-002   0.0000000000000000     
   3.6106795667239133E-003   6.0948340023045951E-002   0.0000000000000000     
   3.7892330533727883E-003   6.6738433825750565E-002   0.0000000000000000     
   3.9637669935445380E-003   7.2714214010404482E-002   0.0000000000000000     
   4.1342813872391635E-003   7.8875680577007695E-002   0.0000000000000000     
  -6.8949923895389453E-013   5.5315130513965825E-002   0.0000000000000000     
  -8.4972827385509930E-013   6.0920316733901539E-002   0.0000000000000000     
  -1.0746216199883363E-012   6.6711222263382400E-002   0.0000000000000000     
  -1.3641776239452924E-012   7.2687847102408443E-002   0.0000000000000000     
  -1.7183975596635204E-012   7.8850191250979640E-002   0.0000000000000000     
   1.6966330067883104E-002   7.9258020471380128E-002   0.0000000000000000     
   1.7639317932380473E-002   8.5578717366129209E-002   0.0000000000000000     
   1.8288336267157920E-002   9.2059009908687484E-002   0.0000000000000000     
   1.8913385072215440E-002   9.8698898099054994E-002   0.0000000000000000     
   1.9514464347553030E-002  0.10549838193723171        0.0000000000000000     
   1.2617446422039914E-002   7.9079595187207946E-002   0.0000000000000000     
   1.3118549074105630E-002   8.5406708128993147E-002   0.0000000000000000     
   1.3599875159646762E-002   9.1893732171692263E-002   0.0000000000000000     
   1.4061424678663316E-002   9.8540667315305322E-002   0.0000000000000000     
   1.4503197631155290E-002  0.10534751355983231        0.0000000000000000     
   8.3400968618252674E-003   7.8952148555750473E-002   0.0000000000000000     
   8.6717397989140195E-003   8.5283844388277727E-002   0.0000000000000000     
   8.9889987454584500E-003   9.1775676645380694E-002   0.0000000000000000     
   9.2918737014585587E-003   9.8427645327059443E-002   0.0000000000000000     
   9.5803646669143441E-003  0.10523975043331393        0.0000000000000000     
   4.1342813872391635E-003   7.8875680577007695E-002   0.0000000000000000     
   4.2988901068056499E-003   8.5210126143982920E-002   0.0000000000000000     
   4.4557070245929845E-003   9.1704843329752830E-002   0.0000000000000000     
   4.6047321406011664E-003   9.8359832134317385E-002   0.0000000000000000     
   4.7459654548301965E-003  0.10517509255767662        0.0000000000000000     
  -1.7183975596635204E-012   7.8850191250979640E-002   0.0000000000000000     
  -2.2194845787637529E-012   8.5185553396108768E-002   0.0000000000000000     
  -2.9496383634197709E-012   9.1681232224808576E-002   0.0000000000000000     
  -3.9088614072965711E-012   9.8337227737079133E-002   0.0000000000000000     
  -5.0971540356548051E-012  0.10515353993292036        0.0000000000000000     
   1.9514464347553030E-002  0.10549838193723171        0.0000000000000000     
   2.0088776623030623E-002  0.11244572976038901        0.0000000000000000     
   2.0633524428508132E-002  0.11952920990569821        0.0000000000000000     
   2.1148707763985562E-002  0.12674882237315935        0.0000000000000000     
   2.1634326629462915E-002  0.13410456716277233        0.0000000000000000     
   1.4503197631155290E-002  0.10534751355983231        0.0000000000000000     
   1.4922549266633431E-002  0.11230247173651847        0.0000000000000000     
   1.5316834834608486E-002  0.11939374267660913        0.0000000000000000     
   1.5686054335080461E-002  0.12662132638010420        0.0000000000000000     
   1.6030207768049351E-002  0.13398522284700373        0.0000000000000000     
   9.5803646669143441E-003  0.10523975043331393        0.0000000000000000     
   9.8523440429722810E-003  0.11220014457673896        0.0000000000000000     
   1.0105684230778844E-002  0.11929698036992932        0.0000000000000000     
   1.0340385230334030E-002  0.12653025781288499        0.0000000000000000     
   1.0556447041637844E-002  0.13389997690560598        0.0000000000000000     
   4.7459654548301965E-003  0.10517509255767662        0.0000000000000000     
   4.8781609520471749E-003  0.11213874828105044        0.0000000000000000     
   5.0000726170192017E-003  0.11923892298565884        0.0000000000000000     
   5.1117004497462752E-003  0.12647561667150170        0.0000000000000000     
   5.2130444502283971E-003  0.13384882933857911        0.0000000000000000     
  -5.0971540356548051E-012  0.10515353993292036        0.0000000000000000     
  -6.1418886469766232E-012  0.11211828284945298        0.0000000000000000     
  -6.6704403502496068E-012  0.11921957052379765        0.0000000000000000     
  -6.6828085220575068E-012  0.12645740295595437        0.0000000000000000     
  -6.1789913463616841E-012  0.13383178014592315        0.0000000000000000     
   2.1634326629462915E-002  0.13410456716277233        0.0000000000000000     
   2.2094054924329601E-002  0.14158386205418289        0.0000000000000000     
   2.2531566547975057E-002  0.14917412482703651        0.0000000000000000     
   2.2946861500399273E-002  0.15687535548133322        0.0000000000000000     
   2.3339939781602252E-002  0.16468755401707300        0.0000000000000000     
   1.6030207768049351E-002  0.13398522284700373        0.0000000000000000     
   1.6339869867554431E-002  0.14147283066262914        0.0000000000000000     
   1.6605615367634996E-002  0.14907154841230186        0.0000000000000000     
   1.6827444268291036E-002  0.15678137609602194        0.0000000000000000     
   1.7005356569522553E-002  0.16460231371378933        0.0000000000000000     
   1.0556447041637844E-002  0.13389997690560598        0.0000000000000000     
   1.0739465693822342E-002  0.14139352252319842        0.0000000000000000     
   1.0875037216019590E-002  0.14899827954076858        0.0000000000000000     
   1.0963161608229580E-002  0.15671424795831632        0.0000000000000000     
   1.1003838870452320E-002  0.16454142777584171        0.0000000000000000     
   5.2130444502283971E-003  0.13384882933857911        0.0000000000000000     
   5.2928424031333287E-003  0.14134593763589082        0.0000000000000000     
   5.3398320931288337E-003  0.14895431821243652        0.0000000000000000     
   5.3540135202149097E-003  0.15667397106821629        0.0000000000000000     
   5.3353866843915600E-003  0.16450489620323008        0.0000000000000000     
  -6.1789913463616841E-012  0.13383178014592315        0.0000000000000000     
  -4.5126066511996799E-012  0.14133007600070621        0.0000000000000000     
  -1.0372690120025174E-012  0.14893966442730580        0.0000000000000000     
   4.2470217338601290E-012  0.15666054542572189        0.0000000000000000     
   1.1340265532178151E-011  0.16449271899595450        0.0000000000000000     
   0.0000000000000000        0.0000000000000000        0.0000000000000000     
  -1.0241915822384318E-014   1.0730652633227076E-003   0.0000000000000000     
  -2.6720108330796633E-014   2.5150005513876641E-003   0.0000000000000000     
  -4.9434631735345569E-014   4.3258058641948696E-003   0.0000000000000000     
  -7.8385377615813878E-014   6.5054812017443231E-003   0.0000000000000000     
   0.0000000000000000        0.0000000000000000        0.0000000000000000     
  -2.1301221468369424E-004   1.0753610987997522E-003   0.0000000000000000     
  -4.2703139965844861E-004   2.5201708887643364E-003   0.0000000000000000     
  -6.4205755492426303E-004   4.3344293698937518E-003   0.0000000000000000     
  -8.5809068048113763E-004   6.5181365421880001E-003   0.0000000000000000     
   0.0000000000000000        0.0000000000000000        0.0000000000000000     
  -4.2431352742236479E-004   1.0822486052224319E-003   0.0000000000000000     
  -8.5310644939991785E-004   2.5356819008739702E-003   0.0000000000000000     
  -1.2863787659326594E-003   4.3602998869546137E-003   0.0000000000000000     
  -1.7241304770205894E-003   6.5561025634643640E-003   0.0000000000000000     
   0.0000000000000000        0.0000000000000000        0.0000000000000000     
  -6.3390393822625364E-004   1.0937277825907475E-003   0.0000000000000000     
  -1.2782251492511284E-003   2.5615335877165655E-003   0.0000000000000000     
  -1.9329636330746244E-003   4.4034174153774544E-003   0.0000000000000000     
  -2.5981193896967409E-003   6.6193792655734164E-003   0.0000000000000000     
   0.0000000000000000        0.0000000000000000        0.0000000000000000     
  -8.4178344709536065E-004   1.1097986309046982E-003   0.0000000000000000     
  -1.7023874992120795E-003   2.5977259492921236E-003   0.0000000000000000     
  -2.5818121563501565E-003   4.4637819551622757E-003   0.0000000000000000     
  -3.4800574185095919E-003   6.7079666485151566E-003   0.0000000000000000     
  -7.8385377615813878E-014   6.5054812017443231E-003   0.0000000000000000     
  -1.0901350622986167E-013   9.0266875136847547E-003   0.0000000000000000     
  -1.3675978481186152E-013   1.1862085749664892E-002   0.0000000000000000     
  -1.6162444036664329E-013   1.5011675909684739E-002   0.0000000000000000     
  -1.8360703582520621E-013   1.8475457993744292E-002   0.0000000000000000     
  -8.5809068048113763E-004   6.5181365421880001E-003   0.0000000000000000     
  -1.0762562412692789E-003   9.0433279722487540E-003   0.0000000000000000     
  -1.2976797022288928E-003   1.1882039226677691E-002   0.0000000000000000     
  -1.5223610633599792E-003   1.5034270305474806E-002   0.0000000000000000     
  -1.7503003246625379E-003   1.8500021208640104E-002   0.0000000000000000     
  -1.7241304770205894E-003   6.5561025634643640E-003   0.0000000000000000     
  -2.1664919864440666E-003   9.0932493478722669E-003   0.0000000000000000     
  -2.6135936979834479E-003   1.1941899657647369E-002   0.0000000000000000     
  -3.0654356116387354E-003   1.5102053492789671E-002   0.0000000000000000     
  -3.5220177274099262E-003   1.8573710853299171E-002   0.0000000000000000     
  -2.5981193896967409E-003   6.6193792655734164E-003   0.0000000000000000     
  -3.2707072356333755E-003   9.1764516405552915E-003   0.0000000000000000     
  -3.9477419874004264E-003   1.2041667042573931E-002   0.0000000000000000     
  -4.6292236449978902E-003   1.5215025471629331E-002   0.0000000000000000     
  -5.3151522084257732E-003   1.8696526927721495E-002   0.0000000000000000     
  -3.4800574185095919E-003   6.7079666485151566E-003   0.0000000000000000     
  -4.3889019888372080E-003   9.2929348502978331E-003   0.0000000000000000     
  -5.3001245704798264E-003   1.2181341381457378E-002   0.0000000000000000     
  -6.2137251634374509E-003   1.5373186241993790E-002   0.0000000000000000     
  -7.1297037677100772E-003   1.8868469431907071E-002   0.0000000000000000     
  -1.8360703582520621E-013   1.8475457993744292E-002   0.0000000000000000     
  -2.0811293226924432E-013   2.2224140762118035E-002   0.0000000000000000     
  -2.4054635236817057E-013   2.6228432975080460E-002   0.0000000000000000     
  -2.8090812282614147E-013   3.0488334632631557E-002   0.0000000000000000     
  -3.2919782351481519E-013   3.5003845734771333E-002   0.0000000000000000     
  -1.7503003246625379E-003   1.8500021208640104E-002   0.0000000000000000     
  -1.9777195150744989E-003   2.2250210712814359E-002   0.0000000000000000     
  -2.2008406635337908E-003   2.6255757594638343E-002   0.0000000000000000     
  -2.4196637700404124E-003   3.0516661854112066E-002   0.0000000000000000     
  -2.6341888345943663E-003   3.5032923491235518E-002   0.0000000000000000     
  -3.5220177274099262E-003   1.8573710853299171E-002   0.0000000000000000     
  -3.9771834559184137E-003   2.2328420564888755E-002   0.0000000000000000     
  -4.4247762077855848E-003   2.6337731453271319E-002   0.0000000000000000     
  -4.8647959830114412E-003   3.0601643518446860E-002   0.0000000000000000     
  -5.2972427815959830E-003   3.5120156760415376E-002   0.0000000000000000     
  -5.3151522084257732E-003   1.8696526927721495E-002   0.0000000000000000     
  -5.9983918227398576E-003   2.2458770318341238E-002   0.0000000000000000     
  -6.6718066329959315E-003   2.6474354550979389E-002   0.0000000000000000     
  -7.3353966391939956E-003   3.0743279625635944E-002   0.0000000000000000     
  -7.9891618413340509E-003   3.5265545542310900E-002   0.0000000000000000     
  -7.1297037677100772E-003   1.8868469431907071E-002   0.0000000000000000     
  -8.0413446155388289E-003   2.2641259973171797E-002   0.0000000000000000     
  -8.9419319391648260E-003   2.6665626887762549E-002   0.0000000000000000     
  -9.8314657385880737E-003   3.0941570175679313E-002   0.0000000000000000     
  -1.0709946013808565E-002   3.5469089836922103E-002   0.0000000000000000     
  -3.2919782351481519E-013   3.5003845734771333E-002   0.0000000000000000     
  -3.9090703330552090E-013   3.9755787901796576E-002   0.0000000000000000     
  -4.7152619265730666E-013   4.4724982754004071E-002   0.0000000000000000     
  -5.7105778168264204E-013   4.9911430291393818E-002   0.0000000000000000     
  -6.8949923895389453E-013   5.5315130513965825E-002   0.0000000000000000     
  -2.6341888345943663E-003   3.5032923491235518E-002   0.0000000000000000     
  -2.8430907235482287E-003   3.9785316805168155E-002   0.0000000000000000     
  -3.0450443032545805E-003   4.4754616095069449E-002   0.0000000000000000     
  -3.2400495737134214E-003   4.9940821360939386E-002   0.0000000000000000     
  -3.4281065349247523E-003   5.5343932602777979E-002   0.0000000000000000     
  -5.2972427815959830E-003   3.5120156760415376E-002   0.0000000000000000     
  -5.7194412904643622E-003   3.9873903514951410E-002   0.0000000000000000     
  -6.1287161965417301E-003   4.4843516117829538E-002   0.0000000000000000     
  -6.5250674998280885E-003   5.0028994569049752E-002   0.0000000000000000     
  -6.9084952003234381E-003   5.5430338868612053E-002   0.0000000000000000     
  -7.9891618413340509E-003   3.5265545542310900E-002   0.0000000000000000     
  -8.6290517011393068E-003   4.0021548031146340E-002   0.0000000000000000     
  -9.2510156803329753E-003   4.4991682822284343E-002   0.0000000000000000     
  -9.8550537789150617E-003   5.0175949915724924E-002   0.0000000000000000     
  -1.0441165996885556E-002   5.5574349311468055E-002   0.0000000000000000     
  -1.0709946013808565E-002   3.5469089836922103E-002   0.0000000000000000     
  -1.1571921955573062E-002   4.0228250353752951E-002   0.0000000000000000     
  -1.2411942754628320E-002   4.5199116208433879E-002   0.0000000000000000     
  -1.3230008410974334E-002   5.0381687400964888E-002   0.0000000000000000     
  -1.4026118924611109E-002   5.5775963931345977E-002   0.0000000000000000     
  -6.8949923895389453E-013   5.5315130513965825E-002   0.0000000000000000     
  -8.4972827385509930E-013   6.0920316733901539E-002   0.0000000000000000     
  -1.0746216199883363E-012   6.6711222263382400E-002   0.0000000000000000     
  -1.3641776239452924E-012   7.2687847102408443E-002   0.0000000000000000     
  -1.7183975596635204E-012   7.8850191250979640E-002   0.0000000000000000     
  -3.4281065349247523E-003   5.5343932602777979E-002   0.0000000000000000     
  -3.6106795683427009E-003   6.0948340023564293E-002   0.0000000000000000     
  -3.7892330554213983E-003   6.6738433826277394E-002   0.0000000000000000     
  -3.9637669961608462E-003   7.2714214010917294E-002   0.0000000000000000     
  -4.1342813905610410E-003   7.8875680577484023E-002   0.0000000000000000     
  -6.9084952003234381E-003   5.5430338868612053E-002   0.0000000000000000     
  -7.2806947286782539E-003   6.1032409891894956E-002   0.0000000000000000     
  -7.6433615155430202E-003   6.6820068514277034E-002   0.0000000000000000     
  -7.9964955609177334E-003   7.2793314735758230E-002   0.0000000000000000     
  -8.3400968648023946E-003   7.8952148556338558E-002   0.0000000000000000     
  -1.0441165996885556E-002   5.5574349311468055E-002   0.0000000000000000     
  -1.1010045481856389E-002   6.1172526338893571E-002   0.0000000000000000     
  -1.1562385381439482E-002   6.6956126327381266E-002   0.0000000000000000     
  -1.2098185695634839E-002   7.2925149276931195E-002   0.0000000000000000     
  -1.2617446424442458E-002   7.9079595187543303E-002   0.0000000000000000     
  -1.4026118924611109E-002   5.5775963931345977E-002   0.0000000000000000     
  -1.4798731827877104E-002   6.1368689364560088E-002   0.0000000000000000     
  -1.5546304653110790E-002   6.7146607265590172E-002   0.0000000000000000     
  -1.6268837400312163E-002   7.3109717634436203E-002   0.0000000000000000     
  -1.6966330069481225E-002   7.9258020471098228E-002   0.0000000000000000     
  -1.7183975596635204E-012   7.8850191250979640E-002   0.0000000000000000     
  -2.2194845787637529E-012   8.5185553396108768E-002   0.0000000000000000     
  -2.9496383634197709E-012   9.1681232224808576E-002   0.0000000000000000     
  -3.9088614072965711E-012   9.8337227737079133E-002   0.0000000000000000     
  -5.0971540356548051E-012  0.10515353993292036        0.0000000000000000     
  -4.1342813905610410E-003   7.8875680577484023E-002   0.0000000000000000     
  -4.2988901111065654E-003   8.5210126144464896E-002   0.0000000000000000     
  -4.4557070302819997E-003   9.1704843330347341E-002   0.0000000000000000     
  -4.6047321480873413E-003   9.8359832135131359E-002   0.0000000000000000     
  -4.7459654645225918E-003  0.10517509255881695        0.0000000000000000     
  -8.3400968648023946E-003   7.8952148556338558E-002   0.0000000000000000     
  -8.6717398028007819E-003   8.5283844388860983E-002   0.0000000000000000     
  -8.9889987505166781E-003   9.1775676646168383E-002   0.0000000000000000     
  -9.2918737079500865E-003   9.8427645328260802E-002   0.0000000000000000     
  -9.5803646751010003E-003  0.10523975043513818        0.0000000000000000     
  -1.2617446424442458E-002   7.9079595187543303E-002   0.0000000000000000     
  -1.3118549077302135E-002   8.5406708129297015E-002   0.0000000000000000     
  -1.3599875163653682E-002   9.1893732172271703E-002   0.0000000000000000     
  -1.4061424683497100E-002   9.8540667316467406E-002   0.0000000000000000     
  -1.4503197636832384E-002  0.10534751356188407        0.0000000000000000     
  -1.6966330069481225E-002   7.9258020471098228E-002   0.0000000000000000     
  -1.7639317934610623E-002   8.5578717365772994E-002   0.0000000000000000     
  -1.8288336269693010E-002   9.2059009908657313E-002   0.0000000000000000     
  -1.8913385074728378E-002   9.8698898099751187E-002   0.0000000000000000     
  -1.9514464349716737E-002  0.10549838193905461        0.0000000000000000     
  -5.0971540356548051E-012  0.10515353993292036        0.0000000000000000     
  -6.1418886469766232E-012  0.11211828284945298        0.0000000000000000     
  -6.6704403502496068E-012  0.11921957052379765        0.0000000000000000     
  -6.6828085220575068E-012  0.12645740295595437        0.0000000000000000     
  -6.1789913463616841E-012  0.13383178014592315        0.0000000000000000     
  -4.7459654645225918E-003  0.10517509255881695        0.0000000000000000     
  -4.8781609636302341E-003  0.11213874828184588        0.0000000000000000     
  -5.0000726294527481E-003  0.11923892298465993        0.0000000000000000     
  -5.1117004619901339E-003  0.12647561666725912        0.0000000000000000     
  -5.2130444612423941E-003  0.13384882932964348        0.0000000000000000     
  -9.5803646751010003E-003  0.10523975043513818        0.0000000000000000     
  -9.8523440524531849E-003  0.11220014457812856        0.0000000000000000     
  -1.0105684240490390E-002  0.11929698036855990        0.0000000000000000     
  -1.0340385239212622E-002  0.12653025780643226        0.0000000000000000     
  -1.0556447048619881E-002  0.13389997689174551        0.0000000000000000     
  -1.4503197636832384E-002  0.10534751356188407        0.0000000000000000     
  -1.4922549272610738E-002  0.11230247173830103        0.0000000000000000     
  -1.5316834839783366E-002  0.11939374267549754        0.0000000000000000     
  -1.5686054338350276E-002  0.12662132637347362        0.0000000000000000     
  -1.6030207768311450E-002  0.13398522283222927        0.0000000000000000     
  -1.9514464349716737E-002  0.10549838193905461        0.0000000000000000     
  -2.0088776624102900E-002  0.11244572976236326        0.0000000000000000     
  -2.0633524427331681E-002  0.11952920990547285        0.0000000000000000     
  -2.1148707759403085E-002  0.12674882236838336        0.0000000000000000     
  -2.1634326620317106E-002  0.13410456715109473        0.0000000000000000     
  -6.1789913463616841E-012  0.13383178014592315        0.0000000000000000     
  -4.5126066511996799E-012  0.14133007600070621        0.0000000000000000     
  -1.0372690120025174E-012  0.14893966442730580        0.0000000000000000     
   4.2470217338601290E-012  0.15666054542572189        0.0000000000000000     
   1.1340265532178151E-011  0.16449271899595450        0.0000000000000000     
  -5.2130444612423941E-003  0.13384882932964348        0.0000000000000000     
  -5.2928424107353943E-003  0.14134593762098119        0.0000000000000000     
  -5.3398320939950089E-003  0.14895431819044058        0.0000000000000000     
  -5.3540135110212396E-003  0.15667397103802164        0.0000000000000000     
  -5.3353866618140785E-003  0.16450489616372435        0.0000000000000000     
  -1.0556447048619881E-002  0.13389997689174551        0.0000000000000000     
  -1.0739465697154962E-002  0.14139352250005230        0.0000000000000000     
  -1.0875037213260675E-002  0.14899827950690514        0.0000000000000000     
  -1.0963161596937021E-002  0.15671424791230404        0.0000000000000000     
  -1.1003838848183994E-002  0.16454142771624905        0.0000000000000000     
  -1.6030207768311450E-002  0.13398522283222927        0.0000000000000000     
  -1.6339869863771315E-002  0.14147283063791954        0.0000000000000000     
  -1.6605615358834275E-002  0.14907154837669953        0.0000000000000000     
  -1.6827444253500329E-002  0.15678137604856923        0.0000000000000000     
  -1.7005356547769478E-002  0.16460231365352862        0.0000000000000000     
  -2.1634326620317106E-002  0.13410456715109473        0.0000000000000000     
  -2.2094054910584443E-002  0.14158386203458290        0.0000000000000000     
  -2.2531566530715797E-002  0.14917412479982364        0.0000000000000000     
  -2.2946861480711161E-002  0.15687535544681705        0.0000000000000000     
  -2.3339939760570534E-002  0.16468755397556306        0.0000000000000000     
   0.0000000000000000        0.0000000000000000        0.0000000000000000     
  -8.4178344709536065E-004   1.1097986309046982E-003   0.0000000000000000     
  -1.7023874992120795E-003   2.5977259492921236E-003   0.0000000000000000     
  -2.5818121563501565E-003   4.4637819551622757E-003   0.0000000000000000     
  -3.4800574185095919E-003   6.7079666485151566E-003   0.0000000000000000     
   0.0000000000000000        0.0000000000000000        0.0000000000000000     
  -1.0568454153528019E-003   1.1340192040289244E-003   0.0000000000000000     
  -2.1401047265324409E-003   2.6500971615092137E-003   0.0000000000000000     
  -3.2497779335389173E-003   4.5482338724408683E-003   0.0000000000000000     
  -4.3858650363722317E-003   6.8284293368238869E-003   0.0000000000000000     
   0.0000000000000000        0.0000000000000000        0.0000000000000000     
  -1.2879832043216925E-003   1.1699475558280654E-003   0.0000000000000000     
  -2.6058880584618818E-003   2.7244854002764058E-003   0.0000000000000000     
  -3.9537145624205681E-003   4.6636135333450214E-003   0.0000000000000000     
  -5.3314627161977508E-003   6.9873319550339107E-003   0.0000000000000000     
   0.0000000000000000        0.0000000000000000        0.0000000000000000     
  -1.5351968140020331E-003   1.2175836863021212E-003   0.0000000000000000     
  -3.0997374950004018E-003   2.8208906655936999E-003   0.0000000000000000     
  -4.6936220429951072E-003   4.8099209378747359E-003   0.0000000000000000     
  -6.3168504579861496E-003   7.1846745031452315E-003   0.0000000000000000     
   0.0000000000000000        0.0000000000000000        0.0000000000000000     
  -1.7984862443938231E-003   1.2769275954510914E-003   0.0000000000000000     
  -3.6216530361480020E-003   2.9393129574610960E-003   0.0000000000000000     
  -5.4695003752625367E-003   4.9871560860300134E-003   0.0000000000000000     
  -7.3420282617374264E-003   7.4204569811578448E-003   0.0000000000000000     
  -3.4800574185095919E-003   6.7079666485151566E-003   0.0000000000000000     
  -4.3889019888372080E-003   9.2929348502978331E-003   0.0000000000000000     
  -5.3001245704798264E-003   1.2181341381457378E-002   0.0000000000000000     
  -6.2137251634374509E-003   1.5373186241993790E-002   0.0000000000000000     
  -7.1297037677100772E-003   1.8868469431907071E-002   0.0000000000000000     
  -4.3858650363722317E-003   6.8284293368238869E-003   0.0000000000000000     
  -5.5354648456129932E-003   9.4486456831981390E-003   0.0000000000000000     
  -6.6856761718418105E-003   1.2366845040103500E-002   0.0000000000000000     
  -7.8364990150586872E-003   1.5583027407539968E-002   0.0000000000000000     
  -8.9879333752636171E-003   1.9097192785507540E-002   0.0000000000000000     
  -5.3314627161977508E-003   6.9873319550339107E-003   0.0000000000000000     
  -6.7247844055181635E-003   9.6495308453544721E-003   0.0000000000000000     
  -8.1193315161065382E-003   1.2604100384318096E-002   0.0000000000000000     
  -9.5151040479628732E-003   1.5851040571924789E-002   0.0000000000000000     
  -1.0912102001087172E-002   1.9390351408174543E-002   0.0000000000000000     
  -6.3168504579861496E-003   7.1846745031452315E-003   0.0000000000000000     
  -7.9568606685527198E-003   9.8955903367668255E-003   0.0000000000000000     
  -9.6010906032740068E-003   1.2893107414101164E-002   0.0000000000000000     
  -1.1249540262150018E-002   1.6177225735148251E-002   0.0000000000000000     
  -1.2902209645180742E-002   1.9747945299908073E-002   0.0000000000000000     
  -7.3420282617374264E-003   7.4204569811578448E-003   0.0000000000000000     
  -9.2316936347166603E-003   1.0186824157435203E-002   0.0000000000000000     
  -1.1130953433344219E-002   1.3233866129452702E-002   0.0000000000000000     
  -1.3039807657620110E-002   1.6561582897210346E-002   0.0000000000000000     
  -1.4958256307544330E-002   2.0169974460708128E-002   0.0000000000000000     
  -7.1297037677100772E-003   1.8868469431907071E-002   0.0000000000000000     
  -8.0413446155388289E-003   2.2641259973171797E-002   0.0000000000000000     
  -8.9419319391648260E-003   2.6665626887762549E-002   0.0000000000000000     
  -9.8314657385880737E-003   3.0941570175679313E-002   0.0000000000000000     
  -1.0709946013808565E-002   3.5469089836922103E-002   0.0000000000000000     
  -8.9879333752636171E-003   1.9097192785507540E-002   0.0000000000000000     
  -1.0132935875764795E-002   2.2884488876260937E-002   0.0000000000000000     
  -1.1264463139870418E-002   2.6920063382054861E-002   0.0000000000000000     
  -1.2382515167580477E-002   3.1203916302889319E-002   0.0000000000000000     
  -1.3487091958894979E-002   3.5736047638764312E-002   0.0000000000000000     
  -1.0912102001087172E-002   1.9390351408174543E-002   0.0000000000000000     
  -1.2300059644867229E-002   2.3197056374489156E-002   0.0000000000000000     
  -1.3668711248690844E-002   2.7246178952290402E-002   0.0000000000000000     
  -1.5018056812558011E-002   3.1537719141578283E-002   0.0000000000000000     
  -1.6348096336468741E-002   3.6071676942352818E-002   0.0000000000000000     
  -1.2902209645180742E-002   1.9747945299908073E-002   0.0000000000000000     
  -1.4542715922846125E-002   2.3578962467856443E-002   0.0000000000000000     
  -1.6154676265626101E-002   2.7643973598469165E-002   0.0000000000000000     
  -1.7738090673520675E-002   3.1942978691746234E-002   0.0000000000000000     
  -1.9292959146529842E-002   3.6475977747687641E-002   0.0000000000000000     
  -1.4958256307544330E-002   2.0169974460708128E-002   0.0000000000000000     
  -1.6860904709701485E-002   2.4030207156362816E-002   0.0000000000000000     
  -1.8722358190676202E-002   2.8113447320591154E-002   0.0000000000000000     
  -2.0542616750468468E-002   3.2419694953393134E-002   0.0000000000000000     
  -2.2321680389078287E-002   3.6948950054768781E-002   0.0000000000000000     
  -1.0709946013808565E-002   3.5469089836922103E-002   0.0000000000000000     
  -1.1571921955573062E-002   4.0228250353752951E-002   0.0000000000000000     
  -1.2411942754628320E-002   4.5199116208433879E-002   0.0000000000000000     
  -1.3230008410974334E-002   5.0381687400964888E-002   0.0000000000000000     
  -1.4026118924611109E-002   5.5775963931345977E-002   0.0000000000000000     
  -1.3487091958894979E-002   3.5736047638764312E-002   0.0000000000000000     
  -1.4571861466435805E-002   4.0496967416961550E-002   0.0000000000000000     
  -1.5630491642824842E-002   4.5467185664762787E-002   0.0000000000000000     
  -1.6662982488062084E-002   5.0646702382168014E-002   0.0000000000000000     
  -1.7669334002147537E-002   5.6035517569177226E-002   0.0000000000000000     
  -1.6348096336468741E-002   3.6071676942352818E-002   0.0000000000000000     
  -1.7652679646397711E-002   4.0830656154962480E-002   0.0000000000000000     
  -1.8925656568319627E-002   4.5797260579755764E-002   0.0000000000000000     
  -2.0167027102234485E-002   5.0971490216732682E-002   0.0000000000000000     
  -2.1376791248142284E-002   5.6353345065893221E-002   0.0000000000000000     
  -1.9292959146529842E-002   3.6475977747687641E-002   0.0000000000000000     
  -2.0814376495458781E-002   4.1229316567755726E-002   0.0000000000000000     
  -2.2297437531112678E-002   4.6189340953412809E-002   0.0000000000000000     
  -2.3742142253491534E-002   5.1356050904658876E-002   0.0000000000000000     
  -2.5148490662595349E-002   5.6729446421493933E-002   0.0000000000000000     
  -2.2321680389078287E-002   3.6948950054768781E-002   0.0000000000000000     
  -2.4056952013619015E-002   4.1692948655341296E-002   0.0000000000000000     
  -2.5745834531204000E-002   4.6643426785733910E-002   0.0000000000000000     
  -2.7388327941833237E-002   5.1800384445946611E-002   0.0000000000000000     
  -2.8984432245506737E-002   5.7163821635979412E-002   0.0000000000000000     
  -1.4026118924611109E-002   5.5775963931345977E-002   0.0000000000000000     
  -1.4798731827877104E-002   6.1368689364560088E-002   0.0000000000000000     
  -1.5546304653110790E-002   6.7146607265590172E-002   0.0000000000000000     
  -1.6268837400312163E-002   7.3109717634436203E-002   0.0000000000000000     
  -1.6966330069481225E-002   7.9258020471098228E-002   0.0000000000000000     
  -1.7669334002147537E-002   5.6035517569177226E-002   0.0000000000000000     
  -1.8645808916899563E-002   6.1621384090468460E-002   0.0000000000000000     
  -1.9588669964136537E-002   6.7392054810719762E-002   0.0000000000000000     
  -2.0497917143858450E-002   7.3347529729931110E-002   0.0000000000000000     
  -2.1373550456065312E-002   7.9487808848102498E-002   0.0000000000000000     
  -2.1376791248142284E-002   5.6353345065893221E-002   0.0000000000000000     
  -2.2550331899082926E-002   6.1931095638192622E-002   0.0000000000000000     
  -2.3683031948096313E-002   6.7693012444586115E-002   0.0000000000000000     
  -2.4774891395182443E-002   7.3639095485073705E-002   0.0000000000000000     
  -2.5825910240341320E-002   7.9769344759655386E-002   0.0000000000000000     
  -2.5148490662595349E-002   5.6729446421493933E-002   0.0000000000000000     
  -2.6512300774427192E-002   6.2297824007732545E-002   0.0000000000000000     
  -2.7829390604990116E-002   6.8049480167189244E-002   0.0000000000000000     
  -2.9099760154284136E-002   7.3984414899864001E-002   0.0000000000000000     
  -3.0323409422309249E-002   8.0102628205756810E-002   0.0000000000000000     
  -2.8984432245506737E-002   5.7163821635979412E-002   0.0000000000000000     
  -3.0531715542932360E-002   6.2721569199088265E-002   0.0000000000000000     
  -3.2027745934817956E-002   6.8461457978529122E-002   0.0000000000000000     
  -3.3472523421163539E-002   7.4383487974301957E-002   0.0000000000000000     
  -3.4866048001969095E-002   8.0487659186406824E-002   0.0000000000000000     
  -1.6966330069481225E-002   7.9258020471098228E-002   0.0000000000000000     
  -1.7639317934610623E-002   8.5578717365772994E-002   0.0000000000000000     
  -1.8288336269693010E-002   9.2059009908657313E-002   0.0000000000000000     
  -1.8913385074728378E-002   9.8698898099751187E-002   0.0000000000000000     
  -1.9514464349716737E-002  0.10549838193905461        0.0000000000000000     
  -2.1373550456065312E-002   7.9487808848102498E-002   0.0000000000000000     
  -2.2218349188856679E-002   8.5800141852852480E-002   0.0000000000000000     
  -2.3035092630332134E-002   9.2271778431799525E-002   0.0000000000000000     
  -2.3823780780491653E-002   9.8902718584943664E-002   0.0000000000000000     
  -2.4584413639335254E-002  0.10569296231228484        0.0000000000000000     
  -2.5825910240341320E-002   7.9769344759655386E-002   0.0000000000000000     
  -2.6839945654170746E-002   8.6071251345099090E-002   0.0000000000000000     
  -2.7820854807268518E-002   9.2532306318172733E-002   0.0000000000000000     
  -2.8768637699634655E-002   9.9152509678876274E-002   0.0000000000000000     
  -2.9683294331269126E-002  0.10593186142720981        0.0000000000000000     
  -3.0323409422309249E-002   8.0102628205756810E-002   0.0000000000000000     
  -3.1504107330552797E-002   8.6392045842512769E-002   0.0000000000000000     
  -3.2645622800502171E-002   9.2840593567776852E-002   0.0000000000000000     
  -3.3747955832157360E-002   9.9448271381549103E-002   0.0000000000000000     
  -3.4811106425518358E-002  0.10621507928382951        0.0000000000000000     
  -3.4866048001969095E-002   8.0487659186406824E-002   0.0000000000000000     
  -3.6210834218002877E-002   8.6762525345093516E-002   0.0000000000000000     
  -3.7509396610033108E-002   9.3196640180611967E-002   0.0000000000000000     
  -3.8761735178059809E-002   9.9790003692962079E-002   0.0000000000000000     
  -3.9967849922082938E-002  0.10654261588214393        0.0000000000000000     
  -1.9514464349716737E-002  0.10549838193905461        0.0000000000000000     
  -2.0088776624102900E-002  0.11244572976236326        0.0000000000000000     
  -2.0633524427331681E-002  0.11952920990547285        0.0000000000000000     
  -2.1148707759403085E-002  0.12674882236838336        0.0000000000000000     
  -2.1634326620317106E-002  0.13410456715109473        0.0000000000000000     
  -2.4584413639335254E-002  0.10569296231228484        0.0000000000000000     
  -2.5314052165991866E-002  0.11263076378693490        0.0000000000000000     
  -2.6009757319590432E-002  0.11970437718200556        0.0000000000000000     
  -2.6671529100130952E-002  0.12691380249749687        0.0000000000000000     
  -2.7299367507613422E-002  0.13425903973340883        0.0000000000000000     
  -2.9683294331269126E-002  0.10593186142720981        0.0000000000000000     
  -3.0561401957339855E-002  0.11285841894863545        0.0000000000000000     
  -3.1399537833014746E-002  0.11992023962861545        0.0000000000000000     
  -3.2197701958293787E-002  0.12711732346714977        0.0000000000000000     
  -3.2955894333176972E-002  0.13444967046423845        0.0000000000000000     
  -3.4811106425518358E-002  0.10621507928382951        0.0000000000000000     
  -3.5830825998146860E-002  0.11312869524746499        0.0000000000000000     
  -3.6802865967604612E-002  0.12017679724530250        0.0000000000000000     
  -3.7727226333891570E-002  0.12735938527734203        0.0000000000000000     
  -3.8603907097007756E-002  0.13467645934358360        0.0000000000000000     
  -3.9967849922082938E-002  0.10654261588214393        0.0000000000000000     
  -4.1122324288412893E-002  0.11344159268342349        0.0000000000000000     
  -4.2219741723360016E-002  0.12047405003206672        0.0000000000000000     
  -4.3260102226924314E-002  0.12763998792807366        0.0000000000000000     
  -4.4243405799105767E-002  0.13493940637144425        0.0000000000000000     
  -2.1634326620317106E-002  0.13410456715109473        0.0000000000000000     
  -2.2094054910584443E-002  0.14158386203458290        0.0000000000000000     
  -2.2531566530715797E-002  0.14917412479982364        0.0000000000000000     
  -2.2946861480711161E-002  0.15687535544681705        0.0000000000000000     
  -2.3339939760570534E-002  0.16468755397556306        0.0000000000000000     
  -2.7299367507613422E-002  0.13425903973340883        0.0000000000000000     
  -2.7910080028940382E-002  0.14172766537179640        0.0000000000000000     
  -2.8520474151014372E-002  0.14930725589471458        0.0000000000000000     
  -2.9130549873835388E-002  0.15699781130216336        0.0000000000000000     
  -2.9740307197403434E-002  0.16479933159414276        0.0000000000000000     
  -3.2955894333176972E-002  0.13444967046423845        0.0000000000000000     
  -3.3696004410185137E-002  0.14190528933131405        0.0000000000000000     
  -3.4439921641839108E-002  0.14947218877980922        0.0000000000000000     
  -3.5187646028138876E-002  0.15715036880972388        0.0000000000000000     
  -3.5939177569084456E-002  0.16493982942105814        0.0000000000000000     
  -3.8603907097007756E-002  0.13467645934358360        0.0000000000000000     
  -3.9451828054318717E-002  0.14211673391313584        0.0000000000000000     
  -4.0289909003190010E-002  0.14966892345510757        0.0000000000000000     
  -4.1118149943621639E-002  0.15733302796949875        0.0000000000000000     
  -4.1936550875613592E-002  0.16510904745630928        0.0000000000000000     
  -4.4243405799105767E-002  0.13493940637144425        0.0000000000000000     
  -4.5177550961341129E-002  0.14236199911726186        0.0000000000000000     
  -4.6070436235067090E-002  0.14989745992060968        0.0000000000000000     
  -4.6922061620283666E-002  0.15754578878148776        0.0000000000000000     
  -4.7732427116990855E-002  0.16530698569989608        0.0000000000000000     
   0.0000000000000000        0.0000000000000000        0.0000000000000000     
  -1.7984862443938231E-003   1.2769275954510914E-003   0.0000000000000000     
  -3.6216530361480020E-003   2.9393129574610960E-003   0.0000000000000000     
  -5.4695003752625367E-003   4.9871560860300134E-003   0.0000000000000000     
  -7.3420282617374264E-003   7.4204569811578448E-003   0.0000000000000000     
   0.0000000000000000        0.0000000000000000        0.0000000000000000     
  -2.0695732103433589E-003   1.3550935537046684E-003   0.0000000000000000     
  -4.1642885977801339E-003   3.0942579443895050E-003   0.0000000000000000     
  -6.2841461623103249E-003   5.2174931720545105E-003   0.0000000000000000     
  -8.4291459039339319E-003   7.7247992366996825E-003   0.0000000000000000     
   0.0000000000000000        0.0000000000000000        0.0000000000000000     
  -2.3401794266969377E-003   1.4591958314925436E-003   0.0000000000000000     
  -4.7202980957722525E-003   3.3002312948898372E-003   0.0000000000000000     
  -7.1403560072259434E-003   5.5231063901918813E-003   0.0000000000000000     
  -9.6003531610580114E-003   8.1278211173986762E-003   0.0000000000000000     
   0.0000000000000000        0.0000000000000000        0.0000000000000000     
  -2.6103048934545581E-003   1.5892344288147172E-003   0.0000000000000000     
  -5.2896815301243559E-003   3.5572330089620927E-003   0.0000000000000000     
  -8.0381299100093940E-003   5.9039957404421290E-003   0.0000000000000000     
  -1.0855650033109671E-002   8.6295226232548216E-003   0.0000000000000000     
   0.0000000000000000        0.0000000000000000        0.0000000000000000     
  -2.8799496106162214E-003   1.7452093456711893E-003   0.0000000000000000     
  -5.8724389008364452E-003   3.8652630866062732E-003   0.0000000000000000     
  -8.9774678706606732E-003   6.3601612228052521E-003   0.0000000000000000     
  -1.2195036520088904E-002   9.2299037542681265E-003   0.0000000000000000     
  -7.3420282617374264E-003   7.4204569811578448E-003   0.0000000000000000     
  -9.2316936347166603E-003   1.0186824157435203E-002   0.0000000000000000     
  -1.1130953433344219E-002   1.3233866129452702E-002   0.0000000000000000     
  -1.3039807657620110E-002   1.6561582897210346E-002   0.0000000000000000     
  -1.4958256307544330E-002   2.0169974460708128E-002   0.0000000000000000     
  -8.4291459039339319E-003   7.7247992366996825E-003   0.0000000000000000     
  -1.0591081978682908E-002   1.0558800963669962E-002   0.0000000000000000     
  -1.2761748542589206E-002   1.3662123178310280E-002   0.0000000000000000     
  -1.4941145595652830E-002   1.7034765880620643E-002   0.0000000000000000     
  -1.7129273137873775E-002   2.0676729070601047E-002   0.0000000000000000     
  -9.6003531610580114E-003   8.1278211173986762E-003   0.0000000000000000     
  -1.2076824375124390E-002   1.1047089411781457E-002   0.0000000000000000     
  -1.4546304467281002E-002   1.4213625208611465E-002   0.0000000000000000     
  -1.7008793437527849E-002   1.7627428507888697E-002   0.0000000000000000     
  -1.9464291285864934E-002   2.1288499309613157E-002   0.0000000000000000     
  -1.0855650033109671E-002   8.6295226232548216E-003   0.0000000000000000     
  -1.3688920824041099E-002   1.1651689501769693E-002   0.0000000000000000     
  -1.6484621207419600E-002   1.4888372220356253E-002   0.0000000000000000     
  -1.9242751183245164E-002   1.8339570779014505E-002   0.0000000000000000     
  -2.1963310751517799E-002   2.2005285177744447E-002   0.0000000000000000     
  -1.2195036520088904E-002   9.2299037542681265E-003   0.0000000000000000     
  -1.5427371325433042E-002   1.2372601233634666E-002   0.0000000000000000     
  -1.8576698763005002E-002   1.5686364213544648E-002   0.0000000000000000     
  -2.1643018832804780E-002   1.9171192693998067E-002   0.0000000000000000     
  -2.4626331534832381E-002   2.2827086674994928E-002   0.0000000000000000     
  -1.4958256307544330E-002   2.0169974460708128E-002   0.0000000000000000     
  -1.6860904709701485E-002   2.4030207156362816E-002   0.0000000000000000     
  -1.8722358190676202E-002   2.8113447320591154E-002   0.0000000000000000     
  -2.0542616750468468E-002   3.2419694953393134E-002   0.0000000000000000     
  -2.2321680389078287E-002   3.6948950054768781E-002   0.0000000000000000     
  -1.7129273137873775E-002   2.0676729070601047E-002   0.0000000000000000     
  -1.9294738660169224E-002   2.4560028347621506E-002   0.0000000000000000     
  -2.1406149653456327E-002   2.8656679311052018E-002   0.0000000000000000     
  -2.3463506117735105E-002   3.2966681960892592E-002   0.0000000000000000     
  -2.5466808053005548E-002   3.7490036297143224E-002   0.0000000000000000     
  -1.9464291285864934E-002   2.1288499309613157E-002   0.0000000000000000     
  -2.1884330428985216E-002   2.5177663949245758E-002   0.0000000000000000     
  -2.4240443283581679E-002   2.9275748762247426E-002   0.0000000000000000     
  -2.6532629849654304E-002   3.3582753748618160E-002   0.0000000000000000     
  -2.8760890127203096E-002   3.8098678908357976E-002   0.0000000000000000     
  -2.1963310751517799E-002   2.2005285177744447E-002   0.0000000000000000     
  -2.4629680016149499E-002   2.5883113961235573E-002   0.0000000000000000     
  -2.7225239081052257E-002   2.9970655674177379E-002   0.0000000000000000     
  -2.9749987946226061E-002   3.4267910316569852E-002   0.0000000000000000     
  -3.2203926611670923E-002   3.8774877888413002E-002   0.0000000000000000     
  -2.4626331534832381E-002   2.2827086674994928E-002   0.0000000000000000     
  -2.7530787421662050E-002   2.6676378383590955E-002   0.0000000000000000     
  -3.0360537045868049E-002   3.0741400046841866E-002   0.0000000000000000     
  -3.3115580407450378E-002   3.5022151664747661E-002   0.0000000000000000     
  -3.5795917506409036E-002   3.9518633237308344E-002   0.0000000000000000     
  -2.2321680389078287E-002   3.6948950054768781E-002   0.0000000000000000     
  -2.4056952013619015E-002   4.1692948655341296E-002   0.0000000000000000     
  -2.5745834531204000E-002   4.6643426785733910E-002   0.0000000000000000     
  -2.7388327941833237E-002   5.1800384445946611E-002   0.0000000000000000     
  -2.8984432245506737E-002   5.7163821635979412E-002   0.0000000000000000     
  -2.5466808053005548E-002   3.7490036297143224E-002   0.0000000000000000     
  -2.7415836695183091E-002   4.2223056288161837E-002   0.0000000000000000     
  -2.9310373280183176E-002   4.7162055902306328E-002   0.0000000000000000     
  -3.1150417808005787E-002   5.2307035139576699E-002   0.0000000000000000     
  -3.2935970278650931E-002   5.7657993999972970E-002   0.0000000000000000     
  -2.8760890127203096E-002   3.8098678908357976E-002   0.0000000000000000     
  -3.0926461034455711E-002   4.2821143336659970E-002   0.0000000000000000     
  -3.3030579489639805E-002   4.7747766128717298E-002   0.0000000000000000     
  -3.5073245492755374E-002   5.2878547284529946E-002   0.0000000000000000     
  -3.7054459043802425E-002   5.8213486804097929E-002   0.0000000000000000     
  -3.2203926611670923E-002   3.8774877888413002E-002   0.0000000000000000     
  -3.4588825031436857E-002   4.3487209800835709E-002   0.0000000000000000     
  -3.6906453159573888E-002   4.8400557464966826E-002   0.0000000000000000     
  -3.9156810996082002E-002   5.3514920880806359E-002   0.0000000000000000     
  -4.1339898540961206E-002   5.8830300048354309E-002   0.0000000000000000     
  -3.5795917506409036E-002   3.9518633237308344E-002   0.0000000000000000     
  -3.8402928686126540E-002   4.4221255680689062E-002   0.0000000000000000     
  -4.0937994289985409E-002   4.9120429911054926E-002   0.0000000000000000     
  -4.3401114317985663E-002   5.4216155928405937E-002   0.0000000000000000     
  -4.5792288770127282E-002   5.9508433732742103E-002   0.0000000000000000     
  -2.8984432245506737E-002   5.7163821635979412E-002   0.0000000000000000     
  -3.0531715542932360E-002   6.2721569199088265E-002   0.0000000000000000     
  -3.2027745934817956E-002   6.8461457978529122E-002   0.0000000000000000     
  -3.3472523421163539E-002   7.4383487974301957E-002   0.0000000000000000     
  -3.4866048001969095E-002   8.0487659186406824E-002   0.0000000000000000     
  -3.2935970278650931E-002   5.7657993999972970E-002   0.0000000000000000     
  -3.4666440746394467E-002   6.3202606692269167E-002   0.0000000000000000     
  -3.6341239265512221E-002   6.8928547425239392E-002   0.0000000000000000     
  -3.7960365836004213E-002   7.4835816198883617E-002   0.0000000000000000     
  -3.9523820457870423E-002   8.0924413013201857E-002   0.0000000000000000     
  -3.7054459043802425E-002   5.8213486804097929E-002   0.0000000000000000     
  -3.8974340926609535E-002   6.3741211967284689E-002   0.0000000000000000     
  -4.0833011925005290E-002   6.9450350053953683E-002   0.0000000000000000     
  -4.2630472038989710E-002   7.5340901064104904E-002   0.0000000000000000     
  -4.4366721268562774E-002   8.1412864997738393E-002   0.0000000000000000     
  -4.1339898540961206E-002   5.8830300048354309E-002   0.0000000000000000     
  -4.3455416083577579E-002   6.4337385024134816E-002   0.0000000000000000     
  -4.5503063913297191E-002   7.0026865864671980E-002   0.0000000000000000     
  -4.7482842030120057E-002   7.5898742569965857E-002   0.0000000000000000     
  -4.9394750434046140E-002   8.1953015140016419E-002   0.0000000000000000     
  -4.5792288770127282E-002   5.9508433732742103E-002   0.0000000000000000     
  -4.8109666217298598E-002   6.4991125862819535E-002   0.0000000000000000     
  -5.0351395230387903E-002   7.0658094857394327E-002   0.0000000000000000     
  -5.2517475809395212E-002   7.6509340716466465E-002   0.0000000000000000     
  -5.4607907954320536E-002   8.2544863440035962E-002   0.0000000000000000     
  -3.4866048001969095E-002   8.0487659186406824E-002   0.0000000000000000     
  -3.6210834218002877E-002   8.6762525345093516E-002   0.0000000000000000     
  -3.7509396610033108E-002   9.3196640180611967E-002   0.0000000000000000     
  -3.8761735178059809E-002   9.9790003692962079E-002   0.0000000000000000     
  -3.9967849922082938E-002  0.10654261588214393        0.0000000000000000     
  -3.9523820457870423E-002   8.0924413013201857E-002   0.0000000000000000     
  -4.1032767753745987E-002   8.7183236182589927E-002   0.0000000000000000     
  -4.2488372346266047E-002   9.3601184021443629E-002   0.0000000000000000     
  -4.3890634235430555E-002  0.10017825652976298        0.0000000000000000     
  -4.5239553421239573E-002  0.10691445370754794        0.0000000000000000     
  -4.4366721268562774E-002   8.1412864997738393E-002   0.0000000000000000     
  -4.6042549375007201E-002   8.7654724684750468E-002   0.0000000000000000     
  -4.7658746119605702E-002   9.4054962955037472E-002   0.0000000000000000     
  -4.9215311502358285E-002  0.10061357980859943        0.0000000000000000     
  -5.0712245523264948E-002  0.10733057524543632        0.0000000000000000     
  -4.9394750434046140E-002   8.1953015140016419E-002   0.0000000000000000     
  -5.1240179081786484E-002   8.8176990851575154E-002   0.0000000000000000     
  -5.3020517930052087E-002   9.4557976981393524E-002   0.0000000000000000     
  -5.4735766978842942E-002  0.10109597352947150        0.0000000000000000     
  -5.6385926228159071E-002  0.10779098049580914        0.0000000000000000     
  -5.4607907954320536E-002   8.2544863440035962E-002   0.0000000000000000     
  -5.6625656874083857E-002   8.8750034683063972E-002   0.0000000000000000     
  -5.8573687777605202E-002   9.5110226100511716E-002   0.0000000000000000     
  -6.0452000664884563E-002  0.10162543769237917        0.0000000000000000     
  -6.2260595535921934E-002  0.10829566945866631        0.0000000000000000     
  -3.9967849922082938E-002  0.10654261588214393        0.0000000000000000     
  -4.1122324288412893E-002  0.11344159268342349        0.0000000000000000     
  -4.2219741723360016E-002  0.12047405003206672        0.0000000000000000     
  -4.3260102226924314E-002  0.12763998792807366        0.0000000000000000     
  -4.4243405799105767E-002  0.13493940637144425        0.0000000000000000     
  -4.5239553421239573E-002  0.10691445370754794        0.0000000000000000     
  -4.6528733210698281E-002  0.11379664306588703        0.0000000000000000     
  -4.7751776910811894E-002  0.12081169211586872        0.0000000000000000     
  -4.8908684521580426E-002  0.12795960085749300        0.0000000000000000     
  -4.9999456043003869E-002  0.13524036929075989        0.0000000000000000     
  -5.0712245523264948E-002  0.10733057524543632        0.0000000000000000     
  -5.2142889147563348E-002  0.11419337820423171        0.0000000000000000     
  -5.3500583340491133E-002  0.12118941762366910        0.0000000000000000     
  -5.4785328102048308E-002  0.12831869350374847        0.0000000000000000     
  -5.5997123432234862E-002  0.13558120584446987        0.0000000000000000     
  -5.6385926228159071E-002  0.10779098049580914        0.0000000000000000     
  -5.7964792099008122E-002  0.11463179809845753        0.0000000000000000     
  -5.9466161012397746E-002  0.12160722655546784        0.0000000000000000     
  -6.0890032968327977E-002  0.12871726586684007        0.0000000000000000     
  -6.2236407966798787E-002  0.13596191603257421        0.0000000000000000     
  -6.2260595535921934E-002  0.10829566945866631        0.0000000000000000     
  -6.3994442065032575E-002  0.11511190274856449        0.0000000000000000     
  -6.5648509926531734E-002  0.12206511891126498        0.0000000000000000     
  -6.7222799120419410E-002  0.12915531794676779        0.0000000000000000     
  -6.8717309646695604E-002  0.13638249985507292        0.0000000000000000     
  -4.4243405799105767E-002  0.13493940637144425        0.0000000000000000     
  -4.5177550961341129E-002  0.14236199911726186        0.0000000000000000     
  -4.6070436235067090E-002  0.14989745992060968        0.0000000000000000     
  -4.6922061620283666E-002  0.15754578878148776        0.0000000000000000     
  -4.7732427116990855E-002  0.16530698569989608        0.0000000000000000     
  -4.9999456043003869E-002  0.13524036929075989        0.0000000000000000     
  -5.1021178191008258E-002  0.14264411166240182        0.0000000000000000     
  -5.1970937681519662E-002  0.15016094221915116        0.0000000000000000     
  -5.2848734514538039E-002  0.15779086096100797        0.0000000000000000     
  -5.3654568690063430E-002  0.16553386788797225        0.0000000000000000     
  -5.5997123432234862E-002  0.13558120584446987        0.0000000000000000     
  -5.7130714803076035E-002  0.14296609826726553        0.0000000000000000     
  -5.8180847686597037E-002  0.15046251439356767        0.0000000000000000     
  -5.9147522082797881E-002  0.15807045422337632        0.0000000000000000     
  -6.0030737991678539E-002  0.16578991775669150        0.0000000000000000     
  -6.2236407966798787E-002  0.13596191603257421        0.0000000000000000     
  -6.3506160797544425E-002  0.14332795893185302        0.0000000000000000     
  -6.4700166250299215E-002  0.15080217644385924        0.0000000000000000     
  -6.5818424325063130E-002  0.15838456856859282        0.0000000000000000     
  -6.6860935021836182E-002  0.16607513530605381        0.0000000000000000     
  -6.8717309646695604E-002  0.13638249985507292        0.0000000000000000     
  -7.0147516174413491E-002  0.14372969365616428        0.0000000000000000     
  -7.1528893372626245E-002  0.15117992837002575        0.0000000000000000     
  -7.2861441241333855E-002  0.15873320399665741        0.0000000000000000     
  -7.4145159780536332E-002  0.16638952053605915        0.0000000000000000     
   0.0000000000000000        0.0000000000000000        0.0000000000000000     
  -2.8799496106162214E-003   1.7452093456711893E-003   0.0000000000000000     
  -5.8724389008364452E-003   3.8652630866062732E-003   0.0000000000000000     
  -8.9774678706606732E-003   6.3601612228052521E-003   0.0000000000000000     
  -1.2195036520088904E-002   9.2299037542681265E-003   0.0000000000000000     
   0.0000000000000000        0.0000000000000000        0.0000000000000000     
  -3.2830104093356451E-003   1.9997267713326590E-003   0.0000000000000000     
  -6.6766247465885028E-003   4.3315776187777778E-003   0.0000000000000000     
  -1.0180843011758572E-002   6.9955525423353575E-003   0.0000000000000000     
  -1.3795665204845851E-002   9.9916515420053979E-003   0.0000000000000000     
   0.0000000000000000        0.0000000000000000        0.0000000000000000     
  -3.9533841207665494E-003   2.4253928950698262E-003   0.0000000000000000     
  -7.9102936060605096E-003   5.0634326964320107E-003   0.0000000000000000     
  -1.1870728455881881E-002   7.9141194040865514E-003   0.0000000000000000     
  -1.5834688670230662E-002   1.0977453018033455E-002   0.0000000000000000     
   0.0000000000000000        0.0000000000000000        0.0000000000000000     
  -4.8910707449089322E-003   3.0222077168826906E-003   0.0000000000000000     
  -9.5734454792524657E-003   6.0608283195689693E-003   0.0000000000000000     
  -1.4047124203030602E-002   9.1158618080588363E-003   0.0000000000000000     
  -1.8312106916243336E-002   1.2187308182352292E-002   0.0000000000000000     
   0.0000000000000000        0.0000000000000000        0.0000000000000000     
  -6.0960702817627940E-003   3.7901712367712525E-003   0.0000000000000000     
  -1.1666080366164372E-002   7.3237644881886561E-003   0.0000000000000000     
  -1.6710030253204729E-002   1.0600779754252210E-002   0.0000000000000000     
  -2.1227919942883870E-002   1.3621217034961917E-002   0.0000000000000000     
  -1.2195036520088904E-002   9.2299037542681265E-003   0.0000000000000000     
  -1.5427371325433042E-002   1.2372601233634666E-002   0.0000000000000000     
  -1.8576698763005002E-002   1.5686364213544648E-002   0.0000000000000000     
  -2.1643018832804780E-002   1.9171192693998067E-002   0.0000000000000000     
  -2.4626331534832381E-002   2.2827086674994928E-002   0.0000000000000000     
  -1.3795665204845851E-002   9.9916515420053979E-003   0.0000000000000000     
  -1.7403927601231751E-002   1.3222055615591227E-002   0.0000000000000000     
  -2.0888466476297676E-002   1.6588945760896166E-002   0.0000000000000000     
  -2.4249281830043622E-002   2.0092321977920227E-002   0.0000000000000000     
  -2.7486373662469588E-002   2.3732184266663400E-002   0.0000000000000000     
  -1.5834688670230662E-002   1.0977453018033455E-002   0.0000000000000000     
  -1.9730341373368765E-002   1.4212283655854214E-002   0.0000000000000000     
  -2.3485853689558078E-002   1.7577461435130334E-002   0.0000000000000000     
  -2.7101225618798620E-002   2.1072986355861814E-002   0.0000000000000000     
  -3.0576457161090372E-002   2.4698858418048652E-002   0.0000000000000000     
  -1.8312106916243336E-002   1.2187308182352292E-002   0.0000000000000000     
  -2.2406612641844077E-002   1.5343285354423626E-002   0.0000000000000000     
  -2.6368860402786215E-002   1.8651911236247140E-002   0.0000000000000000     
  -3.0198850199069767E-002   2.2113185827822832E-002   0.0000000000000000     
  -3.3896582030694719E-002   2.5727109129150688E-002   0.0000000000000000     
  -2.1227919942883870E-002   1.3621217034961917E-002   0.0000000000000000     
  -2.5432741406657692E-002   1.6615060711299475E-002   0.0000000000000000     
  -2.9537486615982090E-002   1.9812295164246596E-002   0.0000000000000000     
  -3.3542155570857067E-002   2.3212920393803273E-002   0.0000000000000000     
  -3.7446748271282623E-002   2.6816936399969512E-002   0.0000000000000000     
  -2.4626331534832381E-002   2.2827086674994928E-002   0.0000000000000000     
  -2.7530787421662050E-002   2.6676378383590955E-002   0.0000000000000000     
  -3.0360537045868049E-002   3.0741400046841866E-002   0.0000000000000000     
  -3.3115580407450378E-002   3.5022151664747661E-002   0.0000000000000000     
  -3.5795917506409036E-002   3.9518633237308344E-002   0.0000000000000000     
  -2.7486373662469588E-002   2.3732184266663400E-002   0.0000000000000000     
  -3.0622785899737919E-002   2.7550818431435795E-002   0.0000000000000000     
  -3.3681562468010955E-002   3.1590510276547523E-002   0.0000000000000000     
  -3.6662703367288683E-002   3.5851259801998596E-002   0.0000000000000000     
  -3.9566208597571116E-002   4.0333067007788999E-002   0.0000000000000000     
  -3.0576457161090372E-002   2.4698858418048652E-002   0.0000000000000000     
  -3.3940808704592179E-002   2.8499795319893998E-002   0.0000000000000000     
  -3.7223540637462853E-002   3.2520514759601001E-002   0.0000000000000000     
  -4.0424652959702406E-002   3.6761016737169652E-002   0.0000000000000000     
  -4.3544145671310833E-002   4.1221301252599971E-002   0.0000000000000000     
  -3.3896582030694719E-002   2.5727109129150688E-002   0.0000000000000000     
  -3.7484855836224795E-002   2.9523309048965565E-002   0.0000000000000000     
  -4.0986471554223747E-002   3.3531413496002284E-002   0.0000000000000000     
  -4.4401429184691553E-002   3.7751422470260844E-002   0.0000000000000000     
  -4.7729728727628207E-002   4.2183335971741259E-002   0.0000000000000000     
  -3.7446748271282623E-002   2.6816936399969512E-002   0.0000000000000000     
  -4.1254927294635799E-002   3.0621359618650482E-002   0.0000000000000000     
  -4.4970355218293623E-002   3.4623206485751373E-002   0.0000000000000000     
  -4.8593032042256103E-002   3.8822477001272157E-002   0.0000000000000000     
  -5.2122957766523238E-002   4.3219171165212865E-002   0.0000000000000000     
  -3.5795917506409036E-002   3.9518633237308344E-002   0.0000000000000000     
  -3.8402928686126540E-002   4.4221255680689062E-002   0.0000000000000000     
  -4.0937994289985409E-002   4.9120429911054926E-002   0.0000000000000000     
  -4.3401114317985663E-002   5.4216155928405937E-002   0.0000000000000000     
  -4.5792288770127282E-002   5.9508433732742103E-002   0.0000000000000000     
  -3.9566208597571116E-002   4.0333067007788999E-002   0.0000000000000000     
  -4.2392394893698199E-002   4.5021702746146731E-002   0.0000000000000000     
  -4.5141578990509926E-002   4.9902937869299772E-002   0.0000000000000000     
  -4.7813760888006256E-002   5.4976772377248143E-002   0.0000000000000000     
  -5.0408940586187237E-002   6.0243206269991835E-002   0.0000000000000000     
  -4.3544145671310833E-002   4.1221301252599971E-002   0.0000000000000000     
  -4.6580846549325289E-002   4.5886972767135444E-002   0.0000000000000000     
  -4.9533583370782903E-002   5.0743635742019622E-002   0.0000000000000000     
  -5.2402356135683684E-002   5.5791290177252477E-002   0.0000000000000000     
  -5.5187164844027643E-002   6.1029936072834023E-002   0.0000000000000000     
  -4.7729728727628207E-002   4.2183335971741259E-002   0.0000000000000000     
  -5.0968283653007804E-002   4.6817065743655212E-002   0.0000000000000000     
  -5.4114007430804384E-002   5.1642523529214432E-002   0.0000000000000000     
  -5.7166900061017940E-002   5.6659709328418906E-002   0.0000000000000000     
  -6.0126961543648480E-002   6.1868623141268633E-002   0.0000000000000000     
  -5.2122957766523238E-002   4.3219171165212865E-002   0.0000000000000000     
  -5.5554706204745737E-002   4.7811981675706036E-002   0.0000000000000000     
  -5.8882851170574325E-002   5.2599601230884238E-002   0.0000000000000000     
  -6.2107392664009012E-002   5.7582029830747464E-002   0.0000000000000000     
  -6.5228330685049782E-002   6.2759267475295713E-002   0.0000000000000000     
  -4.5792288770127282E-002   5.9508433732742103E-002   0.0000000000000000     
  -4.8109666217298598E-002   6.4991125862819535E-002   0.0000000000000000     
  -5.0351395230387903E-002   7.0658094857394327E-002   0.0000000000000000     
  -5.2517475809395212E-002   7.6509340716466465E-002   0.0000000000000000     
  -5.4607907954320536E-002   8.2544863440035962E-002   0.0000000000000000     
  -5.0408940586187237E-002   6.0243206269991835E-002   0.0000000000000000     
  -5.2924283134628221E-002   6.5699289403786665E-002   0.0000000000000000     
  -5.5356953582904586E-002   7.1342071634888454E-002   0.0000000000000000     
  -5.7706951931016368E-002   7.7171552963297196E-002   0.0000000000000000     
  -5.9974278178963510E-002   8.3187733389012877E-002   0.0000000000000000     
  -5.5187164844027643E-002   6.1029936072834023E-002   0.0000000000000000     
  -5.7886458642422089E-002   6.6458730567484012E-002   0.0000000000000000     
  -6.0498686677474420E-002   7.2076830799922165E-002   0.0000000000000000     
  -6.3023848949184599E-002   7.7884236770148552E-002   0.0000000000000000     
  -6.5461945457552656E-002   8.3880948478163103E-002   0.0000000000000000     
  -6.0126961543648480E-002   6.1868623141268633E-002   0.0000000000000000     
  -6.2996192740680232E-002   6.7269449353911534E-002   0.0000000000000000     
  -6.5776594514097383E-002   7.2862372352495500E-002   0.0000000000000000     
  -6.8468166863899976E-002   7.8647392137020530E-002   0.0000000000000000     
  -7.1070909790087941E-002   8.4624508707486612E-002   0.0000000000000000     
  -6.5228330685049782E-002   6.2759267475295713E-002   0.0000000000000000     
  -6.8253485429402613E-002   6.8131445763069273E-002   0.0000000000000000     
  -7.1190677092773491E-002   7.3698696292608390E-002   0.0000000000000000     
  -7.4039905675162401E-002   7.9461019063913146E-002   0.0000000000000000     
  -7.6801171176569372E-002   8.5418414076983445E-002   0.0000000000000000     
  -5.4607907954320536E-002   8.2544863440035962E-002   0.0000000000000000     
  -5.6625656874083857E-002   8.8750034683063972E-002   0.0000000000000000     
  -5.8573687777605202E-002   9.5110226100511716E-002   0.0000000000000000     
  -6.0452000664884563E-002  0.10162543769237917        0.0000000000000000     
  -6.2260595535921934E-002  0.10829566945866631        0.0000000000000000     
  -5.9974278178963510E-002   8.3187733389012877E-002   0.0000000000000000     
  -6.2162953277166103E-002   8.9373376142891869E-002   0.0000000000000000     
  -6.4276998176044139E-002   9.5711244455790517E-002   0.0000000000000000     
  -6.6316412875597669E-002  0.10220133832770883        0.0000000000000000     
  -6.8281197375826636E-002  0.10884365775864679        0.0000000000000000     
  -6.5461945457552656E-002   8.3880948478163103E-002   0.0000000000000000     
  -6.7816038816299981E-002   9.0046535194733726E-002   0.0000000000000000     
  -7.0089191639148021E-002   9.6360566190628341E-002   0.0000000000000000     
  -7.2281403926096763E-002  0.10282304146584691        0.0000000000000000     
  -7.4392675677146233E-002  0.10943396102038945        0.0000000000000000     
  -7.1070909790087941E-002   8.4624508707486612E-002   0.0000000000000000     
  -7.3584913491485521E-002   9.0769511838589570E-002   0.0000000000000000     
  -7.6010268166916833E-002   9.7058191305025160E-002   0.0000000000000000     
  -7.8346973816381935E-002  0.10349054710679338        0.0000000000000000     
  -8.0595030439880769E-002  0.11006657924389426        0.0000000000000000     
  -7.6801171176569372E-002   8.5418414076983445E-002   0.0000000000000000     
  -7.9469577302722666E-002   9.1542306074459373E-002   0.0000000000000000     
  -8.2040227759350576E-002   9.7804119798981001E-002   0.0000000000000000     
  -8.4513122546453087E-002  0.10420385525054827        0.0000000000000000     
  -8.6888261664030186E-002  0.11074151242916126        0.0000000000000000     
  -6.2260595535921934E-002  0.10829566945866631        0.0000000000000000     
  -6.3994442065032575E-002  0.11511190274856449        0.0000000000000000     
  -6.5648509926531734E-002  0.12206511891126498        0.0000000000000000     
  -6.7222799120419410E-002  0.12915531794676779        0.0000000000000000     
  -6.8717309646695604E-002  0.13638249985507292        0.0000000000000000     
  -6.8281197375826636E-002  0.10884365775864679        0.0000000000000000     
  -7.0167385747993791E-002  0.11563239631258120        0.0000000000000000     
  -7.1971012063361872E-002  0.12256174755348873        0.0000000000000000     
  -7.3692076321930880E-002  0.12963171148136945        0.0000000000000000     
  -7.5330578523700786E-002  0.13684228809622334        0.0000000000000000     
  -7.4392675677146233E-002  0.10943396102038945        0.0000000000000000     
  -7.6419169850248811E-002  0.11619198294853617        0.0000000000000000     
  -7.8357049403356929E-002  0.12309576534456727        0.0000000000000000     
  -8.0206314336470588E-002  0.13014530820848283        0.0000000000000000     
  -8.1966964649589788E-002  0.13734061154028274        0.0000000000000000     
  -8.0595030439880769E-002  0.11006657924389426        0.0000000000000000     
  -8.2749794371797650E-002  0.11679066265642946        0.0000000000000000     
  -8.4806621946516933E-002  0.12366717228450071        0.0000000000000000     
  -8.6765513164038577E-002  0.13069610812810795        0.0000000000000000     
  -8.8626468024362581E-002  0.13787747018725119        0.0000000000000000     
  -8.6888261664030186E-002  0.11074151242916126        0.0000000000000000     
  -8.9159259312640321E-002  0.11742843543626109        0.0000000000000000     
  -9.1319729692841856E-002  0.12427596837328891        0.0000000000000000     
  -9.3369672804634832E-002  0.13128411124024481        0.0000000000000000     
  -9.5309088648019208E-002  0.13845286403712870        0.0000000000000000     
  -6.8717309646695604E-002  0.13638249985507292        0.0000000000000000     
  -7.0147516174413491E-002  0.14372969365616428        0.0000000000000000     
  -7.1528893372626245E-002  0.15117992837002575        0.0000000000000000     
  -7.2861441241333855E-002  0.15873320399665741        0.0000000000000000     
  -7.4145159780536332E-002  0.16638952053605915        0.0000000000000000     
  -7.5330578523700786E-002  0.13684228809622334        0.0000000000000000     
  -7.6912127915737843E-002  0.14417085731947435        0.0000000000000000     
  -7.8462333745108234E-002  0.15159479907254661        0.0000000000000000     
  -7.9981196011811972E-002  0.15911411335543998        0.0000000000000000     
  -8.1468714715849058E-002  0.16672880016815456        0.0000000000000000     
  -8.1966964649589788E-002  0.13734061154028274        0.0000000000000000     
  -8.3657343003572165E-002  0.14465100480105839        0.0000000000000000     
  -8.5295792059275399E-002  0.15204581745190093        0.0000000000000000     
  -8.6882311816699490E-002  0.15952504949281043        0.0000000000000000     
  -8.8416902275844395E-002  0.16708870092378691        0.0000000000000000     
  -8.8626468024362581E-002  0.13787747018725119        0.0000000000000000     
  -9.0383161437916457E-002  0.14517013610091622        0.0000000000000000     
  -9.2029268315127727E-002  0.15253298350808875        0.0000000000000000     
  -9.3564788655996337E-002  0.15996601240876876        0.0000000000000000     
  -9.4989722460522341E-002  0.16746922280295629        0.0000000000000000     
  -9.5309088648019208E-002  0.13845286403712870        0.0000000000000000     
  -9.7089583218770745E-002  0.14572825121904801        0.0000000000000000     
  -9.8662762512665217E-002  0.15305629724111008        0.0000000000000000     
 -0.10002862652970260       0.16043700210331496        0.0000000000000000     
 -0.10118717526988290       0.16787036580566261        0.0000000000000000     
 </DataArray>
 <DataArray  type="Float64" Name="stress" NumberOfComponents="3" format="ascii">
   13417003000.386162        4025100900.1158485        2893632169.3780966     
   11766812460.406546        1891251029.7773235        1715613231.3878834     
   10313708420.182720        414356158.62476015        810777500.26597142     
   9057690879.7146835       -405583713.34184504        179124976.01235855     
   7998759839.0024300       -568568586.12249088       -179344341.37295276     
   10539784615.772684        3161935384.7318053        2225724017.6462026     
   9667529118.3387032        1590071527.4597676        1446698643.1170013     
   8943775564.6342297        513214149.28608561        863212552.97002912     
   8368523954.6592655       -68636749.789239883        475265747.20528758     
   7941774288.4138079       -155481169.76620960        282858225.82277519     
   8337486991.1714668        2501246097.3514400        1712543587.8153307     
   8021326757.7514935        1424816319.5864012        1275829794.7164786     
   7805083912.0347462        681444500.83211398        957011363.51378584     
   7688758454.0212212        271130641.08857822        756088294.20725238     
   7672350383.7109241        193874740.35579395        673060586.79687881     
   6810110126.5825090        2043033037.9747527        1354090879.8854806     
   6828205378.6449099        1395485406.1572227        1203006686.1863167     
   6897633462.3842554        919047213.26284075        1092173931.8972416     
   7018394377.8005486        613718459.29160643        1021592617.0182555     
   7190488124.8937817        479499144.24351907        991262741.54935777     
   5957654022.0058117        1787296206.6017435        1150365893.8566520     
   6088164981.0189600        1502078787.1722341        1228229317.5265150     
   6221424215.6827688        1226022286.5782681        1268700258.1203954     
   6357431725.9972429        959126704.81984508        1271778715.6382961     
   6496187511.9623795        701392041.89696622        1237464690.0802138     
   7998759839.0024300       -568568586.12249088       -179344341.37295276     
   7916591854.0498390       -201973841.03790760       -77921315.711421087     
   7793304864.5968437        27557555.711996078       -9235290.0534162596     
   7628898870.6434412        120025604.12720680        26713735.601059876     
   7423373872.1896353        75430304.207743645        29925761.252007246     
   7941774288.4138079       -155481169.76620960        282858225.82277519     
   7738992917.8817215        15031902.085809231        281428807.55677569     
   7513094440.8387928        108487952.23502588        265206478.82528400     
   7264078857.2850256        124886980.68144083        234191239.62830099     
   6991946167.2204170        64228987.425053596        188383089.96582687     
   7672350383.7109241        193874740.35579395        673060586.79687881     
   7400224454.8508749        183686787.15070677        589780938.92450404     
   7122983317.4695520        156448138.87470341        509652470.12467581     
   6840626971.5669498        112158795.52777243        432675180.39739341     
   6553155417.1430731        50818757.109927177        358849069.74265540     
   7190488124.8937817        479499144.24351907        991262741.54935777     
   6900286464.9573078        303990814.15678978        847135078.39176965     
   6622971494.4891195        171438115.63101935        724102683.84476221     
   6358543213.4892178        81841048.666209936        622165557.90833855     
   6107001621.9576092        35199613.262362003        541323700.58249795     
   6496187511.9623795        701392041.89696622        1237464690.0802138     
   6239178948.2010098        375943983.10405183        1053491225.9585674     
   6013058971.8974943        153457882.50398040        908557119.98554242     
   5817827583.0518303        33933740.096749544        802662372.16113448     
   5653484781.6640196        17371555.882363796        735806982.48534703     
   7423373872.1896353        75430304.207743645        29925761.252007246     
   7218372452.0159903       -14300725.358273506        14807203.253362233     
   7024626649.6632376       -66513028.854648590        4577467.2467878954     
   6842136465.1313753       -81206606.281383514       -763446.76771528332     
   6670901898.4204082       -58381457.638477325       -1215538.7901493849     
   6991946167.2204170        64228987.425053596        188383089.96582687     
   6808003763.6691332        5699402.1776380539        180991671.34812304     
   6631137580.0715342       -29242783.224163532        177710340.98971829     
   6461347616.4276171       -40597568.780362606        178539098.89061671     
   6298633872.7373772       -28364954.490959167        183477945.05081436     
   6553155417.1430731        50818757.109927177        358849069.74265540     
   6388047076.6919575        22823130.124455452        354308826.32748181     
   6225835558.3273096        4483576.7605559826        353099937.43883777     
   6066520862.0491362       -4199902.9817581177        355222403.07672542     
   5910102987.8574343       -3227309.1025040150        360676223.24114358     
   6107001621.9576092        35199613.262362003        541323700.58249795     
   5958502391.0844564        37070458.482173920        534758668.19143981     
   5808720584.4305658        34666051.099527121        530746256.59414566     
   5657656201.9959373        27986391.114425898        529286465.79061151     
   5505309243.7805748        17031478.526868105        530379295.78083849     
   5653484781.6640196        17371555.882363796        735806982.48534703     
   5519369706.8466339        48441387.250796795        722341196.93999696     
   5379792658.3813000        61304639.792740345        710649298.45563960     
   5234753636.2680244        55961313.508201838        700731287.03227186     
   5084252640.5067968        32411408.397169352        692587162.66990089     
   6670901898.4204082       -58381457.638477325       -1215538.7901493849     
   6481051737.1970158       -28153106.122761011        3175205.1654851614     
   6288509396.3240814       -6898686.7721729279        16224367.598434109     
   6093274875.8016062        5381800.4132704735        37931948.508698739     
   5895348175.6295900        8688355.4335794449        68297947.896272659     
   6298633872.7373772       -28364954.490959167        183477945.05081436     
   6125829659.6139479       -10259654.594588041        179197994.40936473     
   5951817243.9677725        3818303.5592975616        182169520.35657650     
   5776596625.7988482        13868919.970685005        192392522.89244610     
   5600167805.1071777        19892194.639587879        209867002.01698476     
   5910102987.8574343       -3227309.1025040150        360676223.24114358     
   5750324888.8663836        1548988.9842329025        349456884.65053958     
   5590822564.4793787        7244535.7511365414        344082080.75994092     
   5431596014.6964254        13859331.198206902        344551811.56935084     
   5272645239.5175190        21393375.325431108        350866077.07876366     
   5505309243.7805748        17031478.526868105        530379295.78083849     
   5354537424.9543180        7272824.6137034893        513951875.88900852     
   5205525357.8589010        3380009.8033535480        501962048.80852944     
   5058273042.4943323        5353034.0958178043        494409814.53940141     
   4912780478.8606052        13191897.491091490        491295173.08162767     
   5084252640.5067968        32411408.397169352        692587162.66990089     
   4938467267.8777504        6911852.2938280106        672682968.12477124     
   4795925624.1063442       -7775274.2840514183        655809424.50233591     
   4656627709.1925764       -11649971.336464405        641966531.80260253     
   4520573523.1364460       -4712238.8634181023        631154290.02556336     
   5895348175.6295900        8688355.4335794449        68297947.896272659     
   5728104029.1692820        14171584.157788038        102382098.08213559     
   5558918155.2752476        13182388.102916002        134855409.61417267     
   5387790553.9475021        5720767.2690029144        165717882.49239641     
   5214721225.1860294       -8213278.3440036774        194969516.71679881     
   5600167805.1071777        19892194.639587879        209867002.01698476     
   5430665579.4918041        23393085.425162077        231405202.21337608     
   5259338350.4170513        20810631.346126080        253274719.69938248     
   5086186117.8829117        12144832.402477741        275475554.47499853     
   4911208881.8893967       -2604311.4057657719        298007706.54022133     
   5272645239.5175190        21393375.325431108        350866077.07876366     
   5106433951.7283068        24576633.266726255        359994505.25575584     
   4938514384.4540529        22065626.257881403        371396406.66578978     
   4768886537.6947556        13860354.298896313        385071781.30886155     
   4597550411.4504213       -39182.610220432281        401020629.18496948     
   4912780478.8606052        13191897.491091490        491295173.08162767     
   4755409145.8787813        17722227.682482719        488150007.20927936     
   4596446257.3862600        16947372.838208914        489220470.51340002     
   4435891813.3830328        10867332.958244801        494506562.99398792     
   4273745813.8691030       -517891.95738339424        504008284.65104896     
   4520573523.1364460       -4712238.8634181023        631154290.02556336     
   4377591161.9432392        2829868.6724402905        615871708.07394016     
   4233133969.2136703        5455871.0870890617        606746911.24221194     
   4087201944.9477329        3165768.3805165291        603779899.53038561     
   3939795089.1454382       -4040439.4472568035        606970672.93844926     
   5214721225.1860294       -8213278.3440036774        194969516.71679881     
   5021997117.5168591       -24990688.029553890        184832848.27689761     
   4833227750.2043304       -28585629.859620810        181937326.94618377     
   4648413123.2484436       -18998103.834216356        186282952.72467074     
   4467553236.6491919        3771890.0466303825        197869725.61235404     
   4911208881.8893967       -2604311.4057657719        298007706.54022133     
   4737364870.3353882       -14730584.686943769        288053209.25156361     
   4566851073.1386995       -15756143.443742037        284307376.54129332     
   4399667490.2993221       -5680987.6761522293        286770208.40940636     
   4235814121.8172741        15494882.615842819        295441704.85590500     
   4597550411.4504213       -39182.610220432281        401020629.18496948     
   4439636545.9235449       -8399304.5134525299        390519689.38168919     
   4284428368.7546549       -7740465.2233872414        385194931.62598014     
   4131925879.9437661        1937335.2600076199        385046355.91783607     
   3982129079.4908733        20634096.936716795        390073962.25727445     
   4273745813.8691030       -517891.95738339424        504008284.65104896     
   4128812144.2813187       -5996847.5090825558        492232288.66725820     
   3985959637.0522037       -4538595.1985540390        484599992.20023286     
   3845188292.1817665        3856864.9742383957        481111395.24996877     
   3706498109.6699953        19189533.009244442        481766497.81646222     
   3939795089.1454382       -4040439.4472568035        606970672.93844926     
   3804891665.4087157       -7523213.6738224030        593191007.10828149     
   3671444878.0313392       -6150533.3692455292        582522558.26406753     
   3539454727.0133166        77601.466516733170        574965326.40579271     
   3408921212.3546362        11161190.833431005        570519311.53347051     
   4467553236.6491919        3771890.0466303825        197869725.61235404     
   4258893834.5648670        15615062.266325474        235083929.50725922     
   4044573999.5861139        8590124.8379395008        282803116.57335252     
   3824593731.7129450       -17302922.238508463        341027286.81060576     
   3598953030.9453406       -62064078.963065386        409756440.21904200     
   4235814121.8172741        15494882.615842819        295441704.85590500     
   4051680808.1893845        28509852.449789762        317724396.05633599     
   3862847884.4365163        25859455.200469017        348097911.14110595     
   3669315350.5586677        7543690.8678674698        386562250.11021852     
   3471083206.5558352       -26437440.547991991        433117412.96365470     
   3982129079.4908733        20634096.936716795        390073962.25727445     
   3815624256.3570251        32751584.996190786        398546100.66090977     
   3645380645.8676348        32406448.537194729        412694903.66205716     
   3471398248.0227132        19598687.559746981        432520371.26068735     
   3293677062.8222446       -5671697.9361708164        458022503.45681751     
   3706498109.6699953        19189533.009244442        481766497.81646222     
   3550724179.0677896        28340259.905535460        477549043.32099462     
   3392172283.8794827        28231104.848155260        476594094.13618487     
   3230842424.1050763        18862067.837118745        478901650.26202595     
   3066734599.7445750        233148.87242674828        484471711.69852662     
   3408921212.3546362        11161190.833431005        570519311.53347051     
   3256980576.3216686        15275877.177801371        554733224.03657520     
   3103222798.4720488        13333424.133336425        539795482.56349659     
   2947647878.8057656        5333831.6999911070        525706087.11423540     
   2790255817.3228326       -8722900.1221877337        512465037.68878454     
   3598953030.9453406       -62064078.963065386        409756440.21904200     
   3172335463.6177516       -157304852.95207715        446764170.49447870     
   2757848730.9671340       -212109511.35118532        569259526.74678266     
   2355492832.9934635       -226478054.16045213        777242508.97594237     
   1965267769.6967714       -200410481.37982297        1070713117.1819719     
   3471083206.5558352       -26437440.547991991        433117412.96365470     
   3248836613.2924099       -59505583.666524172        451670067.98981524     
   3036641711.3026638       -59068089.206106305        527596008.42604220     
   2834498500.5866160       -25124957.166721463        660895234.27233422     
   2642406981.1442451        42323812.451609254        851567745.52871323     
   3293677062.8222446       -5671697.9361708164        458022503.45681751     
   3195474756.2892876       -665216.38430607319        455694415.92986906     
   3105244997.6267362        30916424.735588670        482625273.24618739     
   3022987786.8345809        89073225.423456073        538815075.40578473     
   2948703123.9128342        173805185.67936254        624263822.40865409     
   3066734599.7445750        233148.87242674828        484471711.69852662     
   3012249892.6083922        19216248.894580483        458837214.31464094     
   2963658589.9393253        57844030.473798752        434347321.20723391     
   2920960691.7373915        116116493.61010563        411002032.37631339     
   2884156198.0025601        194033638.30346370        388801347.82187468     
   2790255817.3228326       -8722900.1221877337        512465037.68878454     
   2699162022.2497215        138812.17014443874        461098463.14413112     
   2611882488.2404423        21714728.008586049        382762152.30916905     
   2528417215.2950130        56004847.393175006        277456105.18388593     
   2448766203.4134183        103009170.32390451        145180321.76830375     
   5957654022.0058117        1787296206.6017435        1150365893.8566520     
   6088164981.0189600        1502078787.1722341        1228229317.5265150     
   6221424215.6827688        1226022286.5782681        1268700258.1203954     
   6357431725.9972429        959126704.81984508        1271778715.6382961     
   6496187511.9623795        701392041.89696622        1237464690.0802138     
   5434589584.6043043        1630376875.3812914        1033737122.2386922     
   5489804809.7565641        1372368469.3089159        1114140119.9235921     
   5547233912.0022612        1121739653.5479932        1167736802.3244526     
   5606876891.3413935        878490428.09852421        1194527169.4412742     
   5668733747.7739620        642620792.96050811        1194511221.2740557     
   4895387721.5409145        1468616316.4622743        936573057.54144859     
   4905553406.5235519        1246890781.8544123        1018892164.2579538     
   4917398570.0423985        1030763509.0339129        1084991123.4823618     
   4930923212.0974531        820234498.00077629        1134869935.2146730     
   4946127332.6887169        615303748.75500190        1168528599.4548879     
   4340048432.8156443        1302014529.8446932        858873699.76492047     
   4335410771.3199215        1125645724.8087239        942485450.52959955     
   4331918189.8031816        953093853.03602672        1020463221.5941241     
   4329570688.2654219        784358914.52660084        1092807012.9584932     
   4328368266.7066450        619440909.28044796        1159516824.6227081     
   3768571718.4284921        1130571515.5285475        800639048.90910864     
   3779376904.1456738        1008633298.1718497        884919978.73852956     
   3790792771.2846103        888730685.55433345        974153096.65973830     
   3802819319.8453016        770863677.67599905        1068338402.6727346     
   3815456549.8277469        655032274.53684545        1167475896.7775185     
   6496187511.9623795        701392041.89696622        1237464690.0802138     
   6239178948.2010098        375943983.10405183        1053491225.9585674     
   6013058971.8974943        153457882.50398040        908557119.98554242     
   5817827583.0518303        33933740.096749544        802662372.16113448     
   5653484781.6640196        17371555.882363796        735806982.48534703     
   5668733747.7739620        642620792.96050811        1194511221.2740557     
   5518752662.2855759        383134449.75141764        1073834823.3010864     
   5392888254.3225746        204037031.62694263        981225962.25475705     
   5291140523.8849583        105328538.58708405        916684638.13506699     
   5213509470.9727287        87008970.631842375        880210850.94201744     
   4946127332.6887169        615303748.75500190        1168528599.4548879     
   4871825664.8390875        412374702.93946743        1103248706.0427151     
   4814868764.5823755        267261549.10032153        1055064528.3352025     
   4775256631.9185791        179964287.23756790        1023976066.3323497     
   4752989266.8477020        150482917.35120273        1009983320.0341576     
   4328368266.7066450        619440909.28044796        1159516824.6227081     
   4298397955.8615437        463664742.66820085        1141732874.1834540     
   4279000502.6768928        343131434.92411733        1130072818.2268796     
   4270175907.1526933        257840986.04819798        1124536656.7529860     
   4271924169.2889390        207793396.04044104        1125124389.7617724     
   3815456549.8277469        655032274.53684545        1167475896.7775185     
   3798469535.3529487        537004568.93761802        1189287327.7233024     
   3785283468.6061311        431646689.09832644        1206250831.9297874     
   3775898349.5872970        338958635.01897657        1218366409.3969719     
   3770314178.2964411        258940406.69955969        1225634060.1248596     
   5653484781.6640196        17371555.882363796        735806982.48534703     
   5519369706.8466339        48441387.250796795        722341196.93999696     
   5379792658.3813000        61304639.792740345        710649298.45563960     
   5234753636.2680244        55961313.508201838        700731287.03227186     
   5084252640.5067968        32411408.397169352        692587162.66990089     
   5213509470.9727287        87008970.631842375        880210850.94201744     
   5076726856.3088264        84252200.048745871        856214216.54042053     
   4937789058.1179924        74311484.375865698        836197880.26163495     
   4796696076.4002209        57186823.613196373        820161842.10566366     
   4653447911.1555128        32878217.760740519        808106102.07250082     
   4752989266.8477020        150482917.35120273        1009983320.0341576     
   4619843143.9424839        115790754.29813838        979313758.58416152     
   4487848627.6313419        84937279.891987801        954830906.31879449     
   4357005717.9142752        57922494.132750988        936534763.23805809     
   4227314414.7912769        34746397.020423889        924425329.34195292     
   4271924169.2889390        207793396.04044104        1125124389.7617724     
   4148718569.7476039        143057049.99896836        1091639823.0712202     
   4029971366.9213510        93182026.341108084        1066548376.6271166     
   3915682560.8101840        58168325.066862345        1049850050.4294610     
   3805852151.4140983        38015946.176224470        1041544844.4782573     
   3770314178.2964411        258940406.69955969        1225634060.1248596     
   3663353133.7241821        166051087.15123367        1193192410.0015957     
   3564157275.9880185        99045723.723225355        1171350291.1865985     
   3472726605.0879469        57924316.415528536        1160107703.6798718     
   3389061121.0239701        42686865.228142262        1159464647.4814126     
   5084252640.5067968        32411408.397169352        692587162.66990089     
   4938467267.8777504        6911852.2938280106        672682968.12477124     
   4795925624.1063442       -7775274.2840514183        655809424.50233591     
   4656627709.1925764       -11649971.336464405        641966531.80260253     
   4520573523.1364460       -4712238.8634181023        631154290.02556336     
   4653447911.1555128        32878217.760740519        808106102.07250082     
   4517794649.0088034        11230544.684871197        793555171.94676483     
   4384548743.0355282       -2392607.8128855228        782878625.95532668     
   4253710193.2356882       -7991239.7325186729        776076464.09818459     
   4125278999.6092825       -5565351.0740435123        773148686.37533903     
   4227314414.7912769        34746397.020423889        924425329.34195292     
   4104203929.4457631        17673806.867685795        914251895.50403798     
   3982664427.5894775        5837828.3457150459        908796579.01202166     
   3862695909.2224226       -761538.54548978806        908059379.86590564     
   3744298374.3445988       -2124293.8059248924        912040298.06568432     
   3805852151.4140983        38015946.176224470        1041544844.4782573     
   3697695109.1886330        26241638.842274427        1034773138.7965932     
   3590272677.7681956        16916034.191743374        1033563283.6724273     
   3483584857.1527834        10039132.224631548        1037915279.1057595     
   3377631647.3423958        5610932.9409391880        1047829125.0965919     
   3389061121.0239701        42686865.228142262        1159464647.4814126     
   3298268188.2374125        36934040.608633637        1155118901.8244288     
   3207373493.5716796        30842009.725202441        1157178739.9365427     
   3116377037.0267663        24410772.577834845        1165644161.8177545     
   3025278818.6026745        17640329.166547298        1180515167.4680624     
   4520573523.1364460       -4712238.8634181023        631154290.02556336     
   4377591161.9432392        2829868.6724402905        615871708.07394016     
   4233133969.2136703        5455871.0870890617        606746911.24221194     
   4087201944.9477329        3165768.3805165291        603779899.53038561     
   3939795089.1454382       -4040439.4472568035        606970672.93844926     
   4125278999.6092825       -5565351.0740435123        773148686.37533903     
   3996333575.9640260       -1017266.2548580170        761073424.01727223     
   3866481762.1890855        509518.13206005096        754328949.12618971     
   3735723558.2844701       -984997.91327834129        752915261.70209467     
   3604058964.2501755       -5500814.3908715248        756832361.74498701     
   3744298374.3445988       -2124293.8059248924        912040298.06568432     
   3627027037.8104010       -1279086.8344819546        903835536.94230473     
   3509417752.5532112       -1560375.6063451767        900134565.63299978     
   3391470518.5730267       -2968160.1215205193        900937384.13777184     
   3273185335.8698535       -5502440.3800013065        906243992.45662034     
   3377631647.3423958        5610932.9409391880        1047829125.0965919     
   3269671547.4823713        2044406.9335763454        1044158046.8490317     
   3161941940.3060398       -753810.12814497948        1044163760.7626376     
   3054442825.8134027       -2783718.2442206144        1047846266.8374116     
   2947174204.0044537       -4045317.4146556854        1055205565.0733497     
   3025278818.6026745        17640329.166547298        1180515167.4680624     
   2924267104.9799361        8953215.0493098497        1182040953.7374587     
   2824054325.4475760        2929214.5666697025        1186416534.5151098     
   2724640480.0055919       -431672.28137946129        1193641909.8010154     
   2626025568.6539884       -1129445.4948331118        1203717079.5951774     
   3939795089.1454382       -4040439.4472568035        606970672.93844926     
   3804891665.4087157       -7523213.6738224030        593191007.10828149     
   3671444878.0313392       -6150533.3692455292        582522558.26406753     
   3539454727.0133166        77601.466516733170        574965326.40579271     
   3408921212.3546362        11161190.833431005        570519311.53347051     
   3604058964.2501755       -5500814.3908715248        756832361.74498701     
   3478337927.6027141       -7996219.2088267803        746530831.25471890     
   3353679771.9268565       -6948687.4547591209        739953603.98363423     
   3230084497.2225981       -2358219.1286966801        737100679.93173611     
   3107552103.4899430        5775185.7693850994        737972059.09902143     
   3273185335.8698535       -5502440.3800013065        906243992.45662034     
   3158398361.2637482       -6484973.3037068844        898961216.02054858     
   3044280512.2415009       -5237087.6145578623        896015829.03689909     
   2930831788.8031149       -1758783.3125327826        897407831.50566757     
   2818052190.9485893        3949939.6023523808        903137223.42685735     
   2947174204.0044537       -4045317.4146556854        1055205565.0733497     
   2845072966.3918104       -2989475.9584885836        1050482161.4057747     
   2743247098.9752808       -1015733.8486075401        1050709233.4238544     
   2641696601.7548690        1875908.9150010347        1055886781.1275932     
   2540421474.7305717        5685452.3323199749        1066014804.5169811     
   2626025568.6539884       -1129445.4948331118        1203717079.5951774     
   2538361742.9869099        2490272.8268507719        1201093667.4103944     
   2450579532.1281967        5715373.8430867195        1204033817.1445055     
   2362678936.0778565        8545857.5538977385        1212537528.7975042     
   2274659954.8358860        10981723.959280372        1226604802.3693974     
   3408921212.3546362        11161190.833431005        570519311.53347051     
   3256980576.3216686        15275877.177801371        554733224.03657520     
   3103222798.4720488        13333424.133336425        539795482.56349659     
   2947647878.8057656        5333831.6999911070        525706087.11423540     
   2790255817.3228326       -8722900.1221877337        512465037.68878454     
   3107552103.4899430        5775185.7693850994        737972059.09902143     
   2958780571.0471711        5850606.9428880215        725425154.47136140     
   2808823360.6361580        1973768.2222479582        715399813.92870724     
   2657680472.2569094       -5855330.3925062418        707896037.47104383     
   2505351905.9094262       -17636688.901368737        702913825.09838438     
   2818052190.9485893        3949939.6023523808        903137223.42685735     
   2677230385.1279526        1420282.5145380497        894566209.49159694     
   2535854365.1875033       -2956754.9726589918        890189977.70251453     
   2393924131.1272364       -9181172.8592417240        890008528.05961370     
   2251439682.9471579       -17252971.145206690        894021860.56289029     
   2540421474.7305717        5685452.3323199749        1066014804.5169811     
   2412330018.5640278        1984903.8927949667        1062156389.0972763     
   2284315812.1260867       -1458145.4513932467        1064165973.8849311     
   2156378855.4167571       -4643695.7002192736        1072043558.8799464     
   2028519148.4360244       -7571746.8537083864        1085789144.0823269     
   2274659954.8358860        10981723.959280372        1226604802.3693974     
   2164079471.3553829        7544471.0776190758        1228195693.2883959     
   2054207701.4519048        6469596.7860354185        1237327802.4759488     
   1945044645.1254554        7757101.0845513344        1254001129.9320362     
   1836590302.3760273        11406983.973137379        1278215675.6566772     
   2790255817.3228326       -8722900.1221877337        512465037.68878454     
   2699162022.2497215        138812.17014443874        461098463.14413112     
   2611882488.2404423        21714728.008586049        382762152.30916905     
   2528417215.2950130        56004847.393175006        277456105.18388593     
   2448766203.4134183        103009170.32390451        145180321.76830375     
   2505351905.9094262       -17636688.901368737        702913825.09838438     
   2357464256.8141541       -25812312.366396427        673277172.97060573     
   2212261270.2155862       -25039060.842399001        630854369.98318183     
   2069742946.1137280       -15316934.329374313        575645416.13609803     
   1929909284.5085762        3354067.1726595163        507650311.42935377     
   2251439682.9471579       -17252971.145206690        894021860.56289029     
   2087282709.6316066       -30308571.427009702        884797265.85700953     
   1924680800.2456281       -38180625.276911020        876970105.72213125     
   1763633954.7892196       -40869132.694902420        870540380.15825534     
   1604142173.2623861       -38374093.680976510        865508089.16538906     
   2028519148.4360244       -7571746.8537083864        1085789144.0823269     
   1888617380.7020745       -13349965.011732459        1095658741.8033438     
   1749141078.3305643       -17709965.294963360        1121109359.5260241     
   1610090241.3214931       -20651747.703396618        1162140997.2503674     
   1471464869.6748707       -22175312.237016737        1218753654.9763660     
   1836590302.3760273        11406983.973137379        1278215675.6566772     
   1761468270.0255625        25063506.879467487        1305861600.8096035     
   1685642104.4704008        36372919.103466034        1363272131.3948574     
   1609111805.7105401        45335220.645147204        1450447267.4124219     
   1531877373.7459943        51950411.504534721        1567387008.8623180     
   3768571718.4284921        1130571515.5285475        800639048.90910864     
   3779376904.1456738        1008633298.1718497        884919978.73852956     
   3790792771.2846103        888730685.55433345        974153096.65973830     
   3802819319.8453016        770863677.67599905        1068338402.6727346     
   3815456549.8277469        655032274.53684545        1167475896.7775185     
   3208140407.2049484        962442122.16148460        756717813.94177437     
   3236195322.8286872        868157758.83475268        853066200.12251532     
   3263975695.9830446        772958253.94341648        951349762.59421277     
   3291481526.6680202        676843607.48747587        1051568501.3568658     
   3318712814.8836145        579813819.46693087        1153722416.4104750     
   2685937327.9705052        805781198.39115155        721958703.83067906     
   2722621939.7841387        736564678.97938704        829341785.15641510     
   2758146785.2372556        663482271.69923258        935643030.97227573     
   2792511864.3298545        586533976.55068779        1040862441.2782611     
   2825717177.0619369        505719793.53375280        1145000016.0743704     
   2201962480.7251611        660588744.21754837        696361718.57582295     
   2238656755.0120287        613854058.60575318        813746733.84022915     
   2273306039.0472422        560302738.82178152        927032901.79392827     
   2305910332.8308029        499934784.86563385        1036220222.4369202     
   2336469636.3627124        432750196.73731041        1141308695.7692051     
   1756215865.4689169        526864759.64067507        679926858.17720580     
   1784299768.5123560        500025897.71385026        806281046.17395675     
   1809453457.4130061        463419655.31106347        925519375.05916929     
   1831676932.1708674        417046032.43231475        1037641844.8328431     
   1850970192.7859404        360905029.07760400        1142648455.4949782     
   3815456549.8277469        655032274.53684545        1167475896.7775185     
   3798469535.3529487        537004568.93761802        1189287327.7233024     
   3785283468.6061311        431646689.09832644        1206250831.9297874     
   3775898349.5872970        338958635.01897657        1218366409.3969719     
   3770314178.2964411        258940406.69955969        1225634060.1248596     
   3318712814.8836145        579813819.46693087        1153722416.4104750     
   3294648423.6703858        472592947.60471165        1182101051.6499958     
   3274285577.1157508        377710557.93780649        1207389592.9676354     
   3257624275.2197094        295166650.46621406        1229588040.3633945     
   3244664517.9822631        224961225.18993771        1248696393.8372724     
   2825717177.0619369        505719793.53375280        1145000016.0743704     
   2799597788.5886140        410812469.25204247        1179829885.3600092     
   2777080541.7044983        327912283.60102320        1213327493.5411861     
   2758165436.4095898        257019236.58069456        1245492840.6179006     
   2742852472.7038889        198133328.19105625        1276325926.5901515     
   2336469636.3627124        432750196.73731041        1141308695.7692051     
   2313317630.1076336        351663133.87961149        1182473828.8533449     
   2293668362.3723750        282251866.08797836        1224064533.6504397     
   2277521833.1569376        224516393.36241555        1266080810.1604912     
   2264878042.4613194        178456715.70291770        1308522658.3834965     
   1850970192.7859404        360905029.07760400        1142648455.4949782     
   1835807948.2274442        295144941.48741645        1190032882.1300004     
   1824049039.1193812        240729305.39867371        1239600713.2953961     
   1815693465.4617512        197658120.81137425        1291351948.9911652     
   1810741227.2545543        165931387.72551882        1345286589.2173088     
   3770314178.2964411        258940406.69955969        1225634060.1248596     
   3663353133.7241821        166051087.15123367        1193192410.0015957     
   3564157275.9880185        99045723.723225355        1171350291.1865985     
   3472726605.0879469        57924316.415528536        1160107703.6798718     
   3389061121.0239701        42686865.228142262        1159464647.4814126     
   3244664517.9822631        224961225.18993771        1248696393.8372724     
   3167495088.2493329        150423776.14347994        1231452270.8617761     
   3096468648.7886653        96362961.337892771        1222290196.3386030     
   3031585199.6002603        62778780.773182392        1221210170.2677522     
   2972844740.6841168        49671234.449344635        1228212192.6492286     
   2742852472.7038889        198133328.19105625        1276325926.5901515     
   2688281849.6504474        139789907.19851184        1272386768.1046174     
   2638232020.3054366        96515798.567401171        1274012175.2154627     
   2592702984.6688557        68311002.297721386        1281202147.9226882     
   2551694742.7407041        55175518.389474034        1293956686.2262924     
   2264878042.4613194        178456715.70291770        1308522658.3834965     
   2225713417.9275265        134149480.31633437        1315995901.7301219     
   2189447390.5383306        99504235.411743999        1326516227.8171823     
   2156079960.2937331        74520980.989146471        1340083636.6446774     
   2125611127.1937339        59199717.048540354        1356698128.2126067     
   1810741227.2545543        165931387.72551882        1345286589.2173088     
   1779789793.0805683        133502495.49694610        1362279671.7382884     
   1750114759.4873478        105328271.87092495        1379802354.1437588     
   1721716126.4748926        81408716.847453415        1397854636.4337206     
   1694593894.0432026        61743830.426535010        1416436518.6081729     
   3389061121.0239701        42686865.228142262        1159464647.4814126     
   3298268188.2374125        36934040.608633637        1155118901.8244288     
   3207373493.5716796        30842009.725202441        1157178739.9365427     
   3116377037.0267663        24410772.577834845        1165644161.8177545     
   3025278818.6026745        17640329.166547298        1180515167.4680624     
   2972844740.6841168        49671234.449344635        1228212192.6492286     
   2896658251.5777173        41196675.181988358        1221818155.8151271     
   2820834352.0541544        33930747.857421041        1220882353.7307818     
   2745373042.1134238        27873452.475630403        1225404786.3961926     
   2670274321.7555294        23024789.036628008        1235385453.8113618     
   2551694742.7407041        55175518.389474034        1293956686.2262924     
   2487407985.8306284        43167211.029121518        1286056101.5874238     
   2423948169.9654031        33915373.818269849        1282666402.6789703     
   2361315295.1450238        27420006.756906748        1283787589.5009310     
   2299509361.3694968        23681109.845044851        1289419662.0533073     
   2125611127.1937339        59199717.048540354        1356698128.2126067     
   2070517390.9961472        42845648.150038004        1347832739.1413214     
   2016714947.3054266        30795887.607751369        1342530886.7811069     
   1964203796.1215670        23050435.421666026        1340792571.1319678     
   1912983937.4445698        19609291.591791272        1342617792.1939003     
   1694593894.0432026        61743830.426535010        1416436518.6081729     
   1645986467.0742753        40231986.544736683        1407148068.4768174     
   1599134684.0742273        24572289.225866377        1400475806.0371931     
   1554038545.0430515        14764738.469906688        1396419731.2893012     
   1510698049.9807541        10809334.276874542        1394979844.2331426     
   3025278818.6026745        17640329.166547298        1180515167.4680624     
   2924267104.9799361        8953215.0493098497        1182040953.7374587     
   2824054325.4475760        2929214.5666697025        1186416534.5151098     
   2724640480.0055919       -431672.28137946129        1193641909.8010154     
   2626025568.6539884       -1129445.4948331118        1203717079.5951774     
   2670274321.7555294        23024789.036628008        1235385453.8113618     
   2578030284.2177415        14554466.512514353        1232732346.3514473     
   2486427131.4282331        8220426.4826629162        1233923781.7732873     
   2395464863.3870068        4022668.9470896721        1238959760.0768826     
   2305143480.0940590        1961193.9057738781        1247840281.2622366     
   2299509361.3694968        23681109.845044851        1289419662.0533073     
   2218875138.1266594        16280220.377051830        1282403269.9649665     
   2138723750.2900035        10488782.262996674        1280226169.1318827     
   2059055197.8595319        6306795.5028848648        1282888359.5540540     
   1979869480.8352404        3734260.0967125893        1290389841.2314854     
   1912983937.4445698        19609291.591791272        1342617792.1939003     
   1846801666.7066884        14130476.642924070        1331053724.5780206     
   1780944182.0328891        9734281.9076648951        1325323696.5908988     
   1715411483.4231749        6420707.3860207796        1325427708.2325315     
   1650203570.8775415        4189753.0779829025        1331365759.5029225     
   1510698049.9807541        10809334.276874542        1394979844.2331426     
   1461809869.9578276        8105235.3101267219        1378683710.1906090     
   1413088426.6568837        5956925.4166597724        1369216364.1503325     
   1364533720.0779281        4364404.5964848399        1366577806.1123137     
   1316145750.2209578        3327672.8495946527        1370768036.0765502     
   2626025568.6539884       -1129445.4948331118        1203717079.5951774     
   2538361742.9869099        2490272.8268507719        1201093667.4103944     
   2450579532.1281967        5715373.8430867195        1204033817.1445055     
   2362678936.0778565        8545857.5538977385        1212537528.7975042     
   2274659954.8358860        10981723.959280372        1226604802.3693974     
   2305143480.0940590        1961193.9057738781        1247840281.2622366     
   2231030691.8697338        5686167.0427377224        1243228358.1243360     
   2156886163.7263813        9305340.4496033192        1243452458.4507544     
   2082709895.6639860        12818714.126337171        1248512582.2414927     
   2008501887.6825643        16226288.072976947        1258408729.4965436     
   1979869480.8352404        3734260.0967125893        1290389841.2314854     
   1917229048.7548950        6940883.6593406200        1283890493.2918322     
   1854643522.0281096        10330525.067173123        1281499630.3619230     
   1792112900.6548901        13903184.320225596        1283217252.4417601     
   1729637184.6352336        17658861.418482423        1289043359.5313356     
   1650203570.8775415        4189753.0779829025        1331365759.5029225     
   1596956813.6423867        6254422.6766318679        1323080072.9128814     
   1543851607.0333905        8790927.6958135962        1318175332.8780074     
   1490887951.0505559        11799268.135530770        1316651539.3983042     
   1438065845.6938798        15279443.995777011        1318508692.4737701     
   1316145750.2209578        3327672.8495946527        1370768036.0765502     
   1270213986.5322113        3626784.0946297646        1360797096.9874804     
   1224510418.7422218        4686548.3355191946        1353479565.9990046     
   1179035046.8509865        6506965.5722588301        1348815443.1111245     
   1133787870.8585110        9088035.8048635721        1346804728.3238373     
   2274659954.8358860        10981723.959280372        1226604802.3693974     
   2164079471.3553829        7544471.0776190758        1228195693.2883959     
   2054207701.4519048        6469596.7860354185        1237327802.4759488     
   1945044645.1254554        7757101.0845513344        1254001129.9320362     
   1836590302.3760273        11406983.973137379        1278215675.6566772     
   2008501887.6825643        16226288.072976947        1258408729.4965436     
   1916632009.4707551        15142816.254779458        1255678390.1185663     
   1825326298.8511271        15939903.077190995        1259256425.5102391     
   1734584755.8236804        18617548.540200233        1269142835.6715581     
   1644407380.3884132        23175752.643819273        1285337620.6025283     
   1729637184.6352336        17658861.418482423        1289043359.5313356     
   1652955501.6952696        17872447.664689243        1281823152.8740578     
   1576693440.3626447        19484772.602022290        1279678477.4875336     
   1500851000.6373608        22495836.230495989        1282609333.3717635     
   1425428182.5194118        26905638.550085008        1290615720.5267510     
   1438065845.6938798        15279443.995777011        1318508692.4737701     
   1373049948.0289237        15733365.307340980        1306629981.5548732     
   1308309125.9864600        17104205.360552728        1298593958.4078355     
   1243843379.5664930        19391964.155408859        1294400623.0326607     
   1179652708.7690234        22596641.691934586        1294049975.4293485     
   1133787870.8585110        9088035.8048635721        1346804728.3238373     
   1076915348.4717145        8725569.1827252507        1330098876.1610096     
   1020173355.7225717        8798201.3527645469        1316002868.2711463     
   963561892.61108172        9305932.3149785399        1304516704.6542463     
   907080959.13724196        10248762.069362879        1295640385.3103127     
   1836590302.3760273        11406983.973137379        1278215675.6566772     
   1761468270.0255625        25063506.879467487        1305861600.8096035     
   1685642104.4704008        36372919.103466034        1363272131.3948574     
   1609111805.7105401        45335220.645147204        1450447267.4124219     
   1531877373.7459943        51950411.504534721        1567387008.8623180     
   1644407380.3884132        23175752.643819273        1285337620.6025283     
   1634098262.1212497        51788099.584898591        1296338798.7715590     
   1623286733.8577449        78725746.538169682        1323980115.2566345     
   1611972795.5978899        103988693.50361127        1368261570.0577638     
   1600156447.3417001        127576940.48126060        1429183163.1749220     
   1425428182.5194118        26905638.550085008        1290615720.5267510     
   1442433500.8604758        59224266.283399820        1285207495.4549623     
   1459138132.4135475        90540604.723405004        1283314941.5829465     
   1475542077.1786246        120854653.87009424        1284938058.9106915     
   1491645335.1557112        150166413.72347820        1290076847.4382079     
   1179652708.7690234        22596641.691934586        1294049975.4293485     
   1186473986.2432327        47372006.974949300        1272467690.8598127     
   1193196300.1378076        71817493.659170568        1241276610.3737700     
   1199819650.4527376        95933101.744588852        1200476733.9712236     
   1206344037.1880238        119718831.23118612        1150068061.6521668     
   907080959.13724196        10248762.069362879        1295640385.3103127     
   866219718.26952958        16231321.659570813        1258119384.9861143     
   825461237.03053188        22556413.345499486        1197865121.6291268     
   784805515.42023540        29224037.127095044        1114877595.2393584     
   744252553.43864894        36234193.004387885        1009156805.8167979     
   1756215865.4689169        526864759.64067507        679926858.17720580     
   1784299768.5123560        500025897.71385026        806281046.17395675     
   1809453457.4130061        463419655.31106347        925519375.05916929     
   1831676932.1708674        417046032.43231475        1037641844.8328431     
   1850970192.7859404        360905029.07760400        1142648455.4949782     
   1326477999.4298995        397943399.82896984        669554784.95333028     
   1339738171.2579606        375473426.74952459        791654277.40474021     
   1350800682.4792054        345677918.31402433        908458553.68338776     
   1359665533.0936332        308556874.52246940        1019967613.7892728     
   1366332723.1012452        264110295.37485984        1126181457.7223947     
   890529399.83623576        267158819.95087072        662146161.22269905     
   894167677.41685069        250618286.80918431        780845603.92073536     
   896340847.92662120        229194063.43135035        896070473.38478529     
   897048911.36554766        202886149.81736863        1007820769.6148486     
   896291867.73362947        171694545.96723920        1116096492.6109254     
   448370066.68792582        134511020.00637776        657700986.98531199     
   447588286.98902613        125460477.89282978        773855025.72194231     
   446073953.75525427        113968090.66304120        888355134.16336215     
   443827066.98661029        100033858.31701227        1001201312.3095713     
   440847626.68309420        83657780.854742944        1112393560.1605701     
  -1.5030330460095311E-002  -4.5090991380285937E-003   656219262.24116933     
  -2.5513085234206957E-002   4.6072921119270048E-004   770682542.80836105     
  -3.4895729849671528E-002   9.0975046863971034E-003   885312536.01911831     
  -4.3178444450849993E-002   2.1400756910642089E-002   1000109241.8734413     
  -5.0361254772651062E-002   3.7370530205159333E-002   1115072660.3713295     
   1850970192.7859404        360905029.07760400        1142648455.4949782     
   1835807948.2274442        295144941.48741645        1190032882.1300004     
   1824049039.1193812        240729305.39867371        1239600713.2953961     
   1815693465.4617512        197658120.81137425        1291351948.9911652     
   1810741227.2545543        165931387.72551882        1345286589.2173088     
   1366332723.1012452        264110295.37485984        1126181457.7223947     
   1360580515.4052298        216476072.40239263        1181493332.1393888     
   1357380809.2959638        177350188.05242315        1237677400.0853665     
   1356733604.7734473        146732642.32495159        1294733661.5603292     
   1358638901.8376801        124623435.21997774        1352662116.5642748     
   896291867.73362947        171694545.96723920        1116096492.6109254     
   896203379.75326681        141062292.46844494        1178343175.3022609     
   897816559.49596894        116102264.71320066        1240150840.5211904     
   901131406.96173668        96814462.701507479        1301519488.2677128     
   906147922.15056932        83198886.433364511        1362449118.5418289     
   440847626.68309420        83657780.854742944        1112393560.1605701     
   442676541.27155471        68903601.685572580        1180582411.6186154     
   445356289.71939564        56985535.381004363        1247021034.6028650     
   448886872.02661783        47903581.941040471        1311709429.1133170     
   453268288.19322133        41657741.365679875        1374647595.1499717     
  -5.0361254772651062E-002   3.7370530205159333E-002   1115072660.3713295     
  -3.9907420317060349E-002   5.3773412005238164E-002   1188211041.0884538     
  -3.3756218116072989E-002   5.5833926081451088E-002   1258287982.3303907     
  -3.1907748607318806E-002   4.3551694273611774E-002   1325303484.0971410     
  -3.4362737014822425E-002   1.6925643578998756E-002   1389257546.3887043     
   1810741227.2545543        165931387.72551882        1345286589.2173088     
   1779789793.0805683        133502495.49694610        1362279671.7382884     
   1750114759.4873478        105328271.87092495        1379802354.1437588     
   1721716126.4748926        81408716.847453415        1397854636.4337206     
   1694593894.0432026        61743830.426535010        1416436518.6081729     
   1358638901.8376801        124623435.21997774        1352662116.5642748     
   1332187360.3314180        99330376.282501817        1371199925.0369365     
   1306693119.2638884        77228318.807469487        1391022858.7638731     
   1282156178.6350918        58317262.794880033        1412130917.7450838     
   1258576538.4450288        42597208.244736075        1434524101.9805689     
   906147922.15056932        83198886.433364511        1362449118.5418289     
   886354917.22569633        65689253.961086959        1382159369.4671364     
   867200112.59752417        50306955.811144412        1403910271.0165007     
   848683508.26605225        37051991.983535856        1427701823.1899211     
   830805104.23128092        25924362.478263080        1453534025.9874003     
   453268288.19322133        41657741.365679875        1374647595.1499717     
   442292463.76340443        32579128.532702237        1395158005.0288868     
   431635739.48825461        24564182.881947249        1418464590.9016404     
   421298115.36777270        17612904.413418412        1444567352.7682335     
   411279591.40195894        11725293.127117932        1473466290.6286683     
  -3.4362737014822425E-002   1.6925643578998756E-002   1389257546.3887043     
  -5.5458854084180956E-002  -2.6563401203935338E-003   1410195831.7221873     
  -6.3919862992333459E-002   1.9878529911886687E-002   1434685818.4192929     
  -5.9745131804299405E-002   8.4532186653426947E-002   1462727506.4800208     
  -4.2936167441955428E-002  0.19130082133773824        1494320895.9043722     
   1694593894.0432026        61743830.426535010        1416436518.6081729     
   1645986467.0742753        40231986.544736683        1407148068.4768174     
   1599134684.0742273        24572289.225866377        1400475806.0371931     
   1554038545.0430515        14764738.469906688        1396419731.2893012     
   1510698049.9807541        10809334.276874542        1394979844.2331426     
   1258576538.4450288        42597208.244736075        1434524101.9805689     
   1219041533.7862895        25539495.032288253        1430273211.5683370     
   1180823262.1030779        12870891.738267541        1429357043.5485144     
   1143921723.3953977        4591398.3626838326        1431775597.9210994     
   1108336917.6632473        701014.90553355217        1437528874.6860929     
   830805104.23128092        25924362.478263080        1453534025.9874003     
   802395478.17037380        13936666.821455300        1453808632.4687212     
   774863674.09164953        4875044.4385899007        1458136496.0431278     
   748209691.99510884       -1260504.6703288257        1466517616.7106185     
   722433531.88075101       -4469980.5053051710        1478951994.4711936     
   411279591.40195894        11725293.127117932        1473466290.6286683     
   396048300.22653127        5423501.9122453332        1477754331.1779716     
   381255920.03994012        584747.32682797313        1486814163.5210364     
   366902450.84218591       -2790970.6291320473        1500645787.6578624     
   352987892.63326812       -4703651.9556386024        1519249203.5884478     
  -4.2936167441955428E-002  0.19130082133773824        1494320895.9043722     
  -4.5237302914602623E-002  0.30466133279175905        1502110307.6960878     
  -5.2051472106876634E-002  0.40297805156899519        1515390045.9822397     
  -6.3371709436820134E-002  0.48627471669301403        1534160110.7628279     
  -7.9203996840990915E-002  0.55453121490294188        1558420502.0378544     
   1510698049.9807541        10809334.276874542        1394979844.2331426     
   1461809869.9578276        8105235.3101267219        1378683710.1906090     
   1413088426.6568837        5956925.4166597724        1369216364.1503325     
   1364533720.0779281        4364404.5964848399        1366577806.1123137     
   1316145750.2209578        3327672.8495946527        1370768036.0765502     
   1108336917.6632473        701014.90553355217        1437528874.6860929     
   1076397934.7484665        91086.324444830418        1426611661.2511549     
   1044584004.3730044       -102000.45891422033        1421420233.6543052     
   1012895126.5368590        121754.55545091629        1421954591.8955448     
   981331301.24003279        762351.36754477024        1428214735.9748693     
   722433531.88075101       -4469980.5053051710        1478951994.4711936     
   704292311.31934714       -3931169.1271641552        1473365070.0974081     
   686234459.11459422       -3114463.2268509269        1472400929.3975410     
   668259975.26649082       -2019862.8043728471        1476059572.3715906     
   650368859.77503872       -647367.85972425342        1484340999.0195613     
   352987892.63326812       -4703651.9556386024        1519249203.5884478     
   345492999.67046827       -3961531.0447044522        1518943936.7293680     
   338039790.88165605       -3080462.8871459216        1522158451.3800371     
   330628266.26682389       -2060447.4829861671        1528892747.5404549     
   323258425.82597607       -901484.83221299946        1539146825.2106197     
  -7.9203996840990915E-002  0.55453121490294188        1558420502.0378544     
 -0.19816639172100811       0.57183593940610089        1563348261.1470344     
 -0.32581066965232891       0.56020174762763819        1570692799.6017942     
 -0.46214251519034388       0.51960934410489013        1580454117.4021323     
 -0.60715686141747160       0.45007388383965247        1592632214.5480521     
   1316145750.2209578        3327672.8495946527        1370768036.0765502     
   1270213986.5322113        3626784.0946297646        1360797096.9874804     
   1224510418.7422218        4686548.3355191946        1353479565.9990046     
   1179035046.8509865        6506965.5722588301        1348815443.1111245     
   1133787870.8585110        9088035.8048635721        1346804728.3238373     
   981331301.24003279        762351.36754477024        1428214735.9748693     
   943085901.62785673       -152288.24906063080        1420267883.4527483     
   905011648.94838226       -496438.08999347687        1415860306.9339225     
   867108543.20161533       -270098.15523546934        1414992006.4183991     
   829376584.38754976        526731.55519491434        1417662981.9061744     
   650368859.77503872       -647367.85972425342        1484340999.0195613     
   622340875.39001608       -2016442.9928034544        1478351675.9373226     
   594426988.97164583       -3005191.5703719556        1476787496.7610905     
   566627200.51992786       -3613613.5924346745        1479648461.4908631     
   538941510.03486133       -3841709.0589918792        1486934570.1266394     
   323258425.82597607       -901484.83221299946        1539146825.2106197     
   307978907.81869233       -1965680.1365862787        1535048474.4412079     
   292756438.81200945       -2839712.1056220233        1536261135.4805064     
   277591018.80592710       -3523580.7393228114        1542784808.3285134     
   262482647.80044234       -4017286.0376995802        1554619492.9852278     
 -0.60715686141747160       0.45007388383965247        1592632214.5480521     
  -1.0861152179096536       0.31958581843176631        1590358278.9644043     
  -1.5305252257876627       0.30425926201581832        1594281223.0921714     
  -1.9403880745761679       0.40408990256488253        1604401046.9313509     
  -2.3157046792941460       0.61907434307100895        1620717750.4819446     
   1133787870.8585110        9088035.8048635721        1346804728.3238373     
   1076915348.4717145        8725569.1827252507        1330098876.1610096     
   1020173355.7225717        8798201.3527645469        1316002868.2711463     
   963561892.61108172        9305932.3149785399        1304516704.6542463     
   907080959.13724196        10248762.069362879        1295640385.3103127     
   829376584.38754976        526731.55519491434        1417662981.9061744     
   780618881.78445816       -1576111.7687051296        1406694105.8652797     
   731959076.27220476       -3352631.4564785957        1399759180.0085247     
   683397167.85078752       -4802827.5081320405        1396858204.3359077     
   634933156.52021217       -5926699.9236439764        1397991178.8474228     
   538941510.03486133       -3841709.0589918792        1486934570.1266394     
   502367501.24739534       -6464266.8750799596        1481664598.9030628     
   465858757.00395489       -8869276.2110828757        1481852683.7747948     
   429415277.30453408       -11056737.067020267        1487498824.7418375     
   393037062.14914000       -13026649.442868590        1498603021.8041947     
   262482647.80044234       -4017286.0376995802        1554619492.9852278     
   242161206.86052564       -5938896.1363956481        1555010355.2743502     
   221872397.91781881       -7751732.9110582024        1562283379.5699573     
   201616220.97231954       -9455796.3616952300        1576438565.8720496     
   181392676.02402857       -11051086.488305800        1597475914.1806185     
  -2.3157046792941460       0.61907434307100895        1620717750.4819446     
  -1.3761508416326544       0.44734499987104104        1626731374.9791517     
 -0.98620017829775930       -1.5563942305281913        1641051267.3940115     
  -1.1458605127017081       -5.3921704670015984        1663677427.7265294     
  -1.8551233809189698       -11.059955149519382        1694609855.9767022     
   907080959.13724196        10248762.069362879        1295640385.3103127     
   866219718.26952958        16231321.659570813        1258119384.9861143     
   825461237.03053188        22556413.345499486        1197865121.6291268     
   784805515.42023540        29224037.127095044        1114877595.2393584     
   744252553.43864894        36234193.004387885        1009156805.8167979     
   634933156.52021217       -5926699.9236439764        1397991178.8474228     
   546784077.66891325       -18690726.444359988        1377871877.4612539     
   458712068.41975725       -31197854.291267633        1348436714.3768635     
   370717128.77274126       -43448083.464372411        1309685689.5942495     
   282799258.72786623       -55441413.963683575        1261618803.1134179     
   393037062.14914000       -13026649.442868590        1498603021.8041947     
   295935577.69872040       -33036632.359182104        1495855447.6583920     
   198885472.82388029       -52875350.023562580        1497209413.1489341     
   101886747.52461228       -72542802.436037093        1502664918.2758188     
   4939401.8009155169       -92038989.596605420        1512221963.0390491     
   181392676.02402857       -11051086.488305800        1597475914.1806185     
   113674218.35895963       -26806396.084865429        1612070095.5775261     
   45981450.242900878       -42476073.851389691        1644183217.9453361     
  -21685628.324153081       -58060119.787899315        1693815281.2840543     
  -89327017.342197046       -73558533.894375816        1760966285.5936852     
  -1.8551233809189698       -11.059955149519382        1694609855.9767022     
 -0.35037417106836610       -17.621423985731770        1726515821.2186522     
  0.67682288345289621       -25.774734727487417        1789358128.7660747     
   1.2264546521225022       -35.519928367636460        1883136778.6189690     
   1.2985246577635170       -46.856995938992945        2007851770.7773306     
  -1.5030330460095311E-002  -4.5090991380285937E-003   656219262.24116933     
  -2.5513085234206957E-002   4.6072921119270048E-004   770682542.80836105     
  -3.4895729849671528E-002   9.0975046863971034E-003   885312536.01911831     
  -4.3178444450849993E-002   2.1400756910642089E-002   1000109241.8734413     
  -5.0361254772651062E-002   3.7370530205159333E-002   1115072660.3713295     
  -448370066.71788472       -134511020.01536542        657700986.99126351     
  -447588287.03845078       -125460477.88780025        773855025.73004782     
  -446073953.82295614       -113968090.64003356        888355134.17383456     
  -443827067.07140136       -100033858.27206565        1001201312.3226237     
  -440847626.78378600       -83657780.783896297        1112393560.1764152     
  -890529399.86588955       -267158819.95976683        662146161.23658741     
  -894167677.46386206       -250618286.79980320        780845603.93775153     
  -896340847.99081397       -229194063.40310365        896070473.40535474     
  -897048911.44674528       -202886149.76966837        1007820769.6393971     
  -896291867.83165538       -171694545.89949691        1116096492.6398783     
  -1326477999.4590447       -397943399.83771342        669554784.97714090     
  -1339738171.3017478       -375473426.73554856        791654277.43147182     
  -1350800682.5384696       -345677918.28011304        908458553.71367884     
  -1359665533.1692102       -308556874.47140718        1019967613.8237612     
  -1366332723.1939700       -264110295.30943108        1126181457.7617197     
  -1756215865.4973502       -526864759.64920509        679926858.21292412     
  -1784299768.5521071       -500025897.69503599        806281046.21120894     
  -1809453457.4659226       -463419655.27106184        925519375.09880674     
  -1831676932.2387967       -417046032.37728286        1037641844.8757167     
  -1850970192.8707285       -360905029.01369828        1142648455.5419393     
  -5.0361254772651062E-002   3.7370530205159333E-002   1115072660.3713295     
  -3.9907420317060349E-002   5.3773412005238164E-002   1188211041.0884538     
  -3.3756218116072989E-002   5.5833926081451088E-002   1258287982.3303907     
  -3.1907748607318806E-002   4.3551694273611774E-002   1325303484.0971410     
  -3.4362737014822425E-002   1.6925643578998756E-002   1389257546.3887043     
  -440847626.78378600       -83657780.783896297        1112393560.1764152     
  -442676541.35367143       -68903601.586089239        1180582411.6263275     
  -445356289.78914195       -56985535.273565814        1247021034.6016114     
  -448886872.09019727       -47903581.846325129        1311709429.1022656     
  -453268288.25683737       -41657741.304367200        1374647595.1282918     
  -896291867.83165538       -171694545.89949691        1116096492.6398783     
  -896203379.83742940       -141062292.37695128        1178343175.3177507     
  -897816559.57007039       -116102264.61062875        1240150840.5215518     
  -901131407.02957857       -96814462.600529492        1301519488.2512825     
  -906147922.21595252       -83198886.346651167        1362449118.5069408     
  -1366332723.1939700       -264110295.30943108        1126181457.7617197     
  -1360580515.4911814       -216476072.31881127        1181493332.1627231     
  -1357380809.3765419       -177350187.95535439        1237677400.0902128     
  -1356733604.8500502       -146732642.21905911        1294733661.5441897     
  -1358638901.9117086       -124623435.10992754        1352662116.5246532     
  -1850970192.8707285       -360905029.01369828        1142648455.5419393     
  -1835807948.3149266       -295144941.41166836        1190032882.1612442     
  -1824049039.2085557       -240729305.30774295        1239600713.3075943     
  -1815693465.5516152       -197658120.70191973        1291351948.9809887     
  -1810741227.3441045       -165931387.59419596        1345286589.1814275     
  -3.4362737014822425E-002   1.6925643578998756E-002   1389257546.3887043     
  -5.5458854084180956E-002  -2.6563401203935338E-003   1410195831.7221873     
  -6.3919862992333459E-002   1.9878529911886687E-002   1434685818.4192929     
  -5.9745131804299405E-002   8.4532186653426947E-002   1462727506.4800208     
  -4.2936167441955428E-002  0.19130082133773824        1494320895.9043722     
  -453268288.25683737       -41657741.304367200        1374647595.1282918     
  -442292463.86641192       -32579128.500031948        1395158005.0293932     
  -431635739.61352611       -24564182.820829183        1418464590.9240615     
  -421298115.49818146       -17612904.266764119        1444567352.8122971     
  -411279591.52037859       -11725292.837836951        1473466290.6940989     
  -906147922.21595252       -83198886.346651167        1362449118.5069408     
  -886354917.32845104       -65689253.892729282        1382159369.4671235     
  -867200112.72866631       -50306955.731197059        1403910271.0508161     
  -848683508.41659927       -37051991.862056434        1427701823.2580187     
  -830805104.39224815       -25924362.285303771        1453534026.0887315     
  -1358638901.9117086       -124623435.10992754        1352662116.5246532     
  -1332187360.4415781       -99330376.180755794        1371199925.0353773     
  -1306693119.4093404       -77228318.711223781        1391022858.7995555     
  -1282156178.8149962       -58317262.701339245        1412130917.8171868     
  -1258576538.6585455       -42597208.151095986        1434524102.0882728     
  -1810741227.3441045       -165931387.59419596        1345286589.1814275     
  -1779789793.2057931       -133502495.36410701        1362279671.7341547     
  -1750114759.6555495       -105328271.76091361        1379802354.1702793     
  -1721716126.6933758       -81408716.784620225        1397854636.4898024     
  -1694593894.3192706       -61743830.435220659        1416436518.6927216     
  -4.2936167441955428E-002  0.19130082133773824        1494320895.9043722     
  -4.5237302914602623E-002  0.30466133279175905        1502110307.6960878     
  -5.2051472106876634E-002  0.40297805156899519        1515390045.9822397     
  -6.3371709436820134E-002  0.48627471669301403        1534160110.7628279     
  -7.9203996840990915E-002  0.55453121490294188        1558420502.0378544     
  -411279591.52037859       -11725292.837836951        1473466290.6940989     
  -396048300.35737622       -5423501.4785664082        1477754331.2346380     
  -381255920.19433969       -584746.78584752977        1486814163.5819173     
  -366902451.03126895        2790971.2403182983        1500645787.7359371     
  -352987892.86816359        4703652.5999327898        1519249203.6966968     
  -830805104.39224815       -25924362.285303771        1453534026.0887315     
  -802395478.31450522       -13936666.555291355        1453808632.5500646     
  -774863674.23218250       -4875044.1433477998        1458136496.1304410     
  -748209692.14528036        1260504.9505259693        1466517616.8298619     
  -722433532.05379927        4469980.7263323963        1478951994.6483257     
  -1258576538.6585455       -42597208.151095986        1434524102.0882728     
  -1219041533.9166226       -25539494.925511122        1430273211.6423688     
  -1180823262.1655772       -12870891.669514537        1429357043.6278107     
  -1143921723.4054065       -4591398.3830990195        1431775598.0445981     
  -1108336917.6361103       -701015.06627017260        1437528874.8927355     
  -1694593894.3192706       -61743830.435220659        1416436518.6927216     
  -1645986467.1637316       -40231986.589231610        1407148068.5115488     
  -1599134683.9945207       -24572289.364337325        1400475806.0740259     
  -1554038544.8116455       -14764738.760560036        1396419731.3801527     
  -1510698049.6150985       -10809334.777877688        1394979844.4299295     
  -7.9203996840990915E-002  0.55453121490294188        1558420502.0378544     
 -0.19816639172100811       0.57183593940610089        1563348261.1470344     
 -0.32581066965232891       0.56020174762763819        1570692799.6017942     
 -0.46214251519034388       0.51960934410489013        1580454117.4021323     
 -0.60715686141747160       0.45007388383965247        1592632214.5480521     
  -352987892.86816359        4703652.5999327898        1519249203.6966968     
  -345493000.19194818        3961531.6161105782        1518943936.8630998     
  -338039791.70084554        3080463.3485776633        1522158451.5266278     
  -330628267.39485753        2060447.7973307967        1528892747.6872823     
  -323258427.27398032        901484.96238093078        1539146825.3450615     
  -722433532.05379927        4469980.7263323963        1478951994.6483257     
  -704292311.86370063        3931169.1569935679        1473365070.3327813     
  -686234460.03514409        3114463.0491830409        1472400929.6659086     
  -668259976.56813252        2019862.4028876424        1476059572.6477101     
  -650368861.46266294        647367.21812021732        1484340999.2781830     
  -1108336917.6361103       -701015.06627017260        1437528874.8927355     
  -1076397935.2134247       -91086.805512130260        1426611661.5560763     
  -1044584005.3287102        101999.66200548410        1421420234.0196385     
  -1012895127.9819692       -121755.66372233629        1421954592.2834177     
  -981331303.17320085       -762352.78268867731        1428214736.3474176     
  -1510698049.6150985       -10809334.777877688        1394979844.4299295     
  -1461809870.2411196       -8105236.2714125514        1378683710.5329895     
  -1413088427.5815423       -5956926.8129535913        1369216364.5878148     
  -1364533721.6363707       -4364406.4025105238        1366577806.5944061     
  -1316145752.4055967       -3327675.0400650501        1370768036.5527642     
 -0.60715686141747160       0.45007388383965247        1592632214.5480521     
  -1.0861152179096536       0.31958581843176631        1590358278.9644043     
  -1.5305252257876627       0.30425926201581832        1594281223.0921714     
  -1.9403880745761679       0.40408990256488253        1604401046.9313509     
  -2.3157046792941460       0.61907434307100895        1620717750.4819446     
  -323258427.27398032        901484.96238093078        1539146825.3450615     
  -307978910.13129896        1965680.0027355254        1535048474.6887524     
  -292756441.92299342        2839711.9285027534        1536261135.9136333     
  -277591022.64906603        3523580.7396767288        1542784809.0197089     
  -262482652.30951649        4017286.4362581223        1554619494.0069730     
  -650368861.46266294        647367.21812021732        1484340999.2781830     
  -622340877.64183283        2016442.1462768912        1478351676.4187987     
  -594426991.72430289        3005190.7300968170        1476787497.6103842     
  -566627203.71007812        3613612.9695665538        1479648462.8529384     
  -538941513.59915566        3841708.8646953404        1486934572.1464653     
  -981331303.17320085       -762352.78268867731        1428214736.3474176     
  -943085903.61771464        152286.75021719933        1420267884.1545477     
  -905011650.93445456        496436.70903670788        1415860308.1824205     
  -867108545.12342465        270097.09375435114        1414992008.4310422     
  -829376586.18462169       -526732.09561467171        1417662984.9004138     
  -1316145752.4055967       -3327675.0400650501        1370768036.5527642     
  -1270213988.0589471       -3626786.1854510307        1360797097.8959913     
  -1224510419.5534477       -4686550.1346741319        1353479567.6297450     
  -1179035046.8891058       -6506966.8877543807        1348815445.7540214     
  -1133787870.0659165       -9088036.4446765780        1346804732.2688227     
  -2.3157046792941460       0.61907434307100895        1620717750.4819446     
  -1.3761508416326544       0.44734499987104104        1626731374.9791517     
 -0.98620017829775930       -1.5563942305281913        1641051267.3940115     
  -1.1458605127017081       -5.3921704670015984        1663677427.7265294     
  -1.8551233809189698       -11.059955149519382        1694609855.9767022     
  -262482652.30951649        4017286.4362581223        1554619494.0069730     
  -242161209.31250456        5938896.7348161191        1555010355.5193975     
  -221872399.04831946        7751731.2572827190        1562283379.0498383     
  -201616221.51696244        9455790.0036562681        1576438564.5982928     
  -181392676.71843344        11051072.973937236        1597475912.1647627     
  -538941513.59915566        3841708.8646953404        1486934572.1464653     
  -502367502.54365939        6464267.4338443875        1481664599.7936828     
  -465858756.40421104        8869276.2828342021        1481852683.5592761     
  -429415275.18081069        11056735.411662340        1487498823.4432456     
  -393037058.87346053        13026644.820324525        1498603019.4455888     
  -829376586.18462169       -526732.09561467171        1417662984.9004138     
  -780618881.06961250        1576112.5444394648        1406694107.8020036     
  -731959073.05387557        3352633.5202540159        1399759180.9223270     
  -683397162.13740885        4802830.8318351209        1396858204.2613871     
  -634933148.32021058        5926704.4791865349        1397991177.8191795     
  -1133787870.0659165       -9088036.4446765780        1346804732.2688227     
  -1076915344.8903716       -8725567.9334205389        1330098879.5443609     
  -1020173348.9973168       -8798197.0304650068        1316002871.1389914     
  -963561882.38675153       -9305923.7358068228        1304516707.0527136     
  -907080945.05867815       -10248748.049456656        1295640387.2855327     
  -1.8551233809189698       -11.059955149519382        1694609855.9767022     
 -0.35037417106836610       -17.621423985731770        1726515821.2186522     
  0.67682288345289621       -25.774734727487417        1789358128.7660747     
   1.2264546521225022       -35.519928367636460        1883136778.6189690     
   1.2985246577635170       -46.856995938992945        2007851770.7773306     
  -181392676.71843344        11051072.973937236        1597475912.1647627     
  -113674214.97894044        26806374.878571413        1612070092.8571413     
  -45981443.241527915        42476043.442937024        1644183214.0862868     
   21685638.493808627        58060078.667051226        1693815275.8522069     
   89327030.227066278        73558480.550898999        1760966278.1548886     
  -393037058.87346053        13026644.820324525        1498603019.4455888     
  -295935570.52409226        33036625.103579491        1495855444.4764545     
  -198885461.70132005        52875340.298180535        1497209408.2753866     
  -101886732.40514241        72542790.404136211        1502664910.8423848     
  -4939382.6355594471        92038975.421437070        1512221952.1774557     
  -634933148.32021058        5926704.4791865349        1397991177.8191795     
  -546784066.98582637        18690733.053612053        1377871876.0765963     
  -458712054.70255429        31197864.790995985        1348436711.3333759     
  -370717111.47039682        43448099.691335037        1309685683.5895245     
  -282799237.28935218        55441437.754625052        1261618792.8450389     
  -907080945.05867815       -10248748.049456656        1295640387.2855327     
  -866219704.36414111       -16231301.271326274        1258119387.6575580     
  -825461222.24523377       -22556383.078629613        1197865123.2602527     
  -784805498.70195317       -29223993.471355200        1114877594.0936069     
  -744252533.73430729       -36234132.449529052        1009156800.1576324     
  -1756215865.4973502       -526864759.64920509        679926858.21292412     
  -1784299768.5521071       -500025897.69503599        806281046.21120894     
  -1809453457.4659226       -463419655.27106184        925519375.09880674     
  -1831676932.2387967       -417046032.37728286        1037641844.8757167     
  -1850970192.8707285       -360905029.01369828        1142648455.5419393     
  -2201962480.7512259       -660588744.22536778        696361718.62393272     
  -2238656755.0474873       -613854058.58781374        813746733.88906395     
  -2273306039.0936241       -560302738.78317642        927032901.84448278     
  -2305910332.8896351       -499934784.81145543        1036220222.4901887     
  -2336469636.4355226       -432750196.67265153        1141308695.8261819     
  -2685937327.9910903       -805781198.39732707        721958703.89016223     
  -2722621939.8117867       -736564678.96126735        829341785.21618748     
  -2758146785.2731738       -663482271.66084552        935643031.03347492     
  -2792511864.3752532       -586533976.49606204        1040862441.3420240     
  -2825717177.1180224       -505719793.46691626        1145000016.1418355     
  -3208140407.2169456       -962442122.16508365        756717814.01161277     
  -3236195322.8450050       -868157758.81539643        853066200.19257951     
  -3263975696.0045724       -772958253.90406942        951349762.66578293     
  -3291481526.6956472       -676843607.43110120        1051568501.4312230     
  -3318712814.9182310       -579813819.39649367        1153722416.4888997     
  -3768571718.4287896       -1130571515.5286369        800639048.98828435     
  -3779376904.1471424       -1008633298.1502016        884919978.81823981     
  -3790792771.2878189       -888730685.51284707        974153096.74140680     
  -3802819319.8508201       -770863677.61657429        1068338402.7577850     
  -3815456549.8361454       -655032274.46138299        1167475896.8673747     
  -1850970192.8707285       -360905029.01369828        1142648455.5419393     
  -1835807948.3149266       -295144941.41166836        1190032882.1612442     
  -1824049039.2085557       -240729305.30774295        1239600713.3075943     
  -1815693465.5516152       -197658120.70191973        1291351948.9809887     
  -1810741227.3441045       -165931387.59419596        1345286589.1814275     
  -2336469636.4355226       -432750196.67265153        1141308695.8261819     
  -2313317630.1917405       -351663133.80314898        1182473828.8979666     
  -2293668362.4659095       -282251865.99348259        1224064533.6794281     
  -2277521833.2580299       -224516393.24365288        1266080810.1705666     
  -2264878042.5680985       -178456715.55365694        1308522658.3713818     
  -2825717177.1180224       -505719793.46691626        1145000016.1418355     
  -2799597788.6644549       -410812469.17339855        1179829885.4194927     
  -2777080541.7973576       -327912283.50145161        1213327493.5894597     
  -2758165436.5167308       -257019236.45107293        1245492840.6517351     
  -2742852472.8225756       -198133328.02226496        1276325926.6063201     
  -3318712814.9182310       -579813819.39649367        1153722416.4888997     
  -3294648423.7330694       -472592947.52241874        1182101051.7258229     
  -3274285577.2028985       -377710557.83164692        1207389593.0376875     
  -3257624275.3277187       -295166650.32418013        1229588040.4244945     
  -3244664518.1075306       -224961225.00001466        1248696393.8862419     
  -3815456549.8361454       -655032274.46138299        1167475896.8673747     
  -3798469535.3975844       -537004568.85020936        1189287327.8169572     
  -3785283468.6825347       -431646688.98407269        1206250832.0241137     
  -3775898349.6909952       -338958634.86297262        1218366409.4888437     
  -3770314178.4229679       -258940406.48691106        1225634060.2111473     
  -1810741227.3441045       -165931387.59419596        1345286589.1814275     
  -1779789793.2057931       -133502495.36410701        1362279671.7341547     
  -1750114759.6555495       -105328271.76091361        1379802354.1702793     
  -1721716126.6933758       -81408716.784620225        1397854636.4898024     
  -1694593894.3192706       -61743830.435220659        1416436518.6927216     
  -2264878042.5680985       -178456715.55365694        1308522658.3713818     
  -2225713418.0693736       -134149480.15615249        1315995901.7423692     
  -2189447390.7242117       -99504235.270524383        1326516227.8531814     
  -2156079960.5326118       -74520980.896769643        1340083636.7038178     
  -2125611127.4945731       -59199717.034888625        1356698128.2942781     
  -2742852472.8225756       -198133328.02226496        1276325926.6063201     
  -2688281849.8022165       -139789907.00897729        1272386768.1358256     
  -2638232020.5009160       -96515798.392545104        1274012175.2615821     
  -2592702984.9186707       -68311002.172967911        1281202147.9835887     
  -2551694743.0554805       -55175518.350239992        1293956686.3018479     
  -3244664518.1075306       -224961225.00001466        1248696393.8862419     
  -3167495088.4043207       -150423775.92258108        1231452270.9145217     
  -3096468648.9856610       -96362961.126978874        1222290196.3954802     
  -3031585199.8515491       -62778780.613206744        1221210170.3291175     
  -2972844741.0019884       -49671234.381269932        1228212192.7154307     
  -3770314178.4229679       -258940406.48691106        1225634060.2111473     
  -3663353133.8756857       -166051086.89696062        1193192410.0784605     
  -3564157276.1784482       -99045723.473826647        1171350291.2548778     
  -3472726605.3312540       -57924316.217502594        1160107703.7404010     
  -3389061121.3341012       -42686865.127983689        1159464647.5350273     
  -1694593894.3192706       -61743830.435220659        1416436518.6927216     
  -1645986467.1637316       -40231986.589231610        1407148068.5115488     
  -1599134683.9945207       -24572289.364337325        1400475806.0740259     
  -1554038544.8116455       -14764738.760560036        1396419731.3801527     
  -1510698049.6150985       -10809334.777877688        1394979844.4299295     
  -2125611127.4945731       -59199717.034888625        1356698128.2942781     
  -2070517391.0157387       -42845648.143573999        1347832739.1411076     
  -2016714947.0555191       -30795887.647639036        1342530886.7132857     
  -1964203795.6139159       -23050435.547096133        1340792571.0108125     
  -1912983936.6909246       -19609291.841923952        1342617792.0336874     
  -2551694743.0554805       -55175518.350239992        1293956686.3018479     
  -2487407985.8770704       -43167211.000715494        1286056101.5556827     
  -2423948169.7495575       -33915373.820851207        1282666402.5165634     
  -2361315294.6729455       -27420006.810655117        1283787589.1844914     
  -2299509360.6472311       -23681109.970117569        1289419661.5594649     
  -2972844741.0019884       -49671234.381269932        1228212192.7154307     
  -2896658251.7477226       -41196675.160653234        1221818155.7552719     
  -2820834352.0766373       -33930747.883975148        1220882353.4838581     
  -2745373041.9887376       -27873452.551245213        1225404785.9011874     
  -2670274321.4840198       -23024789.162457585        1235385453.0072625     
  -3389061121.3341012       -42686865.127983689        1159464647.5350273     
  -3298268188.6276979       -36934040.623387814        1155118901.7398763     
  -3207373494.0367594       -30842009.837009788        1157178739.6151690     
  -3116377037.5612898       -24410772.768864632        1165644161.1609044     
  -3025278819.2012868       -17640329.418934226        1180515166.3770826     
  -1510698049.6150985       -10809334.777877688        1394979844.4299295     
  -1461809870.2411196       -8105236.2714125514        1378683710.5329895     
  -1413088427.5815423       -5956926.8129535913        1369216364.5878148     
  -1364533721.6363707       -4364406.4025105238        1366577806.5944061     
  -1316145752.4055967       -3327675.0400650501        1370768036.5527642     
  -1912983936.6909246       -19609291.841923952        1342617792.0336874     
  -1846801666.7068937       -14130477.324845672        1331053724.4320147     
  -1780944182.7798920       -9734282.9978654385        1325323696.4223228     
  -1715411484.9099226       -6420708.8609926701        1325427708.0046089     
  -1650203573.0969837       -4189754.9142218828        1331365759.1788747     
  -2299509360.6472311       -23681109.970117569        1289419661.5594649     
  -2218875138.2239656       -16280220.893663883        1282403269.3533287     
  -2138723751.2003610       -10488783.149414659        1280226168.3793843     
  -2059055199.5764170       -6306796.7373641729        1282888358.6376326     
  -1979869483.3521292       -3734261.6575113535        1290389840.1280732     
  -2670274321.4840198       -23024789.162457585        1235385453.0072625     
  -2578030284.7923403       -14554466.977879286        1232732345.2969275     
  -2486427132.8429508       -8220427.2675993443        1233923780.4589992     
  -2395464865.6358485       -4022670.0316187143        1238959758.4934764     
  -2305143483.1710358       -1961195.2699283361        1247840279.4003556     
  -3025278819.2012868       -17640329.418934226        1180515166.3770826     
  -2924267106.4120121       -8953215.5774753094        1182040952.2628152     
  -2824054327.7076578       -2929215.3524167538        1186416532.6611681     
  -2724640483.0882215        431671.25624942780        1193641907.5721378     
  -2626025572.5536990        1129444.2485276461        1203717076.9957259     
  -1316145752.4055967       -3327675.0400650501        1370768036.5527642     
  -1270213988.0589471       -3626786.1854510307        1360797097.8959913     
  -1224510419.5534477       -4686550.1346741319        1353479567.6297450     
  -1179035046.8891058       -6506966.8877543807        1348815445.7540214     
  -1133787870.0659165       -9088036.4446765780        1346804732.2688227     
  -1650203573.0969837       -4189754.9142218828        1331365759.1788747     
  -1596956814.5606940       -6254424.2151646018        1323080072.9120865     
  -1543851606.6254222       -8790928.8528325558        1318175333.3596256     
  -1490887949.2911770       -11799268.827252686        1316651540.5214918     
  -1438065842.5579488       -15279444.138401866        1318508694.3976848     
  -1979869483.3521292       -3734261.6575113535        1290389840.1280732     
  -1917229049.7010489       -6940884.8364572525        1283890492.3647556     
  -1854643521.4108560       -10330525.885025501        1281499629.6395679     
  -1792112898.4815545       -13903184.803236365        1283217251.9525094     
  -1729637180.9131393       -17658861.591068029        1289043359.3035786     
  -2305143483.1710358       -1961195.2699283361        1247840279.4003556     
  -2231030693.4800153       -5686168.0493348837        1243228356.2539983     
  -2156886163.9097495       -9305341.2312580347        1243452456.4695714     
  -2082709894.4602411       -12818714.815709233        1248512580.0470762     
  -2008501885.1314950       -16226288.802691817        1258408726.9865110     
  -2626025572.5536990        1129444.2485276461        1203717076.9957259     
  -2538361745.8975906       -2490273.8537952900        1201093664.5798151     
  -2450579534.1221008       -5715374.8915245533        1204033813.8496335     
  -2362678937.2272401       -8545858.8646818399        1212537524.8051891     
  -2274659955.2130051       -10981725.773252368        1226604797.4464788     
  -1133787870.0659165       -9088036.4446765780        1346804732.2688227     
  -1076915344.8903716       -8725567.9334205389        1330098879.5443609     
  -1020173348.9973168       -8798197.0304650068        1316002871.1389914     
  -963561882.38675153       -9305923.7358068228        1304516707.0527136     
  -907080945.05867815       -10248748.049456656        1295640387.2855327     
  -1438065842.5579488       -15279444.138401866        1318508694.3976848     
  -1373049942.1962483       -15733363.837577581        1306629982.7016950     
  -1308309117.0422561       -17104200.895786047        1298593958.7245264     
  -1243843367.0959694       -19391955.313008904        1294400622.4661784     
  -1179652692.3573897       -22596627.089257002        1294049973.9266474     
  -1729637180.9131393       -17658861.591068029        1289043359.3035786     
  -1652955495.6517808       -17872446.586629689        1281823151.7233124     
  -1576693431.5233490       -19484768.691946864        1279678475.2615936     
  -1500850988.5278366       -22495827.906999230        1282609329.9184153     
  -1425428166.6652522       -26905624.231804252        1290615715.6937871     
  -2008501885.1314950       -16226288.802691817        1258408726.9865110     
  -1916632005.2569778       -15142816.180595279        1255678386.6092165     
  -1825326292.4405985       -15939900.418956041        1259256420.7501919     
  -1734584746.6823609       -18617541.517793298        1269142829.4094381     
  -1644407367.9822624       -23175739.477088332        1285337612.5869555     
  -2274659955.2130051       -10981725.773252368        1226604797.4464788     
  -2164079471.0118232       -7544472.6194319725        1228195687.3594012     
  -2054207699.7940035       -6469596.0768128633        1237327795.1903210     
  -1945044641.5595355       -7757096.1453701258        1254001120.9392352     
  -1836590296.3084280       -11406972.825129032        1278215664.6061487     
  -907080945.05867815       -10248748.049456656        1295640387.2855327     
  -866219704.36414111       -16231301.271326274        1258119387.6575580     
  -825461222.24523377       -22556383.078629613        1197865123.2602527     
  -784805498.70195317       -29223993.471355200        1114877594.0936069     
  -744252533.73430729       -36234132.449529052        1009156800.1576324     
  -1179652692.3573897       -22596627.089257002        1294049973.9266474     
  -1186473973.8531165       -47371987.294026732        1272467690.4757133     
  -1193196291.0586476       -71817466.531476676        1241276610.1822715     
  -1199819643.9739852       -95933064.801611304        1200476733.0463223     
  -1206344032.5991268       -119718782.10443309        1150068059.0678675     
  -1425428166.6652522       -26905624.231804252        1290615715.6937871     
  -1442433490.5603096       -59224247.482197523        1285207491.7633572     
  -1459138127.2993450       -90540580.212514937        1283314938.9172482     
  -1475542076.8823619       -120854622.42277235        1284938057.1554554     
  -1491645339.3093576       -150166374.11295390        1290076846.4779875     
  -1644407367.9822624       -23175739.477088332        1285337612.5869555     
  -1634098254.4857178       -51788081.835823655        1296338791.5204914     
  -1623286730.9673274       -78725724.121748984        1323980109.4651768     
  -1611972797.4270813       -103988666.33483219        1368261566.4210129     
  -1600156453.8649991       -127576908.47510469        1429183162.3879890     
  -1836590296.3084280       -11406972.825129032        1278215664.6061487     
  -1761468265.6293426       -25063490.354928136        1305861589.7471216     
  -1685642102.0625832       -36372898.259147644        1363272121.8260636     
  -1609111805.6081495       -45335196.537797153        1450447260.8429792     
  -1531877376.2660484       -51950385.190871060        1567387006.7978773     
  -3768571718.4287896       -1130571515.5286369        800639048.98828435     
  -3779376904.1471424       -1008633298.1502016        884919978.81823981     
  -3790792771.2878189       -888730685.51284707        974153096.74140680     
  -3802819319.8508201       -770863677.61657429        1068338402.7577850     
  -3815456549.8361454       -655032274.46138299        1167475896.8673747     
  -4340048432.8017263       -1302014529.8405178        858873699.85077000     
  -4335410771.3065825       -1125645724.7921808        942485450.61651337     
  -4331918189.7899008       -953093853.00537848        1020463221.6832950     
  -4329570688.2516794       -784358914.48011076        1092807013.0511153     
  -4328368266.6919174       -619440909.21637762        1159516824.7199733     
  -4895387721.5108557       -1468616316.4532566        936573057.62966299     
  -4905553406.4941416       -1246890781.8425956        1018892164.3490356     
  -4917398570.0120220       -1030763509.0139217        1084991123.5772734     
  -4930923212.0645008       -820234497.96723628        1134869935.3143768     
  -4946127332.6515751       -615303748.70253766        1168528599.5603449     
  -5434589584.5561781       -1630376875.3668535        1033737122.3249632     
  -5489804809.7098150       -1372368469.3014448        1114140120.0158067     
  -5547233911.9541855       -1121739653.5384774        1167736802.4233420     
  -5606876891.2892857       -878490428.07794952        1194527169.5475700     
  -5668733747.7151194       -642620792.91986394        1194511221.3884892     
  -5957654021.9376955       -1787296206.5813086        1150365893.9366708     
  -6088164980.9536066       -1502078787.1687293        1228229317.6168261     
  -6221424215.6163874       -1226022286.5790448        1268700258.2215011     
  -6357431725.9260349       -959126704.81225371        1271778715.7506940     
  -6496187511.8825502       -701392041.86835575        1237464690.2044070     
  -3815456549.8361454       -655032274.46138299        1167475896.8673747     
  -3798469535.3975844       -537004568.85020936        1189287327.8169572     
  -3785283468.6825347       -431646688.98407269        1206250832.0241137     
  -3775898349.6909952       -338958634.86297262        1218366409.4888437     
  -3770314178.4229679       -258940406.48691106        1225634060.2111473     
  -4328368266.6919174       -619440909.21637762        1159516824.7199733     
  -4298397955.8871918       -463664742.59375417        1141732874.2902901     
  -4279000502.7400026       -343131434.82959044        1130072818.3435946     
  -4270175907.2503538       -257840985.92389154        1124536656.8798871     
  -4271924169.4182415       -207793395.87665129        1125124389.8991673     
  -4946127332.6515751       -615303748.70253766        1168528599.5603449     
  -4871825664.8366432       -412374702.87525058        1103248706.1616971     
  -4814868764.6132774       -267261549.01984930        1055064528.4714515     
  -4775256631.9814787       -179964287.13633728        1023976066.4896080     
  -4752989266.9412441       -150482917.22471070        1009983320.2161654     
  -5668733747.7151194       -642620792.91986394        1194511221.3884892     
  -5518752662.2459431       -383134449.69470334        1073834823.4311786     
  -5392888254.3023586       -204037031.55485106        981225962.40768349     
  -5291140523.8843699       -105328538.50031471        916684638.31800461     
  -5213509470.9919720       -87008970.531086922        880210851.16214085     
  -6496187511.8825502       -701392041.86835575        1237464690.2044070     
  -6239178948.1150885       -375943983.05210733        1053491226.0987343     
  -6013058971.8072462       -153457882.43459296        908557120.15229094     
  -5817827582.9590273       -33933740.015821695        802662372.36507833     
  -5653484781.5704288       -17371555.795783043        735806982.73709440     
  -3770314178.4229679       -258940406.48691106        1225634060.2111473     
  -3663353133.8756857       -166051086.89696062        1193192410.0784605     
  -3564157276.1784482       -99045723.473826647        1171350291.2548778     
  -3472726605.3312540       -57924316.217502594        1160107703.7404010     
  -3389061121.3341012       -42686865.127983689        1159464647.5350273     
  -4271924169.4182415       -207793395.87665129        1125124389.8991673     
  -4148718569.8999577       -143057049.80236244        1091639823.2002099     
  -4029971367.1057611       -93182026.141700983        1066548376.7503798     
  -3915682561.0356550       -58168324.894673824        1049850050.5496765     
  -3805852151.6896353       -38015946.061272860        1041544844.5980997     
  -4752989266.9412441       -150482917.22471070        1009983320.2161654     
  -4619843144.0518913       -115790754.14605975        979313758.76455152     
  -4487848627.7606745       -84937279.727859259        954830906.50208664     
  -4357005718.0675907       -57922493.970106363        936534763.42877090     
  -4227314414.9726405       -34746396.872800827        924425329.54460466     
  -5213509470.9919720       -87008970.531086922        880210851.16214085     
  -5076726856.3314886       -84252199.928057671        856214216.77148306     
  -4937789058.1431856       -74311484.232295752        836197880.50999761     
  -4796696076.4270630       -57186823.443799973        820161842.37768281     
  -4653447911.1831207       -32878217.562570095        808106102.37453997     
  -5653484781.5704288       -17371555.795783043        735806982.73709440     
  -5519369706.7387495       -48441387.148354292        722341197.22100711     
  -5379792658.2532988       -61304639.655013561        710649298.77411330     
  -5234753636.1140718       -55961313.315756083        700731287.39641356     
  -5084252640.3210697       -32411408.130584717        692587163.08790815     
  -3389061121.3341012       -42686865.127983689        1159464647.5350273     
  -3298268188.6276979       -36934040.623387814        1155118901.7398763     
  -3207373494.0367594       -30842009.837009788        1157178739.6151690     
  -3116377037.5612898       -24410772.768864632        1165644161.1609044     
  -3025278819.2012868       -17640329.418934226        1180515166.3770826     
  -3805852151.6896353       -38015946.061272860        1041544844.5980997     
  -3697695109.7480679       -26241638.858496666        1034773138.8282099     
  -3590272678.6050196       -16916034.317449570        1033563283.5615002     
  -3483584858.2604942       -10039132.438145399        1037915278.7979705     
  -3377631648.7144880       -5610933.2205762863        1047829124.5376228     
  -4227314414.9726405       -34746396.872800827        924425329.54460466     
  -4104203929.9880919       -17673806.829504013        914251895.66974676     
  -3982664428.4851131       -5837828.3914504051        908796579.13080645     
  -3862695910.4637060        761538.44136261940        908059379.92778492     
  -3744298375.9238739        2124293.6689310074        912040298.06067908     
  -4653447911.1831207       -32878217.562570095        808106102.37453997     
  -4517794649.3477650       -11230544.536406040        793555172.26448810     
  -4384548743.6770363        2392607.9410052299        782878626.32308912     
  -4253710194.1709313        7991239.8696649075        776076464.55034494     
  -4125279000.8294501        5565351.2495808601        773148686.94625890     
  -5084252640.3210697       -32411408.130584717        692587163.08790815     
  -4938467267.8270893       -6911851.9792032242        672682968.61243308     
  -4795925624.1807880        7775274.6799123287        655809425.13834727     
  -4656627709.3821602        11649971.846777439        641966532.66565657     
  -4520573523.4312153        4712239.5213718414        631154291.19435668     
  -3025278819.2012868       -17640329.418934226        1180515166.3770826     
  -2924267106.4120121       -8953215.5774753094        1182040952.2628152     
  -2824054327.7076578       -2929215.3524167538        1186416532.6611681     
  -2724640483.0882215        431671.25624942780        1193641907.5721378     
  -2626025572.5536990        1129444.2485276461        1203717076.9957259     
  -3377631648.7144880       -5610933.2205762863        1047829124.5376228     
  -3269671549.6112781       -2044407.4148154259        1044158046.1252618     
  -3161941943.1901960        753809.45053029060        1044163759.9115479     
  -3054442829.4512348        2783717.3754671812        1047846265.8964789     
  -2947174208.3943954        4045316.3599917889        1055205564.0800551     
  -3744298375.9238739        2124293.6689310074        912040298.06067908     
  -3627027039.9752269        1279086.5984432697        903835536.98682022     
  -3509417755.3059077        1560375.2635302544        900134565.79763496     
  -3391470521.9159174        2968159.6641826630        900937384.49312210     
  -3273185339.8052588        5502439.8004074097        906243993.07328153     
  -4125279000.8294501        5565351.2495808601        773148686.94625890     
  -3996333577.5038586        1017266.4622955322        761073424.84749281     
  -3866481764.0547957       -509517.91342735291        754328950.31942832     
  -3735723560.4822731        984998.12239050865        752915263.36206365     
  -3604058966.7862773        5500814.5697703362        756832363.97539866     
  -4520573523.4312153        4712239.5213718414        631154291.19435668     
  -4377591162.1971703       -2829867.8232550621        615871709.70727980     
  -4233133969.4368591       -5455870.0803298950        606746913.47693014     
  -4087201945.1502938       -3165767.2498927116        603779902.50330710     
  -3939795089.3374643        4040440.6680929661        606970676.78641224     
  -2626025572.5536990        1129444.2485276461        1203717076.9957259     
  -2538361745.8975906       -2490273.8537952900        1201093664.5798151     
  -2450579534.1221008       -5715374.8915245533        1204033813.8496335     
  -2362678937.2272401       -8545858.8646818399        1212537524.8051891     
  -2274659955.2130051       -10981725.773252368        1226604797.4464788     
  -2947174208.3943954        4045316.3599917889        1055205564.0800551     
  -2845072970.3720851        2989474.9590271711        1050482160.4569054     
  -2743247102.6182904        1015732.6630063057        1050709232.3447818     
  -2641696605.1330085       -1875910.5280561447        1055886779.7436882     
  -2540421477.9162450       -5685454.6141754389        1066014802.6536305     
  -3273185339.8052588        5502439.8004074097        906243993.07328153     
  -3158398365.2016125        6484972.6653314829        898961216.95701587     
  -3044280516.2543745        5237086.6755720377        896015830.17707872     
  -2930831792.9635429        1758781.8311297894        897407832.73346865     
  -2818052195.3291111       -3949941.8679928780        903137224.62618554     
  -3604058966.7862773        5500814.5697703362        756832363.97539866     
  -3478337930.3861718        7996219.2651271820        746530834.08015120     
  -3353679775.0303555        6948687.1461720467        739953607.34652829     
  -3230084500.7188373        2358218.2128912210        737100683.77452695     
  -3107552107.4516153       -5775187.5346969366        737972063.36415350     
  -3939795089.3374643        4040440.6680929661        606970676.78641224     
  -3804891665.9257560        7523214.7584204674        593191011.82630801     
  -3671444878.9462333        6150534.0747940540        582522563.85312808     
  -3539454728.3988953       -77601.382776260376        574965332.86686409     
  -3408921214.2837415       -11161191.614294052        570519318.86752689     
  -2274659955.2130051       -10981725.773252368        1226604797.4464788     
  -2164079471.0118232       -7544472.6194319725        1228195687.3594012     
  -2054207699.7940035       -6469596.0768128633        1237327795.1903210     
  -1945044641.5595355       -7757096.1453701258        1254001120.9392352     
  -1836590296.3084280       -11406972.825129032        1278215664.6061487     
  -2540421477.9162450       -5685454.6141754389        1066014802.6536305     
  -2412330021.9743500       -1984906.6164164543        1062156387.3859662     
  -2284315815.4564595        1458143.3013298512        1064165972.1137940     
  -2156378858.3625751        4643695.1390590668        1072043556.8371102     
  -2028519150.6926911        7571748.8967719078        1085789141.5559139     
  -2818052195.3291111       -3949941.8679928780        903137224.62618554     
  -2677230390.2822332       -1420285.8169891834        894566211.66384590     
  -2535854371.1000104        2956750.6851613522        890189980.77448976     
  -2393924137.7824426        9181167.6384567022        890008531.95811558     
  -2251439690.3295379        17252965.042889237        894021865.21472108     
  -3107552107.4516153       -5775187.5346969366        737972063.36415350     
  -2958780575.9354839       -5850610.2211766243        725425160.19304299     
  -2808823366.7246680       -1973773.9253575802        715399821.17240977     
  -2657680479.8191495        5855321.3527941704        707896046.30225015     
  -2505351915.2189436        17636675.613236427        702913835.58256686     
  -3408921214.2837415       -11161191.614294052        570519318.86752689     
  -3256980578.9341016       -15275879.828982234        554733232.97355962     
  -3103222802.3304157       -13333430.530182958        539795493.30755293     
  -2947647884.4726925       -5333843.7179192305        525706099.86952007     
  -2790255825.3609266        8722880.6078170538        512465052.65944898     
  -1836590296.3084280       -11406972.825129032        1278215664.6061487     
  -1761468265.6293426       -25063490.354928136        1305861589.7471216     
  -1685642102.0625832       -36372898.259147644        1363272121.8260636     
  -1609111805.6081495       -45335196.537797153        1450447260.8429792     
  -1531877376.2660484       -51950385.190871060        1567387006.7978773     
  -2028519150.6926911        7571748.8967719078        1085789141.5559139     
  -1888617382.1693444        13349969.352716088        1095658739.6885047     
  -1749141079.5348258        17709970.179225326        1121109358.9204562     
  -1610090242.7891393        20651751.376294732        1162140999.2517738     
  -1471464871.9322836        22175312.943932354        1218753660.6824582     
  -2251439690.3295379        17252965.042889237        894021865.21472108     
  -2087282714.9293771        30308564.194351077        884797271.09967327     
  -1924680804.1945596        38180614.461353898        876970112.24537957     
  -1763633958.1250732        40869115.843909740        870540388.65183902     
  -1604142176.7209234        38374068.342007697        865508100.31905425     
  -2505351915.2189436        17636675.613236427        702913835.58256686     
  -2357464263.9094419        25812294.169973016        673277183.98062837     
  -2212261276.0417800        25039034.587231636        630854381.80083430     
  -2069742951.6159554        15316896.865033746        575645429.04318249     
  -1929909290.6319771       -3354118.9966443777        507650325.70767140     
  -2790255825.3609266        8722880.6078170538        512465052.65944898     
  -2699162029.1095285       -138840.72039830685        461098478.33136851     
  -2611882495.0764894       -21714769.443129182        382762167.58681810     
  -2528417223.2617831       -56004905.560318708        277456120.42579079     
  -2448766213.6654277       -103009249.07200229        145180336.84830767     
  -5957654021.9376955       -1787296206.5813086        1150365893.9366708     
  -6088164980.9536066       -1502078787.1687293        1228229317.6168261     
  -6221424215.6163874       -1226022286.5790448        1268700258.2215011     
  -6357431725.9260349       -959126704.81225371        1271778715.7506940     
  -6496187511.8825502       -701392041.86835575        1237464690.2044070     
  -6810110126.5097990       -2043033037.9529395        1354090879.9579780     
  -6828205378.5694008       -1395485406.1481290        1203006686.2624433     
  -6897633462.3035116       -919047213.25834584        1092173931.9798038     
  -7018394377.7121334       -613718459.28359175        1021592617.1100596     
  -7190488124.7952614       -479499144.22386360        991262741.65320969     
  -8337486991.1268778       -2501246097.3380632        1712543587.8820777     
  -8021326757.6919556       -1424816319.5795562        1275829794.7786057     
  -7805083911.9591808       -681444500.82821059        957011363.57640481     
  -7688758453.9285564       -271130641.08402681        756088294.27547586     
  -7672350383.6000805       -193874740.34700489        673060586.87581909     
  -10539784615.788937       -3161935384.7366810        2225724017.7089696     
  -9667529118.3212700       -1590071527.4630122        1446698643.1653137     
  -8943775564.5833931       -513214149.28863716        863212553.01130521     
  -8368523954.5753031        68636749.786440849        475265747.24694455     
  -7941774288.2970047        155481169.76222229        282858225.87223244     
  -13417003000.495972       -4025100900.1487918        2893632169.4386539     
  -11766812460.457346       -1891251029.7984953        1715613231.4225669     
  -10313708420.176146       -414356158.63962793        810777500.28450334     
  -9057690879.6523743        405583713.32781124        179124976.02446473     
  -7998759838.8860340        568568586.10381985       -179344341.35755017     
  -6496187511.8825502       -701392041.86835575        1237464690.2044070     
  -6239178948.1150885       -375943983.05210733        1053491226.0987343     
  -6013058971.8072462       -153457882.43459296        908557120.15229094     
  -5817827582.9590273       -33933740.015821695        802662372.36507833     
  -5653484781.5704288       -17371555.795783043        735806982.73709440     
  -7190488124.7952614       -479499144.22386360        991262741.65320969     
  -6900286464.8291435       -303990814.11797953        847135078.50647986     
  -6622971494.3326559       -171438115.57754016        724102683.97880161     
  -6358543213.3058043       -81841048.602548122        622165558.07017648     
  -6107001621.7485886       -35199613.193004847        541323700.78060293     
  -7672350383.6000805       -193874740.34700489        673060586.87581909     
  -7400224454.6929512       -183686787.12877893        589780939.00968206     
  -7122983317.2654705       -156448138.84270525        509652470.22242111     
  -6840626971.3176374       -112158795.48879266        432675180.51403391     
  -6553155416.8494511       -50818757.067035198        358849069.88452196     
  -7941774288.2970047        155481169.76222229        282858225.87223244     
  -7738992917.7065153       -15031902.084501266        281428807.60834074     
  -7513094440.6056871       -108487952.23009205        265206478.88314682     
  -7264078856.9945230       -124886980.67455339        234191239.69665205     
  -6991946166.8730145       -64228987.417876244        188383090.04885221     
  -7998759838.8860340        568568586.10381985       -179344341.35755017     
  -7916591853.8698387        201973841.01484537       -77921315.697544515     
  -7793304864.3533144       -27557555.739703655       -9235290.0390174817     
  -7628898870.3364601       -120025604.15983009        26713735.618027143     
  -7423373871.8192854       -75430304.245532990        29925761.273593187     
  -5653484781.5704288       -17371555.795783043        735806982.73709440     
  -5519369706.7387495       -48441387.148354292        722341197.22100711     
  -5379792658.2532988       -61304639.655013561        710649298.77411330     
  -5234753636.1140718       -55961313.315756083        700731287.39641356     
  -5084252640.3210697       -32411408.130584717        692587163.08790815     
  -6107001621.7485886       -35199613.193004847        541323700.78060293     
  -5958502390.8400326       -37070458.401087761        534758668.41378593     
  -5808720584.1473618       -34666050.995438337        530746256.84972197     
  -5657656201.6705675       -27986390.976059914        529286466.08840907     
  -5505309243.4096565       -17031478.342945337        530379296.12984848     
  -6553155416.8494511       -50818757.067035198        358849069.88452196     
  -6388047076.3395710       -22823130.073295832        354308826.48571223     
  -6225835557.9152231       -4483576.6980047226        353099937.62321395     
  -6066520861.5764170        4199903.0588333607        355222403.29702246     
  -5910102987.3231392        3227309.1972267628        360676223.50714010     
  -6991946166.8730145       -64228987.417876244        188383090.04885221     
  -6808003763.2373571       -5699402.1649765968        180991671.43678752     
  -6631137579.5568924        29242783.237283707        177710341.09458989     
  -6461347615.8316154        40597568.788925409        178539099.02225757     
  -6298633872.0615273        28364954.489923000        183477945.21979138     
  -7423373871.8192854       -75430304.245532990        29925761.273593187     
  -7218372451.5334024        14300725.323855877        14807203.267006125     
  -7024626649.0723600        66513028.810446262        4577467.2638476463     
  -6842136464.4361687        81206606.214196205       -763446.73588761780     
  -6670901897.6248178        58381457.535151958       -1215538.7322021483     
  -5084252640.3210697       -32411408.130584717        692587163.08790815     
  -4938467267.8270893       -6911851.9792032242        672682968.61243308     
  -4795925624.1807880        7775274.6799123287        655809425.13834727     
  -4656627709.3821602        11649971.846777439        641966532.66565657     
  -4520573523.4312153        4712239.5213718414        631154291.19435668     
  -5505309243.4096565       -17031478.342945337        530379296.12984848     
  -5354537424.5326319       -7272824.3712532520        513951876.29982769     
  -5205525357.3823137       -3380009.4885792732        501962049.34299040     
  -5058273041.9587059       -5353033.6949355602        494409815.25933683     
  -4912780478.2617998       -13191896.990307570        491295174.04886925     
  -5910102987.3231392        3227309.1972267628        360676223.50714010     
  -5750324888.1436691       -1548988.8349504471        349456884.96371168     
  -5590822563.5699348       -7244535.5529093742        344082081.16525602     
  -5431596013.6019382       -13859330.956650734        344551812.11177695     
  -5272645238.2396688       -21393375.046166897        350866077.80327213     
  -6298633872.0615273        28364954.489923000        183477945.21979138     
  -6125829658.6602087        10259654.629700184        179197994.60408330     
  -5951817242.7436466       -3818303.5130562782        182169520.60514504     
  -5776596624.3118544       -13868919.938371658        192392523.22297248     
  -5600167803.3648233       -19892194.646221161        209867002.45756477     
  -6670901897.6248178        58381457.535151958       -1215538.7322021483     
  -6481051736.0822372        28153106.022708654        3175205.2209459255     
  -6288509394.9034519        6898686.6309595108        16224367.662657736     
  -6093274874.0884552       -5381800.6400935650        37931948.592924640     
  -5895348173.6372509       -8688355.7904508114        68297948.011748224     
  -4520573523.4312153        4712239.5213718414        631154291.19435668     
  -4377591162.1971703       -2829867.8232550621        615871709.70727980     
  -4233133969.4368591       -5455870.0803298950        606746913.47693014     
  -4087201945.1502938       -3165767.2498927116        603779902.50330710     
  -3939795089.3374643        4040440.6680929661        606970676.78641224     
  -4912780478.2617998       -13191896.990307570        491295174.04886925     
  -4755409144.9508715       -17722227.007371902        488150008.53160906     
  -4596446256.1369162       -16947372.014340162        489220472.27963156     
  -4435891811.8199167       -10867332.011167288        494506565.29293638     
  -4273745811.9998932        517893.00210070610        504008287.57152641     
  -5272645238.2396688       -21393375.046166897        350866077.80327213     
  -5106433949.9702768       -24576632.871211290        359994506.22873443     
  -4938514382.2210798       -22065625.763568878        371396407.92802936     
  -4768886534.9920702       -13860353.723215818        385071782.90116948     
  -4597550408.2832499        39183.249820470810        401020631.14814466     
  -5600167803.3648233       -19892194.646221161        209867002.45756477     
  -5430665577.2553768       -23393085.414766788        231405202.79864690     
  -5259338347.6893454       -20810631.328021765        253274720.42212287     
  -5086186114.6667385       -12144832.386021852        275475555.32799578     
  -4911208878.1875467        2604311.4112596512        298007707.51626176     
  -5895348173.6372509       -8688355.7904508114        68297948.011748224     
  -5728104026.8061638       -14171584.638000011        102382098.24135630     
  -5558918152.5417290       -13182388.707738400        134855409.76191348     
  -5387790550.8439198       -5720767.9995567799        165717882.57342055     
  -5214721221.7127705        8213277.4864339828        194969516.67587897     
  -3939795089.3374643        4040440.6680929661        606970676.78641224     
  -3804891665.9257560        7523214.7584204674        593191011.82630801     
  -3671444878.9462333        6150534.0747940540        582522563.85312808     
  -3539454728.3988953       -77601.382776260376        574965332.86686409     
  -3408921214.2837415       -11161191.614294052        570519318.86752689     
  -4273745811.9998932        517893.00210070610        504008287.57152641     
  -4128812142.6774902        5996848.3997144699        492232292.14579606     
  -3985959635.7590170        4538595.7842557430        484599996.28583503     
  -3845188291.2444768       -3856864.8443136215        481111399.99165225     
  -3706498109.1338487       -19189533.485950232        481766503.26324403     
  -4597550408.2832499        39183.249820470810        401020631.14814466     
  -4439636542.8248577        8399305.0223348141        390519691.62307608     
  -4284428365.7421346        7740465.5426168442        385194934.24264133     
  -4131925877.0350833       -1937335.1893482208        385046359.00683200     
  -3982129076.7036996       -20634097.173537970        390073965.91565639     
  -4911208878.1875467        2604311.4112596512        298007707.51626176     
  -4737364866.3678598        14730584.626260996        288053210.25816250     
  -4566851068.8955917        15756143.349873304        284307377.72355360     
  -4399667485.7707329        5680987.5821142197        286770209.91241401     
  -4235814116.9932952       -15494882.677039623        295441706.82477468     
  -5214721221.7127705        8213277.4864339828        194969516.67587897     
  -5021997113.3064976        24990687.211493492        184832848.05104750     
  -4833227745.2193785        28585629.206041813        181937326.72855496     
  -4648413117.4514227        18998103.470032454        186282952.70840257     
  -4467553230.0026226       -3771889.9964711666        197869725.99058226     
  -3408921214.2837415       -11161191.614294052        570519318.86752689     
  -3256980578.9341016       -15275879.828982234        554733232.97355962     
  -3103222802.3304157       -13333430.530182958        539795493.30755293     
  -2947647884.4726925       -5333843.7179192305        525706099.86952007     
  -2790255825.3609266        8722880.6078170538        512465052.65944898     
  -3706498109.1338487       -19189533.485950232        481766503.26324403     
  -3550724178.5076790       -28340261.579488754        477549049.70794266     
  -3392172283.7236667       -28231109.146891117        476594101.64789772     
  -3230842424.7817974       -18862076.188107252        478901659.08310753     
  -3066734601.6820903       -233162.70318603516        484471722.01357031     
  -3982129076.7036996       -20634097.173537970        390073965.91565639     
  -3815624252.8944626       -32751585.773971558        398546104.75346684     
  -3645380642.0235777       -32406450.835577965        412694908.35381967     
  -3471398244.0910373       -19598692.358339310        432520376.71670848     
  -3293677059.0968556        5671689.6577134132        458022509.84214371     
  -4235814116.9932952       -15494882.677039623        295441706.82477468     
  -4051680802.0944514       -28509852.412398100        317724398.11012495     
  -3862847877.2301602       -25859455.596262693        348097913.42530859     
  -3669315342.4004102       -7543692.2286098003        386562252.77031952     
  -3471083197.6052155        26437437.690549850        433117416.14516068     
  -4467553230.0026226       -3771889.9964711666        197869725.99058226     
  -4258893826.1076417       -15615061.494795561        235083929.77791965     
  -4044573989.3434200       -8590123.4289870262        282803116.86238033     
  -3824593719.7099237        17302924.201075315        341027287.24394119     
  -3598953017.2071762        62064081.395299196        409756440.92262536     
  -2790255825.3609266        8722880.6078170538        512465052.65944898     
  -2699162029.1095285       -138840.72039830685        461098478.33136851     
  -2611882495.0764894       -21714769.443129182        382762167.58681810     
  -2528417223.2617831       -56004905.560318708        277456120.42579079     
  -2448766213.6654277       -103009249.07200229        145180336.84830767     
  -3066734601.6820903       -233162.70318603516        484471722.01357031     
  -3012249893.2106085       -19216268.864865422        458837223.56846416     
  -2963658589.7265096       -57844058.317806721        434347328.97838032     
  -2920960691.2297912       -116116531.06201279        411002038.24332488     
  -2884156197.7204471       -194033687.09748423        388801351.36328733     
  -3293677059.0968556        5671689.6577134132        458022509.84214371     
  -3195474751.9153113        665204.60960400105        455694420.71613979     
  -3105244992.4901905       -30916439.626589775        482625275.71665198     
  -3022987780.8214760       -89073243.050811648        538815074.84367752     
  -2948703116.9091864       -173805205.66310215        624263818.09721696     
  -3471083197.6052155        26437437.690549850        433117416.14516068     
  -3248836605.2236438        59505579.702952862        451670069.77438849     
  -3036641703.3675127        59068086.630541682        527596007.80161804     
  -2834498492.0368500        25124958.473276734        660895230.22685623     
  -2642406971.2316198       -42323804.768825054        851567737.05009568     
  -3598953017.2071762        62064081.395299196        409756440.92262536     
  -3172335453.1355944        157304856.41526937        446764170.74321693     
  -2757848722.3585043        212109520.45356715        569259525.23329139     
  -2355492824.8758936        226478073.51027811        777242504.39285862     
  -1965267760.6877785        200410515.58534777        1070713108.2219238     
 </DataArray>
 <DataArray  type="Float64" Name="VM" NumberOfComponents="1" format="ascii">
   12935684647.893696     
   11340665590.352779     
   10209936545.610264     
   9272333654.1232300     
   8303479147.3156586     
   10130168774.912663     
   9321812850.3202667     
   8826088923.2196980     
   8443276914.7593756     
   8035594310.7147408     
   7982119467.2583942     
   7734732847.6980572     
   7668936185.7373810     
   7669476442.7513304     
   7666427104.4153700     
   6491455174.5005999     
   6586712572.7965994     
   6757312782.6410465     
   6961188564.5205450     
   7171681216.3774309     
   5657738224.0188742     
   5890902462.0579081     
   6116407950.0021935     
   6331788289.9536180     
   6536817676.9003935     
   8303479147.3156586     
   8020622150.1259069     
   7779579138.3715649     
   7569741197.6490860     
   7386129479.0460491     
   8035594310.7147408     
   7746838844.2311020     
   7473572165.3798647     
   7213860695.7049532     
   6967698006.6186914     
   7666427104.4153700     
   7381142461.1232805     
   7101142640.3618870     
   6826503051.5596685     
   6557417419.8707151     
   7171681216.3774309     
   6910980649.3935986     
   6658129375.5578938     
   6409262816.8001804     
   6161236708.2038126     
   6536817676.9003935     
   6328715298.5843992     
   6142809157.4498615     
   5965203205.8224716     
   5786900540.6234741     
   7386129479.0460491     
   7225578944.8696547     
   7058122668.5874300     
   6883099182.1260662     
   6700283721.0182171     
   6967698006.6186914     
   6812372577.3870001     
   6652931426.1365519     
   6489114332.2240438     
   6320858024.4736977     
   6557417419.8707151     
   6406127953.2077360     
   6253572833.7988415     
   6099731196.9350481     
   5944633166.6310034     
   6161236708.2038126     
   6011833418.1482677     
   5863970150.4313240     
   5717687648.6406670     
   5573047907.2879295     
   5786900540.6234741     
   5635934085.6592283     
   5489188312.5957918     
   5346578964.3033600     
   5208158845.2018433     
   6700283721.0182171     
   6495176379.4939976     
   6292024329.7714968     
   6090940106.8110170     
   5892196411.1972055     
   6320858024.4736977     
   6138817389.2967587     
   5958269416.7441025     
   5779289784.7763624     
   5602053908.3785839     
   5944633166.6310034     
   5781322675.6221991     
   5618898820.2087841     
   5457407526.6917696     
   5296958262.2370787     
   5573047907.2879295     
   5424446599.4075899     
   5275965186.0459909     
   5127611618.8216839     
   4979446756.8636379     
   5208158845.2018433     
   5070688306.3450117     
   4932394011.8183594     
   4793217083.2388668     
   4653168427.9607859     
   5892196411.1972055     
   5723779046.7917309     
   5557249585.9333410     
   5392576817.6507330     
   5229747050.1547232     
   5602053908.3785839     
   5433809064.7114630     
   5267263717.1425076     
   5102482355.4882927     
   4939554186.4389429     
   5296958262.2370787     
   5132208188.6042891     
   4969330505.9432306     
   4808452276.1575804     
   4649742204.3038778     
   4979446756.8636379     
   4821288735.0863180     
   4665588679.7208796     
   4512500214.7583141     
   4362245974.4208994     
   4653168427.9607859     
   4504311075.3597012     
   4358988756.2960615     
   4217338156.6365576     
   4079602966.7750506     
   5229747050.1547232     
   5044707354.3954430     
   4857815564.2102394     
   4669102755.6635456     
   4478800320.9347048     
   4939554186.4389429     
   4770906728.6322899     
   4601176479.3307238     
   4430441537.0144310     
   4258941808.2756572     
   4649742204.3038778     
   4495025022.2750511     
   4339893459.1338778     
   4184446485.9207888     
   4028905958.4874601     
   4362245974.4208994     
   4218858070.5906277     
   4075597740.4115171     
   3932564307.1174064     
   3789942926.0340009     
   4079602966.7750506     
   3944807841.9598236     
   3810528081.3003464     
   3676849260.3624873     
   3543909936.5718756     
   4478800320.9347048     
   4270563311.0386667     
   4069870027.5353785     
   3878516737.4600649     
   3699105512.8028030     
   4258941808.2756572     
   4074832970.4013462     
   3896907468.1248879     
   3726196853.0992665     
   3564218876.7307920     
   4028905958.4874601     
   3861555434.3982048     
   3699009008.0182610     
   3541775920.3452191     
   3390630523.1825275     
   3789942926.0340009     
   3632076016.0534754     
   3477540915.5160718     
   3326529505.3398852     
   3179352870.0386901     
   3543909936.5718756     
   3388449415.4783902     
   3234645331.4685712     
   3082537084.8668189     
   2932201217.9351563     
   3699105512.8028030     
   3344588995.1115127     
   3034444799.4294620     
   2818762845.9987159     
   2781291384.4718971     
   3564218876.7307920     
   3371026805.6219459     
   3199862995.4729495     
   3068644195.5313802     
   3007951478.5455027     
   3390630523.1825275     
   3291831898.0299454     
   3200981210.5786381     
   3122192656.2438345     
   3062951913.0215135     
   3179352870.0386901     
   3106079410.4130492     
   3030043068.6892748     
   2951794488.2932096     
   2872260811.7892532     
   2932201217.9351563     
   2814771099.6149907     
   2684251467.2973700     
   2546639394.9977059     
   2412064139.0116467     
   5657738224.0188742     
   5890902462.0579081     
   6116407950.0021935     
   6331788289.9536180     
   6536817676.9003935     
   5151533833.3960085     
   5311425577.1571655     
   5467941056.4415922     
   5618176901.9806395     
   5760662182.7589426     
   4643674818.7471428     
   4755725523.0719919     
   4868903810.6068840     
   4980568676.2978573     
   5088789725.2697935     
   4134422355.2753067     
   4224637822.0163369     
   4320788592.0471907     
   4421215374.6208982     
   4524461107.9379673     
   3625293583.9040837     
   3719983283.3252883     
   3825948375.8993173     
   3943127075.1006169     
   4071428335.4552126     
   6536817676.9003935     
   6328715298.5843992     
   6142809157.4498615     
   5965203205.8224716     
   5786900540.6234741     
   5760662182.7589426     
   5652288242.1806593     
   5559940565.2925882     
   5474567217.8791666     
   5390634739.8791800     
   5088789725.2697935     
   5054423178.2719889     
   5030610713.2131605     
   5012152066.9756241     
   4995849007.7674932     
   4524461107.9379673     
   4539697816.6428471     
   4559662117.3616991     
   4581877995.1846895     
   4604622813.0151577     
   4071428335.4552126     
   4113412484.3320951     
   4152819275.3819494     
   4188756148.8781004     
   4220493928.2726312     
   5786900540.6234741     
   5635934085.6592283     
   5489188312.5957918     
   5346578964.3033600     
   5208158845.2018433     
   5390634739.8791800     
   5248984373.5629044     
   5110580126.5216866     
   4975465014.5930576     
   4843734900.0435534     
   4995849007.7674932     
   4868119694.9431963     
   4743618889.6279058     
   4622312980.6831656     
   4504242122.4006662     
   4604622813.0151577     
   4495982669.0728998     
   4391629256.8055439     
   4291239932.7208982     
   4194725226.9036503     
   4220493928.2726312     
   4136490028.6708488     
   4059088212.9477482     
   3987427696.8783121     
   3921219690.5368304     
   5208158845.2018433     
   5070688306.3450117     
   4932394011.8183594     
   4793217083.2388668     
   4653168427.9607859     
   4843734900.0435534     
   4716889521.0545387     
   4590583921.3697252     
   4464861780.6420259     
   4339837911.4193745     
   4504242122.4006662     
   4390880883.7898111     
   4279735222.8626742     
   4170980384.8707242     
   4064871625.8296719     
   4194725226.9036503     
   4097422422.7979412     
   4004293952.9502535     
   3915647641.4466720     
   3831881129.3184719     
   3921219690.5368304     
   3842007004.9061966     
   3769146059.8963752     
   3703040303.2572269     
   3644187753.0095520     
   4653168427.9607859     
   4504311075.3597012     
   4358988756.2960615     
   4217338156.6365576     
   4079602966.7750506     
   4339837911.4193745     
   4208615768.9594522     
   4081022901.7801275     
   3957266143.1806388     
   3837640187.3443780     
   4064871625.8296719     
   3951040633.1905203     
   3840861637.0943575     
   3734596635.0172377     
   3632577259.8195405     
   3831881129.3184719     
   3735621735.2981601     
   3642951383.6757646     
   3554163309.4507174     
   3469603833.6039257     
   3644187753.0095520     
   3566076151.4601216     
   3491385360.0573082     
   3420407155.5734777     
   3353473115.8527107     
   4079602966.7750506     
   3944807841.9598236     
   3810528081.3003464     
   3676849260.3624873     
   3543909936.5718756     
   3837640187.3443780     
   3714651676.3640504     
   3593482152.1182337     
   3474337477.0611105     
   3357495348.9204259     
   3632577259.8195405     
   3524258531.3928056     
   3419378236.7149734     
   3318275939.9668236     
   3221377523.6690288     
   3469603833.6039257     
   3378386110.6434264     
   3292440093.0452023     
   3212211007.4264250     
   3138230845.3633595     
   3353473115.8527107     
   3280982066.4132056     
   3215658413.0016351     
   3157985979.2692370     
   3108520040.8324347     
   3543909936.5718756     
   3388449415.4783902     
   3234645331.4685712     
   3082537084.8668189     
   2932201217.9351563     
   3357495348.9204259     
   3211826738.6762586     
   3069094211.9838796     
   2929541222.5046616     
   2793483286.8545499     
   3221377523.6690288     
   3092653915.0451174     
   2969070324.7061529     
   2851189508.0553088     
   2739698449.8919935     
   3138230845.3633595     
   3032998582.2226372     
   2935775771.4702616     
   2847426395.1198325     
   2768956644.0489788     
   3108520040.8324347     
   3031891163.1918478     
   2966388631.5153670     
   2913027194.8326731     
   2872934047.6947908     
   2932201217.9351563     
   2814771099.6149907     
   2684251467.2973700     
   2546639394.9977059     
   2412064139.0116467     
   2793483286.8545499     
   2641791448.3065062     
   2478719737.1200705     
   2304316715.1250277     
   2119248585.4435720     
   2739698449.8919935     
   2601831831.9073501     
   2467097314.3318424     
   2336166702.7578430     
   2209890255.7302146     
   2768956644.0489788     
   2682101982.3412685     
   2619435811.5094066     
   2584140737.2269058     
   2579614741.5158114     
   2872934047.6947908     
   2859208567.9410057     
   2890836087.0893116     
   2971487585.9383740     
   3104814258.5605531     
   3625293583.9040837     
   3719983283.3252883     
   3825948375.8993173     
   3943127075.1006169     
   4071428335.4552126     
   3138259995.4369535     
   3255809547.3290801     
   3382792332.3477378     
   3518741055.8384242     
   3663199353.3508539     
   2694983855.3581429     
   2830765618.7105818     
   2973866937.7168832     
   3123207549.0931153     
   3277877983.9062171     
   2298952708.2664080     
   2449641520.2321634     
   2605050845.8506136     
   2763260667.0694246     
   2922843139.2617674     
   1955375664.3291643     
   2119392093.2698824     
   2284754173.8153152     
   2448504844.6345944     
   2608688391.1041422     
   4071428335.4552126     
   4113412484.3320951     
   4152819275.3819494     
   4188756148.8781004     
   4220493928.2726312     
   3663199353.3508539     
   3703122116.3758488     
   3741690521.8798451     
   3778009723.5539551     
   3811333065.1811376     
   3277877983.9062171     
   3321505781.6427794     
   3365346163.2385917     
   3408576115.6000485     
   3450517298.3572536     
   2922843139.2617674     
   2975958661.9782691     
   3031202804.9297795     
   3087888303.8705254     
   3145477911.5718851     
   2608688391.1041422     
   2676566216.5264754     
   2748787591.3931770     
   2824835305.5320530     
   2904349537.2020063     
   4220493928.2726312     
   4136490028.6708488     
   4059088212.9477482     
   3987427696.8783121     
   3921219690.5368304     
   3811333065.1811376     
   3758804325.9332347     
   3712276794.2003021     
   3671265941.7435241     
   3635673773.3418260     
   3450517298.3572536     
   3424545241.9221530     
   3403567758.9676166     
   3387344365.6835098     
   3375851157.1523504     
   3145477911.5718851     
   3141457248.4079957     
   3140805245.1906672     
   3143411114.9616036     
   3149250883.3927660     
   2904349537.2020063     
   2918096289.8978457     
   2932784131.5958028     
   2948349343.7020512     
   2964744050.0031571     
   3921219690.5368304     
   3842007004.9061966     
   3769146059.8963752     
   3703040303.2572269     
   3644187753.0095520     
   3635673773.3418260     
   3570925975.2918835     
   3512008810.2374525     
   3459216344.2414083     
   3412908473.7031698     
   3375851157.1523504     
   3323177443.3413677     
   3275693083.4013743     
   3233596484.3155909     
   3197132834.1002879     
   3149250883.3927660     
   3106464973.9637055     
   3068085491.7046208     
   3034225812.1178179     
   3005037007.6165066     
   2964744050.0031571     
   2929994166.7161989     
   2898713263.6956987     
   2870935913.9650168     
   2846735340.2028198     
   3644187753.0095520     
   3566076151.4601216     
   3491385360.0573082     
   3420407155.5734777     
   3353473115.8527107     
   3412908473.7031698     
   3341828427.1672015     
   3275614699.8010397     
   3214606631.1038275     
   3159190652.5846844     
   3197132834.1002879     
   3133882988.9427557     
   3077134026.8601713     
   3027237961.0261388     
   2984597390.8221769     
   3005037007.6165066     
   2949557921.4255667     
   2902407522.2593098     
   2863902836.5175691     
   2834409954.5774674     
   2846735340.2028198     
   2797751203.3784757     
   2759111646.8382487     
   2731047536.1101751     
   2713832351.6642752     
   3353473115.8527107     
   3280982066.4132056     
   3215658413.0016351     
   3157985979.2692370     
   3108520040.8324347     
   3159190652.5846844     
   3098660116.6798744     
   3044781765.8827953     
   2997915637.6078854     
   2958467540.2045078     
   2984597390.8221769     
   2933876707.3234844     
   2889182199.1711164     
   2850769268.4852638     
   2818920281.0237937     
   2834409954.5774674     
   2791405520.0831146     
   2753677868.1833820     
   2721398270.5994277     
   2694752216.4004669     
   2713832351.6642752     
   2676594132.6189990     
   2643752978.0237284     
   2615416475.5485306     
   2591698777.3353448     
   3108520040.8324347     
   3031891163.1918478     
   2966388631.5153670     
   2913027194.8326731     
   2872934047.6947908     
   2958467540.2045078     
   2893936595.1065426     
   2839041191.8579488     
   2794460195.5243940     
   2760938385.0968943     
   2818920281.0237937     
   2762652844.6415501     
   2714470733.9243526     
   2674800365.7473655     
   2644103662.0489678     
   2694752216.4004669     
   2643058215.0688291     
   2597811875.6858640     
   2559261759.5032606     
   2527673030.4109678     
   2591698777.3353448     
   2541242838.6615930     
   2495485131.4661398     
   2454559589.3521290     
   2418606307.5181565     
   2872934047.6947908     
   2859208567.9410057     
   2890836087.0893116     
   2971487585.9383740     
   3104814258.5605531     
   2760938385.0968943     
   2762212000.8423548     
   2787872511.4866700     
   2838672606.9480939     
   2915532028.5629826     
   2644103662.0489678     
   2637038067.8881388     
   2635500362.2753305     
   2639451001.1724057     
   2648859291.1030569     
   2527673030.4109678     
   2492244178.6412392     
   2442434372.8587127     
   2378466123.2482324     
   2300683827.8461289     
   2418606307.5181565     
   2342036149.5673327     
   2228882713.2907934     
   2079109115.2125523     
   1893000202.2071762     
   1955375664.3291643     
   2119392093.2698824     
   2284754173.8153152     
   2448504844.6345944     
   2608688391.1041422     
   1653768574.4109495     
   1820162647.7902880     
   1988241577.4500763     
   2155310965.7187567     
   2319614374.5060015     
   1393490681.6783137     
   1570799210.9346347     
   1749099114.6971297     
   1926387513.0269635     
   2101414725.0009713     
   1206867839.0937142     
   1398740779.5168180     
   1590175158.3669767     
   1780394256.2181990     
   1968939617.7045128     
   1136605103.1070702     
   1334861320.6504576     
   1533406292.9627645     
   1732240020.0439916     
   1931362501.8941379     
   2608688391.1041422     
   2676566216.5264754     
   2748787591.3931770     
   2824835305.5320530     
   2904349537.2020063     
   2319614374.5060015     
   2406509419.1235752     
   2495744387.7340531     
   2586925820.1614523     
   2679775517.4242945     
   2101414725.0009713     
   2205025279.0650525     
   2308514261.6536856     
   2411644093.7324300     
   2514247087.1616678     
   1968939617.7045128     
   2086032768.2737262     
   2200317043.4408603     
   2311717060.3814368     
   2420180449.4568763     
   1931362501.8941379     
   2058041893.2795129     
   2179418715.9495664     
   2295492969.9043002     
   2406264655.1437120     
   2904349537.2020063     
   2918096289.8978457     
   2932784131.5958028     
   2948349343.7020512     
   2964744050.0031571     
   2679775517.4242945     
   2700524156.1894245     
   2723477774.6789556     
   2748616873.5007806     
   2775931514.9808555     
   2514247087.1616678     
   2542205674.5936618     
   2573680783.3422456     
   2608675644.9561462     
   2647197498.3414426     
   2420180449.4568763     
   2453909553.5655770     
   2492475760.8382735     
   2535883779.4800954     
   2584139071.3143344     
   2406264655.1437120     
   2442530829.1646791     
   2484948730.4007521     
   2533518358.8519301     
   2588239714.5182161     
   2964744050.0031571     
   2929994166.7161989     
   2898713263.6956987     
   2870935913.9650168     
   2846735340.2028198     
   2775931514.9808555     
   2755471865.3791876     
   2740163437.0297303     
   2730067742.4331346     
   2725271004.9546127     
   2647197498.3414426     
   2640743954.8645701     
   2641050190.3445215     
   2648166198.3807516     
   2662152598.6250796     
   2584139071.3143344     
   2589596356.9092116     
   2603263826.5560284     
   2625159528.8593359     
   2655303624.2003088     
   2588239714.5182161     
   2601731371.5025434     
   2624732552.9253764     
   2657243258.7867141     
   2699263489.0865607     
   2846735340.2028198     
   2797751203.3784757     
   2759111646.8382487     
   2731047536.1101751     
   2713832351.6642752     
   2725271004.9546127     
   2695217425.9508839     
   2674428675.9174256     
   2663024185.3631220     
   2661138023.6434274     
   2662152598.6250796     
   2647871918.2419744     
   2641393226.2004514     
   2642760082.0782089     
   2652019175.0547700     
   2655303624.2003088     
   2653737333.7567096     
   2658236400.6656971     
   2668808655.2847643     
   2685462173.2167349     
   2699263489.0865607     
   2707798618.2311211     
   2720519731.9929085     
   2737426830.3719206     
   2758519913.3681631     
   2713832351.6642752     
   2676594132.6189990     
   2643752978.0237284     
   2615416475.5485306     
   2591698777.3353448     
   2661138023.6434274     
   2634584833.3738770     
   2614091972.3090343     
   2599753572.5041418     
   2591666245.5184450     
   2652019175.0547700     
   2635363007.1322131     
   2626374454.4791007     
   2625110611.5938663     
   2631628091.8780298     
   2685462173.2167349     
   2676673629.0093379     
   2677095547.3418560     
   2686745651.9250116     
   2705640968.5633693     
   2758519913.3681631     
   2754581341.4041462     
   2761376079.9486933     
   2778904129.0017986     
   2807165488.5634661     
   2591698777.3353448     
   2541242838.6615930     
   2495485131.4661398     
   2454559589.3521290     
   2418606307.5181565     
   2591666245.5184450     
   2558703497.4301996     
   2533023214.3731570     
   2514751582.9514637     
   2504012041.8473616     
   2631628091.8780298     
   2615655229.8766246     
   2609386327.2349467     
   2612896079.9189587     
   2626252240.8799953     
   2705640968.5633693     
   2704493872.4061947     
   2715362852.3885174     
   2738269638.0157480     
   2773232392.8478165     
   2807165488.5634661     
   2817581391.7302699     
   2842384172.9517274     
   2881573832.2278476     
   2935150369.5586257     
   2418606307.5181565     
   2342036149.5673327     
   2228882713.2907934     
   2079109115.2125523     
   1893000202.2071762     
   2504012041.8473616     
   2450537633.7781277     
   2383389522.9561048     
   2302445589.1201248     
   2207662559.1333194     
   2626252240.8799953     
   2609826921.6512828     
   2603416112.2256241     
   2607113363.0039120     
   2620953259.2818413     
   2773232392.8478165     
   2795173981.3611870     
   2848839585.6228590     
   2934214169.9510555     
   3051200777.8079686     
   2935150369.5586257     
   2990413122.4222097     
   3099259191.9592147     
   3261688578.1696396     
   3477701281.0534759     
   1136605103.1070702     
   1334861320.6504576     
   1533406292.9627645     
   1732240020.0439916     
   1931362501.8941379     
   1206867839.1122372     
   1398740779.5442238     
   1590175158.4026716     
   1780394256.2620513     
   1968939617.7566957     
   1393490681.7130830     
   1570799210.9841948     
   1749099114.7609699     
   1926387513.1051097     
   2101414725.0938206     
   1653768574.4583378     
   1820162647.8551412     
   1988241577.5323331     
   2155310965.8187833     
   2319614374.6244378     
   1955375664.3865988     
   2119392093.3446558     
   2284754173.9077530     
   2448504844.7453442     
   2608688391.2339773     
   1931362501.8941379     
   2058041893.2795129     
   2179418715.9495664     
   2295492969.9043002     
   2406264655.1437120     
   1968939617.7566957     
   2086032768.3101597     
   2200317043.4600334     
   2311717060.3815446     
   2420180449.4359870     
   2101414725.0938206     
   2205025279.1341395     
   2308514261.6960111     
   2411644093.7446280     
   2514247087.1401906     
   2319614374.6244378     
   2406509419.2187815     
   2495744387.8017235     
   2586925820.1969833     
   2679775517.4228864     
   2608688391.2339773     
   2676566216.6409531     
   2748787591.4871564     
   2824835305.6002316     
   2904349537.2388535     
   2406264655.1437120     
   2442530829.1646791     
   2484948730.4007521     
   2533518358.8519301     
   2588239714.5182161     
   2420180449.4359870     
   2453909553.5868335     
   2492475760.9023194     
   2535883779.5877743     
   2584139071.4665456     
   2514247087.1401906     
   2542205674.6382895     
   2573680783.4532142     
   2608675645.1338968     
   2647197498.5864811     
   2679775517.4228864     
   2700524156.2607198     
   2723477774.8217134     
   2748616873.7137561     
   2775931515.2627892     
   2904349537.2388535     
   2918096290.0000010     
   2932784131.7594604     
   2948349343.9229984     
   2964744050.2769585     
   2588239714.5182161     
   2601731371.5025434     
   2624732552.9253764     
   2657243258.7867141     
   2699263489.0865607     
   2584139071.4665456     
   2589596357.0583501     
   2603263826.7224293     
   2625159529.0631161     
   2655303624.4615159     
   2647197498.5864811     
   2640743955.0813632     
   2641050190.5730071     
   2648166198.6610394     
   2662152598.9977627     
   2775931515.2627892     
   2755471865.5741563     
   2740163437.1950979     
   2730067742.6273823     
   2725271005.2379365     
   2964744050.2769585     
   2929994166.8039918     
   2898713263.6684289     
   2870935913.8957510     
   2846735340.1677294     
   2699263489.0865607     
   2707798618.2311211     
   2720519731.9929085     
   2737426830.3719206     
   2758519913.3681631     
   2655303624.4615159     
   2653737334.0926757     
   2658236401.0520420     
   2668808655.6970029     
   2685462173.6303191     
   2662152598.9977627     
   2647871918.7840881     
   2641393226.8656559     
   2642760082.8194399     
   2652019175.8242655     
   2725271005.2379365     
   2695217426.5247169     
   2674428676.7175741     
   2663024186.3233547     
   2661138024.6953435     
   2846735340.1677294     
   2797751203.7838931     
   2759111647.6075792     
   2731047537.1629901     
   2713832352.9155703     
   2758519913.3681631     
   2754581341.4041462     
   2761376079.9486933     
   2778904129.0017986     
   2807165488.5634661     
   2685462173.6303191     
   2676673629.6943717     
   2677095548.4194922     
   2686745653.5153146     
   2705640970.7853179     
   2652019175.8242655     
   2635363008.3745165     
   2626374456.4402847     
   2625110614.5197811     
   2631628096.0141521     
   2661138024.6953435     
   2634584834.9528699     
   2614091974.7861586     
   2599753576.2544212     
   2591666250.9206147     
   2713832352.9155703     
   2676594134.2348952     
   2643752980.4898682     
   2615416479.3613892     
   2591698783.0024581     
   2807165488.5634661     
   2817581391.7302699     
   2842384172.9517274     
   2881573832.2278476     
   2935150369.5586257     
   2705640970.7853179     
   2704493873.0792303     
   2715362851.5124669     
   2738269635.6008372     
   2773232388.9151859     
   2631628096.0141521     
   2615655231.6957307     
   2609386326.7663279     
   2612896077.2045827     
   2626252235.9751835     
   2591666250.9206147     
   2558703500.5249500     
   2533023215.2568631     
   2514751581.7271509     
   2504012038.6245551     
   2591698783.0024581     
   2541242842.7230678     
   2495485134.1340199     
   2454559590.8333578     
   2418606308.0119038     
   2935150369.5586257     
   2990413122.4222097     
   3099259191.9592147     
   3261688578.1696396     
   3477701281.0534759     
   2773232388.9151859     
   2795173975.8661280     
   2848839578.0772166     
   2934214159.8570604     
   3051200764.6450534     
   2626252235.9751835     
   2609826914.8178058     
   2603416102.2857280     
   2607113348.7795463     
   2620953239.5974989     
   2504012038.6245551     
   2450537629.8057861     
   2383389516.2084351     
   2302445577.5366921     
   2207662540.6348433     
   2418606308.0119038     
   2342036152.4068012     
   2228882715.8180776     
   2079109114.8019946     
   1893000196.3428991     
   1955375664.3865988     
   2119392093.3446558     
   2284754173.9077530     
   2448504844.7453442     
   2608688391.2339773     
   2298952708.3298483     
   2449641520.3124943     
   2605050845.9486132     
   2763260667.1859283     
   2922843139.3975954     
   2694983855.4221554     
   2830765618.7901106     
   2973866937.8131900     
   3123207549.2073565     
   3277877984.0394354     
   3138259995.4971619     
   3255809547.4026566     
   3382792332.4364257     
   3518741055.9437971     
   3663199353.4743323     
   3625293583.9567857     
   3719983283.3885937     
   3825948375.9754219     
   3943127075.1915674     
   4071428335.5629244     
   2608688391.2339773     
   2676566216.6409531     
   2748787591.4871564     
   2824835305.6002316     
   2904349537.2388535     
   2922843139.3975954     
   2975958662.1125526     
   3031202805.0582724     
   3087888303.9889679     
   3145477911.6758909     
   3277877984.0394354     
   3321505781.7888169     
   3365346163.3942895     
   3408576115.7624655     
   3450517298.5235276     
   3663199353.4743323     
   3703122116.5263391     
   3741690522.0552549     
   3778009723.7526627     
   3811333065.4018474     
   4071428335.5629244     
   4113412484.4805808     
   4152819275.5700111     
   4188756149.1052389     
   4220493928.5388913     
   2904349537.2388535     
   2918096290.0000010     
   2932784131.7594604     
   2948349343.9229984     
   2964744050.2769585     
   3145477911.6758909     
   3141457248.5707607     
   3140805245.4076605     
   3143411115.2277484     
   3149250883.7028947     
   3450517298.5235276     
   3424545242.1396370     
   3403567759.2309685     
   3387344365.9865327     
   3375851157.4887748     
   3811333065.4018474     
   3758804326.1968150     
   3712276794.5007324     
   3671265942.0734324     
   3635673773.6935697     
   4220493928.5388913     
   4136490028.9708858     
   4059088213.2751551     
   3987427697.2246327     
   3921219690.8929372     
   2964744050.2769585     
   2929994166.8039918     
   2898713263.6684289     
   2870935913.8957510     
   2846735340.1677294     
   3149250883.7028947     
   3106464973.9784155     
   3068085491.4398651     
   3034225811.5908608     
   3005037006.8464723     
   3375851157.4887748     
   3323177443.3492389     
   3275693083.0510607     
   3233596483.5767965     
   3197132832.9419203     
   3635673773.6935697     
   3570925975.3757753     
   3512008809.9874797     
   3459216343.5875020     
   3412908472.5700898     
   3921219690.8929372     
   3842007005.1569161     
   3769146059.9475799     
   3703040303.0058913     
   3644187752.3412590     
   2846735340.1677294     
   2797751203.7838931     
   2759111647.6075792     
   2731047537.1629901     
   2713832352.9155703     
   3005037006.8464723     
   2949557921.0178113     
   2902407522.1546726     
   2863902836.6515484     
   2834409954.8795457     
   3197132832.9419203     
   3133882988.0803370     
   3077134026.2471075     
   3027237960.6097865     
   2984597390.5432973     
   3412908472.5700898     
   3341828426.2647734     
   3275614699.0919189     
   3214606630.5446782     
   3159190652.1257868     
   3644187752.3412590     
   3566076150.9510393     
   3491385359.6773586     
   3420407155.2873368     
   3353473115.6195521     
   2713832352.9155703     
   2676594134.2348952     
   2643752980.4898682     
   2615416479.3613892     
   2591698783.0024581     
   2834409954.8795457     
   2791405520.1696687     
   2753677868.3263040     
   2721398271.0831509     
   2694752217.5226493     
   2984597390.5432973     
   2933876706.3417401     
   2889182197.5552077     
   2850769266.3141694     
   2818920278.3873296     
   3159190652.1257868     
   3098660115.2260485     
   3044781763.3106680     
   2997915633.7960205     
   2958467535.0328956     
   3353473115.6195521     
   3280982065.1588693     
   3215658410.4206591     
   3157985975.0421562     
   3108520034.6227775     
   2591698783.0024581     
   2541242842.7230678     
   2495485134.1340199     
   2454559590.8333578     
   2418606308.0119038     
   2694752217.5226493     
   2643058214.1300111     
   2597811872.7806296     
   2559261754.7118707     
   2527673023.7941146     
   2818920278.3873296     
   2762652839.7589087     
   2714470726.7811933     
   2674800356.3009205     
   2644103650.2194080     
   2958467535.0328956     
   2893936587.7828741     
   2839041182.2600350     
   2794460183.4812336     
   2760938370.3756056     
   3108520034.6227775     
   3031891155.1952667     
   2966388621.4962540     
   2913027182.4785690     
   2872934032.5973449     
   2418606308.0119038     
   2342036152.4068012     
   2228882715.8180776     
   2079109114.8019946     
   1893000196.3428991     
   2527673023.7941146     
   2492244176.5827675     
   2442434374.0934572     
   2378466126.5381103     
   2300683832.0070777     
   2644103650.2194080     
   2637038061.6919918     
   2635500361.5807977     
   2639451005.8002672     
   2648859300.8287086     
   2760938370.3756056     
   2762211991.1051078     
   2787872507.4864388     
   2838672609.4132743     
   2915532038.2258348     
   2872934032.5973449     
   2859208555.0397582     
   2890836077.9778728     
   2971487582.4231215     
   3104814262.7074261     
   3625293583.9567857     
   3719983283.3885937     
   3825948375.9754219     
   3943127075.1915674     
   4071428335.5629244     
   4134422355.3172674     
   4224637822.0666752     
   4320788592.1071234     
   4421215374.6918554     
   4524461108.0215416     
   4643674818.7754850     
   4755725523.1070490     
   4868903810.6487341     
   4980568676.3471813     
   5088789725.3277397     
   5151533833.4078341     
   5311425577.1748466     
   5467941056.4639826     
   5618176902.0075617     
   5760662182.7909718     
   5657738224.0110197     
   5890902462.0561047     
   6116407950.0040016     
   6331788289.9579029     
   6536817676.9070225     
   4071428335.5629244     
   4113412484.4805808     
   4152819275.5700111     
   4188756149.1052389     
   4220493928.5388913     
   4524461108.0215416     
   4539697816.7740707     
   4559662117.5425701     
   4581877995.4173250     
   4604622813.3015022     
   5088789725.3277397     
   5054423178.3733540     
   5030610713.3618774     
   5012152067.1753931     
   4995849008.0218277     
   5760662182.7909718     
   5652288242.2412939     
   5559940565.3866329     
   5474567218.0107613     
   5390634740.0525599     
   6536817676.9070225     
   6328715298.5947618     
   6142809157.4688625     
   5965203205.8535557     
   5786900540.6702423     
   4220493928.5388913     
   4136490028.9708858     
   4059088213.2751551     
   3987427697.2246327     
   3921219690.8929372     
   4604622813.3015022     
   4495982669.3894730     
   4391629257.1498795     
   4291239933.0895662     
   4194725227.2927704     
   4995849008.0218277     
   4868119695.2231331     
   4743618889.9344902     
   4622312981.0172596     
   4504242122.7630873     
   5390634740.0525599     
   5248984373.7541409     
   5110580126.7350264     
   4975465014.8330097     
   4843734900.3150024     
   5786900540.6702423     
   5635934085.7113695     
   5489188312.6607018     
   5346578964.3888035     
   5208158845.3163366     
   3921219690.8929372     
   3842007005.1569161     
   3769146059.9475799     
   3703040303.0058913     
   3644187752.3412590     
   4194725227.2927704     
   4097422423.3177466     
   4004293953.5570683     
   3915647642.0915494     
   3831881129.9455204     
   4504242122.7630873     
   4390880884.4168415     
   4279735223.7499833     
   4170980386.0125556     
   4064871627.2182755     
   4843734900.3150024     
   4716889521.6098938     
   4590583922.2320147     
   4464861781.8352346     
   4339837912.9687862     
   5208158845.3163366     
   5070688306.6425695     
   4932394012.3375721     
   4793217084.0191765     
   4653168429.0431776     
   3644187752.3412590     
   3566076150.9510393     
   3491385359.6773586     
   3420407155.2873368     
   3353473115.6195521     
   3831881129.9455204     
   3735621736.3436880     
   3642951385.1533546     
   3554163311.3722830     
   3469603835.9799910     
   4064871627.2182755     
   3951040635.1002984     
   3840861639.5690670     
   3734596638.1034722     
   3632577263.5680985     
   4339837912.9687862     
   4208615770.9707432     
   4081022904.3128505     
   3957266146.3019133     
   3837640191.1317954     
   4653168429.0431776     
   4504311076.6884985     
   4358988757.9334335     
   4217338158.6566758     
   4079602969.2688193     
   3353473115.6195521     
   3280982065.1588693     
   3215658410.4206591     
   3157985975.0421562     
   3108520034.6227775     
   3469603835.9799910     
   3378386112.6902776     
   3292440094.5537333     
   3212211008.1765428     
   3138230845.1209793     
   3632577263.5680985     
   3524258535.3548856     
   3419378240.7676082     
   3318275943.9837327     
   3221377527.5189233     
   3837640191.1317954     
   3714651680.7033858     
   3593482156.9504509     
   3474337482.3322210     
   3357495354.5822663     
   4079602969.2688193     
   3944807845.1125369     
   3810528085.0868530     
   3676849264.7676196     
   3543909941.5934000     
   3108520034.6227775     
   3031891155.1952667     
   2966388621.4962540     
   2913027182.4785690     
   2872934032.5973449     
   3138230845.1209793     
   3032998582.0547075     
   2935775771.2988772     
   2847426394.8323693     
   2768956643.4871955     
   3221377527.5189233     
   3092653919.9629574     
   2969070330.6868167     
   2851189515.0961232     
   2739698457.9901109     
   3357495354.5822663     
   3211826745.5478659     
   3069094220.0135174     
   2929541231.6561360     
   2793483297.1048565     
   3543909941.5934000     
   3388449421.1106696     
   3234645337.4990005     
   3082537091.0816269     
   2932201224.1025224     
   2872934032.5973449     
   2859208555.0397582     
   2890836077.9778728     
   2971487582.4231215     
   3104814262.7074261     
   2768956643.4871955     
   2682101982.3362947     
   2619435813.2038531     
   2584140742.0210128     
   2579614751.1085124     
   2739698457.9901109     
   2601831838.5514383     
   2467097320.0132995     
   2336166708.1449747     
   2209890261.7391524     
   2793483297.1048565     
   2641791454.7939410     
   2478719739.3908429     
   2304316712.6841445     
   2119248577.7609169     
   2932201224.1025224     
   2814771099.9691129     
   2684251460.6335049     
   2546639380.2054071     
   2412064115.3135400     
   5657738224.0110197     
   5890902462.0561047     
   6116407950.0040016     
   6331788289.9579029     
   6536817676.9070225     
   6491455174.4857063     
   6586712572.7708178     
   6757312782.6058331     
   6961188564.4790535     
   7171681216.3335466     
   7982119467.2645617     
   7734732847.6748276     
   7668936185.6889133     
   7669476442.6823683     
   7666427104.3308086     
   10130168774.967394     
   9321812850.3250389     
   8826088923.1806278     
   8443276914.6814394     
   8035594310.6013470     
   12935684648.024315     
   11340665590.409540     
   10209936545.601267     
   9272333654.0542336     
   8303479147.1882792     
   6536817676.9070225     
   6328715298.5947618     
   6142809157.4688625     
   5965203205.8535557     
   5786900540.6702423     
   7171681216.3335466     
   6910980649.3283033     
   6658129375.4732246     
   6409262816.6972857     
   6161236708.0834227     
   7666427104.3308086     
   7381142460.9977789     
   7101142640.1958141     
   6826503051.3529568     
   6557417419.6228113     
   8035594310.6013470     
   7746838844.0625143     
   7473572165.1557875     
   7213860695.4249477     
   6967698006.2819510     
   8303479147.1882792     
   8020622149.9336081     
   7779579138.1142063     
   7569741197.3263969     
   7386129478.6573811     
   5786900540.6702423     
   5635934085.7113695     
   5489188312.6607018     
   5346578964.3888035     
   5208158845.3163366     
   6161236708.0834227     
   6011833418.0057831     
   5863970150.2719603     
   5717687648.4699898     
   5573047907.1120129     
   6557417419.6228113     
   6406127952.9085503     
   6253572833.4510536     
   6099731196.5416088     
   5944633166.1952200     
   6967698006.2819510     
   6812372576.9690647     
   6652931425.6374655     
   6489114331.6439095     
   6320858023.8129025     
   7386129478.6573811     
   7225578944.3698950     
   7058122667.9741936     
   6883099181.3966990     
   6700283720.1702805     
   5208158845.3163366     
   5070688306.6425695     
   4932394012.3375721     
   4793217084.0191765     
   4653168429.0431776     
   5573047907.1120129     
   5424446599.2277308     
   5275965185.8835516     
   5127611618.6991434     
   4979446756.8056536     
   5944633166.1952200     
   5781322675.0344477     
   5618898819.4772940     
   5457407525.8261805     
   5296958261.2495098     
   6320858023.8129025     
   6138817388.3788700     
   5958269415.5675602     
   5779289783.3409281     
   5602053906.6861334     
   6700283720.1702805     
   6495176378.3289576     
   6292024328.2806578     
   6090940104.9862862     
   5892196409.0312796     
   4653168429.0431776     
   4504311076.6884985     
   4358988757.9334335     
   4217338158.6566758     
   4079602969.2688193     
   4979446756.8056536     
   4821288734.9049072     
   4665588679.4507618     
   4512500214.4426327     
   4362245974.1136703     
   5296958261.2495098     
   5132208187.2589140     
   4969330504.2555008     
   4808452274.1473885     
   4649742201.9964066     
   5602053906.6861334     
   5433809062.5610666     
   5267263714.5375195     
   5102482352.4325371     
   4939554182.9367504     
   5892196409.0312796     
   5723779044.1991987     
   5557249582.9119320     
   5392576814.1948433     
   5229747046.2552395     
   4079602969.2688193     
   3944807845.1125369     
   3810528085.0868530     
   3676849264.7676196     
   3543909941.5934000     
   4362245974.1136703     
   4218858070.6745358     
   4075597740.8904839     
   3932564308.0050912     
   3789942927.3574624     
   4649742201.9964066     
   4495025020.0480919     
   4339893457.0120554     
   4184446483.9368749     
   4028905956.6865616     
   4939554182.9367504     
   4770906724.8385401     
   4601176475.2842550     
   4430441532.7594376     
   4258941803.8661799     
   5229747046.2552395     
   5044707349.7575407     
   4857815558.8824177     
   4669102749.6957054     
   4478800314.3827286     
   3543909941.5934000     
   3388449421.1106696     
   3234645337.4990005     
   3082537091.0816269     
   2932201224.1025224     
   3789942927.3574624     
   3632076017.2222137     
   3477540916.3914285     
   3326529505.7969503     
   3179352869.9535313     
   4028905956.6865616     
   3861555431.8810058     
   3699009004.7047448     
   3541775916.1763415     
   3390630518.1135120     
   4258941803.8661799     
   4074832964.8611093     
   3896907461.4240069     
   3726196845.2344661     
   3564218867.7281132     
   4478800314.3827286     
   4270563303.0466003     
   4069870018.1245313     
   3878516726.6878500     
   3699105500.7791562     
   2932201224.1025224     
   2814771099.9691129     
   2684251460.6335049     
   2546639380.2054071     
   2412064115.3135400     
   3179352869.9535313     
   3106079405.5362401     
   3030043058.7396193     
   2951794473.1945510     
   2872260791.7518401     
   3390630518.1135120     
   3291831890.0538788     
   3200981199.6589761     
   3122192642.1858068     
   3062951895.3564482     
   3564218867.7281132     
   3371026796.5118408     
   3199862986.2908168     
   3068644185.5992818     
   3007951465.9726882     
   3699105500.7791562     
   3344588986.8276839     
   3034444795.2254658     
   2818762844.7374864     
   2781291381.9830885     
 </DataArray>
 <DataArray  type="Float64" Name="strain" NumberOfComponents="3" format="ascii">
  0.20349121217252344        0.0000000000000000       0.12539072733971751     
  0.18665728585788915       -2.7313211805744003E-002   7.4343240026808283E-002
  0.16982335954325486       -4.4662606123834263E-002   3.5133691678192094E-002
  0.15298943322862060       -5.2048182954270827E-002   7.7620822938688702E-003
  0.13615550691398631       -4.9469942297053676E-002  -7.7715881261612857E-003
  0.15985340000588572        0.0000000000000000        9.6448040764668785E-002
  0.15317512766834623       -2.1836453467364059E-002   6.2690274535070062E-002
  0.14649685533080675       -3.6165308668403055E-002   3.7405877295367929E-002
  0.13981858299326730       -4.2986565603116998E-002   2.0594849045562462E-002
  0.13314031065572784       -4.2300224271505864E-002   1.2257189785653592E-002
  0.12645188603276725        0.0000000000000000        7.4210222138664336E-002
  0.12656469769792622       -1.6359695128984116E-002   5.5285957771047403E-002
  0.12667750936308519       -2.7668011212971827E-002   4.1470492418930721E-002
  0.12679032102824414       -3.3924948251963141E-002   3.2763826082314269E-002
  0.12690313269340311       -3.5130506245958065E-002   2.9165958761198083E-002
  0.10328667025316805        0.0000000000000000        5.8677271461704164E-002
  0.10682599594662906       -1.0882936790604170E-002   5.2130289734740390E-002
  0.11036532164009007       -1.9170713757540602E-002   4.7327537048880472E-002
  0.11390464733355110       -2.4863330900809298E-002   4.4269013404124403E-002
  0.11744397302701209       -2.7960788220410256E-002   4.2954718800472171E-002
   9.0357752667088148E-002   0.0000000000000000        4.9849188733788255E-002
   9.3959022414454821E-002  -5.4061784522242287E-003   5.3223270426148987E-002
   9.7560292161821480E-002  -1.0673416302109381E-002   5.4977011185217139E-002
  0.10116156190918815       -1.5801713549655462E-002   5.5110411010992830E-002
  0.10476283165655484       -2.0791070194862461E-002   5.3623469903475933E-002
  0.13615550691398631       -4.9469942297053676E-002  -7.7715881261612857E-003
  0.13295306677268687       -4.2949189954214324E-002  -3.3765903474949135E-003
  0.12975062663138742       -3.8507231727784287E-002  -4.0019590231470462E-004
  0.12654818649008798       -3.6144067617763752E-002   1.1575952093792613E-003
  0.12334574634878853       -3.5859697624152448E-002   1.2967829875869807E-003
  0.13314031065572784       -4.2300224271505864E-002   1.2257189785653592E-002
  0.12890805578759965       -3.8444432887978455E-002   1.2195248327460280E-002
  0.12467580091947143       -3.5757339666943541E-002   1.1492280749095640E-002
  0.12044354605134322       -3.4238944608401115E-002   1.0148287050559710E-002
  0.11621129118321502       -3.3889247712351189E-002   8.1632672318524974E-003
  0.12690313269340311       -3.5130506245958065E-002   2.9165958761198083E-002
  0.12241864031176104       -3.3939675821742593E-002   2.5557174020061843E-002
  0.11793414793011901       -3.3007447606102705E-002   2.2084940372069286E-002
  0.11344965554847697       -3.2333821599038540E-002   1.8749257817220380E-002
  0.10896516316683492       -3.1918797800549917E-002   1.5550126355515066E-002
  0.11744397302701209       -2.7960788220410256E-002   4.2954718800472171E-002
  0.11348482034517117       -2.9434918755506710E-002   3.6709186730310019E-002
  0.10952566766333023       -3.0257555545261945E-002   3.1377782966606364E-002
  0.10556651498148925       -3.0428698589675923E-002   2.6960507509361336E-002
  0.10160736229964834       -2.9948347888748679E-002   2.3457360358574909E-002
  0.10476283165655484       -2.0791070194862461E-002   5.3623469903475933E-002
  0.10210659588782990       -2.4930161689270851E-002   4.5651286458204585E-002
   9.9450360119105005E-002  -2.7507663484421130E-002   3.9370808532706837E-002
   9.6794124350380095E-002  -2.8523575580313328E-002   3.4782036126982496E-002
   9.4137888581655185E-002  -2.7977897976947372E-002   3.1884969241031708E-002
  0.12334574634878853       -3.5859697624152448E-002   1.2967829875869807E-003
  0.12037771116039120       -3.6330207682717844E-002   6.4164547431236341E-004
  0.11740967597199387       -3.6231683729226992E-002   1.9835691402747546E-004
  0.11444164078359652       -3.5564125763679934E-002  -3.3082693267662278E-005
  0.11147360559519920       -3.4327533786076669E-002  -5.2673347573140017E-005
  0.11621129118321502       -3.3889247712351189E-002   8.1632672318524974E-003
  0.11343823238359736       -3.3945028782051703E-002   7.8429724250853317E-003
  0.11066517358397972       -3.3643067620760400E-002   7.7007814428877927E-003
  0.10789211478436209       -3.2983364228477460E-002   7.7366942852600575E-003
  0.10511905598474441       -3.1965918605202870E-002   7.9507109522019559E-003
  0.10896516316683492       -3.1918797800549917E-002   1.5550126355515066E-002
  0.10635333562757701       -3.1559849881385528E-002   1.5353382474190880E-002
  0.10374150808831906       -3.1054451512293951E-002   1.5300997289016304E-002
  0.10112968054906106       -3.0402602693274983E-002   1.5392970799991435E-002
   9.8517853009803091E-002  -2.9604303424328904E-002   1.5629303007116221E-002
  0.10160736229964834       -2.9948347888748679E-002   2.3457360358574909E-002
   9.9123020892330077E-002  -2.9174670980719384E-002   2.3172875621629060E-002
   9.6638679485011786E-002  -2.8465835403827376E-002   2.2999004452412979E-002
   9.4154338077693495E-002  -2.7821841158072590E-002   2.2935746850926499E-002
   9.1669996670375245E-002  -2.7242688243455077E-002   2.2983102817169667E-002
   9.4137888581655185E-002  -2.7977897976947372E-002   3.1884969241031708E-002
   9.1747288177856573E-002  -2.6789492080053219E-002   3.1301451867399868E-002
   8.9356687774057975E-002  -2.5877219295360829E-002   3.0794802933077715E-002
   8.6966087370259390E-002  -2.5241079622870088E-002   3.0365022438065114E-002
   8.4575486966460778E-002  -2.4881073062581166E-002   3.0012110382362372E-002
  0.11147360559519920       -3.4327533786076669E-002  -5.2673347573140017E-005
  0.10815829448389741       -3.2874477121364432E-002   1.3759222383769032E-004
  0.10484298337259557       -3.1557525094489960E-002   7.0305592926547811E-004
  0.10152767226129375       -3.0376677705453523E-002   1.6437177687102789E-003
   9.8212361149991934E-002  -2.9331934954254957E-002   2.9595777421718150E-003
  0.10511905598474441       -3.1965918605202870E-002   7.9507109522019559E-003
  0.10214845926653873       -3.0800142541312872E-002   7.7652464244058056E-003
   9.9177862548333051E-002  -2.9695447827183905E-002   7.8940125487849816E-003
   9.6207265830127384E-002  -2.8651834462816158E-002   8.3370093253393313E-003
   9.3236669111921688E-002  -2.7669302448209421E-002   9.0942367540693403E-003
   9.8517853009803091E-002  -2.9604303424328904E-002   1.5629303007116221E-002
   9.5831003202851886E-002  -2.8725807961261368E-002   1.5143131668190049E-002
   9.3144153395900625E-002  -2.7833370559877953E-002   1.4910223499597440E-002
   9.0457303588949392E-002  -2.6926991220178678E-002   1.4930578501338537E-002
   8.7770453781998173E-002  -2.6006669942163746E-002   1.5204196673413092E-002
   9.1669996670375245E-002  -2.7242688243455077E-002   2.2983102817169667E-002
   8.9205926292836787E-002  -2.6651473381209864E-002   2.2271247955190369E-002
   8.6741855915298260E-002  -2.5971293292571949E-002   2.1751688781702944E-002
   8.4277785537759789E-002  -2.5202147977541368E-002   2.1424425296707395E-002
   8.1813715160221290E-002  -2.4344037436118168E-002   2.1289457500203866E-002
   8.4575486966460778E-002  -2.4881073062581166E-002   3.0012110382362372E-002
   8.2273228536493381E-002  -2.4577138801158291E-002   2.9149595285406754E-002
   7.9970970106525985E-002  -2.4109216025265910E-002   2.8418408395101222E-002
   7.7668711676558588E-002  -2.3477304734903955E-002   2.7818549711446108E-002
   7.5366453246591192E-002  -2.2681404930072535E-002   2.7350019234441081E-002
   9.8212361149991934E-002  -2.9331934954254957E-002   2.9595777421718150E-003
   9.5397542565365756E-002  -2.8404327076549940E-002   4.4365575835592086E-003
   9.2582723980739551E-002  -2.7574884307994305E-002   5.8437344166141492E-003
   8.9767905396113359E-002  -2.6843606648587464E-002   7.1811082413371780E-003
   8.6953086811487168E-002  -2.6210494098330206E-002   8.4486790577279480E-003
   9.3236669111921688E-002  -2.7669302448209421E-002   9.0942367540693403E-003
   9.0394127564404264E-002  -2.6763443140372989E-002   1.0027558762579630E-002
   8.7551586016886895E-002  -2.5949847896316491E-002   1.0975237853639908E-002
   8.4709044469369471E-002  -2.5228516716039928E-002   1.1937274027249936E-002
   8.1866502921852102E-002  -2.4599449599543077E-002   1.2913667283409591E-002
   8.7770453781998173E-002  -2.6006669942163746E-002   1.5204196673413092E-002
   8.4984349362471470E-002  -2.5122559204196093E-002   1.5599761894416087E-002
   8.2198244942944809E-002  -2.4324811484638907E-002   1.6093844288850891E-002
   7.9412140523418107E-002  -2.3613426783492174E-002   1.6686443856717335E-002
   7.6626036103891459E-002  -2.2988405100755782E-002   1.7377560598015346E-002
   8.1813715160221290E-002  -2.4344037436118168E-002   2.1289457500203866E-002
   7.9168207959567277E-002  -2.3481675268019198E-002   2.1153166979068772E-002
   7.6522700758913292E-002  -2.2699775072961153E-002   2.1199553722247334E-002
   7.3877193558259321E-002  -2.1998336850944416E-002   2.1428617729739478E-002
   7.1231686357605295E-002  -2.1377360601968570E-002   2.1840359001545455E-002
   7.5366453246591192E-002  -2.2681404930072535E-002   2.7350019234441081E-002
   7.2945703355691782E-002  -2.1840791331842191E-002   2.6687774016537408E-002
   7.0524953464792400E-002  -2.1074738661283537E-002   2.6292366153829183E-002
   6.8104203573892963E-002  -2.0383246918396720E-002   2.6163795646316712E-002
   6.5683453682993581E-002  -1.9766316103181469E-002   2.6302062493999467E-002
   8.6953086811487168E-002  -2.6210494098330206E-002   8.4486790577279480E-003
   8.3824905398762084E-002  -2.5526497054743524E-002   8.0094234253322294E-003
   8.0696723986036945E-002  -2.4642565915348663E-002   7.8839508343346298E-003
   7.7568542573311805E-002  -2.3558700680145823E-002   8.0722612847357322E-003
   7.4440361160586721E-002  -2.2274901349135456E-002   8.5743547765353423E-003
   8.1866502921852102E-002  -2.4599449599543077E-002   1.2913667283409591E-002
   7.9029734095691195E-002  -2.3932334096459340E-002   1.2482305734234422E-002
   7.6192965269530372E-002  -2.3096857756422534E-002   1.2319986316789378E-002
   7.3356196443369479E-002  -2.2093020579432486E-002   1.2426709031074276E-002
   7.0519427617208696E-002  -2.0920822565488995E-002   1.2802473877089215E-002
   7.6626036103891459E-002  -2.2988405100755782E-002   1.7377560598015346E-002
   7.4035938954626346E-002  -2.2338171138175267E-002   1.6922519873206532E-002
   7.1445841805361177E-002  -2.1551149597496391E-002   1.6691780370459139E-002
   6.8855744656096063E-002  -2.0627340478718701E-002   1.6685342089772896E-002
   6.6265647506830977E-002  -1.9566743781842422E-002   1.6903205031148560E-002
   7.1231686357605295E-002  -2.1377360601968570E-002   2.1840359001545455E-002
   6.8843519975567397E-002  -2.0744008179891305E-002   2.1330065842247857E-002
   6.6455353593529498E-002  -2.0005441438570255E-002   2.0999332995343425E-002
   6.4067187211491586E-002  -1.9161660378004861E-002   2.0848160460831981E-002
   6.1679020829453701E-002  -1.8212664998195904E-002   2.0876548238713363E-002
   6.5683453682993581E-002  -1.9766316103181469E-002   2.6302062493999467E-002
   6.3452477158514375E-002  -1.9149845221607287E-002   2.5704943641358863E-002
   6.1221500634035211E-002  -1.8459733279644119E-002   2.5242644191442926E-002
   5.8990524109556026E-002  -1.7695980277291301E-002   2.4915164144251017E-002
   5.6759547585076786E-002  -1.6858586214549331E-002   2.4722503499783721E-002
   7.4440361160586721E-002  -2.2274901349135456E-002   8.5743547765353423E-003
   7.0903488598082820E-002  -2.1034218135052241E-002   1.0186970278647900E-002
   6.7366616035578863E-002  -2.0079701250631576E-002   1.2254801718178610E-002
   6.3829743473074962E-002  -1.9411350695873200E-002   1.4777849095126250E-002
   6.0292870910571006E-002  -1.9029166470777792E-002   1.7756112409491820E-002
   7.0519427617208696E-002  -2.0920822565488995E-002   1.2802473877089215E-002
   6.7385464207574131E-002  -1.9783239833450428E-002   1.3768057162441227E-002
   6.4251500797939592E-002  -1.8883248502174765E-002   1.5084242816114590E-002
   6.1117537388305124E-002  -1.8220848571662215E-002   1.6751030838109471E-002
   5.7983573978670544E-002  -1.7796040041912375E-002   1.8768421228425036E-002
   6.6265647506830977E-002  -1.9566743781842422E-002   1.6903205031148560E-002
   6.3429979680969473E-002  -1.8532261531848615E-002   1.7270331028639424E-002
   6.0594311855107941E-002  -1.7686795753718260E-002   1.7883445825355809E-002
   5.7758644029246478E-002  -1.7030346447451113E-002   1.8742549421296453E-002
   5.4922976203384932E-002  -1.6562913613047403E-002   1.9847641816462092E-002
   6.1679020829453701E-002  -1.8212664998195904E-002   2.0876548238713363E-002
   5.9037035018268819E-002  -1.7281283230246691E-002   2.0693791877243101E-002
   5.6395049207083936E-002  -1.6490343005261490E-002   2.0652410745901344E-002
   5.3753063395899012E-002  -1.5839844323240069E-002   2.0752404844687791E-002
   5.1111077584714122E-002  -1.5329787184182431E-002   2.0993774173602819E-002
   5.6759547585076786E-002  -1.6858586214549331E-002   2.4722503499783721E-002
   5.4206630219472141E-002  -1.6030304928644989E-002   2.4038439708251591E-002
   5.1653712853867467E-002  -1.5293890256804638E-002   2.3391137577751520E-002
   4.9100795488262808E-002  -1.4649342199028977E-002   2.2780597108283535E-002
   4.6547878122658148E-002  -1.4096660755317292E-002   2.2206818299847331E-002
   6.0292870910571006E-002  -1.9029166470777792E-002   1.7756112409491820E-002
   5.3658781991722915E-002  -1.8483424867290044E-002   1.9359780721427411E-002
   4.7024693072874824E-002  -1.7324402177355425E-002   2.4667912825693916E-002
   4.0390604154026649E-002  -1.5552098400974851E-002   3.3680508722290836E-002
   3.3756515235178641E-002  -1.3166513538147573E-002   4.6397568411218781E-002
   5.7983573978670544E-002  -1.7796040041912375E-002   1.8768421228425036E-002
   5.4444804806539460E-002  -1.7235942794237458E-002   1.9572369612891993E-002
   5.0906035634408264E-002  -1.6167676709948425E-002   2.2862493698461828E-002
   4.7367266462277208E-002  -1.4591241789045105E-002   2.8638793485134484E-002
   4.3828497290146040E-002  -1.2506638031527739E-002   3.6901268972910906E-002
   5.4922976203384932E-002  -1.6562913613047403E-002   1.9847641816462092E-002
   5.3261238686742984E-002  -1.5988460721184872E-002   1.9746758023627659E-002
   5.1599501170100995E-002  -1.5010951242540538E-002   2.0913761840668121E-002
   4.9937763653459068E-002  -1.3630385177115303E-002   2.3348653267584007E-002
   4.8276026136817085E-002  -1.1846762524908128E-002   2.7051432304375012E-002
   5.1111077584714122E-002  -1.5329787184182431E-002   2.0993774173602819E-002
   5.0108083632333635E-002  -1.4740978648132286E-002   1.9882945953634441E-002
   4.9105089679953098E-002  -1.3854225775133316E-002   1.8821717252313470E-002
   4.8102095727572659E-002  -1.2669528565185197E-002   1.7810088069640247E-002
   4.7099101775192012E-002  -1.1186887018288405E-002   1.6848058405614569E-002
   4.6547878122658148E-002  -1.4096660755317292E-002   2.2206818299847331E-002
   4.4985339643311306E-002  -1.3493496575079533E-002   1.9980933402912349E-002
   4.3422801163964436E-002  -1.2697500307725776E-002   1.6586359933397327E-002
   4.1860262684617677E-002  -1.1708671953255482E-002   1.2023097891301723E-002
   4.0297724205270780E-002  -1.0527011511668682E-002   6.2911472766264964E-003
   9.0357752667088148E-002   0.0000000000000000        4.9849188733788255E-002
   9.3959022414454821E-002  -5.4061784522242287E-003   5.3223270426148987E-002
   9.7560292161821480E-002  -1.0673416302109381E-002   5.4977011185217139E-002
  0.10116156190918815       -1.5801713549655462E-002   5.5110411010992830E-002
  0.10476283165655484       -2.0791070194862461E-002   5.3623469903475933E-002
   8.2424608699831953E-002   0.0000000000000000        4.4795275297009995E-002
   8.4634904482731491E-002  -4.5762162269675577E-003   4.8279405196688996E-002
   8.6845200265631042E-002  -9.0405086675447461E-003   5.0601928100726286E-002
   8.9055496048530594E-002  -1.3392877321731559E-002   5.1762844009121879E-002
   9.1265791831430160E-002  -1.7633322189528008E-002   5.1762152921875748E-002
   7.4246713776703874E-002   0.0000000000000000        4.0584832493462772E-002
   7.5524769532787139E-002  -3.7462540017108854E-003   4.4151993784511331E-002
   7.6802825288870405E-002  -7.4076010329801063E-003   4.7016282017569015E-002
   7.8080881044953671E-002  -1.0984041093807660E-002   4.9177697192635830E-002
   7.9358936801036936E-002  -1.4475574184193551E-002   5.0636239309711811E-002
   6.5824067897703939E-002   0.0000000000000000        3.7217860323146557E-002
   6.6628617564621753E-002  -2.9162917764542140E-003   4.0841036189615980E-002
   6.7433167231539567E-002  -5.7746933984154664E-003   4.4220072935745376E-002
   6.8237716898457368E-002  -8.5752048658837635E-003   4.7354970561534711E-002
   6.9042266565375182E-002  -1.1317826178859096E-002   5.0245729066984018E-002
   5.7156671062832128E-002   0.0000000000000000        3.4694358786061377E-002
   5.7946448578235318E-002  -2.0863295511975430E-003   3.8346532412002948E-002
   5.8736226093638509E-002  -4.1417857638508301E-003   4.2213300855255327E-002
   5.9526003609041707E-002  -6.1663686379598605E-003   4.6294664115818500E-002
   6.0315781124444884E-002  -8.1600781735246420E-003   5.0590622193692467E-002
  0.10476283165655484       -2.0791070194862461E-002   5.3623469903475933E-002
  0.10210659588782990       -2.4930161689270851E-002   4.5651286458204585E-002
   9.9450360119105005E-002  -2.7507663484421130E-002   3.9370808532706837E-002
   9.6794124350380095E-002  -2.8523575580313328E-002   3.4782036126982496E-002
   9.4137888581655185E-002  -2.7977897976947372E-002   3.1884969241031708E-002
   9.1265791831430160E-002  -1.7633322189528008E-002   5.1762152921875748E-002
   9.0063538789335845E-002  -2.1208189148904252E-002   4.6532842343047075E-002
   8.8861285747241531E-002  -2.3563824077830496E-002   4.2519791697706137E-002
   8.7659032705147230E-002  -2.4700226976306729E-002   3.9723000985852901E-002
   8.6456779663052929E-002  -2.4617397844332936E-002   3.8142470207487421E-002
   7.9358936801036936E-002  -1.4475574184193551E-002   5.0636239309711811E-002
   7.9135220899287456E-002  -1.7486216608537650E-002   4.7807443928517650E-002
   7.8911504997537976E-002  -1.9619984671239848E-002   4.5719462894525442E-002
   7.8687789095788482E-002  -2.0876878372300098E-002   4.4372296207735154E-002
   7.8464073194039016E-002  -2.1256897711718466E-002   4.3765943868146834E-002
   6.9042266565375182E-002  -1.1317826178859096E-002   5.0245729066984018E-002
   6.9321642217684734E-002  -1.3764244068171040E-002   4.9475091214616337E-002
   6.9601017869994300E-002  -1.5676145264649177E-002   4.8969822123164780E-002
   6.9880393522303894E-002  -1.7053529768293496E-002   4.8729921792629388E-002
   7.0159769174613446E-002  -1.7896397579104013E-002   4.8755390223010134E-002
   6.0315781124444884E-002  -8.1600781735246420E-003   5.0590622193692467E-002
   6.0622802744527721E-002  -1.0042271527804441E-002   5.1535784201343103E-002
   6.0929824364610551E-002  -1.1732305858058546E-002   5.2270869383624123E-002
   6.1236845984693401E-002  -1.3230181164286878E-002   5.2795877740535450E-002
   6.1543867604776224E-002  -1.4535897446489546E-002   5.3110809272077245E-002
   9.4137888581655185E-002  -2.7977897976947372E-002   3.1884969241031708E-002
   9.1747288177856573E-002  -2.6789492080053219E-002   3.1301451867399868E-002
   8.9356687774057975E-002  -2.5877219295360829E-002   3.0794802933077715E-002
   8.6966087370259390E-002  -2.5241079622870088E-002   3.0365022438065114E-002
   8.4575486966460778E-002  -2.4881073062581166E-002   3.0012110382362372E-002
   8.6456779663052929E-002  -2.4617397844332936E-002   3.8142470207487421E-002
   8.4190853271570054E-002  -2.3979430947398371E-002   3.7102616050084893E-002
   8.1924926880087207E-002  -2.3450420550992199E-002   3.6235241478004179E-002
   7.9659000488604373E-002  -2.3030366655114501E-002   3.5540346491245427E-002
   7.7393074097121511E-002  -2.2719269259765223E-002   3.5017931089808371E-002
   7.8464073194039016E-002  -2.1256897711718466E-002   4.3765943868146834E-002
   7.6418431960884048E-002  -2.1169369814743450E-002   4.2436929538647000E-002
   7.4372790727729093E-002  -2.1023621806623580E-002   4.1376005940481096E-002
   7.2327149494574153E-002  -2.0819653687358858E-002   4.0583173073649184E-002
   7.0281508261419171E-002  -2.0557465456949323E-002   4.0058430938151292E-002
   7.0159769174613446E-002  -1.7896397579104013E-002   4.8755390223010134E-002
   6.8430024245798554E-002  -1.8359308682088543E-002   4.7304392333086205E-002
   6.6700279316983649E-002  -1.8596823062254957E-002   4.6217096320508383E-002
   6.4970534388168757E-002  -1.8608940719603215E-002   4.5493502185276646E-002
   6.3240789459353852E-002  -1.8395661654133415E-002   4.5133609927391148E-002
   6.1543867604776224E-002  -1.4535897446489546E-002   5.3110809272077245E-002
   6.0225630126313531E-002  -1.5549247549433681E-002   5.1705004433402479E-002
   5.8907392647850845E-002  -1.6170024317886337E-002   5.0758512618085942E-002
   5.7589155169388138E-002  -1.6398227751847592E-002   5.0271333826127779E-002
   5.6270917690925459E-002  -1.6233857851317479E-002   5.0243468057527885E-002
   8.4575486966460778E-002  -2.4881073062581166E-002   3.0012110382362372E-002
   8.2273228536493381E-002  -2.4577138801158291E-002   2.9149595285406754E-002
   7.9970970106525985E-002  -2.4109216025265910E-002   2.8418408395101222E-002
   7.7668711676558588E-002  -2.3477304734903955E-002   2.7818549711446108E-002
   7.5366453246591192E-002  -2.2681404930072535E-002   2.7350019234441081E-002
   7.7393074097121511E-002  -2.2719269259765223E-002   3.5017931089808371E-002
   7.5240424760055699E-002  -2.2401797500296160E-002   3.4387390784359810E-002
   7.3087775422989887E-002  -2.1962620512059064E-002   3.3924740458064158E-002
   7.0935126085924061E-002  -2.1401738295053752E-002   3.3629980110921331E-002
   6.8782476748858262E-002  -2.0719150849280471E-002   3.3503109742931358E-002
   7.0281508261419171E-002  -2.0557465456949323E-002   4.0058430938151292E-002
   6.8315029789757620E-002  -2.0226456199434049E-002   3.9617582138508314E-002
   6.6348551318096055E-002  -1.9816024998852138E-002   3.9381185090520937E-002
   6.4382072846434490E-002  -1.9326171855203609E-002   3.9349239794189243E-002
   6.2415594374772940E-002  -1.8756896768488407E-002   3.9521746249512990E-002
   6.3240789459353852E-002  -1.8395661654133415E-002   4.5133609927391148E-002
   6.1497043625599185E-002  -1.8051114898571929E-002   4.4840169347852371E-002
   5.9753297791844545E-002  -1.7669429485645254E-002   4.4787742292471851E-002
   5.8009551958089899E-002  -1.7250605415353393E-002   4.4976328761249580E-002
   5.6265806124335238E-002  -1.6794642687696329E-002   4.5405928754185650E-002
   5.6270917690925459E-002  -1.6233857851317479E-002   5.0243468057527885E-002
   5.4786466267580380E-002  -1.5875773597709836E-002   5.0055152412391918E-002
   5.3302014844235315E-002  -1.5522833972438359E-002   5.0144412063916857E-002
   5.1817563420890257E-002  -1.5175038975503248E-002   5.0511247012102696E-002
   5.0333111997545171E-002  -1.4832388606904251E-002   5.1155657256949372E-002
   7.5366453246591192E-002  -2.2681404930072535E-002   2.7350019234441081E-002
   7.2945703355691782E-002  -2.1840791331842191E-002   2.6687774016537408E-002
   7.0524953464792400E-002  -2.1074738661283537E-002   2.6292366153829183E-002
   6.8104203573892963E-002  -2.0383246918396720E-002   2.6163795646316712E-002
   6.5683453682993581E-002  -1.9766316103181469E-002   2.6302062493999467E-002
   6.8782476748858262E-002  -2.0719150849280471E-002   3.3503109742931358E-002
   6.6610645930674728E-002  -1.9998622317401099E-002   3.2979848374081799E-002
   6.4438815112491124E-002  -1.9323916842077758E-002   3.2687587795468223E-002
   6.2266984294307562E-002  -1.8695034423310324E-002   3.2626328007090769E-002
   6.0095153476123958E-002  -1.8111975061098740E-002   3.2796069008949436E-002
   6.2415594374772940E-002  -1.8756896768488407E-002   3.9521746249512990E-002
   6.0456846064345759E-002  -1.8156453302960035E-002   3.9166206600833205E-002
   5.8498097753918586E-002  -1.7573095022871812E-002   3.9005831177429992E-002
   5.6539349443491385E-002  -1.7006821928223812E-002   3.9040619979303449E-002
   5.4580601133064226E-002  -1.6457634019015954E-002   3.9270573006453549E-002
   5.6265806124335238E-002  -1.6794642687696329E-002   4.5405928754185650E-002
   5.4484303756704974E-002  -1.6314284288518915E-002   4.5246848696791374E-002
   5.2702801389074724E-002  -1.5822273203665950E-002   4.5247096299714296E-002
   5.0921299021444481E-002  -1.5318609433137358E-002   4.5406671562954505E-002
   4.9139796653814176E-002  -1.4803292976933197E-002   4.5725574486511822E-002
   5.0333111997545171E-002  -1.4832388606904251E-002   5.1155657256949372E-002
   4.8693019007752386E-002  -1.4472115274077851E-002   5.1221774661956543E-002
   4.7052926017959587E-002  -1.4071451384460053E-002   5.1411383162321425E-002
   4.5412833028166767E-002  -1.3630396938050951E-002   5.1724482758043998E-002
   4.3772740038373975E-002  -1.3148951934850495E-002   5.2161073449124351E-002
   6.5683453682993581E-002  -1.9766316103181469E-002   2.6302062493999467E-002
   6.3452477158514375E-002  -1.9149845221607287E-002   2.5704943641358863E-002
   6.1221500634035211E-002  -1.8459733279644119E-002   2.5242644191442926E-002
   5.8990524109556026E-002  -1.7695980277291301E-002   2.4915164144251017E-002
   5.6759547585076786E-002  -1.6858586214549331E-002   2.4722503499783721E-002
   6.0095153476123958E-002  -1.8111975061098740E-002   3.2796069008949436E-002
   5.8012279889422702E-002  -1.7524959958160682E-002   3.2349669354371155E-002
   5.5929406302721404E-002  -1.6884210317213599E-002   3.2064656172624148E-002
   5.3846532716020114E-002  -1.6189726138257934E-002   3.1941029463708567E-002
   5.1763659129318795E-002  -1.5441507421293299E-002   3.1978789227624260E-002
   5.4580601133064226E-002  -1.6457634019015954E-002   3.9270573006453549E-002
   5.2672397554247671E-002  -1.5900074694713856E-002   3.8954986027557106E-002
   5.0764193975431138E-002  -1.5308687354783468E-002   3.8827352591598960E-002
   4.8855990396614583E-002  -1.4683471999224457E-002   3.8887672698578929E-002
   4.6947786817798057E-002  -1.4024428628037072E-002   3.9135946348497153E-002
   4.9139796653814176E-002  -1.4803292976933197E-002   4.5725574486511822E-002
   4.7432830152989283E-002  -1.4275189431267196E-002   4.5520893660916904E-002
   4.5725863652164390E-002  -1.3733164392353198E-002   4.5530733448367021E-002
   4.4018897151339477E-002  -1.3177217860190993E-002   4.5755093848862373E-002
   4.2311930650514598E-002  -1.2607349834780859E-002   4.6193974862402516E-002
   4.3772740038373975E-002  -1.3148951934850495E-002   5.2161073449124351E-002
   4.2293577685647579E-002  -1.2650304167820370E-002   5.2047392254450431E-002
   4.0814415332921183E-002  -1.2157641429922872E-002   5.2174798742928574E-002
   3.9335252980194788E-002  -1.1670963721157654E-002   5.2543292914558518E-002
   3.7856090627468364E-002  -1.1190271041524757E-002   5.3152874769340552E-002
   5.6759547585076786E-002  -1.6858586214549331E-002   2.4722503499783721E-002
   5.4206630219472141E-002  -1.6030304928644989E-002   2.4038439708251591E-002
   5.1653712853867467E-002  -1.5293890256804638E-002   2.3391137577751520E-002
   4.9100795488262808E-002  -1.4649342199028977E-002   2.2780597108283535E-002
   4.6547878122658148E-002  -1.4096660755317292E-002   2.2206818299847331E-002
   5.1763659129318795E-002  -1.5441507421293299E-002   3.1978789227624260E-002
   4.9283756482738417E-002  -1.4696392739521058E-002   3.1435090027092327E-002
   4.6803853836158066E-002  -1.4011220666143326E-002   3.1000658603577314E-002
   4.4323951189577687E-002  -1.3385991201159651E-002   3.0675494957078567E-002
   4.1844048542997281E-002  -1.2820704344569944E-002   3.0459599087596656E-002
   4.6947786817798057E-002  -1.4024428628037072E-002   3.9135946348497153E-002
   4.4613405006226514E-002  -1.3362480550397460E-002   3.8764535744635870E-002
   4.2279023194655020E-002  -1.2728551075481834E-002   3.8574899033775631E-002
   3.9944641383083485E-002  -1.2122640203290212E-002   3.8567036215916596E-002
   3.7610259571511998E-002  -1.1544747933822569E-002   3.8740947291058578E-002
   4.2311930650514598E-002  -1.2607349834780859E-002   4.6193974862402516E-002
   4.0195575789936488E-002  -1.2028568361273556E-002   4.6026776860881975E-002
   3.8079220929358414E-002  -1.1445881484820321E-002   4.6113858868347013E-002
   3.5962866068780380E-002  -1.0859289205420774E-002   4.6455220884797678E-002
   3.3846511208202285E-002  -1.0268791523075263E-002   4.7050862910234165E-002
   3.7856090627468364E-002  -1.1190271041524757E-002   5.3152874769340552E-002
   3.6030268833868284E-002  -1.0694656172149930E-002   5.3221813375830485E-002
   3.4204447040268232E-002  -1.0163211894158933E-002   5.3617538107291113E-002
   3.2378625246668166E-002  -9.5959382075514223E-003   5.4340048963721563E-002
   3.0552803453068100E-002  -8.9928351123278460E-003   5.5389345945122681E-002
   4.6547878122658148E-002  -1.4096660755317292E-002   2.2206818299847331E-002
   4.4985339643311306E-002  -1.3493496575079533E-002   1.9980933402912349E-002
   4.3422801163964436E-002  -1.2697500307725776E-002   1.6586359933397327E-002
   4.1860262684617677E-002  -1.1708671953255482E-002   1.2023097891301723E-002
   4.0297724205270780E-002  -1.0527011511668682E-002   6.2911472766264964E-003
   4.1844048542997281E-002  -1.2820704344569944E-002   3.0459599087596656E-002
   3.9420132508734551E-002  -1.2217526490177377E-002   2.9175344162059580E-002
   3.6996216474471766E-002  -1.1478624031784582E-002   2.7337022699271213E-002
   3.4572300440209008E-002  -1.0603996969391547E-002   2.4944634699230916E-002
   3.2148384405946306E-002  -9.5936453029985547E-003   2.1998180161938663E-002
   3.7610259571511998E-002  -1.1544747933822569E-002   3.8740947291058578E-002
   3.4939588017661824E-002  -1.0941556405274860E-002   3.8341214853803748E-002
   3.2268916463811692E-002  -1.0259747755843325E-002   3.8002037914625690E-002
   2.9598244909961505E-002  -9.4993219855278050E-003   3.7723416473524396E-002
   2.6927573356111317E-002  -8.6602790943282049E-003   3.7505350530500192E-002
   3.3846511208202285E-002  -1.0268791523075263E-002   4.7050862910234165E-002
   3.1543706170093236E-002  -9.6655863203725795E-003   4.7478545478144896E-002
   2.9240901131984222E-002  -9.0408714799022107E-003   4.8581405579461043E-002
   2.6938096093875204E-002  -8.3946470016640767E-003   5.0359443214182592E-002
   2.4635291055766263E-002  -7.7269128856579661E-003   5.2812658382309197E-002
   3.0552803453068100E-002  -8.9928351123278460E-003   5.5389345945122681E-002
   2.9232486966028703E-002  -8.3896162354700210E-003   5.6587336035082814E-002
   2.7912170478989348E-002  -7.8219952039609020E-003   5.9075125693777153E-002
   2.6591853991949931E-002  -7.2899720178002461E-003   6.2852714921204950E-002
   2.5271537504910568E-002  -6.7935466769877273E-003   6.7920103717367120E-002
   5.7156671062832128E-002   0.0000000000000000        3.4694358786061377E-002
   5.7946448578235318E-002  -2.0863295511975430E-003   3.8346532412002948E-002
   5.8736226093638509E-002  -4.1417857638508301E-003   4.2213300855255327E-002
   5.9526003609041707E-002  -6.1663686379598605E-003   4.6294664115818500E-002
   6.0315781124444884E-002  -8.1600781735246420E-003   5.0590622193692467E-002
   4.8656796175941722E-002   0.0000000000000000        3.2791105270810222E-002
   4.9595799919637695E-002  -1.7116806335642264E-003   3.6966202005309000E-002
   5.0534803663333662E-002  -3.4372409141916159E-003   4.1225156379082556E-002
   5.1473807407029629E-002  -5.1766808418821711E-003   4.5567968392130849E-002
   5.2412811150725588E-002  -6.9300004166358928E-003   4.9994638044453914E-002
   4.0736716140885997E-002   0.0000000000000000        3.1284877165996094E-002
   4.1694208934838710E-002  -1.3370317159309086E-003   3.5938144023444654E-002
   4.2651701728791430E-002  -2.7326960645324009E-003   4.0544531342131949E-002
   4.3609194522744137E-002  -4.1869930458044765E-003   4.5104039122057980E-002
   4.4566687316696857E-002  -5.6999226597471394E-003   4.9616667363222719E-002
   3.3396430957664945E-002   0.0000000000000000        3.0175674471618993E-002
   3.4241675623838376E-002  -9.6238279829759092E-004   3.5262358466409932E-002
   3.5086920290011793E-002  -2.0281512148731845E-003   4.0171425744403556E-002
   3.5932164956185217E-002  -3.1973052497267854E-003   4.4902876305599873E-002
   3.6777409622358655E-002  -4.4698449028583893E-003   4.9456710149998889E-002
   2.6635940626278574E-002   0.0000000000000000        2.9463497187678919E-002
   2.7238199986636680E-002  -5.8773388066427415E-004   3.4938845334204792E-002
   2.7840459346994782E-002  -1.3236063652139717E-003   4.0105839585897335E-002
   2.8442718707352883E-002  -2.2076174536490908E-003   4.4964479942756534E-002
   2.9044978067710989E-002  -3.2397671459696367E-003   4.9514766404782390E-002
   6.0315781124444884E-002  -8.1600781735246420E-003   5.0590622193692467E-002
   6.0622802744527721E-002  -1.0042271527804441E-002   5.1535784201343103E-002
   6.0929824364610551E-002  -1.1732305858058546E-002   5.2270869383624123E-002
   6.1236845984693401E-002  -1.3230181164286878E-002   5.2795877740535450E-002
   6.1543867604776224E-002  -1.4535897446489546E-002   5.3110809272077245E-002
   5.2412811150725588E-002  -6.9300004166358928E-003   4.9994638044453914E-002
   5.2547842323149539E-002  -8.5966929916067338E-003   5.1224378904833154E-002
   5.2682873495573476E-002  -1.0076251919948645E-002   5.2320215695264197E-002
   5.2817904667997420E-002  -1.1368677201661646E-002   5.3282148415747091E-002
   5.2952935840421364E-002  -1.2473968836745689E-002   5.4110177066281809E-002
   4.4566687316696857E-002  -5.6999226597471394E-003   4.9616667363222719E-002
   4.4605900796883355E-002  -7.1511144554090283E-003   5.1125961698933735E-002
   4.4645114277069853E-002  -8.4201979818387708E-003   5.2577524720118070E-002
   4.4684327757256358E-002  -9.5071732390363730E-003   5.3971356426775696E-002
   4.4723541237442863E-002  -1.0412040227001838E-002   5.5307456818906572E-002
   3.6777409622358655E-002  -4.4698449028583893E-003   4.9456710149998889E-002
   3.6796978165729174E-002  -5.7055359192113115E-003   5.1240532583644943E-002
   3.6816546709099694E-002  -6.7641440437289022E-003   5.3042796458185722E-002
   3.6836115252470214E-002  -7.6456692764110953E-003   5.4863501773621287E-002
   3.6855683795840741E-002  -8.3501116172579708E-003   5.6702648529951521E-002
   2.9044978067710989E-002  -3.2397671459696367E-003   4.9514766404782390E-002
   2.9121074429686984E-002  -4.2599573830136121E-003   5.1568091558966682E-002
   2.9197170791662983E-002  -5.1080901056190110E-003   5.3716030909467166E-002
   2.9273267153638982E-002  -5.7841653137858523E-003   5.5958584456283822E-002
   2.9349363515614978E-002  -6.2881830075141240E-003   5.8295752199416719E-002
   6.1543867604776224E-002  -1.4535897446489546E-002   5.3110809272077245E-002
   6.0225630126313531E-002  -1.5549247549433681E-002   5.1705004433402479E-002
   5.8907392647850845E-002  -1.6170024317886337E-002   5.0758512618085942E-002
   5.7589155169388138E-002  -1.6398227751847592E-002   5.0271333826127779E-002
   5.6270917690925459E-002  -1.6233857851317479E-002   5.0243468057527885E-002
   5.2952935840421364E-002  -1.2473968836745689E-002   5.4110177066281809E-002
   5.2039465923438152E-002  -1.3330412505521999E-002   5.3362931737343633E-002
   5.1125996006454955E-002  -1.3876293888311780E-002   5.2965908508006129E-002
   5.0212526089471757E-002  -1.4111612985114926E-002   5.2919107378269263E-002
   4.9299056172488559E-002  -1.4036369795931508E-002   5.3222528348133236E-002
   4.4723541237442863E-002  -1.0412040227001838E-002   5.5307456818906572E-002
   4.4105747958181563E-002  -1.1111577461610372E-002   5.5136759951200084E-002
   4.3487954678920276E-002  -1.1582563458737165E-002   5.5207194259336720E-002
   4.2870161399658990E-002  -1.1824998218382256E-002   5.5518759743316493E-002
   4.2252368120397697E-002  -1.1838881740545620E-002   5.6071456403139340E-002
   3.6855683795840741E-002  -8.3501116172579708E-003   5.6702648529951521E-002
   3.6424476230543769E-002  -8.8927424176987249E-003   5.7026489074971952E-002
   3.5993268665246790E-002  -9.2888330291625854E-003   5.7482369872077901E-002
   3.5562061099949825E-002  -9.5383834516495607E-003   5.8070290921269356E-002
   3.5130853534652860E-002  -9.6413936851596632E-003   5.8790252222546288E-002
   2.9349363515614978E-002  -6.2881830075141240E-003   5.8295752199416719E-002
   2.8995650740524744E-002  -6.6739073737870740E-003   5.9032119108659166E-002
   2.8641937965434509E-002  -6.9951025995879917E-003   5.9791435346229549E-002
   2.8288225190344275E-002  -7.2517686849169066E-003   6.0573700912127895E-002
   2.7934512415254034E-002  -7.4439056297737616E-003   6.1378915806354156E-002
   5.6270917690925459E-002  -1.6233857851317479E-002   5.0243468057527885E-002
   5.4786466267580380E-002  -1.5875773597709836E-002   5.0055152412391918E-002
   5.3302014844235315E-002  -1.5522833972438359E-002   5.0144412063916857E-002
   5.1817563420890257E-002  -1.5175038975503248E-002   5.0511247012102696E-002
   5.0333111997545171E-002  -1.4832388606904251E-002   5.1155657256949372E-002
   4.9299056172488559E-002  -1.4036369795931508E-002   5.3222528348133236E-002
   4.8071654150385348E-002  -1.3796680004855448E-002   5.2945453418655510E-002
   4.6844252128282138E-002  -1.3538659295980422E-002   5.2904901995000544E-002
   4.5616850106178913E-002  -1.3262307669306613E-002   5.3100874077168340E-002
   4.4389448084075689E-002  -1.2967625124833848E-002   5.3533369665159009E-002
   4.2252368120397697E-002  -1.1838881740545620E-002   5.6071456403139340E-002
   4.1240963708698196E-002  -1.1717586412001116E-002   5.5729097735455028E-002
   4.0229559296998701E-002  -1.1554484619522517E-002   5.5582210782755381E-002
   3.9218154885299200E-002  -1.1349576363110007E-002   5.5630795545040343E-002
   3.8206750473599720E-002  -1.1102861642763404E-002   5.5874852022309983E-002
   3.5130853534652860E-002  -9.6413936851596632E-003   5.8790252222546288E-002
   3.4294394942518930E-002  -9.6384928191467698E-003   5.8406085362790600E-002
   3.3457936350385020E-002  -9.5703099430646098E-003   5.8176338427181305E-002
   3.2621477758251118E-002  -9.4368450569134003E-003   5.8101011415718606E-002
   3.1785019166117208E-002  -9.2380981606929938E-003   5.8180104328402350E-002
   2.7934512415254034E-002  -7.4439056297737616E-003   6.1378915806354156E-002
   2.7231947851847571E-002  -7.5593992262924306E-003   6.0976416300662084E-002
   2.6529383288441122E-002  -7.5861352666066958E-003   6.0687284928278365E-002
   2.5826818725034659E-002  -7.5241137507168123E-003   6.0511521689203047E-002
   2.5124254161628196E-002  -7.3733346786225284E-003   6.0449126583436180E-002
   5.0333111997545171E-002  -1.4832388606904251E-002   5.1155657256949372E-002
   4.8693019007752386E-002  -1.4472115274077851E-002   5.1221774661956543E-002
   4.7052926017959587E-002  -1.4071451384460053E-002   5.1411383162321425E-002
   4.5412833028166767E-002  -1.3630396938050951E-002   5.1724482758043998E-002
   4.3772740038373975E-002  -1.3148951934850495E-002   5.2161073449124351E-002
   4.4389448084075689E-002  -1.2967625124833848E-002   5.3533369665159009E-002
   4.2894399071066451E-002  -1.2647576979213468E-002   5.3418401675229391E-002
   4.1399350058057241E-002  -1.2295128549096784E-002   5.3470030543509114E-002
   3.9904301045048003E-002  -1.1910279834483541E-002   5.3688256269998243E-002
   3.8409252032038779E-002  -1.1493030835374063E-002   5.4073078854696921E-002
   3.8206750473599720E-002  -1.1102861642763404E-002   5.5874852022309983E-002
   3.6899851200225729E-002  -1.0823038684349098E-002   5.5570808365148550E-002
   3.5592951926851746E-002  -1.0518805713733408E-002   5.5476467329048249E-002
   3.4286052653477769E-002  -1.0190162730916243E-002   5.5591828914009010E-002
   3.2979153380103779E-002  -9.8371097358976589E-003   5.5916893120031036E-002
   3.1785019166117208E-002  -9.2380981606929938E-003   5.8180104328402350E-002
   3.0709375395230186E-002  -8.9985003894847079E-003   5.7678994731714221E-002
   2.9633731624343160E-002  -8.7424828783700306E-003   5.7430693518938945E-002
   2.8558087853456145E-002  -8.4700456273488611E-003   5.7435200690076363E-002
   2.7482444082569110E-002  -8.1811886364213243E-003   5.7692516245126640E-002
   2.5124254161628196E-002  -7.3733346786225284E-003   6.0449126583436180E-002
   2.4322971656079828E-002  -7.1739620946203592E-003   5.9742960774926385E-002
   2.3521689150531433E-002  -6.9661600430067569E-003   5.9332709113181073E-002
   2.2720406644983045E-002  -6.7499285237815603E-003   5.9218371598200266E-002
   2.1919124139434656E-002  -6.5252675369448787E-003   5.9399948229983845E-002
   4.3772740038373975E-002  -1.3148951934850495E-002   5.2161073449124351E-002
   4.2293577685647579E-002  -1.2650304167820370E-002   5.2047392254450431E-002
   4.0814415332921183E-002  -1.2157641429922872E-002   5.2174798742928574E-002
   3.9335252980194788E-002  -1.1670963721157654E-002   5.2543292914558518E-002
   3.7856090627468364E-002  -1.1190271041524757E-002   5.3152874769340552E-002
   3.8409252032038779E-002  -1.1493030835374063E-002   5.4073078854696921E-002
   3.7155414029281880E-002  -1.1060384008636376E-002   5.3873228852054561E-002
   3.5901576026525002E-002  -1.0629341811138518E-002   5.3882939866199353E-002
   3.4647738023768082E-002  -1.0199904242880978E-002   5.4102211897131353E-002
   3.3393900021011183E-002  -9.7720713038632057E-003   5.4531044944850227E-002
   3.2979153380103779E-002  -9.8371097358976589E-003   5.5916893120031036E-002
   3.1919113060951548E-002  -9.4704638494521320E-003   5.5635254709312729E-002
   3.0859072741799297E-002  -9.1010421923543305E-003   5.5531650649016662E-002
   2.9799032422647042E-002  -8.7288447646040254E-003   5.5606080939142932E-002
   2.8738992103494815E-002  -8.3538715662014595E-003   5.5858545579691207E-002
   2.7482444082569110E-002  -8.1811886364213243E-003   5.7692516245126640E-002
   2.6584674780656618E-002  -7.8805436902680687E-003   5.7333469826224864E-002
   2.5686905478744110E-002  -7.5727425735700599E-003   5.7120931091380327E-002
   2.4789136176831612E-002  -7.2577852863272667E-003   5.7054900040593187E-002
   2.3891366874919114E-002  -6.9356718285397828E-003   5.7135376673863369E-002
   2.1919124139434656E-002  -6.5252675369448787E-003   5.9399948229983845E-002
   2.1152099188397042E-002  -6.2906235310838943E-003   5.8967874202790815E-002
   2.0385074237359434E-002  -6.0444429547857892E-003   5.8650781193290202E-002
   1.9618049286321815E-002  -5.7867258080506190E-003   5.8448669201482062E-002
   1.8851024335284197E-002  -5.5174720908781616E-003   5.8361538227366283E-002
   3.7856090627468364E-002  -1.1190271041524757E-002   5.3152874769340552E-002
   3.6030268833868284E-002  -1.0694656172149930E-002   5.3221813375830485E-002
   3.4204447040268232E-002  -1.0163211894158933E-002   5.3617538107291113E-002
   3.2378625246668166E-002  -9.5959382075514223E-003   5.4340048963721563E-002
   3.0552803453068100E-002  -8.9928351123278460E-003   5.5389345945122681E-002
   3.3393900021011183E-002  -9.7720713038632057E-003   5.4531044944850227E-002
   3.1868152743238690E-002  -9.3307797764407840E-003   5.4412730238471207E-002
   3.0342405465466162E-002  -8.8609664429691176E-003   5.4567778438777026E-002
   2.8816658187693672E-002  -8.3626313034483972E-003   5.4996189545767515E-002
   2.7290910909921126E-002  -7.8357743578784111E-003   5.5697963559442898E-002
   2.8738992103494815E-002  -8.3538715662014595E-003   5.5858545579691207E-002
   2.7459896123264382E-002  -7.9669033807315270E-003   5.5545669957875840E-002
   2.6180800143033964E-002  -7.5587209917795176E-003   5.5452734024459792E-002
   2.4901704162803531E-002  -7.1293243993452039E-003   5.5579737779443084E-002
   2.3622608182573106E-002  -6.6787136034289762E-003   5.5926681222825875E-002
   2.3891366874919114E-002  -6.9356718285397828E-003   5.7135376673863369E-002
   2.2805498973945359E-002  -6.6030269850222700E-003   5.6620632534044507E-002
   2.1719631072971569E-002  -6.2564755405897544E-003   5.6272404864339542E-002
   2.0633763171997839E-002  -5.8960174952423167E-003   5.6090693664748635E-002
   1.9547895271024053E-002  -5.5216528489795413E-003   5.6075498935271771E-002
   1.8851024335284197E-002  -5.5174720908781616E-003   5.8361538227366283E-002
   1.7904961295281616E-002  -5.2391505893131518E-003   5.7637617966977084E-002
   1.6958898255279041E-002  -4.9542300894001162E-003   5.7026790958416340E-002
   1.6012835215276470E-002  -4.6627105911390999E-003   5.6529057201684010E-002
   1.5066772175273885E-002  -4.3645920945301619E-003   5.6144416696780219E-002
   3.0552803453068100E-002  -8.9928351123278460E-003   5.5389345945122681E-002
   2.9232486966028703E-002  -8.3896162354700210E-003   5.6587336035082814E-002
   2.7912170478989348E-002  -7.8219952039609020E-003   5.9075125693777153E-002
   2.6591853991949931E-002  -7.2899720178002461E-003   6.2852714921204950E-002
   2.5271537504910568E-002  -6.7935466769877273E-003   6.7920103717367120E-002
   2.7290910909921126E-002  -7.8357743578784111E-003   5.5697963559442898E-002
   2.6976030537429668E-002  -7.3073563175246048E-003   5.6174681280100891E-002
   2.6661150164938231E-002  -6.8043378936525623E-003   5.7372471661120833E-002
   2.6346269792446777E-002  -6.3267190862625958E-003   5.9291334702503098E-002
   2.6031389419955364E-002  -5.8744998953541572E-003   6.1931270404246619E-002
   2.3622608182573106E-002  -6.6787136034289762E-003   5.5926681222825875E-002
   2.3744437016257600E-002  -6.2250963995790498E-003   5.5692324803048365E-002
   2.3866265849942097E-002  -5.7866805833443197E-003   5.5610314135261019E-002
   2.3988094683626608E-002  -5.3634661547248864E-003   5.5680649219463300E-002
   2.4109923517311130E-002  -4.9554531137205871E-003   5.5903330055655676E-002
   1.9547895271024053E-002  -5.5216528489795413E-003   5.6075498935271771E-002
   1.9537706402512466E-002  -5.1428364816336752E-003   5.5140266603925216E-002
   1.9527517534000938E-002  -4.7690232730361951E-003   5.3788653116196697E-002
   1.9517328665489348E-002  -4.4002132231872066E-003   5.2020658472086354E-002
   1.9507139796977799E-002  -4.0364063320870169E-003   4.9836282671593901E-002
   1.5066772175273885E-002  -4.3645920945301619E-003   5.6144416696780219E-002
   1.4355838696194306E-002  -4.0605765636881341E-003   5.4518506682731616E-002
   1.3644905217114700E-002  -3.7513659627276680E-003   5.1907488603928825E-002
   1.2933971738035115E-002  -3.4369602916495927E-003   4.8311362460372195E-002
   1.2223038258955543E-002  -3.1173595504534468E-003   4.3730128252061240E-002
   2.6635940626278574E-002   0.0000000000000000        2.9463497187678919E-002
   2.7238199986636680E-002  -5.8773388066427415E-004   3.4938845334204792E-002
   2.7840459346994782E-002  -1.3236063652139717E-003   4.0105839585897335E-002
   2.8442718707352883E-002  -2.2076174536490908E-003   4.4964479942756534E-002
   2.9044978067710989E-002  -3.2397671459696367E-003   4.9514766404782390E-002
   2.0118249658020143E-002   0.0000000000000000        2.9014040681310978E-002
   2.0451602387218389E-002  -4.4080041046439412E-004   3.4305018687538741E-002
   2.0784955116416634E-002  -9.9270477382895454E-004   3.9366537326280135E-002
   2.1118307845614876E-002  -1.6557130900936769E-003   4.4198596597535153E-002
   2.1451660574813122E-002  -2.4298253592585622E-003   4.8801196501303767E-002
   1.3506362564182910E-002   0.0000000000000000        2.8693000319650292E-002
   1.3649703189568256E-002  -2.9386694026451495E-004   3.3836642836565199E-002
   1.3793043814953602E-002  -6.6180318244393396E-004   3.8829720513340694E-002
   1.3936384440338951E-002  -1.1038087265382605E-003   4.3672233349976775E-002
   1.4079725065724297E-002  -1.6198835725474946E-003   4.8364181346473439E-002
   6.8002793447668750E-003   0.0000000000000000        2.8500376102696855E-002
   6.8325023936862865E-003  -1.4693347006463449E-004   3.3533717781284167E-002
   6.8647254426056981E-003  -3.3090159105891772E-004   3.8495389147079027E-002
   6.8969484915251105E-003  -5.5190436298284710E-004   4.3385390200081420E-002
   6.9291715404445221E-003  -8.0994178583642176E-004   4.8203720940291378E-002
  -2.2796001197811222E-013   0.0000000000000000        2.8436168030450671E-002
  -4.2752173329274612E-013   1.3524424635757981E-013   3.3396243521695644E-002
  -6.2708302092651103E-013   3.2610372735497606E-013   3.8363543227495127E-002
  -8.2664452540071043E-013   5.7257150409828483E-013   4.3338067147849123E-002
  -1.0262068972366478E-012   8.7464844394924413E-013   4.8319815282757611E-002
   2.9044978067710989E-002  -3.2397671459696367E-003   4.9514766404782390E-002
   2.9121074429686984E-002  -4.2599573830136121E-003   5.1568091558966682E-002
   2.9197170791662983E-002  -5.1080901056190110E-003   5.3716030909467166E-002
   2.9273267153638982E-002  -5.7841653137858523E-003   5.5958584456283822E-002
   2.9349363515614978E-002  -6.2881830075141240E-003   5.8295752199416719E-002
   2.1451660574813122E-002  -2.4298253592585622E-003   4.8801196501303767E-002
   2.1593961561408536E-002  -3.1949680369862724E-003   5.1198044392706851E-002
   2.1736262548003947E-002  -3.8310675789394329E-003   5.3632687337032553E-002
   2.1878563534599365E-002  -4.3381239851180437E-003   5.6105125334280928E-002
   2.2020864521194783E-002  -4.7161372555221057E-003   5.8615358384451907E-002
   1.4079725065724297E-002  -1.6198835725474946E-003   4.8364181346473439E-002
   1.4231411533545556E-002  -2.1299786909589179E-003   5.1061537596431304E-002
   1.4383098001366813E-002  -2.5540450522598341E-003   5.3739869755918247E-002
   1.4534784469188072E-002  -2.8920826564502247E-003   5.6399177824934227E-002
   1.4686470937009331E-002  -3.1440915035301047E-003   5.9039461803479257E-002
   6.9291715404445221E-003  -8.0994178583642176E-004   4.8203720940291378E-002
   7.0334243460980486E-003  -1.0649893449315639E-003   5.1158571170139999E-002
   7.1376771517515716E-003  -1.2770225255802387E-003   5.4037578166124145E-002
   7.2419299574050947E-003  -1.4460413277824144E-003   5.6840741928243739E-002
   7.3461827630586229E-003  -1.5720457515381089E-003   5.9568062456498774E-002
  -1.0262068972366478E-012   8.7464844394924413E-013   4.8319815282757611E-002
  -9.3399073197719673E-013   1.0957606350059379E-012   5.1489145113832999E-002
  -8.4177326567513866E-013   1.0993465252712165E-012   5.4525812567650267E-002
  -7.4955428149003911E-013   8.8540031426345700E-013   5.7429817644209444E-002
  -6.5734050147536749E-013   4.5390774472409134E-013   6.0201160343510522E-002
   2.9349363515614978E-002  -6.2881830075141240E-003   5.8295752199416719E-002
   2.8995650740524744E-002  -6.6739073737870740E-003   5.9032119108659166E-002
   2.8641937965434509E-002  -6.9951025995879917E-003   5.9791435346229549E-002
   2.8288225190344275E-002  -7.2517686849169066E-003   6.0573700912127895E-002
   2.7934512415254034E-002  -7.4439056297737616E-003   6.1378915806354156E-002
   2.2020864521194783E-002  -4.7161372555221057E-003   5.8615358384451907E-002
   2.1706470790777789E-002  -5.0054305302820595E-003   5.9418663418267251E-002
   2.1392077060360792E-002  -5.2463269495282832E-003   6.0277657213101167E-002
   2.1077683329943798E-002  -5.4388265132607923E-003   6.1192339768953628E-002
   2.0763289599526800E-002  -5.5829292214795434E-003   6.2162711085824655E-002
   1.4686470937009331E-002  -3.1440915035301047E-003   5.9039461803479257E-002
   1.4444135683956172E-002  -3.3369536867770330E-003   5.9893572676909243E-002
   1.4201800430903015E-002  -3.4975512994685478E-003   6.0836111744048363E-002
   1.3959465177849859E-002  -3.6258843416046641E-003   6.1867079004896589E-002
   1.3717129924796699E-002  -3.7219528131853530E-003   6.2986474459454017E-002
   7.3461827630586229E-003  -1.5720457515381089E-003   5.9568062456498774E-002
   7.2086454200598962E-003  -1.6684768432719847E-003   6.0456846884585094E-002
   7.0711080770611738E-003  -1.7487756494088190E-003   6.1466798939071081E-002
   6.9335707340624532E-003  -1.8129421699485566E-003   6.2597918619956783E-002
   6.7960333910637265E-003  -1.8609764048911626E-003   6.3850205927242290E-002
  -6.5734050147536749E-013   4.5390774472409134E-013   6.0201160343510522E-002
  -9.1103253413438168E-013   2.3302193508101254E-013   6.1108486041294784E-002
  -1.1647236994316579E-012   6.5090814682644549E-013   6.2169718798169363E-002
  -1.4184131300054581E-012   1.7075954365786128E-012   6.3384858614134232E-002
  -1.6721068973879483E-012   3.4030278595054142E-012   6.4753905489189467E-002
   2.7934512415254034E-002  -7.4439056297737616E-003   6.1378915806354156E-002
   2.7231947851847571E-002  -7.5593992262924306E-003   6.0976416300662084E-002
   2.6529383288441122E-002  -7.5861352666066958E-003   6.0687284928278365E-002
   2.5826818725034659E-002  -7.5241137507168123E-003   6.0511521689203047E-002
   2.5124254161628196E-002  -7.3733346786225284E-003   6.0449126583436180E-002
   2.0763289599526800E-002  -5.5829292214795434E-003   6.2162711085824655E-002
   2.0189661421276716E-002  -5.6695494183933090E-003   6.1978505834627932E-002
   1.9616033243026625E-002  -5.6896014482109292E-003   6.1938805220435628E-002
   1.9042405064776544E-002  -5.6430853109322582E-003   6.2043609243247644E-002
   1.8468776886526456E-002  -5.5300010065573446E-003   6.2292917903064030E-002
   1.3717129924796699E-002  -3.7219528131853530E-003   6.2986474459454017E-002
   1.3303574635398954E-002  -3.7796996104942811E-003   6.2998374073644586E-002
   1.2890019346001209E-002  -3.7930676298150827E-003   6.3185914828535542E-002
   1.2476464056603458E-002  -3.7620568711476910E-003   6.3549096724126800E-002
   1.2062908767205709E-002  -3.6866673344921747E-003   6.4087919760418388E-002
   6.7960333910637265E-003  -1.8609764048911626E-003   6.3850205927242290E-002
   6.5736874942142944E-003  -1.8898498025952341E-003   6.4036021017712108E-002
   6.3513415973648624E-003  -1.8965338114192345E-003   6.4428613752578245E-002
   6.1289957005154251E-003  -1.8810284313631304E-003   6.5027984131840702E-002
   5.9066498036659948E-003  -1.8433336624269839E-003   6.5834132155499409E-002
  -1.6721068973879483E-012   3.4030278595054142E-012   6.4753905489189467E-002
  -2.2772617125355055E-012   5.3038753944356642E-012   6.5091446666830477E-002
  -2.8824147929595867E-012   6.9765582200176368E-012   6.5666901992563725E-002
  -3.4875687407454059E-012   8.4214371587343351E-012   6.6480271466389212E-002
  -4.0927226885312251E-012   9.6382068992539871E-012   6.7531555088307021E-002
   2.5124254161628196E-002  -7.3733346786225284E-003   6.0449126583436180E-002
   2.4322971656079828E-002  -7.1739620946203592E-003   5.9742960774926385E-002
   2.3521689150531433E-002  -6.9661600430067569E-003   5.9332709113181073E-002
   2.2720406644983045E-002  -6.7499285237815603E-003   5.9218371598200266E-002
   2.1919124139434656E-002  -6.5252675369448787E-003   5.9399948229983845E-002
   1.8468776886526456E-002  -5.5300010065573446E-003   6.2292917903064030E-002
   1.7939510147518885E-002  -5.3804715683349186E-003   6.1819838654216711E-002
   1.7410243408511310E-002  -5.2246200295135922E-003   6.1594876791686563E-002
   1.6880976669503729E-002  -5.0624463900934471E-003   6.1618032315473609E-002
   1.6351709930496158E-002  -4.8939506500744190E-003   6.1889305225577673E-002
   1.2062908767205709E-002  -3.6866673344921747E-003   6.4087919760418388E-002
   1.1757861034291606E-002  -3.5869810420494710E-003   6.3845819704221013E-002
   1.1452813301377492E-002  -3.4830800160204865E-003   6.3804040273893442E-002
   1.1147765568463378E-002  -3.3749642564053347E-003   6.3962581469435592E-002
   1.0842717835549267E-002  -3.2626337632039315E-003   6.4321443290847657E-002
   5.9066498036659948E-003  -1.8433336624269839E-003   6.5834132155499409E-002
   5.7780243163979943E-003  -1.7934905157640825E-003   6.5820903924939278E-002
   5.6493988291299972E-003  -1.7415400025273791E-003   6.5960199559801605E-002
   5.5207733418619950E-003  -1.6874821227172219E-003   6.6252019060086376E-002
   5.3921478545939988E-003  -1.6313168763334301E-003   6.6696362425793521E-002
  -4.0927226885312251E-012   9.6382068992539871E-012   6.7531555088307021E-002
  -6.1619528923806399E-012   1.0521430948706723E-011   6.7745091316371492E-002
  -8.2311865656770067E-012   1.0965749142055614E-011   6.8063354649411087E-002
  -1.0300421973696849E-011   1.0970868311033222E-011   6.8486345087425737E-002
  -1.2369650442822788E-011   1.0537015704414898E-011   6.9014062630415596E-002
   2.1919124139434656E-002  -6.5252675369448787E-003   5.9399948229983845E-002
   2.1152099188397042E-002  -6.2906235310838943E-003   5.8967874202790815E-002
   2.0385074237359434E-002  -6.0444429547857892E-003   5.8650781193290202E-002
   1.9618049286321815E-002  -5.7867258080506190E-003   5.8448669201482062E-002
   1.8851024335284197E-002  -5.5174720908781616E-003   5.8361538227366283E-002
   1.6351709930496158E-002  -4.8939506500744190E-003   6.1889305225577673E-002
   1.5718859801709582E-002  -4.7179676456236275E-003   6.1544941616285764E-002
   1.5086009672923006E-002  -4.5333322129084697E-003   6.1353946633803308E-002
   1.4453159544136434E-002  -4.3400443519286680E-003   6.1316320278130623E-002
   1.3820309415349855E-002  -4.1381040626845000E-003   6.1432062549267558E-002
   1.0842717835549267E-002  -3.2626337632039315E-003   6.4321443290847657E-002
   1.0382430138130953E-002  -3.1453117601634717E-003   6.4061905957283977E-002
   9.9221424407126228E-003  -3.0222214710310946E-003   6.3994124859647256E-002
   9.4618547432943033E-003  -2.8933628958068836E-003   6.4118099997937397E-002
   9.0015670458759821E-003  -2.7587360344908385E-003   6.4433831372154374E-002
   5.3921478545939988E-003  -1.6313168763334301E-003   6.6696362425793521E-002
   5.1428101976611360E-003  -1.5726558747032326E-003   6.6518767225785674E-002
   4.8934725407282671E-003  -1.5111107291537473E-003   6.6571315870821948E-002
   4.6441348837953991E-003  -1.4466814396850158E-003   6.6854008360902245E-002
   4.3947972268625372E-003  -1.3793680062972047E-003   6.7366844696026537E-002
  -1.2369650442822788E-011   1.0537015704414898E-011   6.9014062630415596E-002
  -1.9699849390653057E-011   1.0757006396744373E-011   6.8915525421790857E-002
  -2.7030050073206802E-011   1.2723613829201952E-011   6.9085519667327427E-002
  -3.4360250755760546E-011   1.6436772082295548E-011   6.9524045367025208E-002
  -4.1690449703590815E-011   2.1896429114320881E-011   7.0231102520884270E-002
   1.8851024335284197E-002  -5.5174720908781616E-003   5.8361538227366283E-002
   1.7904961295281616E-002  -5.2391505893131518E-003   5.7637617966977084E-002
   1.6958898255279041E-002  -4.9542300894001162E-003   5.7026790958416340E-002
   1.6012835215276470E-002  -4.6627105911390999E-003   5.6529057201684010E-002
   1.5066772175273885E-002  -4.3645920945301619E-003   5.6144416696780219E-002
   1.3820309415349855E-002  -4.1381040626845000E-003   6.1432062549267558E-002
   1.3018195255251164E-002  -3.9293629384007100E-003   6.0956744587495448E-002
   1.2216081095152473E-002  -3.7156725723023337E-003   6.0656231133702734E-002
   1.1413966935053785E-002  -3.4970329643894717E-003   6.0530522187889339E-002
   1.0611852774955091E-002  -3.2734441146617943E-003   6.0579617750054993E-002
   9.0015670458759821E-003  -2.7587360344908385E-003   6.4433831372154374E-002
   8.4051130218319899E-003  -2.6195752874883099E-003   6.4205465952466054E-002
   7.8086589977879959E-003  -2.4771150552044888E-003   6.4213616296907777E-002
   7.2122049737440028E-003  -2.3313553376396751E-003   6.4458282405479628E-002
   6.6157509497000097E-003  -2.1822961347935099E-003   6.4939464278181772E-002
   4.3947972268625372E-003  -1.3793680062972047E-003   6.7366844696026537E-002
   4.0657145950240723E-003  -1.3097876365758890E-003   6.7383782061888511E-002
   3.7366319631856044E-003  -1.2385575381067306E-003   6.7698946448031483E-002
   3.4075493313471357E-003  -1.1656777108898517E-003   6.8312337854455479E-002
   3.0784666995086717E-003  -1.0911481549252394E-003   6.9223956281160140E-002
  -4.1690449703590815E-011   2.1896429114320881E-011   7.0231102520884270E-002
  -2.5172572359899448E-011   1.4336504206013956E-011   7.0491692915763238E-002
  -8.6546984856550324E-012  -2.1008902950647723E-011   7.1112221587073837E-002
   7.8631771233128589E-012  -8.4140205219851438E-011   7.2092688534816277E-002
   2.4381052732280750E-011  -1.7505696892072820E-010   7.3433093758990431E-002
   1.5066772175273885E-002  -4.3645920945301619E-003   5.6144416696780219E-002
   1.4355838696194306E-002  -4.0605765636881341E-003   5.4518506682731616E-002
   1.3644905217114700E-002  -3.7513659627276680E-003   5.1907488603928825E-002
   1.2933971738035115E-002  -3.4369602916495927E-003   4.8311362460372195E-002
   1.2223038258955543E-002  -3.1173595504534468E-003   4.3730128252061240E-002
   1.0611852774955091E-002  -3.2734441146617943E-003   6.0579617750054993E-002
   9.2065215933703551E-003  -3.0454324957505663E-003   5.9707781356654333E-002
   7.8011904117856259E-003  -2.8135245802865805E-003   5.8432257622997419E-002
   6.3958592302008829E-003  -2.5777203682699132E-003   5.6753046549084141E-002
   4.9905280486161885E-003  -2.3380198597007240E-003   5.4670148134914776E-002
   6.6157509497000097E-003  -2.1822961347935099E-003   6.4939464278181772E-002
   5.0974427901079172E-003  -2.0302884278133038E-003   6.4820402731863652E-002
   3.5791346305158178E-003  -1.8756831978454444E-003   6.4879074569787143E-002
   2.0608264709237236E-003  -1.7184804448903464E-003   6.5115479791952147E-002
   5.4251831133161899E-004  -1.5586801689480012E-003   6.5529618398358802E-002
   3.0784666995086717E-003  -1.0911481549252394E-003   6.9223956281160140E-002
   2.0286022864069875E-003  -1.0151443598758886E-003   6.9856370808359464E-002
   9.7873787330529649E-004  -9.3784181540433262E-004   7.1247939444297900E-002
  -7.1126539796388059E-005  -8.5924052151088986E-004   7.3398662188975686E-002
  -1.1209909528980717E-003  -7.7934047819527841E-004   7.6308539042393028E-002
   2.4381052732280750E-011  -1.7505696892072820E-010   7.3433093758990431E-002
   8.2267550410852763E-011  -2.9193852890685434E-010   7.4815685586141600E-002
   1.4015405502831868E-010  -4.3296302654205476E-010   7.7538852246529899E-002
   1.9804055270689069E-010  -5.9813107938788690E-010   8.1602593740155327E-002
   2.5592705732435661E-010  -7.8744255560536658E-010   8.7006910067017662E-002
  -2.2796001197811222E-013   0.0000000000000000        2.8436168030450671E-002
  -4.2752173329274612E-013   1.3524424635757981E-013   3.3396243521695644E-002
  -6.2708302092651103E-013   3.2610372735497606E-013   3.8363543227495127E-002
  -8.2664452540071043E-013   5.7257150409828483E-013   4.3338067147849123E-002
  -1.0262068972366478E-012   8.7464844394924413E-013   4.8319815282757611E-002
  -6.8002793452212520E-003   0.0000000000000000        2.8500376102954753E-002
  -6.8325023945351778E-003   1.4693347039558286E-004   3.3533717781635407E-002
  -6.8647254438491010E-003   3.3090159178088795E-004   3.8495389147532831E-002
  -6.8969484931630277E-003   5.5190436415591265E-004   4.3385390200647030E-002
  -6.9291715424769518E-003   8.0994178752065871E-004   4.8203720940977988E-002
  -1.3506362564632658E-002   0.0000000000000000        2.8693000320252120E-002
  -1.3649703190398686E-002   2.9386694065592408E-004   3.3836642837302568E-002
  -1.3793043816164715E-002   6.6180318323567563E-004   3.8829720514232037E-002
  -1.3936384441930745E-002   1.1038087277392529E-003   4.3672233351040542E-002
  -1.4079725067696771E-002   1.6198835741666616E-003   4.8364181347728061E-002
  -2.0118249658462178E-002   0.0000000000000000        2.9014040682342774E-002
  -2.0451602388018054E-002   4.4080041091626356E-004   3.4305018688697113E-002
  -2.0784955117573927E-002   9.9270477469046332E-004   3.9366537327592752E-002
  -2.1118307847129800E-002   1.6557130913225971E-003   4.4198596599029652E-002
  -2.1451660576685676E-002   2.4298253608126645E-003   4.8801196503007856E-002
  -2.6635940626709813E-002   0.0000000000000000        2.9463497189226712E-002
  -2.7238199987393272E-002   5.8773388117660304E-004   3.4938845335819056E-002
  -2.7840459348076736E-002   1.3236063661452493E-003   4.0105839587614961E-002
  -2.8442718708760195E-002   2.2076174549059361E-003   4.4964479944614388E-002
  -2.9044978069443651E-002   3.2397671474586722E-003   4.9514766406817373E-002
  -1.0262068972366478E-012   8.7464844394924413E-013   4.8319815282757611E-002
  -9.3399073197719673E-013   1.0957606350059379E-012   5.1489145113832999E-002
  -8.4177326567513866E-013   1.0993465252712165E-012   5.4525812567650267E-002
  -7.4955428149003911E-013   8.8540031426345700E-013   5.7429817644209444E-002
  -6.5734050147536749E-013   4.5390774472409134E-013   6.0201160343510522E-002
  -6.9291715424769518E-003   8.0994178752065871E-004   4.8203720940977988E-002
  -7.0334243479640776E-003   1.0649893470002034E-003   5.1158571170474197E-002
  -7.1376771534512034E-003   1.2770225277196131E-003   5.4037578166069827E-002
  -7.2419299589383283E-003   1.4460413296789006E-003   5.6840741927764844E-002
  -7.3461827644254532E-003   1.5720457528780665E-003   5.9568062455559317E-002
  -1.4079725067696771E-002   1.6198835741666616E-003   4.8364181347728061E-002
  -1.4231411535405735E-002   2.1299786929046263E-003   5.1061537597102531E-002
  -1.4383098003114696E-002   2.5540450543398725E-003   5.3739869755933915E-002
  -1.4534784470823662E-002   2.8920826584724010E-003   5.6399177824222241E-002
  -1.4686470938532620E-002   3.1440915053022427E-003   5.9039461801967438E-002
  -2.1451660576685676E-002   2.4298253608126645E-003   4.8801196503007856E-002
  -2.1593961563258966E-002   3.1949680388090522E-003   5.1198044393718001E-002
  -2.1736262549832259E-002   3.8310675809601355E-003   5.3632687337242559E-002
  -2.1878563536405542E-002   4.3381239872659324E-003   5.6105125333581557E-002
  -2.2020864522978838E-002   4.7161372577264171E-003   5.8615358382734975E-002
  -2.9044978069443651E-002   3.2397671474586722E-003   4.9514766406817373E-002
  -2.9121074431523768E-002   4.2599573847134937E-003   5.1568091560320585E-002
  -2.9197170793603882E-002   5.1080901075803960E-003   5.3716030909995750E-002
  -2.9273267155683992E-002   5.7841653160594147E-003   5.5958584455842841E-002
  -2.9349363517764099E-002   6.2881830101505914E-003   5.8295752197861858E-002
  -6.5734050147536749E-013   4.5390774472409134E-013   6.0201160343510522E-002
  -9.1103253413438168E-013   2.3302193508101254E-013   6.1108486041294784E-002
  -1.1647236994316579E-012   6.5090814682644549E-013   6.2169718798169363E-002
  -1.4184131300054581E-012   1.7075954365786128E-012   6.3384858614134232E-002
  -1.6721068973879483E-012   3.4030278595054142E-012   6.4753905489189467E-002
  -7.3461827644254532E-003   1.5720457528780665E-003   5.9568062455559317E-002
  -7.2086454219400390E-003   1.6684768443315269E-003   6.0456846884607035E-002
  -7.0711080794546221E-003   1.7487756510538108E-003   6.1466798940042665E-002
  -6.9335707369692044E-003   1.8129421730448390E-003   6.2597918621866214E-002
  -6.7960333944837911E-003   1.8609764103046100E-003   6.3850205930077619E-002
  -1.4686470938532620E-002   3.1440915053022427E-003   5.9039461801967438E-002
  -1.4444135686010539E-002   3.3369536884301013E-003   5.9893572676908681E-002
  -1.4201800433488454E-002   3.4975513014567144E-003   6.0836111745535361E-002
  -1.3959465180966371E-002   3.6258843443820552E-003   6.1867079007847478E-002
  -1.3717129928444285E-002   3.7219528172061783E-003   6.2986474463845032E-002
  -2.2020864522978838E-002   4.7161372577264171E-003   5.8615358382734975E-002
  -2.1706470793122525E-002   5.0054305325286270E-003   5.9418663418199680E-002
  -2.1392077063266221E-002   5.2463269518596388E-003   6.0277657214647402E-002
  -2.1077683333409907E-002   5.4388265157193265E-003   6.1192339772078101E-002
  -2.0763289603553614E-002   5.5829292241077952E-003   6.2162711090491825E-002
  -2.9349363517764099E-002   6.2881830101505914E-003   5.8295752197861858E-002
  -2.8995650743276015E-002   6.6739073766271806E-003   5.9032119108480038E-002
  -2.8641937968787924E-002   6.9951026022625207E-003   5.9791435347378769E-002
  -2.8288225194299830E-002   7.2517686870565423E-003   6.0573700914558104E-002
  -2.7934512419811739E-002   7.4439056310093427E-003   6.1378915810017934E-002
  -1.6721068973879483E-012   3.4030278595054142E-012   6.4753905489189467E-002
  -2.2772617125355055E-012   5.3038753944356642E-012   6.5091446666830477E-002
  -2.8824147929595867E-012   6.9765582200176368E-012   6.5666901992563725E-002
  -3.4875687407454059E-012   8.4214371587343351E-012   6.6480271466389212E-002
  -4.0927226885312251E-012   9.6382068992539871E-012   6.7531555088307021E-002
  -6.7960333944837911E-003   1.8609764103046100E-003   6.3850205930077619E-002
  -6.5736874985634387E-003   1.8898498104774411E-003   6.4036021020167644E-002
  -6.3513416026430907E-003   1.8965338212075730E-003   6.4428613755216413E-002
  -6.1289957067227410E-003   1.8810284424949832E-003   6.5027984135223940E-002
  -5.9066498108023904E-003   1.8433336743396977E-003   6.5834132160190198E-002
  -1.3717129928444285E-002   3.7219528172061783E-003   6.2986474463845032E-002
  -1.3303574639131963E-002   3.7796996156510033E-003   6.2998374077169461E-002
  -1.2890019349819636E-002   3.7930676354384490E-003   6.3185914832319112E-002
  -1.2476464060507304E-002   3.7620568765685015E-003   6.3549096729294013E-002
  -1.2062908771194982E-002   3.6866673390412025E-003   6.4087919768094109E-002
  -2.0763289603553614E-002   5.5829292241077952E-003   6.2162711090491825E-002
  -2.0189661423982822E-002   5.6695494208245951E-003   6.1978505837835977E-002
  -1.9616033244412048E-002   5.6896014496693112E-003   6.1938805223871796E-002
  -1.9042405064841277E-002   5.6430853106420476E-003   6.2043609248599252E-002
  -1.8468776885270485E-002   5.5300010037427141E-003   6.2292917912018540E-002
  -2.7934512419811739E-002   7.4439056310093427E-003   6.1378915810017934E-002
  -2.7231947853116036E-002   7.5593992259981313E-003   6.0976416302167116E-002
  -2.6529383286420329E-002   7.5861352639003156E-003   6.0687284929874456E-002
  -2.5826818719724625E-002   7.5241137447155599E-003   6.0511521693139947E-002
  -2.5124254153028922E-002   7.3733346684441980E-003   6.0449126591963609E-002
  -4.0927226885312251E-012   9.6382068992539871E-012   6.7531555088307021E-002
  -6.1619528923806399E-012   1.0521430948706723E-011   6.7745091316371492E-002
  -8.2311865656770067E-012   1.0965749142055614E-011   6.8063354649411087E-002
  -1.0300421973696849E-011   1.0970868311033222E-011   6.8486345087425737E-002
  -1.2369650442822788E-011   1.0537015704414898E-011   6.9014062630415596E-002
  -5.9066498108023904E-003   1.8433336743396977E-003   6.5834132160190198E-002
  -5.7780243279463555E-003   1.7934905278949170E-003   6.5820903930734323E-002
  -5.6493988450903136E-003   1.7415400143138554E-003   6.5960199566153871E-002
  -5.5207733622342804E-003   1.6874821335964678E-003   6.6252019066448897E-002
  -5.3921478793782437E-003   1.6313168857429172E-003   6.6696362431619333E-002
  -1.2062908771194982E-002   3.6866673390412025E-003   6.4087919768094109E-002
  -1.1757861043513312E-002   3.5869810452683962E-003   6.3845819714420521E-002
  -1.1452813315831648E-002   3.4830800176621039E-003   6.3804040285522709E-002
  -1.1147765588149981E-002   3.3749642562221236E-003   6.3962581481400771E-002
  -1.0842717860468318E-002   3.2626337609486522E-003   6.4321443302054596E-002
  -1.8468776885270485E-002   5.5300010037427141E-003   6.2292917912018540E-002
  -1.7939510152862850E-002   5.3804715626419204E-003   6.1819838667429974E-002
  -1.7410243420455197E-002   5.2246200210103091E-003   6.1594876807517671E-002
  -1.6880976688047541E-002   5.0624463788478073E-003   6.1618032332281435E-002
  -1.6351709955639903E-002   4.8939506361545260E-003   6.1889305241721426E-002
  -2.5124254153028922E-002   7.3733346684441980E-003   6.0449126591963609E-002
  -2.4322971655994931E-002   7.1739620800153892E-003   5.9742960789762878E-002
  -2.3521689158960940E-002   6.9661600243584865E-003   5.9332709132138645E-002
  -2.2720406661926956E-002   6.7499285014733443E-003   5.9218371619090937E-002
  -2.1919124164892955E-002   6.5252675113602332E-003   5.9399948250619783E-002
  -1.2369650442822788E-011   1.0537015704414898E-011   6.9014062630415596E-002
  -1.9699849390653057E-011   1.0757006396744373E-011   6.8915525421790857E-002
  -2.7030050073206802E-011   1.2723613829201952E-011   6.9085519667327427E-002
  -3.4360250755760546E-011   1.6436772082295548E-011   6.9524045367025208E-002
  -4.1690449703590815E-011   2.1896429114320881E-011   7.0231102520884270E-002
  -5.3921478793782437E-003   1.6313168857429172E-003   6.6696362431619333E-002
  -5.1428102355353276E-003   1.5726558840354204E-003   6.6518767236512608E-002
  -4.8934725916924045E-003   1.5111107417566799E-003   6.6571315889590782E-002
  -4.6441349478494841E-003   1.4466814589066089E-003   6.6854008390854050E-002
  -4.3947973040065653E-003   1.3793680354852178E-003   6.7366844740302162E-002
  -1.0842717860468318E-002   3.2626337609486522E-003   6.4321443302054596E-002
  -1.0382430171428599E-002   3.1453117573137790E-003   6.4061905978147940E-002
  -9.9221424823888651E-003   3.0222214707897946E-003   6.3994124896449983E-002
  -9.4618547933491351E-003   2.8933629013764995E-003   6.4118100056960670E-002
  -9.0015671043094051E-003   2.7587360490740342E-003   6.4433831459680166E-002
  -1.6351709955639903E-002   4.8939506361545260E-003   6.1889305241721426E-002
  -1.5718859827379663E-002   4.7179676305921930E-003   6.1544941646697063E-002
  -1.5086009699119426E-002   4.5333321998228850E-003   6.1353946687904892E-002
  -1.4453159570859183E-002   4.3400443438463632E-003   6.1316320365345157E-002
  -1.3820309442598955E-002   4.1381040626628646E-003   6.1432062679017935E-002
  -2.1919124164892955E-002   6.5252675113602332E-003   5.9399948250619783E-002
  -2.1152099203388529E-002   6.2906235038705516E-003   5.8967874242159629E-002
  -2.0385074241884092E-002   6.0444429288560031E-003   5.8650781263955620E-002
  -1.9618049280379659E-002   5.7867257863162894E-003   5.8448669316007590E-002
  -1.8851024318875226E-002   5.5174720762516394E-003   5.8361538398315649E-002
  -4.1690449703590815E-011   2.1896429114320881E-011   7.0231102520884270E-002
  -2.5172572359899448E-011   1.4336504206013956E-011   7.0491692915763238E-002
  -8.6546984856550324E-012  -2.1008902950647723E-011   7.1112221587073837E-002
   7.8631771233128589E-012  -8.4140205219851438E-011   7.2092688534816277E-002
   2.4381052732280750E-011  -1.7505696892072820E-010   7.3433093758990431E-002
  -4.3947973040065653E-003   1.3793680354852178E-003   6.7366844740302162E-002
  -4.0657146388824901E-003   1.3097876588094581E-003   6.7383782072507226E-002
  -3.7366319737584044E-003   1.2385575161963092E-003   6.7698946425492998E-002
  -3.4075493086343223E-003   1.1656776076457501E-003   6.8312337799259354E-002
  -3.0784666435102435E-003   1.0911479331577878E-003   6.9223956193806391E-002
  -9.0015671043094051E-003   2.7587360490740342E-003   6.4433831459680166E-002
  -8.4051130462302129E-003   2.6195753032823704E-003   6.4205465991059585E-002
  -7.8086589881510215E-003   2.4771150534016254E-003   6.4213616287568637E-002
  -7.2122049300718232E-003   2.3313552994317591E-003   6.4458282349207308E-002
  -6.6157508719926310E-003   2.1822960413727110E-003   6.4939464175975514E-002
  -1.3820309442598955E-002   4.1381040626628646E-003   6.1432062679017935E-002
  -1.3018195247215739E-002   3.9293629477553868E-003   6.0956744671420156E-002
  -1.2216081051832530E-002   3.7156725906069450E-003   6.0656231173300844E-002
  -1.1413966856449324E-002   3.4970329912176303E-003   6.0530522184660110E-002
  -1.0611852661066110E-002   3.2734441495874955E-003   6.0579617705497781E-002
  -1.8851024318875226E-002   5.5174720762516394E-003   5.8361538398315649E-002
  -1.7904961241839087E-002   5.2391505922281811E-003   5.7637618113588973E-002
  -1.6958898164802956E-002   4.9542301278121675E-003   5.7026791082689626E-002
  -1.6012835087766825E-002   4.6627106830036437E-003   5.6529057305617594E-002
  -1.5066772010730686E-002   4.3645922578024465E-003   5.6144416782373086E-002
   2.4381052732280750E-011  -1.7505696892072820E-010   7.3433093758990431E-002
   8.2267550410852763E-011  -2.9193852890685434E-010   7.4815685586141600E-002
   1.4015405502831868E-010  -4.3296302654205476E-010   7.7538852246529899E-002
   1.9804055270689069E-010  -5.9813107938788690E-010   8.1602593740155327E-002
   2.5592705732435661E-010  -7.8744255560536658E-010   8.7006910067017662E-002
  -3.0784666435102435E-003   1.0911479331577878E-003   6.9223956193806391E-002
  -2.0286021240418645E-003   1.0151439895375591E-003   6.9856370690476122E-002
  -9.7873760457348365E-004   9.3784127358992331E-004   7.1247939277072431E-002
   7.1126914894887629E-005   8.5923978531514400E-004   7.3398661953595637E-002
   1.1209914343632763E-003   7.7933952471298529E-004   7.6308538720045171E-002
  -6.6157508719926310E-003   2.1822960413727110E-003   6.4939464175975514E-002
  -5.0974426342527690E-003   2.0302882710134529E-003   6.4820402593979698E-002
  -3.5791343965129035E-003   1.8756829801429425E-003   6.4879074358600089E-002
  -2.0608261587730546E-003   1.7184801687613153E-003   6.5115479469836673E-002
  -5.4251792103317611E-004   1.5586798368684152E-003   6.5529617927689743E-002
  -1.0611852661066110E-002   3.2734441495874955E-003   6.0579617705497781E-002
  -9.2065214483651667E-003   3.0454325524893328E-003   5.9707781296652510E-002
  -7.8011902356642186E-003   2.8135246866960381E-003   5.8432257491112957E-002
  -6.3958590229632887E-003   2.5777205522075682E-003   5.6753046288879401E-002
  -4.9905278102623284E-003   2.3380201490238450E-003   5.4670147689951681E-002
  -1.5066772010730686E-002   4.3645922578024465E-003   5.6144416782373086E-002
  -1.4355838566379054E-002   4.0605768339652681E-003   5.4518506798494182E-002
  -1.3644905122027415E-002   3.7513663932490088E-003   5.1907488674610952E-002
  -1.2933971677675776E-002   3.4369609356538454E-003   4.8311362410722966E-002
  -1.2223038233324143E-002   3.1173604611793859E-003   4.3730128006830737E-002
  -2.6635940626709813E-002   0.0000000000000000        2.9463497189226712E-002
  -2.7238199987393272E-002   5.8773388117660304E-004   3.4938845335819056E-002
  -2.7840459348076736E-002   1.3236063661452493E-003   4.0105839587614961E-002
  -2.8442718708760195E-002   2.2076174549059361E-003   4.4964479944614388E-002
  -2.9044978069443651E-002   3.2397671474586722E-003   4.9514766406817373E-002
  -3.3396430958060261E-002   0.0000000000000000        3.0175674473703749E-002
  -3.4241675624519054E-002   9.6238279877387378E-004   3.5262358468526107E-002
  -3.5086920290977854E-002   2.0281512157485134E-003   4.0171425746594255E-002
  -3.5932164957436646E-002   3.1973052509239206E-003   4.4902876307908179E-002
  -3.6777409623895453E-002   4.4698449043000868E-003   4.9456710152467886E-002
  -4.0736716141198205E-002   0.0000000000000000        3.1284877168573699E-002
  -4.1694208935390109E-002   1.3370317163711449E-003   3.5938144026034791E-002
  -4.2651701729582006E-002   2.7326960653517784E-003   4.0544531344783911E-002
  -4.3609194523773910E-002   4.1869930469418991E-003   4.5104039124821041E-002
  -4.4566687317965793E-002   5.6999226611415075E-003   4.9616667366146207E-002
  -4.8656796176123673E-002   0.0000000000000000        3.2791105273836552E-002
  -4.9595799920006428E-002   1.7116806339684155E-003   3.6966202008345113E-002
  -5.0534803663889197E-002   3.4372409149550404E-003   4.1225156382183929E-002
  -5.1473807407771952E-002   5.1766808429598837E-003   4.5567968395353001E-002
  -5.2412811151654713E-002   6.9300004179829256E-003   4.9994638047852320E-002
  -5.7156671062836645E-002   0.0000000000000000        3.4694358789492320E-002
  -5.7946448578368032E-002   2.0863295515656860E-003   3.8346532415457060E-002
  -5.8736226093899412E-002   4.1417857645583075E-003   4.2213300858794295E-002
  -5.9526003609430791E-002   6.1663686389778604E-003   4.6294664119504017E-002
  -6.0315781124962178E-002   8.1600781748243437E-003   5.0590622197586241E-002
  -2.9044978069443651E-002   3.2397671474586722E-003   4.9514766406817373E-002
  -2.9121074431523768E-002   4.2599573847134937E-003   5.1568091560320585E-002
  -2.9197170793603882E-002   5.1080901075803960E-003   5.3716030909995750E-002
  -2.9273267155683992E-002   5.7841653160594147E-003   5.5958584455842841E-002
  -2.9349363517764099E-002   6.2881830101505914E-003   5.8295752197861858E-002
  -3.6777409623895453E-002   4.4698449043000868E-003   4.9456710152467886E-002
  -3.6796978167513261E-002   5.7055359209062188E-003   5.1240532585578549E-002
  -3.6816546711131076E-002   6.7641440457715026E-003   5.3042796459441884E-002
  -3.6836115254748898E-002   7.6456692788959332E-003   5.4863501774057889E-002
  -3.6855683798366692E-002   8.3501116202795433E-003   5.6702648529426539E-002
  -4.4566687317965793E-002   5.6999226611415075E-003   4.9616667366146207E-002
  -4.4605900798540585E-002   7.1511144570989638E-003   5.1125961701511353E-002
  -4.4645114279115369E-002   8.4201979839625945E-003   5.2577524722209917E-002
  -4.4684327759690147E-002   9.5071732417324369E-003   5.3971356428241850E-002
  -4.4723541240264932E-002   1.0412040230408461E-002   5.5307456819607206E-002
  -5.2412811151654713E-002   6.9300004179829256E-003   4.9994638047852320E-002
  -5.2547842324605729E-002   8.5966929932917019E-003   5.1224378908118998E-002
  -5.2682873497556737E-002   1.0076251922153709E-002   5.2320215698299796E-002
  -5.2817904670507752E-002   1.1368677204568927E-002   5.3282148418394758E-002
  -5.2952935843458768E-002   1.2473968840537409E-002   5.4110177068403820E-002
  -6.0315781124962178E-002   8.1600781748243437E-003   5.0590622197586241E-002
  -6.0622802745708700E-002   1.0042271529484434E-002   5.1535784205401482E-002
  -6.0929824366455214E-002   1.1732305860344794E-002   5.2270869387711590E-002
  -6.1236845987201721E-002   1.3230181167405430E-002   5.2795877744516558E-002
  -6.1543867607948242E-002   1.4535897450666323E-002   5.3110809275816385E-002
  -2.9349363517764099E-002   6.2881830101505914E-003   5.8295752197861858E-002
  -2.8995650743276015E-002   6.6739073766271806E-003   5.9032119108480038E-002
  -2.8641937968787924E-002   6.9951026022625207E-003   5.9791435347378769E-002
  -2.8288225194299830E-002   7.2517686870565423E-003   6.0573700914558104E-002
  -2.7934512419811739E-002   7.4439056310093427E-003   6.1378915810017934E-002
  -3.6855683798366692E-002   8.3501116202795433E-003   5.6702648529426539E-002
  -3.6424476233708800E-002   8.8927424210776609E-003   5.7026489075502666E-002
  -3.5993268669050914E-002   9.2888330324456536E-003   5.7482369873637862E-002
  -3.5562061104393014E-002   9.5383834543835630E-003   5.8070290923832112E-002
  -3.5130853539735107E-002   9.6413936868913891E-003   5.8790252226085388E-002
  -4.4723541240264932E-002   1.0412040230408461E-002   5.5307456819607206E-002
  -4.4105747961658719E-002   1.1111577465528127E-002   5.5136759952552447E-002
  -4.3487954683052540E-002   1.1582563462628828E-002   5.5207194261335225E-002
  -4.2870161404446341E-002   1.1824998221710556E-002   5.5518759745955507E-002
  -4.2252368125840135E-002   1.1838881742773401E-002   5.6071456406413409E-002
  -5.2952935843458768E-002   1.2473968840537409E-002   5.4110177068403820E-002
  -5.2039465927125779E-002   1.3330412509978587E-002   5.3362931739629270E-002
  -5.1125996010792783E-002   1.3876293892811989E-002   5.2965908510470810E-002
  -5.0212526094459781E-002   1.4111612989037632E-002   5.2919107380928428E-002
  -4.9299056178126792E-002   1.4036369798655444E-002   5.3222528351002003E-002
  -6.1543867607948242E-002   1.4535897450666323E-002   5.3110809275816385E-002
  -6.0225630130109960E-002   1.5549247554429085E-002   5.1705004436733287E-002
  -5.8907392652271670E-002   1.6170024322995129E-002   5.0758512621044707E-002
  -5.7589155174433387E-002   1.6398227756364563E-002   5.0271333828750708E-002
  -5.6270917696595105E-002   1.6233857854537445E-002   5.0243468059851179E-002
  -2.7934512419811739E-002   7.4439056310093427E-003   6.1378915810017934E-002
  -2.7231947853116036E-002   7.5593992259981313E-003   6.0976416302167116E-002
  -2.6529383286420329E-002   7.5861352639003156E-003   6.0687284929874456E-002
  -2.5826818719724625E-002   7.5241137447155599E-003   6.0511521693139947E-002
  -2.5124254153028922E-002   7.3733346684441980E-003   6.0449126591963609E-002
  -3.5130853539735107E-002   9.6413936868913891E-003   5.8790252226085388E-002
  -3.4294394942877775E-002   9.6384928193524594E-003   5.8406085362781329E-002
  -3.3457936346020456E-002   9.5703099411502783E-003   5.8176338424242385E-002
  -3.2621477749163116E-002   9.4368450522846446E-003   5.8101011410468542E-002
  -3.1785019152305791E-002   9.2380981527558914E-003   5.8180104321459786E-002
  -4.2252368125840135E-002   1.1838881742773401E-002   5.6071456406413409E-002
  -4.1240963709614262E-002   1.1717586412706760E-002   5.5729097734079580E-002
  -4.0229559293388367E-002   1.1554484618400267E-002   5.5582210775717747E-002
  -3.9218154877162487E-002   1.1349576359853810E-002   5.5630795531327958E-002
  -3.8206750460936599E-002   1.1102861637067529E-002   5.5874852000910150E-002
  -4.9299056178126792E-002   1.4036369798655444E-002   5.3222528351002003E-002
  -4.8071654153325448E-002   1.3796680006061060E-002   5.2945453416061786E-002
  -4.6844252128524083E-002   1.3538659295650270E-002   5.2904901984300520E-002
  -4.5616850103722739E-002   1.3262307667422936E-002   5.3100874055718124E-002
  -4.4389448078921374E-002   1.2967625121379139E-002   5.3533369630314707E-002
  -5.6270917696595105E-002   1.6233857854537445E-002   5.0243468059851179E-002
  -5.4786466274011361E-002   1.5875773599415360E-002   5.0055152408727974E-002
  -5.3302014851427604E-002   1.5522833972900298E-002   5.0144412049990657E-002
  -5.1817563428843846E-002   1.5175038974992040E-002   5.0511246983639194E-002
  -5.0333112006260103E-002   1.4832388605690860E-002   5.1155657209673577E-002
  -2.5124254153028922E-002   7.3733346684441980E-003   6.0449126591963609E-002
  -2.4322971655994931E-002   7.1739620800153892E-003   5.9742960789762878E-002
  -2.3521689158960940E-002   6.9661600243584865E-003   5.9332709132138645E-002
  -2.2720406661926956E-002   6.7499285014733443E-003   5.9218371619090937E-002
  -2.1919124164892955E-002   6.5252675113602332E-003   5.9399948250619783E-002
  -3.1785019152305791E-002   9.2380981527558914E-003   5.8180104321459786E-002
  -3.0709375391824001E-002   8.9985003781203748E-003   5.7678994725387303E-002
  -2.9633731631342208E-002   8.7424828639350374E-003   5.7430693511633990E-002
  -2.8558087870860411E-002   8.4700456101997352E-003   5.7435200680199715E-002
  -2.7482444110378618E-002   8.1811886169145531E-003   5.7692516231084567E-002
  -3.8206750460936599E-002   1.1102861637067529E-002   5.5874852000910150E-002
  -3.6899851199264443E-002   1.0823038676225430E-002   5.5570808338644244E-002
  -3.5592951937592279E-002   1.0518805703511561E-002   5.5476467296439985E-002
  -3.4286052675920130E-002   1.0190162718926015E-002   5.5591828874297415E-002
  -3.2979153414247932E-002   9.8371097224687898E-003   5.5916893072216506E-002
  -4.4389448078921374E-002   1.2967625121379139E-002   5.3533369630314707E-002
  -4.2894399078316277E-002   1.2647576974330381E-002   5.3418401629533520E-002
  -4.1399350077711179E-002   1.2295128543088098E-002   5.3470030486556630E-002
  -3.9904301077106054E-002   1.1910279827652267E-002   5.3688256201383983E-002
  -3.8409252076500956E-002   1.1493030828023040E-002   5.4073078774015411E-002
  -5.0333112006260103E-002   1.4832388605690860E-002   5.1155657209673577E-002
  -4.8693019028979490E-002   1.4472115272435471E-002   5.1221774598055325E-002
  -4.7052926051698883E-002   1.4071451382664676E-002   5.1411383081983952E-002
  -4.5412833074418277E-002   1.3630396936378599E-002   5.1724482661459306E-002
  -4.3772740097137622E-002   1.3148951933577291E-002   5.2161073336481456E-002
  -2.1919124164892955E-002   6.5252675113602332E-003   5.9399948250619783E-002
  -2.1152099203388529E-002   6.2906235038705516E-003   5.8967874242159629E-002
  -2.0385074241884092E-002   6.0444429288560031E-003   5.8650781263955620E-002
  -1.9618049280379659E-002   5.7867257863162894E-003   5.8448669316007590E-002
  -1.8851024318875226E-002   5.5174720762516394E-003   5.8361538398315649E-002
  -2.7482444110378618E-002   8.1811886169145531E-003   5.7692516231084567E-002
  -2.6584674788269078E-002   7.8805436692173936E-003   5.7333469826190420E-002
  -2.5686905466159541E-002   7.5727425522465683E-003   5.7120931112250445E-002
  -2.4789136144050018E-002   7.2577852660016730E-003   5.7054900089264643E-002
  -2.3891366821940471E-002   6.9356718104830462E-003   5.7135376757233014E-002
  -3.2979153414247932E-002   9.8371097224687898E-003   5.5916893072216506E-002
  -3.1919113070835198E-002   9.4704638345642911E-003   5.5635254669139413E-002
  -3.0859072727422471E-002   9.1010421756371890E-003   5.5531650617714604E-002
  -2.9799032384009730E-002   8.7288447456871678E-003   5.5606080917942079E-002
  -2.8738992040596982E-002   8.3538715447145639E-003   5.5858545569821741E-002
  -3.8409252076500956E-002   1.1493030828023040E-002   5.4073078774015411E-002
  -3.7155414051086910E-002   1.1060383999911161E-002   5.3873228771006594E-002
  -3.5901576025672871E-002   1.0629341799027782E-002   5.3882939780348096E-002
  -3.4647738000258804E-002   1.0199904225372718E-002   5.4102211802039966E-002
  -3.3393899974844786E-002   9.7720712789459430E-003   5.4531044836082149E-002
  -4.3772740097137622E-002   1.3148951933577291E-002   5.2161073336481456E-002
  -4.2293577729024201E-002   1.2650304165258031E-002   5.2047392131791992E-002
  -4.0814415360910732E-002   1.2157641422418430E-002   5.2174798600150785E-002
  -3.9335252992797262E-002   1.1670963705058171E-002   5.2543292741558195E-002
  -3.7856090624683827E-002   1.1190271013177489E-002   5.3152874556014085E-002
  -1.8851024318875226E-002   5.5174720762516394E-003   5.8361538398315649E-002
  -1.7904961241839087E-002   5.2391505922281811E-003   5.7637618113588973E-002
  -1.6958898164802956E-002   4.9542301278121675E-003   5.7026791082689626E-002
  -1.6012835087766825E-002   4.6627106830036437E-003   5.6529057305617594E-002
  -1.5066772010730686E-002   4.3645922578024465E-003   5.6144416782373086E-002
  -2.3891366821940471E-002   6.9356718104830462E-003   5.7135376757233014E-002
  -2.2805498884082915E-002   6.6030269803549480E-003   5.6620632583740116E-002
  -2.1719630946225341E-002   6.2564755702815139E-003   5.6272404878062815E-002
  -2.0633763008367778E-002   5.8960175802630320E-003   5.6090693640201070E-002
  -1.9547895070510211E-002   5.5216530102993322E-003   5.6075498870154727E-002
  -2.8738992040596982E-002   8.3538715447145639E-003   5.5858545569821741E-002
  -2.7459896027929864E-002   7.9669033684817425E-003   5.5545669908010201E-002
  -2.6180800015262750E-002   7.5587210127509644E-003   5.5452733928002394E-002
  -2.4901704002595615E-002   7.1293244775225296E-003   5.5579737629797996E-002
  -2.3622607989928514E-002   6.6787137627961901E-003   5.5926681013397442E-002
  -3.3393899974844786E-002   9.7720712789459430E-003   5.4531044836082149E-002
  -3.1868152673379987E-002   9.3307797566083012E-003   5.4412730086399380E-002
  -3.0342405371915192E-002   8.8609664552203905E-003   5.4567778232508315E-002
  -2.8816658070450380E-002   8.3626313747819161E-003   5.4996189274408983E-002
  -2.7290910768985599E-002   7.8357745152931729E-003   5.5697963212101409E-002
  -3.7856090624683827E-002   1.1190271013177489E-002   5.3152874556014085E-002
  -3.6030268820433226E-002   1.0694656144735248E-002   5.3221813118907391E-002
  -3.4204447016182658E-002   1.0163211897689803E-002   5.3617537791580572E-002
  -3.2378625211932077E-002   9.5959382720415091E-003   5.4340048574033531E-002
  -3.0552803407681489E-002   8.9928352677899892E-003   5.5389345466266449E-002
  -1.5066772010730686E-002   4.3645922578024465E-003   5.6144416782373086E-002
  -1.4355838566379054E-002   4.0605768339652681E-003   5.4518506798494182E-002
  -1.3644905122027415E-002   3.7513663932490088E-003   5.1907488674610952E-002
  -1.2933971677675776E-002   3.4369609356538454E-003   4.8311362410722966E-002
  -1.2223038233324143E-002   3.1173604611793859E-003   4.3730128006830737E-002
  -1.9547895070510211E-002   5.5216530102993322E-003   5.6075498870154727E-002
  -1.9537706294415140E-002   5.1428367476984704E-003   5.5140266587280912E-002
  -1.9527517518320079E-002   4.7690236797686275E-003   5.3788653107898432E-002
  -1.9517328742225032E-002   4.4002138065097375E-003   5.2020658432007302E-002
  -1.9507139966129947E-002   4.0364071279217484E-003   4.9836282559607592E-002
  -2.3622607989928514E-002   6.6787137627961901E-003   5.5926681013397442E-002
  -2.3744436938594175E-002   6.2250966614315895E-003   5.5692324643078814E-002
  -2.3866265887259840E-002   5.7866809662881422E-003   5.5610314019747427E-002
  -2.3988094835925504E-002   5.3634666773656036E-003   5.5680649143403066E-002
  -2.4109923784591189E-002   4.9554537946642219E-003   5.5903330014046126E-002
  -2.7290910768985599E-002   7.8357745152931729E-003   5.5697963212101409E-002
  -2.6976030498916177E-002   7.3073565751648611E-003   5.6174680965887958E-002
  -2.6661150228846710E-002   6.8043382528074868E-003   5.7372471410157666E-002
  -2.6346269958777199E-002   6.3267195482215382E-003   5.9291334544910555E-002
  -2.6031389688707794E-002   5.8745004614065843E-003   6.1931270370146188E-002
  -3.0552803407681489E-002   8.9928352677899892E-003   5.5389345466266449E-002
  -2.9232486975381070E-002   8.3896164888979108E-003   5.6587335555708607E-002
  -2.7912170543080650E-002   7.8219955393271229E-003   5.9075125279129420E-002
  -2.6591854110780175E-002   7.2899724190774624E-003   6.2852714636529097E-002
  -2.5271537678479783E-002   6.7935471281490578E-003   6.7920103627908013E-002
  -5.7156671062836645E-002   0.0000000000000000        3.4694358789492320E-002
  -5.7946448578368032E-002   2.0863295515656860E-003   3.8346532415457060E-002
  -5.8736226093899412E-002   4.1417857645583075E-003   4.2213300858794295E-002
  -5.9526003609430791E-002   6.1663686389778604E-003   4.6294664119504017E-002
  -6.0315781124962178E-002   8.1600781748243437E-003   5.0590622197586241E-002
  -6.5824067897492844E-002   0.0000000000000000        3.7217860326866699E-002
  -6.6628617564482143E-002   2.9162917766632334E-003   4.0841036193382245E-002
  -6.7433167231471455E-002   5.7746933988598636E-003   4.4220072939609452E-002
  -6.8237716898460768E-002   8.5752048665898827E-003   4.7354970565548327E-002
  -6.9042266565450081E-002   1.1317826179853295E-002   5.0245729071198848E-002
  -7.4246713776247975E-002   0.0000000000000000        4.0584832497285395E-002
  -7.5524769532356040E-002   3.7462540017607813E-003   4.4151993788458209E-002
  -7.6802825288464091E-002   7.4076010331614152E-003   4.7016282021681850E-002
  -7.8080881044572170E-002   1.0984041094201903E-002   4.9177697196956326E-002
  -7.9358936800680235E-002   1.4475574184882250E-002   5.0636239314281614E-002
  -8.2424608699102037E-002   0.0000000000000000        4.4795275300748408E-002
  -8.4634904481989695E-002   4.5762162268583274E-003   4.8279405200684952E-002
  -8.6845200264877367E-002   9.0405086674629678E-003   5.0601928105011490E-002
  -8.9055496047765012E-002   1.3392877321813934E-002   5.1762844013728035E-002
  -9.1265791830652671E-002   1.7633322189911198E-002   5.1762152926834538E-002
  -9.0357752666055044E-002   0.0000000000000000        4.9849188737255731E-002
  -9.3959022413383123E-002   5.4061784519558748E-003   5.3223270430062468E-002
  -9.7560292160711229E-002   1.0673416301764525E-002   5.4977011189598378E-002
 -0.10116156190803932        1.5801713549425948E-002   5.5110411015863413E-002
 -0.10476283165536739        2.0791070194940153E-002   5.3623469908857635E-002
  -6.0315781124962178E-002   8.1600781748243437E-003   5.0590622197586241E-002
  -6.0622802745708700E-002   1.0042271529484434E-002   5.1535784205401482E-002
  -6.0929824366455214E-002   1.1732305860344794E-002   5.2270869387711590E-002
  -6.1236845987201721E-002   1.3230181167405430E-002   5.2795877744516558E-002
  -6.1543867607948242E-002   1.4535897450666323E-002   5.3110809275816385E-002
  -6.9042266565450081E-002   1.1317826179853295E-002   5.0245729071198848E-002
  -6.9321642218484414E-002   1.3764244069540053E-002   4.9475091219245905E-002
  -6.9601017871518761E-002   1.5676145266540174E-002   4.8969822128222436E-002
  -6.9880393524553108E-002   1.7053529770853577E-002   4.8729921798128441E-002
  -7.0159769177587428E-002   1.7896397582480350E-002   4.8755390228963913E-002
  -7.9358936800680235E-002   1.4475574184882250E-002   5.0636239314281614E-002
  -7.9135220899567801E-002   1.7486216609595706E-002   4.7807443933673546E-002
  -7.8911504998455381E-002   1.9619984672735569E-002   4.5719462900429567E-002
  -7.8687789097342961E-002   2.0876878374301772E-002   4.4372296214549682E-002
  -7.8464073196230527E-002   2.1256897714294381E-002   4.3765943876033837E-002
  -9.1265791830652671E-002   1.7633322189911198E-002   5.1762152926834538E-002
  -9.0063538788958869E-002   2.1208189149651328E-002   4.6532842348684406E-002
  -8.8861285747265054E-002   2.3563824078930942E-002   4.2519791704332954E-002
  -8.7659032705571252E-002   2.4700226977749935E-002   3.9723000993780198E-002
  -8.6456779663877437E-002   2.4617397846108412E-002   3.8142470217026103E-002
 -0.10476283165536739        2.0791070194940153E-002   5.3623469908857635E-002
 -0.10210659588665760        2.4930161689706985E-002   4.5651286464278483E-002
  -9.9450360117947806E-002   2.7507663485126347E-002   3.9370808539932606E-002
  -9.6794124349238023E-002   2.8523575581198113E-002   3.4782036135820059E-002
  -9.4137888580528226E-002   2.7977897977922425E-002   3.1884969251940759E-002
  -6.1543867607948242E-002   1.4535897450666323E-002   5.3110809275816385E-002
  -6.0225630130109960E-002   1.5549247554429085E-002   5.1705004436733287E-002
  -5.8907392652271670E-002   1.6170024322995129E-002   5.0758512621044707E-002
  -5.7589155174433387E-002   1.6398227756364563E-002   5.0271333828750708E-002
  -5.6270917696595105E-002   1.6233857854537445E-002   5.0243468059851179E-002
  -7.0159769177587428E-002   1.7896397582480350E-002   4.8755390228963913E-002
  -6.8430024249320820E-002   1.8359308686127083E-002   4.7304392338675762E-002
  -6.6700279321054184E-002   1.8596823066500460E-002   4.6217096325849791E-002
  -6.4970534392787549E-002   1.8608940723600378E-002   4.5493502190485986E-002
  -6.3240789464520900E-002   1.8395661657426968E-002   4.5133609932584320E-002
  -7.8464073196230527E-002   2.1256897714294381E-002   4.3765943876033837E-002
  -7.6418431963467898E-002   2.1169369817825127E-002   4.2436929546463900E-002
  -7.4372790730705282E-002   2.1023621810005718E-002   4.1376005948423757E-002
  -7.2327149497942653E-002   2.0819653690836184E-002   4.0583173081913407E-002
  -7.0281508265180009E-002   2.0557465460316525E-002   4.0058430946932871E-002
  -8.6456779663877437E-002   2.4617397846108412E-002   3.8142470217026103E-002
  -8.4190853272551186E-002   2.3979430949523147E-002   3.7102616060097598E-002
  -8.1924926881224949E-002   2.3450420553511001E-002   3.6235241488766563E-002
  -7.9659000489898713E-002   2.3030366658071979E-002   3.5540346503032921E-002
  -7.7393074098572504E-002   2.2719269263206106E-002   3.5017931102896735E-002
  -9.4137888580528226E-002   2.7977897977922425E-002   3.1884969251940759E-002
  -9.1747288176570727E-002   2.6789492081221177E-002   3.1301451879576975E-002
  -8.9356687772613241E-002   2.5877219297016269E-002   3.0794802946878246E-002
  -8.6966087368655742E-002   2.5241079625307753E-002   3.0365022453844589E-002
  -8.4575486964698243E-002   2.4881073066095605E-002   3.0012110400476022E-002
  -5.6270917696595105E-002   1.6233857854537445E-002   5.0243468059851179E-002
  -5.4786466274011361E-002   1.5875773599415360E-002   5.0055152408727974E-002
  -5.3302014851427604E-002   1.5522833972900298E-002   5.0144412049990657E-002
  -5.1817563428843846E-002   1.5175038974992040E-002   5.0511246983639194E-002
  -5.0333112006260103E-002   1.4832388605690860E-002   5.1155657209673577E-002
  -6.3240789464520900E-002   1.8395661657426968E-002   4.5133609932584320E-002
  -6.1497043634841986E-002   1.8051114901098730E-002   4.4840169349222428E-002
  -5.9753297805163079E-002   1.7669429487734273E-002   4.4787742287665008E-002
  -5.8009551975484179E-002   1.7250605417333382E-002   4.4976328747912055E-002
  -5.6265806145805251E-002   1.6794642689896166E-002   4.5405928729963657E-002
  -7.0281508265180009E-002   2.0557465460316525E-002   4.0058430946932871E-002
  -6.8315029798987348E-002   2.0226456202782059E-002   3.9617582145689029E-002
  -6.6348551332794631E-002   1.9816025002568058E-002   3.9381185095668278E-002
  -6.4382072866601914E-002   1.9326171859674574E-002   3.9349239796870682E-002
  -6.2415594400409224E-002   1.8756896774101556E-002   3.9521746249296094E-002
  -7.7393074098572504E-002   2.2719269263206106E-002   3.5017931102896735E-002
  -7.5240424766447392E-002   2.2401797504465394E-002   3.4387390798127818E-002
  -7.3087775434322294E-002   2.1962620517401936E-002   3.3924740474000528E-002
  -7.0935126102197182E-002   2.1401738302015742E-002   3.3629980130514950E-002
  -6.8782476770072071E-002   2.0719150858306931E-002   3.3503109767671221E-002
  -8.4575486964698243E-002   2.4881073066095605E-002   3.0012110400476022E-002
  -8.2273228537222146E-002   2.4577138806148729E-002   2.9149595306538767E-002
  -7.9970970109746020E-002   2.4109216032235807E-002   2.8418408422661717E-002
  -7.7668711682269895E-002   2.3477304744357094E-002   2.7818549748845116E-002
  -7.5366453254793797E-002   2.2681404942512279E-002   2.7350019285088789E-002
  -5.0333112006260103E-002   1.4832388605690860E-002   5.1155657209673577E-002
  -4.8693019028979490E-002   1.4472115272435471E-002   5.1221774598055325E-002
  -4.7052926051698883E-002   1.4071451382664676E-002   5.1411383081983952E-002
  -4.5412833074418277E-002   1.3630396936378599E-002   5.1724482661459306E-002
  -4.3772740097137622E-002   1.3148951933577291E-002   5.2161073336481456E-002
  -5.6265806145805251E-002   1.6794642689896166E-002   4.5405928729963657E-002
  -5.4484303789780558E-002   1.6314284291142803E-002   4.5246848665428011E-002
  -5.2702801433755914E-002   1.5822273206793150E-002   4.5247096262833741E-002
  -5.0921299077731255E-002   1.5318609436847295E-002   4.5406671522180753E-002
  -4.9139796721706548E-002   1.4803292981305172E-002   4.5725574443469058E-002
  -6.2415594400409224E-002   1.8756896774101556E-002   3.9521746249296094E-002
  -6.0456846099246002E-002   1.8156453309850190E-002   3.9166206602762210E-002
  -5.8498097798082786E-002   1.7573095030921713E-002   3.9005831184564181E-002
  -5.6539349496919543E-002   1.7006821937315966E-002   3.9040619994701958E-002
  -5.4580601195756348E-002   1.6457634029033080E-002   3.9270573033175535E-002
  -6.8782476770072071E-002   2.0719150858306931E-002   3.3503109767671221E-002
  -6.6610645957375786E-002   1.9998622328557550E-002   3.2979848410058021E-002
  -6.4438815144679459E-002   1.9323916855050190E-002   3.2687587847175230E-002
  -6.2266984331983168E-002   1.8695034437784537E-002   3.2626328079022757E-002
  -6.0095153519286806E-002   1.8111975076760892E-002   3.2796069105600609E-002
  -7.5366453254793797E-002   2.2681404942512279E-002   2.7350019285088789E-002
  -7.2945703364169903E-002   2.1840791347264937E-002   2.6687774087315458E-002
  -7.0524953473546009E-002   2.1074738679178799E-002   2.6292366250666971E-002
  -6.8104203582922102E-002   2.0383246938253261E-002   2.6163795775143307E-002
  -6.5683453692298194E-002   1.9766316124488870E-002   2.6302062660744530E-002
  -4.3772740097137622E-002   1.3148951933577291E-002   5.2161073336481456E-002
  -4.2293577729024201E-002   1.2650304165258031E-002   5.2047392131791992E-002
  -4.0814415360910732E-002   1.2157641422418430E-002   5.2174798600150785E-002
  -3.9335252992797262E-002   1.1670963705058171E-002   5.2543292741558195E-002
  -3.7856090624683827E-002   1.1190271013177489E-002   5.3152874556014085E-002
  -4.9139796721706548E-002   1.4803292981305172E-002   4.5725574443469058E-002
  -4.7432830214329889E-002   1.4275189434510879E-002   4.5520893619799233E-002
  -4.5725863706953210E-002   1.3733164390808225E-002   4.5530733401607210E-002
  -4.4018897199576530E-002   1.3177217850197442E-002   4.5755093788893156E-002
  -4.2311930692199878E-002   1.2607349812678303E-002   4.6193974781657321E-002
  -5.4580601195756348E-002   1.6457634029033080E-002   3.9270573033175535E-002
  -5.2672397616686871E-002   1.5900074703763589E-002   3.8954986068137354E-002
  -5.0764194037617442E-002   1.5308687359198075E-002   3.8827352641006743E-002
  -4.8855990458548035E-002   1.4683471995336546E-002   3.8887672751783640E-002
  -4.6947786879478551E-002   1.4024428612179007E-002   3.9135946400468039E-002
  -6.0095153519286806E-002   1.8111975076760892E-002   3.2796069105600609E-002
  -5.8012279936095167E-002   1.7524959973016313E-002   3.2349669476806550E-002
  -5.5929406352903457E-002   1.6884210327587981E-002   3.2064656318349559E-002
  -5.3846532769711741E-002   1.6189726140475705E-002   3.1941029630229503E-002
  -5.1763659186520108E-002   1.5441507411679795E-002   3.1978789412446654E-002
  -6.5683453692298194E-002   1.9766316124488870E-002   2.6302062660744530E-002
  -6.3452477172554700E-002   1.9149845242269120E-002   2.5704943845806683E-002
  -6.1221500652811192E-002   1.8459733295977734E-002   2.5242644433635553E-002
  -5.8990524133067705E-002   1.7695980285614869E-002   2.4915164424230779E-002
  -5.6759547613324218E-002   1.6858586211180471E-002   2.4722503817592834E-002
  -3.7856090624683827E-002   1.1190271013177489E-002   5.3152874556014085E-002
  -3.6030268820433226E-002   1.0694656144735248E-002   5.3221813118907391E-002
  -3.4204447016182658E-002   1.0163211897689803E-002   5.3617537791580572E-002
  -3.2378625211932077E-002   9.5959382720415091E-003   5.4340048574033531E-002
  -3.0552803407681489E-002   8.9928352677899892E-003   5.5389345466266449E-002
  -4.2311930692199878E-002   1.2607349812678303E-002   4.6193974781657321E-002
  -4.0195575833157089E-002   1.2028568332931477E-002   4.6026776786725204E-002
  -3.8079220974114314E-002   1.1445881465637797E-002   4.6113858791597739E-002
  -3.5962866115071546E-002   1.0859289210797193E-002   4.6455220796274774E-002
  -3.3846511256028708E-002   1.0268791568409652E-002   4.7050862800756266E-002
  -4.6947786879478551E-002   1.4024428612179007E-002   3.9135946400468039E-002
  -4.4613405075618937E-002   1.3362480521128012E-002   3.8764535838766656E-002
  -4.2279023271759315E-002   1.2728551033586076E-002   3.8574899166894557E-002
  -3.9944641467899659E-002   1.2122640149553157E-002   3.8567036384851677E-002
  -3.7610259664040080E-002   1.1544747869029176E-002   3.8740947492637914E-002
  -5.1763659186520108E-002   1.5441507411679795E-002   3.1978789412446654E-002
  -4.9283756547818851E-002   1.4696392709324477E-002   3.1435090275031864E-002
  -4.6803853909117676E-002   1.4011220601534046E-002   3.1000658917471093E-002
  -4.4323951270416460E-002   1.3385991088308982E-002   3.0675495339764176E-002
  -4.1844048631715244E-002   1.2820704169648658E-002   3.0459599541911232E-002
  -5.6759547613324218E-002   1.6858586211180471E-002   2.4722503817592834E-002
  -5.4206630249756776E-002   1.6030304897520803E-002   2.4038440095520919E-002
  -5.1653712886189349E-002   1.5293890169482363E-002   2.3391138043327292E-002
  -4.9100795522621941E-002   1.4649342027064808E-002   2.2780597661012536E-002
  -4.6547878159054534E-002   1.4096660470268252E-002   2.2206818948576124E-002
  -3.0552803407681489E-002   8.9928352677899892E-003   5.5389345466266449E-002
  -2.9232486975381070E-002   8.3896164888979108E-003   5.6587335555708607E-002
  -2.7912170543080650E-002   7.8219955393271229E-003   5.9075125279129420E-002
  -2.6591854110780175E-002   7.2899724190774624E-003   6.2852714636529097E-002
  -2.5271537678479783E-002   6.7935471281490578E-003   6.7920103627908013E-002
  -3.3846511256028708E-002   1.0268791568409652E-002   4.7050862800756266E-002
  -3.1543706216252652E-002   9.6655864000586567E-003   4.7478545386501869E-002
  -2.9240901176476555E-002   9.0408715673278850E-003   4.8581405553219770E-002
  -2.6938096136700458E-002   8.3946470702172746E-003   5.0359443300910203E-002
  -2.4635291096924389E-002   7.7269129087269572E-003   5.2812658629573184E-002
  -3.7610259664040080E-002   1.1544747869029176E-002   3.8740947492637914E-002
  -3.4939588069794705E-002   1.0941556311219403E-002   3.8341215080985841E-002
  -3.2268916475549428E-002   1.0259747595328696E-002   3.8002038197299783E-002
  -2.9598244881304105E-002   9.4993217213571960E-003   3.7723416841579691E-002
  -2.6927573287058762E-002   8.6602786893047456E-003   3.7505351013825683E-002
  -4.1844048631715244E-002   1.2820704169648658E-002   3.0459599541911232E-002
  -3.9420132536007228E-002   1.2217526222380093E-002   2.9175344639160564E-002
  -3.6996216440299157E-002   1.1478623623329427E-002   2.7337023211369486E-002
  -3.4572300344591092E-002   1.0603996372497006E-002   2.4944635258537910E-002
  -3.2148384248883062E-002   9.5936444698824785E-003   2.1998180780665760E-002
  -4.6547878159054534E-002   1.4096660470268252E-002   2.2206818948576124E-002
  -4.4985339614890152E-002   1.3493496133541005E-002   1.9980934061025968E-002
  -4.3422801070725853E-002   1.2697499651330296E-002   1.6586360595428784E-002
  -4.1860262526561456E-002   1.1708671023636937E-002   1.2023098551784267E-002
  -4.0297723982397116E-002   1.0527010250460433E-002   6.2911479300933326E-003
  -9.0357752666055044E-002   0.0000000000000000        4.9849188737255731E-002
  -9.3959022413383123E-002   5.4061784519558748E-003   5.3223270430062468E-002
  -9.7560292160711229E-002   1.0673416301764525E-002   5.4977011189598378E-002
 -0.10116156190803932        1.5801713549425948E-002   5.5110411015863413E-002
 -0.10476283165536739        2.0791070194940153E-002   5.3623469908857635E-002
 -0.10328667025206528        0.0000000000000000        5.8677271464845714E-002
 -0.10682599594541604        1.0882936790378189E-002   5.2130289738039209E-002
 -0.11036532163876681        1.9170713757211796E-002   4.7327537052458166E-002
 -0.11390464733211761        2.4863330900500809E-002   4.4269013408102582E-002
 -0.11744397302546837        2.7960788220245246E-002   4.2954718804972418E-002
 -0.12645188603209098        0.0000000000000000        7.4210222141556703E-002
 -0.12656469769696815        1.6359695128800509E-002   5.5285957773739583E-002
 -0.12667750936184530        2.7668011212659063E-002   4.1470492421644210E-002
 -0.12679032102672247        3.3924948251575666E-002   3.2763826085270620E-002
 -0.12690313269159964        3.5130506245550322E-002   2.9165958764618829E-002
 -0.15985340000613221        0.0000000000000000        9.6448040767388679E-002
 -0.15317512766803945        2.1836453467222815E-002   6.2690274537163596E-002
 -0.14649685532994669        3.6165308668106341E-002   3.7405877297156560E-002
 -0.13981858299185393        4.2986565602650531E-002   2.0594849047367598E-002
 -0.13314031065376120        4.2300224270855391E-002   1.2257189787796739E-002
 -0.20349121217418892        0.0000000000000000       0.12539072734234166     
 -0.18665728585862995        2.7313211805645138E-002   7.4343240028311233E-002
 -0.16982335954307096        4.4662606123553598E-002   3.5133691678995146E-002
 -0.15298943322751196        5.2048182953725389E-002   7.7620822943934714E-003
 -0.13615550691195299        4.9469942296160495E-002  -7.7715881254938404E-003
 -0.10476283165536739        2.0791070194940153E-002   5.3623469908857635E-002
 -0.10210659588665760        2.4930161689706985E-002   4.5651286464278483E-002
  -9.9450360117947806E-002   2.7507663485126347E-002   3.9370808539932606E-002
  -9.6794124349238023E-002   2.8523575581198113E-002   3.4782036135820059E-002
  -9.4137888580528226E-002   2.7977897977922425E-002   3.1884969251940759E-002
 -0.11744397302546837        2.7960788220245246E-002   4.2954718804972418E-002
 -0.11348482034322915        2.9434918755512726E-002   3.6709186735280792E-002
 -0.10952566766098989        3.0257555545370945E-002   3.1377782972414739E-002
 -0.10556651497875066        3.0428698589819888E-002   2.6960507516374316E-002
 -0.10160736229651145        2.9948347888859528E-002   2.3457360367159463E-002
 -0.12690313269159964        3.5130506245550322E-002   2.9165958764618829E-002
 -0.12241864030923863        3.3939675821318446E-002   2.5557174023752887E-002
 -0.11793414792687765        3.3007447605615595E-002   2.2084940376304915E-002
 -0.11344965554451666        3.2333821598441642E-002   1.8749257822274802E-002
 -0.10896516316215567        3.1918797799796665E-002   1.5550126361662617E-002
 -0.13314031065376120        4.2300224270855391E-002   1.2257189787796739E-002
 -0.12890805578468609        3.8444432887124229E-002   1.2195248329694767E-002
 -0.12467580091561099        3.5757339665860241E-002   1.1492280751603029E-002
 -0.12044354604653594        3.4238944607063386E-002   1.0148287053521589E-002
 -0.11621129117746086        3.3889247710733802E-002   8.1632672354502618E-003
 -0.13615550691195299        4.9469942296160495E-002  -7.7715881254938404E-003
 -0.13295306676957153        4.2949189952929942E-002  -3.3765903468935959E-003
 -0.12975062662719006        3.8507231726104846E-002  -4.0019590169075754E-004
 -0.12654818648480853        3.6144067615685137E-002   1.1575952101145095E-003
 -0.12334574634242709        3.5859697621670877E-002   1.2967829885223714E-003
  -9.4137888580528226E-002   2.7977897977922425E-002   3.1884969251940759E-002
  -9.1747288176570727E-002   2.6789492081221177E-002   3.1301451879576975E-002
  -8.9356687772613241E-002   2.5877219297016269E-002   3.0794802946878246E-002
  -8.6966087368655742E-002   2.5241079625307753E-002   3.0365022453844589E-002
  -8.4575486964698243E-002   2.4881073066095605E-002   3.0012110400476022E-002
 -0.10160736229651145        2.9948347888859528E-002   2.3457360367159463E-002
  -9.9123020888661775E-002   2.9174670980848701E-002   2.3172875631264057E-002
  -9.6638679480812173E-002   2.8465835404146170E-002   2.2999004463487953E-002
  -9.4154338072962501E-002   2.7821841158751841E-002   2.2935746863831059E-002
  -9.1669996665112871E-002   2.7242688244665858E-002   2.2983102832293434E-002
 -0.10896516316215567        3.1918797799796665E-002   1.5550126361662617E-002
 -0.10635333562195970        3.1559849880476255E-002   1.5353382481047530E-002
 -0.10374150808176370        3.1054451511276039E-002   1.5300997297005939E-002
 -0.10112968054156778        3.0402602692195971E-002   1.5392970809537641E-002
  -9.8517853001371780E-002   2.9604303423236139E-002   1.5629303018642737E-002
 -0.11621129117746086        3.3889247710733802E-002   8.1632672354502618E-003
 -0.11343823237646442        3.3945028780103845E-002   7.8429724289274597E-003
 -0.11066517357546797        3.3643067618405860E-002   7.7007814474322287E-003
 -0.10789211477447155        3.2983364225640167E-002   7.7366942909644952E-003
 -0.10511905597347507        3.1965918601806351E-002   7.9507109595242931E-003
 -0.12334574634242709        3.5859697621670877E-002   1.2967829885223714E-003
 -0.12037771115217599        3.6330207679731275E-002   6.4164547490359880E-004
 -0.11740967596192491        3.6231683725535903E-002   1.9835691476673134E-004
 -0.11444164077167379        3.5564125759084110E-002  -3.3082691888463439E-005
 -0.11147360558142272        3.4327533780376618E-002  -5.2673345062093091E-005
  -8.4575486964698243E-002   2.4881073066095605E-002   3.0012110400476022E-002
  -8.2273228537222146E-002   2.4577138806148729E-002   2.9149595306538767E-002
  -7.9970970109746020E-002   2.4109216032235807E-002   2.8418408422661717E-002
  -7.7668711682269895E-002   2.3477304744357094E-002   2.7818549748845116E-002
  -7.5366453254793797E-002   2.2681404942512279E-002   2.7350019285088789E-002
  -9.1669996665112871E-002   2.7242688244665858E-002   2.2983102832293434E-002
  -8.9205926287020926E-002   2.6651473383142270E-002   2.2271247972992535E-002
  -8.6741855908928994E-002   2.5971293295435245E-002   2.1751688804862918E-002
  -8.4277785530837090E-002   2.5202147981544604E-002   2.1424425327904596E-002
  -8.1813715152745117E-002   2.4344037441470540E-002   2.1289457542117668E-002
  -9.8517853001371780E-002   2.9604303423236139E-002   1.5629303018642737E-002
  -9.5831003191553077E-002   2.8725807960135838E-002   1.5143131681760839E-002
  -9.3144153381734374E-002   2.7833370558634520E-002   1.4910223517161095E-002
  -9.0457303571915712E-002   2.6926991218732176E-002   1.4930578524843667E-002
  -8.7770453762096981E-002   2.6006669940428898E-002   1.5204196704808458E-002
 -0.10511905597347507        3.1965918601806351E-002   7.9507109595242931E-003
 -0.10214845925081864        3.0800142537129378E-002   7.7652464328436099E-003
  -9.9177862528162158E-002   2.9695447821833962E-002   7.8940125595562856E-003
  -9.6207265805505718E-002   2.8651834455919744E-002   8.3370093396621416E-003
  -9.3236669082849277E-002   2.7669302439387096E-002   9.0942367731611396E-003
 -0.11147360558142272        3.4327533780376618E-002  -5.2673345062093091E-005
 -0.10815829446481751        3.2874477114123002E-002   1.3759222624099010E-004
 -0.10484298334821232        3.1557525085033247E-002   7.0305593204850192E-004
 -0.10152767223160712        3.0376677693107385E-002   1.6437177723600677E-003
  -9.8212361115001923E-002   2.9331934938345405E-002   2.9595777471757567E-003
  -7.5366453254793797E-002   2.2681404942512279E-002   2.7350019285088789E-002
  -7.2945703364169903E-002   2.1840791347264937E-002   2.6687774087315458E-002
  -7.0524953473546009E-002   2.1074738679178799E-002   2.6292366250666971E-002
  -6.8104203582922102E-002   2.0383246938253261E-002   2.6163795775143307E-002
  -6.5683453692298194E-002   1.9766316124488870E-002   2.6302062660744530E-002
  -8.1813715152745117E-002   2.4344037441470540E-002   2.1289457542117668E-002
  -7.9168207947477670E-002   2.3481675274631492E-002   2.1153167036369727E-002
  -7.6522700742210237E-002   2.2699775080445579E-002   2.1199553798784035E-002
  -7.3877193536942776E-002   2.1998336858913461E-002   2.1428617829360577E-002
  -7.1231686331675398E-002   2.1377360610034479E-002   2.1840359128099479E-002
  -8.7770453762096981E-002   2.6006669940428898E-002   1.5204196704808458E-002
  -8.4984349335148562E-002   2.5122559201997866E-002   1.5599761936578492E-002
  -8.2198244908200158E-002   2.4324811481712585E-002   1.6093844343547940E-002
  -7.9412140481251753E-002   2.3613426779573420E-002   1.6686443925717345E-002
  -7.6626036054303265E-002   2.2988405095579922E-002   1.7377560683086268E-002
  -9.3236669082849277E-002   2.7669302439387096E-002   9.0942367731611396E-003
  -9.0394127527182455E-002   2.6763443129364108E-002   1.0027558787941366E-002
  -8.7551585971515661E-002   2.5949847882979701E-002   1.0975237884958657E-002
  -8.4709044415848880E-002   2.5228516700233333E-002   1.1937274064213150E-002
  -8.1866502860182072E-002   2.4599449581125393E-002   1.2913667325704675E-002
  -9.8212361115001923E-002   2.9331934938345405E-002   2.9595777471757567E-003
  -9.5397542523579404E-002   2.8404327056730821E-002   4.4365575904587728E-003
  -9.2582723932156802E-002   2.7574884284246343E-002   5.8437344230162502E-003
  -8.9767905340734214E-002   2.6843606620893655E-002   7.1811082448482236E-003
  -8.6953086749311681E-002   2.6210494066671086E-002   8.4486790559547553E-003
  -6.5683453692298194E-002   1.9766316124488870E-002   2.6302062660744530E-002
  -6.3452477172554700E-002   1.9149845242269120E-002   2.5704943845806683E-002
  -6.1221500652811192E-002   1.8459733295977734E-002   2.5242644433635553E-002
  -5.8990524133067705E-002   1.7695980285614869E-002   2.4915164424230779E-002
  -5.6759547613324218E-002   1.6858586211180471E-002   2.4722503817592834E-002
  -7.1231686331675398E-002   2.1377360610034479E-002   2.1840359128099479E-002
  -6.8843519953290078E-002   2.0744008186716026E-002   2.1330065992984495E-002
  -6.6455353574904896E-002   2.0005441441866015E-002   2.0999333172386184E-002
  -6.4067187196519715E-002   1.9161660375483825E-002   2.0848160666304932E-002
  -6.1679020818134395E-002   1.8212664987570071E-002   2.0876548474740575E-002
  -7.6626036054303265E-002   2.2988405095579922E-002   1.7377560683086268E-002
  -7.4035938905525955E-002   2.2338171131163195E-002   1.6922519970333297E-002
  -7.1445841756748660E-002   2.1551149587754288E-002   1.6691780483847792E-002
  -6.8855744607971309E-002   2.0627340465352945E-002   1.6685342223629388E-002
  -6.6265647459193971E-002   1.9566743763959532E-002   1.6903205189678444E-002
  -8.1866502860182072E-002   2.4599449581125393E-002   1.2913667325704675E-002
  -7.9029734029262305E-002   2.3932334075610316E-002   1.2482305777853708E-002
  -7.6192965198342552E-002   2.3096857733642510E-002   1.2319986368020655E-002
  -7.3356196367422785E-002   2.2093020555222234E-002   1.2426709096204608E-002
  -7.0519427536503046E-002   2.0920822540349146E-002   1.2802473962406902E-002
  -8.6953086749311681E-002   2.6210494066671086E-002   8.4486790559547553E-003
  -8.3824905324499099E-002   2.5526497020057382E-002   8.0094234155453914E-003
  -8.0696723899686518E-002   2.4642565879530925E-002   7.8839508249040485E-003
  -7.7568542474873881E-002   2.3558700645090989E-002   8.0722612840307788E-003
  -7.4440361050061354E-002   2.2274901316738593E-002   8.5743547929252317E-003
  -5.6759547613324218E-002   1.6858586211180471E-002   2.4722503817592834E-002
  -5.4206630249756776E-002   1.6030304897520803E-002   2.4038440095520919E-002
  -5.1653712886189349E-002   1.5293890169482363E-002   2.3391138043327292E-002
  -4.9100795522621941E-002   1.4649342027064808E-002   2.2780597661012536E-002
  -4.6547878159054534E-002   1.4096660470268252E-002   2.2206818948576124E-002
  -6.1679020818134395E-002   1.8212664987570071E-002   2.0876548474740575E-002
  -5.9037035000563870E-002   1.7281283199546915E-002   2.0693792154010848E-002
  -5.6395049182993318E-002   1.6490342932836813E-002   2.0652411071408902E-002
  -5.3753063365422751E-002   1.5839844187440531E-002   2.0752405226934660E-002
  -5.1111077547852241E-002   1.5329786963357350E-002   2.0993774620588046E-002
  -6.6265647459193971E-002   1.9566743763959532E-002   1.6903205189678444E-002
  -6.3429979619371191E-002   1.8532261501572792E-002   1.7270331205983563E-002
  -6.0594311779548410E-002   1.7686795696191589E-002   1.7883446028665519E-002
  -5.7758643939725587E-002   1.7030346347816194E-002   1.8742549657724036E-002
  -5.4922976099902834E-002   1.6562913456446171E-002   1.9847642093159562E-002
  -7.0519427536503046E-002   2.0920822540349146E-002   1.2802473962406902E-002
  -6.7385464106178863E-002   1.9783239803598952E-002   1.3768057251438749E-002
  -6.4251500675854695E-002   1.8883248459546424E-002   1.5084242915096706E-002
  -6.1117537245530457E-002   1.8220848508191889E-002   1.6751030953380514E-002
  -5.7983573815206343E-002   1.7796039949535242E-002   1.8768421366290297E-002
  -7.4440361050061354E-002   2.2274901316738593E-002   8.5743547929252317E-003
  -7.0903488460986708E-002   2.1034218105624947E-002   1.0186970290376518E-002
  -6.7366615871912061E-002   2.0079701222900648E-002   1.2254801730703146E-002
  -6.3829743282837442E-002   1.9411350668567542E-002   1.4777849113904118E-002
  -6.0292870693762768E-002   1.9029166442624201E-002   1.7756112439980432E-002
  -4.6547878159054534E-002   1.4096660470268252E-002   2.2206818948576124E-002
  -4.4985339614890152E-002   1.3493496133541005E-002   1.9980934061025968E-002
  -4.3422801070725853E-002   1.2697499651330296E-002   1.6586360595428784E-002
  -4.1860262526561456E-002   1.1708671023636937E-002   1.2023098551784267E-002
  -4.0297723982397116E-002   1.0527010250460433E-002   6.2911479300933326E-003
  -5.1111077547852241E-002   1.5329786963357350E-002   2.0993774620588046E-002
  -5.0108083542519152E-002   1.4740978318305287E-002   1.9882946354633446E-002
  -4.9105089537186133E-002   1.3854225310002438E-002   1.8821717589063147E-002
  -4.8102095531853122E-002   1.2669527938448742E-002   1.7810088323877413E-002
  -4.7099101526520026E-002   1.1186886203644164E-002   1.6848058559075785E-002
  -5.4922976099902834E-002   1.6562913456446171E-002   1.9847642093159562E-002
  -5.3261238554969878E-002   1.5988460503069957E-002   1.9746758231032724E-002
  -5.1599501010036887E-002   1.5010950968674455E-002   2.0913761947721585E-002
  -4.9937763465103868E-002   1.3630384853260517E-002   2.3348653243226027E-002
  -4.8276025920170926E-002   1.1846762156827562E-002   2.7051432117546070E-002
  -5.7983573815206343E-002   1.7796039949535242E-002   1.8768421366290297E-002
  -5.4444804652242162E-002   1.7235942687834099E-002   1.9572369690223503E-002
  -5.0906035489277919E-002   1.6167676627346590E-002   2.2862493671403448E-002
  -4.7367266326313884E-002   1.4591241768072196E-002   2.8638793309830435E-002
  -4.3828497163349536E-002   1.2506638110011015E-002   3.6901268605504148E-002
  -6.0292870693762768E-002   1.9029166442624201E-002   1.7756112439980432E-002
  -5.3658781834336255E-002   1.8483424872599130E-002   1.9359780732206067E-002
  -4.7024692974909577E-002   1.7324402286018642E-002   2.4667912760109295E-002
  -4.0390604115482953E-002   1.5552098682884104E-002   3.3680508523690540E-002
  -3.3756515256056385E-002   1.3166514063194690E-002   4.6397568022950031E-002
 </DataArray>
 </PointData>
 </Piece>
 <Piece  NumberOfPoints="          1600 "  NumberOfCells="         1024 ">
 <Points>
 <DataArray  type="Float64" NumberOfComponents="3"  format="ascii" >
  0.50000000000000000        0.0000000000000000        0.0000000000000000     
  0.53125000000000000        0.0000000000000000        0.0000000000000000     
  0.56250000000000000        0.0000000000000000        0.0000000000000000     
  0.59375000000000000        0.0000000000000000        0.0000000000000000     
  0.62500000000000000        0.0000000000000000        0.0000000000000000     
  0.50000000000000000        3.1250000000000000E-002   0.0000000000000000     
  0.53125000000000000        3.1250000000000000E-002   0.0000000000000000     
  0.56250000000000000        3.1250000000000000E-002   0.0000000000000000     
  0.59375000000000000        3.1250000000000000E-002   0.0000000000000000     
  0.62500000000000000        3.1250000000000000E-002   0.0000000000000000     
  0.50000000000000000        6.2500000000000000E-002   0.0000000000000000     
  0.53125000000000000        6.2500000000000000E-002   0.0000000000000000     
  0.56250000000000000        6.2500000000000000E-002   0.0000000000000000     
  0.59375000000000000        6.2500000000000000E-002   0.0000000000000000     
  0.62500000000000000        6.2500000000000000E-002   0.0000000000000000     
  0.50000000000000000        9.3750000000000000E-002   0.0000000000000000     
  0.53125000000000000        9.3750000000000000E-002   0.0000000000000000     
  0.56250000000000000        9.3750000000000000E-002   0.0000000000000000     
  0.59375000000000000        9.3750000000000000E-002   0.0000000000000000     
  0.62500000000000000        9.3750000000000000E-002   0.0000000000000000     
  0.50000000000000000       0.12500000000000000        0.0000000000000000     
  0.53125000000000000       0.12500000000000000        0.0000000000000000     
  0.56250000000000000       0.12500000000000000        0.0000000000000000     
  0.59375000000000000       0.12500000000000000        0.0000000000000000     
  0.62500000000000000       0.12500000000000000        0.0000000000000000     
  0.62500000000000000        0.0000000000000000        0.0000000000000000     
  0.65625000000000000        0.0000000000000000        0.0000000000000000     
  0.68750000000000000        0.0000000000000000        0.0000000000000000     
  0.71875000000000000        0.0000000000000000        0.0000000000000000     
  0.75000000000000000        0.0000000000000000        0.0000000000000000     
  0.62500000000000000        3.1250000000000000E-002   0.0000000000000000     
  0.65625000000000000        3.1250000000000000E-002   0.0000000000000000     
  0.68750000000000000        3.1250000000000000E-002   0.0000000000000000     
  0.71875000000000000        3.1250000000000000E-002   0.0000000000000000     
  0.75000000000000000        3.1250000000000000E-002   0.0000000000000000     
  0.62500000000000000        6.2500000000000000E-002   0.0000000000000000     
  0.65625000000000000        6.2500000000000000E-002   0.0000000000000000     
  0.68750000000000000        6.2500000000000000E-002   0.0000000000000000     
  0.71875000000000000        6.2500000000000000E-002   0.0000000000000000     
  0.75000000000000000        6.2500000000000000E-002   0.0000000000000000     
  0.62500000000000000        9.3750000000000000E-002   0.0000000000000000     
  0.65625000000000000        9.3750000000000000E-002   0.0000000000000000     
  0.68750000000000000        9.3750000000000000E-002   0.0000000000000000     
  0.71875000000000000        9.3750000000000000E-002   0.0000000000000000     
  0.75000000000000000        9.3750000000000000E-002   0.0000000000000000     
  0.62500000000000000       0.12500000000000000        0.0000000000000000     
  0.65625000000000000       0.12500000000000000        0.0000000000000000     
  0.68750000000000000       0.12500000000000000        0.0000000000000000     
  0.71875000000000000       0.12500000000000000        0.0000000000000000     
  0.75000000000000000       0.12500000000000000        0.0000000000000000     
  0.75000000000000000        0.0000000000000000        0.0000000000000000     
  0.78125000000000000        0.0000000000000000        0.0000000000000000     
  0.81250000000000000        0.0000000000000000        0.0000000000000000     
  0.84375000000000000        0.0000000000000000        0.0000000000000000     
  0.87500000000000000        0.0000000000000000        0.0000000000000000     
  0.75000000000000000        3.1250000000000000E-002   0.0000000000000000     
  0.78125000000000000        3.1250000000000000E-002   0.0000000000000000     
  0.81250000000000000        3.1250000000000000E-002   0.0000000000000000     
  0.84375000000000000        3.1250000000000000E-002   0.0000000000000000     
  0.87500000000000000        3.1250000000000000E-002   0.0000000000000000     
  0.75000000000000000        6.2500000000000000E-002   0.0000000000000000     
  0.78125000000000000        6.2500000000000000E-002   0.0000000000000000     
  0.81250000000000000        6.2500000000000000E-002   0.0000000000000000     
  0.84375000000000000        6.2500000000000000E-002   0.0000000000000000     
  0.87500000000000000        6.2500000000000000E-002   0.0000000000000000     
  0.75000000000000000        9.3750000000000000E-002   0.0000000000000000     
  0.78125000000000000        9.3750000000000000E-002   0.0000000000000000     
  0.81250000000000000        9.3750000000000000E-002   0.0000000000000000     
  0.84375000000000000        9.3750000000000000E-002   0.0000000000000000     
  0.87500000000000000        9.3750000000000000E-002   0.0000000000000000     
  0.75000000000000000       0.12500000000000000        0.0000000000000000     
  0.78125000000000000       0.12500000000000000        0.0000000000000000     
  0.81250000000000000       0.12500000000000000        0.0000000000000000     
  0.84375000000000000       0.12500000000000000        0.0000000000000000     
  0.87500000000000000       0.12500000000000000        0.0000000000000000     
  0.87500000000000000        0.0000000000000000        0.0000000000000000     
  0.90625000000000000        0.0000000000000000        0.0000000000000000     
  0.93750000000000000        0.0000000000000000        0.0000000000000000     
  0.96875000000000000        0.0000000000000000        0.0000000000000000     
   1.0000000000000000        0.0000000000000000        0.0000000000000000     
  0.87500000000000000        3.1250000000000000E-002   0.0000000000000000     
  0.90625000000000000        3.1250000000000000E-002   0.0000000000000000     
  0.93750000000000000        3.1250000000000000E-002   0.0000000000000000     
  0.96875000000000000        3.1250000000000000E-002   0.0000000000000000     
   1.0000000000000000        3.1250000000000000E-002   0.0000000000000000     
  0.87500000000000000        6.2500000000000000E-002   0.0000000000000000     
  0.90625000000000000        6.2500000000000000E-002   0.0000000000000000     
  0.93750000000000000        6.2500000000000000E-002   0.0000000000000000     
  0.96875000000000000        6.2500000000000000E-002   0.0000000000000000     
   1.0000000000000000        6.2500000000000000E-002   0.0000000000000000     
  0.87500000000000000        9.3750000000000000E-002   0.0000000000000000     
  0.90625000000000000        9.3750000000000000E-002   0.0000000000000000     
  0.93750000000000000        9.3750000000000000E-002   0.0000000000000000     
  0.96875000000000000        9.3750000000000000E-002   0.0000000000000000     
   1.0000000000000000        9.3750000000000000E-002   0.0000000000000000     
  0.87500000000000000       0.12500000000000000        0.0000000000000000     
  0.90625000000000000       0.12500000000000000        0.0000000000000000     
  0.93750000000000000       0.12500000000000000        0.0000000000000000     
  0.96875000000000000       0.12500000000000000        0.0000000000000000     
   1.0000000000000000       0.12500000000000000        0.0000000000000000     
   1.0000000000000000        0.0000000000000000        0.0000000000000000     
   1.0312500000000000        0.0000000000000000        0.0000000000000000     
   1.0625000000000000        0.0000000000000000        0.0000000000000000     
   1.0937500000000000        0.0000000000000000        0.0000000000000000     
   1.1250000000000000        0.0000000000000000        0.0000000000000000     
   1.0000000000000000        3.1250000000000000E-002   0.0000000000000000     
   1.0312500000000000        3.1250000000000000E-002   0.0000000000000000     
   1.0625000000000000        3.1250000000000000E-002   0.0000000000000000     
   1.0937500000000000        3.1250000000000000E-002   0.0000000000000000     
   1.1250000000000000        3.1250000000000000E-002   0.0000000000000000     
   1.0000000000000000        6.2500000000000000E-002   0.0000000000000000     
   1.0312500000000000        6.2500000000000000E-002   0.0000000000000000     
   1.0625000000000000        6.2500000000000000E-002   0.0000000000000000     
   1.0937500000000000        6.2500000000000000E-002   0.0000000000000000     
   1.1250000000000000        6.2500000000000000E-002   0.0000000000000000     
   1.0000000000000000        9.3750000000000000E-002   0.0000000000000000     
   1.0312500000000000        9.3750000000000000E-002   0.0000000000000000     
   1.0625000000000000        9.3750000000000000E-002   0.0000000000000000     
   1.0937500000000000        9.3750000000000000E-002   0.0000000000000000     
   1.1250000000000000        9.3750000000000000E-002   0.0000000000000000     
   1.0000000000000000       0.12500000000000000        0.0000000000000000     
   1.0312500000000000       0.12500000000000000        0.0000000000000000     
   1.0625000000000000       0.12500000000000000        0.0000000000000000     
   1.0937500000000000       0.12500000000000000        0.0000000000000000     
   1.1250000000000000       0.12500000000000000        0.0000000000000000     
   1.1250000000000000        0.0000000000000000        0.0000000000000000     
   1.1562500000000000        0.0000000000000000        0.0000000000000000     
   1.1875000000000000        0.0000000000000000        0.0000000000000000     
   1.2187500000000000        0.0000000000000000        0.0000000000000000     
   1.2500000000000000        0.0000000000000000        0.0000000000000000     
   1.1250000000000000        3.1250000000000000E-002   0.0000000000000000     
   1.1562500000000000        3.1250000000000000E-002   0.0000000000000000     
   1.1875000000000000        3.1250000000000000E-002   0.0000000000000000     
   1.2187500000000000        3.1250000000000000E-002   0.0000000000000000     
   1.2500000000000000        3.1250000000000000E-002   0.0000000000000000     
   1.1250000000000000        6.2500000000000000E-002   0.0000000000000000     
   1.1562500000000000        6.2500000000000000E-002   0.0000000000000000     
   1.1875000000000000        6.2500000000000000E-002   0.0000000000000000     
   1.2187500000000000        6.2500000000000000E-002   0.0000000000000000     
   1.2500000000000000        6.2500000000000000E-002   0.0000000000000000     
   1.1250000000000000        9.3750000000000000E-002   0.0000000000000000     
   1.1562500000000000        9.3750000000000000E-002   0.0000000000000000     
   1.1875000000000000        9.3750000000000000E-002   0.0000000000000000     
   1.2187500000000000        9.3750000000000000E-002   0.0000000000000000     
   1.2500000000000000        9.3750000000000000E-002   0.0000000000000000     
   1.1250000000000000       0.12500000000000000        0.0000000000000000     
   1.1562500000000000       0.12500000000000000        0.0000000000000000     
   1.1875000000000000       0.12500000000000000        0.0000000000000000     
   1.2187500000000000       0.12500000000000000        0.0000000000000000     
   1.2500000000000000       0.12500000000000000        0.0000000000000000     
   1.2500000000000000        0.0000000000000000        0.0000000000000000     
   1.2812500000000000        0.0000000000000000        0.0000000000000000     
   1.3125000000000000        0.0000000000000000        0.0000000000000000     
   1.3437500000000000        0.0000000000000000        0.0000000000000000     
   1.3750000000000000        0.0000000000000000        0.0000000000000000     
   1.2500000000000000        3.1250000000000000E-002   0.0000000000000000     
   1.2812500000000000        3.1250000000000000E-002   0.0000000000000000     
   1.3125000000000000        3.1250000000000000E-002   0.0000000000000000     
   1.3437500000000000        3.1250000000000000E-002   0.0000000000000000     
   1.3750000000000000        3.1250000000000000E-002   0.0000000000000000     
   1.2500000000000000        6.2500000000000000E-002   0.0000000000000000     
   1.2812500000000000        6.2500000000000000E-002   0.0000000000000000     
   1.3125000000000000        6.2500000000000000E-002   0.0000000000000000     
   1.3437500000000000        6.2500000000000000E-002   0.0000000000000000     
   1.3750000000000000        6.2500000000000000E-002   0.0000000000000000     
   1.2500000000000000        9.3750000000000000E-002   0.0000000000000000     
   1.2812500000000000        9.3750000000000000E-002   0.0000000000000000     
   1.3125000000000000        9.3750000000000000E-002   0.0000000000000000     
   1.3437500000000000        9.3750000000000000E-002   0.0000000000000000     
   1.3750000000000000        9.3750000000000000E-002   0.0000000000000000     
   1.2500000000000000       0.12500000000000000        0.0000000000000000     
   1.2812500000000000       0.12500000000000000        0.0000000000000000     
   1.3125000000000000       0.12500000000000000        0.0000000000000000     
   1.3437500000000000       0.12500000000000000        0.0000000000000000     
   1.3750000000000000       0.12500000000000000        0.0000000000000000     
   1.3750000000000000        0.0000000000000000        0.0000000000000000     
   1.4062500000000000        0.0000000000000000        0.0000000000000000     
   1.4375000000000000        0.0000000000000000        0.0000000000000000     
   1.4687500000000000        0.0000000000000000        0.0000000000000000     
   1.5000000000000000        0.0000000000000000        0.0000000000000000     
   1.3750000000000000        3.1250000000000000E-002   0.0000000000000000     
   1.4062500000000000        3.1250000000000000E-002   0.0000000000000000     
   1.4375000000000000        3.1250000000000000E-002   0.0000000000000000     
   1.4687500000000000        3.1250000000000000E-002   0.0000000000000000     
   1.5000000000000000        3.1250000000000000E-002   0.0000000000000000     
   1.3750000000000000        6.2500000000000000E-002   0.0000000000000000     
   1.4062500000000000        6.2500000000000000E-002   0.0000000000000000     
   1.4375000000000000        6.2500000000000000E-002   0.0000000000000000     
   1.4687500000000000        6.2500000000000000E-002   0.0000000000000000     
   1.5000000000000000        6.2500000000000000E-002   0.0000000000000000     
   1.3750000000000000        9.3750000000000000E-002   0.0000000000000000     
   1.4062500000000000        9.3750000000000000E-002   0.0000000000000000     
   1.4375000000000000        9.3750000000000000E-002   0.0000000000000000     
   1.4687500000000000        9.3750000000000000E-002   0.0000000000000000     
   1.5000000000000000        9.3750000000000000E-002   0.0000000000000000     
   1.3750000000000000       0.12500000000000000        0.0000000000000000     
   1.4062500000000000       0.12500000000000000        0.0000000000000000     
   1.4375000000000000       0.12500000000000000        0.0000000000000000     
   1.4687500000000000       0.12500000000000000        0.0000000000000000     
   1.5000000000000000       0.12500000000000000        0.0000000000000000     
  0.50000000000000000       0.12500000000000000        0.0000000000000000     
  0.53125000000000000       0.12500000000000000        0.0000000000000000     
  0.56250000000000000       0.12500000000000000        0.0000000000000000     
  0.59375000000000000       0.12500000000000000        0.0000000000000000     
  0.62500000000000000       0.12500000000000000        0.0000000000000000     
  0.50000000000000000       0.15625000000000000        0.0000000000000000     
  0.53125000000000000       0.15625000000000000        0.0000000000000000     
  0.56250000000000000       0.15625000000000000        0.0000000000000000     
  0.59375000000000000       0.15625000000000000        0.0000000000000000     
  0.62500000000000000       0.15625000000000000        0.0000000000000000     
  0.50000000000000000       0.18750000000000000        0.0000000000000000     
  0.53125000000000000       0.18750000000000000        0.0000000000000000     
  0.56250000000000000       0.18750000000000000        0.0000000000000000     
  0.59375000000000000       0.18750000000000000        0.0000000000000000     
  0.62500000000000000       0.18750000000000000        0.0000000000000000     
  0.50000000000000000       0.21875000000000000        0.0000000000000000     
  0.53125000000000000       0.21875000000000000        0.0000000000000000     
  0.56250000000000000       0.21875000000000000        0.0000000000000000     
  0.59375000000000000       0.21875000000000000        0.0000000000000000     
  0.62500000000000000       0.21875000000000000        0.0000000000000000     
  0.50000000000000000       0.25000000000000000        0.0000000000000000     
  0.53125000000000000       0.25000000000000000        0.0000000000000000     
  0.56250000000000000       0.25000000000000000        0.0000000000000000     
  0.59375000000000000       0.25000000000000000        0.0000000000000000     
  0.62500000000000000       0.25000000000000000        0.0000000000000000     
  0.62500000000000000       0.12500000000000000        0.0000000000000000     
  0.65625000000000000       0.12500000000000000        0.0000000000000000     
  0.68750000000000000       0.12500000000000000        0.0000000000000000     
  0.71875000000000000       0.12500000000000000        0.0000000000000000     
  0.75000000000000000       0.12500000000000000        0.0000000000000000     
  0.62500000000000000       0.15625000000000000        0.0000000000000000     
  0.65625000000000000       0.15625000000000000        0.0000000000000000     
  0.68750000000000000       0.15625000000000000        0.0000000000000000     
  0.71875000000000000       0.15625000000000000        0.0000000000000000     
  0.75000000000000000       0.15625000000000000        0.0000000000000000     
  0.62500000000000000       0.18750000000000000        0.0000000000000000     
  0.65625000000000000       0.18750000000000000        0.0000000000000000     
  0.68750000000000000       0.18750000000000000        0.0000000000000000     
  0.71875000000000000       0.18750000000000000        0.0000000000000000     
  0.75000000000000000       0.18750000000000000        0.0000000000000000     
  0.62500000000000000       0.21875000000000000        0.0000000000000000     
  0.65625000000000000       0.21875000000000000        0.0000000000000000     
  0.68750000000000000       0.21875000000000000        0.0000000000000000     
  0.71875000000000000       0.21875000000000000        0.0000000000000000     
  0.75000000000000000       0.21875000000000000        0.0000000000000000     
  0.62500000000000000       0.25000000000000000        0.0000000000000000     
  0.65625000000000000       0.25000000000000000        0.0000000000000000     
  0.68750000000000000       0.25000000000000000        0.0000000000000000     
  0.71875000000000000       0.25000000000000000        0.0000000000000000     
  0.75000000000000000       0.25000000000000000        0.0000000000000000     
  0.75000000000000000       0.12500000000000000        0.0000000000000000     
  0.78125000000000000       0.12500000000000000        0.0000000000000000     
  0.81250000000000000       0.12500000000000000        0.0000000000000000     
  0.84375000000000000       0.12500000000000000        0.0000000000000000     
  0.87500000000000000       0.12500000000000000        0.0000000000000000     
  0.75000000000000000       0.15625000000000000        0.0000000000000000     
  0.78125000000000000       0.15625000000000000        0.0000000000000000     
  0.81250000000000000       0.15625000000000000        0.0000000000000000     
  0.84375000000000000       0.15625000000000000        0.0000000000000000     
  0.87500000000000000       0.15625000000000000        0.0000000000000000     
  0.75000000000000000       0.18750000000000000        0.0000000000000000     
  0.78125000000000000       0.18750000000000000        0.0000000000000000     
  0.81250000000000000       0.18750000000000000        0.0000000000000000     
  0.84375000000000000       0.18750000000000000        0.0000000000000000     
  0.87500000000000000       0.18750000000000000        0.0000000000000000     
  0.75000000000000000       0.21875000000000000        0.0000000000000000     
  0.78125000000000000       0.21875000000000000        0.0000000000000000     
  0.81250000000000000       0.21875000000000000        0.0000000000000000     
  0.84375000000000000       0.21875000000000000        0.0000000000000000     
  0.87500000000000000       0.21875000000000000        0.0000000000000000     
  0.75000000000000000       0.25000000000000000        0.0000000000000000     
  0.78125000000000000       0.25000000000000000        0.0000000000000000     
  0.81250000000000000       0.25000000000000000        0.0000000000000000     
  0.84375000000000000       0.25000000000000000        0.0000000000000000     
  0.87500000000000000       0.25000000000000000        0.0000000000000000     
  0.87500000000000000       0.12500000000000000        0.0000000000000000     
  0.90625000000000000       0.12500000000000000        0.0000000000000000     
  0.93750000000000000       0.12500000000000000        0.0000000000000000     
  0.96875000000000000       0.12500000000000000        0.0000000000000000     
   1.0000000000000000       0.12500000000000000        0.0000000000000000     
  0.87500000000000000       0.15625000000000000        0.0000000000000000     
  0.90625000000000000       0.15625000000000000        0.0000000000000000     
  0.93750000000000000       0.15625000000000000        0.0000000000000000     
  0.96875000000000000       0.15625000000000000        0.0000000000000000     
   1.0000000000000000       0.15625000000000000        0.0000000000000000     
  0.87500000000000000       0.18750000000000000        0.0000000000000000     
  0.90625000000000000       0.18750000000000000        0.0000000000000000     
  0.93750000000000000       0.18750000000000000        0.0000000000000000     
  0.96875000000000000       0.18750000000000000        0.0000000000000000     
   1.0000000000000000       0.18750000000000000        0.0000000000000000     
  0.87500000000000000       0.21875000000000000        0.0000000000000000     
  0.90625000000000000       0.21875000000000000        0.0000000000000000     
  0.93750000000000000       0.21875000000000000        0.0000000000000000     
  0.96875000000000000       0.21875000000000000        0.0000000000000000     
   1.0000000000000000       0.21875000000000000        0.0000000000000000     
  0.87500000000000000       0.25000000000000000        0.0000000000000000     
  0.90625000000000000       0.25000000000000000        0.0000000000000000     
  0.93750000000000000       0.25000000000000000        0.0000000000000000     
  0.96875000000000000       0.25000000000000000        0.0000000000000000     
   1.0000000000000000       0.25000000000000000        0.0000000000000000     
   1.0000000000000000       0.12500000000000000        0.0000000000000000     
   1.0312500000000000       0.12500000000000000        0.0000000000000000     
   1.0625000000000000       0.12500000000000000        0.0000000000000000     
   1.0937500000000000       0.12500000000000000        0.0000000000000000     
   1.1250000000000000       0.12500000000000000        0.0000000000000000     
   1.0000000000000000       0.15625000000000000        0.0000000000000000     
   1.0312500000000000       0.15625000000000000        0.0000000000000000     
   1.0625000000000000       0.15625000000000000        0.0000000000000000     
   1.0937500000000000       0.15625000000000000        0.0000000000000000     
   1.1250000000000000       0.15625000000000000        0.0000000000000000     
   1.0000000000000000       0.18750000000000000        0.0000000000000000     
   1.0312500000000000       0.18750000000000000        0.0000000000000000     
   1.0625000000000000       0.18750000000000000        0.0000000000000000     
   1.0937500000000000       0.18750000000000000        0.0000000000000000     
   1.1250000000000000       0.18750000000000000        0.0000000000000000     
   1.0000000000000000       0.21875000000000000        0.0000000000000000     
   1.0312500000000000       0.21875000000000000        0.0000000000000000     
   1.0625000000000000       0.21875000000000000        0.0000000000000000     
   1.0937500000000000       0.21875000000000000        0.0000000000000000     
   1.1250000000000000       0.21875000000000000        0.0000000000000000     
   1.0000000000000000       0.25000000000000000        0.0000000000000000     
   1.0312500000000000       0.25000000000000000        0.0000000000000000     
   1.0625000000000000       0.25000000000000000        0.0000000000000000     
   1.0937500000000000       0.25000000000000000        0.0000000000000000     
   1.1250000000000000       0.25000000000000000        0.0000000000000000     
   1.1250000000000000       0.12500000000000000        0.0000000000000000     
   1.1562500000000000       0.12500000000000000        0.0000000000000000     
   1.1875000000000000       0.12500000000000000        0.0000000000000000     
   1.2187500000000000       0.12500000000000000        0.0000000000000000     
   1.2500000000000000       0.12500000000000000        0.0000000000000000     
   1.1250000000000000       0.15625000000000000        0.0000000000000000     
   1.1562500000000000       0.15625000000000000        0.0000000000000000     
   1.1875000000000000       0.15625000000000000        0.0000000000000000     
   1.2187500000000000       0.15625000000000000        0.0000000000000000     
   1.2500000000000000       0.15625000000000000        0.0000000000000000     
   1.1250000000000000       0.18750000000000000        0.0000000000000000     
   1.1562500000000000       0.18750000000000000        0.0000000000000000     
   1.1875000000000000       0.18750000000000000        0.0000000000000000     
   1.2187500000000000       0.18750000000000000        0.0000000000000000     
   1.2500000000000000       0.18750000000000000        0.0000000000000000     
   1.1250000000000000       0.21875000000000000        0.0000000000000000     
   1.1562500000000000       0.21875000000000000        0.0000000000000000     
   1.1875000000000000       0.21875000000000000        0.0000000000000000     
   1.2187500000000000       0.21875000000000000        0.0000000000000000     
   1.2500000000000000       0.21875000000000000        0.0000000000000000     
   1.1250000000000000       0.25000000000000000        0.0000000000000000     
   1.1562500000000000       0.25000000000000000        0.0000000000000000     
   1.1875000000000000       0.25000000000000000        0.0000000000000000     
   1.2187500000000000       0.25000000000000000        0.0000000000000000     
   1.2500000000000000       0.25000000000000000        0.0000000000000000     
   1.2500000000000000       0.12500000000000000        0.0000000000000000     
   1.2812500000000000       0.12500000000000000        0.0000000000000000     
   1.3125000000000000       0.12500000000000000        0.0000000000000000     
   1.3437500000000000       0.12500000000000000        0.0000000000000000     
   1.3750000000000000       0.12500000000000000        0.0000000000000000     
   1.2500000000000000       0.15625000000000000        0.0000000000000000     
   1.2812500000000000       0.15625000000000000        0.0000000000000000     
   1.3125000000000000       0.15625000000000000        0.0000000000000000     
   1.3437500000000000       0.15625000000000000        0.0000000000000000     
   1.3750000000000000       0.15625000000000000        0.0000000000000000     
   1.2500000000000000       0.18750000000000000        0.0000000000000000     
   1.2812500000000000       0.18750000000000000        0.0000000000000000     
   1.3125000000000000       0.18750000000000000        0.0000000000000000     
   1.3437500000000000       0.18750000000000000        0.0000000000000000     
   1.3750000000000000       0.18750000000000000        0.0000000000000000     
   1.2500000000000000       0.21875000000000000        0.0000000000000000     
   1.2812500000000000       0.21875000000000000        0.0000000000000000     
   1.3125000000000000       0.21875000000000000        0.0000000000000000     
   1.3437500000000000       0.21875000000000000        0.0000000000000000     
   1.3750000000000000       0.21875000000000000        0.0000000000000000     
   1.2500000000000000       0.25000000000000000        0.0000000000000000     
   1.2812500000000000       0.25000000000000000        0.0000000000000000     
   1.3125000000000000       0.25000000000000000        0.0000000000000000     
   1.3437500000000000       0.25000000000000000        0.0000000000000000     
   1.3750000000000000       0.25000000000000000        0.0000000000000000     
   1.3750000000000000       0.12500000000000000        0.0000000000000000     
   1.4062500000000000       0.12500000000000000        0.0000000000000000     
   1.4375000000000000       0.12500000000000000        0.0000000000000000     
   1.4687500000000000       0.12500000000000000        0.0000000000000000     
   1.5000000000000000       0.12500000000000000        0.0000000000000000     
   1.3750000000000000       0.15625000000000000        0.0000000000000000     
   1.4062500000000000       0.15625000000000000        0.0000000000000000     
   1.4375000000000000       0.15625000000000000        0.0000000000000000     
   1.4687500000000000       0.15625000000000000        0.0000000000000000     
   1.5000000000000000       0.15625000000000000        0.0000000000000000     
   1.3750000000000000       0.18750000000000000        0.0000000000000000     
   1.4062500000000000       0.18750000000000000        0.0000000000000000     
   1.4375000000000000       0.18750000000000000        0.0000000000000000     
   1.4687500000000000       0.18750000000000000        0.0000000000000000     
   1.5000000000000000       0.18750000000000000        0.0000000000000000     
   1.3750000000000000       0.21875000000000000        0.0000000000000000     
   1.4062500000000000       0.21875000000000000        0.0000000000000000     
   1.4375000000000000       0.21875000000000000        0.0000000000000000     
   1.4687500000000000       0.21875000000000000        0.0000000000000000     
   1.5000000000000000       0.21875000000000000        0.0000000000000000     
   1.3750000000000000       0.25000000000000000        0.0000000000000000     
   1.4062500000000000       0.25000000000000000        0.0000000000000000     
   1.4375000000000000       0.25000000000000000        0.0000000000000000     
   1.4687500000000000       0.25000000000000000        0.0000000000000000     
   1.5000000000000000       0.25000000000000000        0.0000000000000000     
  0.50000000000000000       0.25000000000000000        0.0000000000000000     
  0.53125000000000000       0.25000000000000000        0.0000000000000000     
  0.56250000000000000       0.25000000000000000        0.0000000000000000     
  0.59375000000000000       0.25000000000000000        0.0000000000000000     
  0.62500000000000000       0.25000000000000000        0.0000000000000000     
  0.50000000000000000       0.28125000000000000        0.0000000000000000     
  0.53125000000000000       0.28125000000000000        0.0000000000000000     
  0.56250000000000000       0.28125000000000000        0.0000000000000000     
  0.59375000000000000       0.28125000000000000        0.0000000000000000     
  0.62500000000000000       0.28125000000000000        0.0000000000000000     
  0.50000000000000000       0.31250000000000000        0.0000000000000000     
  0.53125000000000000       0.31250000000000000        0.0000000000000000     
  0.56250000000000000       0.31250000000000000        0.0000000000000000     
  0.59375000000000000       0.31250000000000000        0.0000000000000000     
  0.62500000000000000       0.31250000000000000        0.0000000000000000     
  0.50000000000000000       0.34375000000000000        0.0000000000000000     
  0.53125000000000000       0.34375000000000000        0.0000000000000000     
  0.56250000000000000       0.34375000000000000        0.0000000000000000     
  0.59375000000000000       0.34375000000000000        0.0000000000000000     
  0.62500000000000000       0.34375000000000000        0.0000000000000000     
  0.50000000000000000       0.37500000000000000        0.0000000000000000     
  0.53125000000000000       0.37500000000000000        0.0000000000000000     
  0.56250000000000000       0.37500000000000000        0.0000000000000000     
  0.59375000000000000       0.37500000000000000        0.0000000000000000     
  0.62500000000000000       0.37500000000000000        0.0000000000000000     
  0.62500000000000000       0.25000000000000000        0.0000000000000000     
  0.65625000000000000       0.25000000000000000        0.0000000000000000     
  0.68750000000000000       0.25000000000000000        0.0000000000000000     
  0.71875000000000000       0.25000000000000000        0.0000000000000000     
  0.75000000000000000       0.25000000000000000        0.0000000000000000     
  0.62500000000000000       0.28125000000000000        0.0000000000000000     
  0.65625000000000000       0.28125000000000000        0.0000000000000000     
  0.68750000000000000       0.28125000000000000        0.0000000000000000     
  0.71875000000000000       0.28125000000000000        0.0000000000000000     
  0.75000000000000000       0.28125000000000000        0.0000000000000000     
  0.62500000000000000       0.31250000000000000        0.0000000000000000     
  0.65625000000000000       0.31250000000000000        0.0000000000000000     
  0.68750000000000000       0.31250000000000000        0.0000000000000000     
  0.71875000000000000       0.31250000000000000        0.0000000000000000     
  0.75000000000000000       0.31250000000000000        0.0000000000000000     
  0.62500000000000000       0.34375000000000000        0.0000000000000000     
  0.65625000000000000       0.34375000000000000        0.0000000000000000     
  0.68750000000000000       0.34375000000000000        0.0000000000000000     
  0.71875000000000000       0.34375000000000000        0.0000000000000000     
  0.75000000000000000       0.34375000000000000        0.0000000000000000     
  0.62500000000000000       0.37500000000000000        0.0000000000000000     
  0.65625000000000000       0.37500000000000000        0.0000000000000000     
  0.68750000000000000       0.37500000000000000        0.0000000000000000     
  0.71875000000000000       0.37500000000000000        0.0000000000000000     
  0.75000000000000000       0.37500000000000000        0.0000000000000000     
  0.75000000000000000       0.25000000000000000        0.0000000000000000     
  0.78125000000000000       0.25000000000000000        0.0000000000000000     
  0.81250000000000000       0.25000000000000000        0.0000000000000000     
  0.84375000000000000       0.25000000000000000        0.0000000000000000     
  0.87500000000000000       0.25000000000000000        0.0000000000000000     
  0.75000000000000000       0.28125000000000000        0.0000000000000000     
  0.78125000000000000       0.28125000000000000        0.0000000000000000     
  0.81250000000000000       0.28125000000000000        0.0000000000000000     
  0.84375000000000000       0.28125000000000000        0.0000000000000000     
  0.87500000000000000       0.28125000000000000        0.0000000000000000     
  0.75000000000000000       0.31250000000000000        0.0000000000000000     
  0.78125000000000000       0.31250000000000000        0.0000000000000000     
  0.81250000000000000       0.31250000000000000        0.0000000000000000     
  0.84375000000000000       0.31250000000000000        0.0000000000000000     
  0.87500000000000000       0.31250000000000000        0.0000000000000000     
  0.75000000000000000       0.34375000000000000        0.0000000000000000     
  0.78125000000000000       0.34375000000000000        0.0000000000000000     
  0.81250000000000000       0.34375000000000000        0.0000000000000000     
  0.84375000000000000       0.34375000000000000        0.0000000000000000     
  0.87500000000000000       0.34375000000000000        0.0000000000000000     
  0.75000000000000000       0.37500000000000000        0.0000000000000000     
  0.78125000000000000       0.37500000000000000        0.0000000000000000     
  0.81250000000000000       0.37500000000000000        0.0000000000000000     
  0.84375000000000000       0.37500000000000000        0.0000000000000000     
  0.87500000000000000       0.37500000000000000        0.0000000000000000     
  0.87500000000000000       0.25000000000000000        0.0000000000000000     
  0.90625000000000000       0.25000000000000000        0.0000000000000000     
  0.93750000000000000       0.25000000000000000        0.0000000000000000     
  0.96875000000000000       0.25000000000000000        0.0000000000000000     
   1.0000000000000000       0.25000000000000000        0.0000000000000000     
  0.87500000000000000       0.28125000000000000        0.0000000000000000     
  0.90625000000000000       0.28125000000000000        0.0000000000000000     
  0.93750000000000000       0.28125000000000000        0.0000000000000000     
  0.96875000000000000       0.28125000000000000        0.0000000000000000     
   1.0000000000000000       0.28125000000000000        0.0000000000000000     
  0.87500000000000000       0.31250000000000000        0.0000000000000000     
  0.90625000000000000       0.31250000000000000        0.0000000000000000     
  0.93750000000000000       0.31250000000000000        0.0000000000000000     
  0.96875000000000000       0.31250000000000000        0.0000000000000000     
   1.0000000000000000       0.31250000000000000        0.0000000000000000     
  0.87500000000000000       0.34375000000000000        0.0000000000000000     
  0.90625000000000000       0.34375000000000000        0.0000000000000000     
  0.93750000000000000       0.34375000000000000        0.0000000000000000     
  0.96875000000000000       0.34375000000000000        0.0000000000000000     
   1.0000000000000000       0.34375000000000000        0.0000000000000000     
  0.87500000000000000       0.37500000000000000        0.0000000000000000     
  0.90625000000000000       0.37500000000000000        0.0000000000000000     
  0.93750000000000000       0.37500000000000000        0.0000000000000000     
  0.96875000000000000       0.37500000000000000        0.0000000000000000     
   1.0000000000000000       0.37500000000000000        0.0000000000000000     
   1.0000000000000000       0.25000000000000000        0.0000000000000000     
   1.0312500000000000       0.25000000000000000        0.0000000000000000     
   1.0625000000000000       0.25000000000000000        0.0000000000000000     
   1.0937500000000000       0.25000000000000000        0.0000000000000000     
   1.1250000000000000       0.25000000000000000        0.0000000000000000     
   1.0000000000000000       0.28125000000000000        0.0000000000000000     
   1.0312500000000000       0.28125000000000000        0.0000000000000000     
   1.0625000000000000       0.28125000000000000        0.0000000000000000     
   1.0937500000000000       0.28125000000000000        0.0000000000000000     
   1.1250000000000000       0.28125000000000000        0.0000000000000000     
   1.0000000000000000       0.31250000000000000        0.0000000000000000     
   1.0312500000000000       0.31250000000000000        0.0000000000000000     
   1.0625000000000000       0.31250000000000000        0.0000000000000000     
   1.0937500000000000       0.31250000000000000        0.0000000000000000     
   1.1250000000000000       0.31250000000000000        0.0000000000000000     
   1.0000000000000000       0.34375000000000000        0.0000000000000000     
   1.0312500000000000       0.34375000000000000        0.0000000000000000     
   1.0625000000000000       0.34375000000000000        0.0000000000000000     
   1.0937500000000000       0.34375000000000000        0.0000000000000000     
   1.1250000000000000       0.34375000000000000        0.0000000000000000     
   1.0000000000000000       0.37500000000000000        0.0000000000000000     
   1.0312500000000000       0.37500000000000000        0.0000000000000000     
   1.0625000000000000       0.37500000000000000        0.0000000000000000     
   1.0937500000000000       0.37500000000000000        0.0000000000000000     
   1.1250000000000000       0.37500000000000000        0.0000000000000000     
   1.1250000000000000       0.25000000000000000        0.0000000000000000     
   1.1562500000000000       0.25000000000000000        0.0000000000000000     
   1.1875000000000000       0.25000000000000000        0.0000000000000000     
   1.2187500000000000       0.25000000000000000        0.0000000000000000     
   1.2500000000000000       0.25000000000000000        0.0000000000000000     
   1.1250000000000000       0.28125000000000000        0.0000000000000000     
   1.1562500000000000       0.28125000000000000        0.0000000000000000     
   1.1875000000000000       0.28125000000000000        0.0000000000000000     
   1.2187500000000000       0.28125000000000000        0.0000000000000000     
   1.2500000000000000       0.28125000000000000        0.0000000000000000     
   1.1250000000000000       0.31250000000000000        0.0000000000000000     
   1.1562500000000000       0.31250000000000000        0.0000000000000000     
   1.1875000000000000       0.31250000000000000        0.0000000000000000     
   1.2187500000000000       0.31250000000000000        0.0000000000000000     
   1.2500000000000000       0.31250000000000000        0.0000000000000000     
   1.1250000000000000       0.34375000000000000        0.0000000000000000     
   1.1562500000000000       0.34375000000000000        0.0000000000000000     
   1.1875000000000000       0.34375000000000000        0.0000000000000000     
   1.2187500000000000       0.34375000000000000        0.0000000000000000     
   1.2500000000000000       0.34375000000000000        0.0000000000000000     
   1.1250000000000000       0.37500000000000000        0.0000000000000000     
   1.1562500000000000       0.37500000000000000        0.0000000000000000     
   1.1875000000000000       0.37500000000000000        0.0000000000000000     
   1.2187500000000000       0.37500000000000000        0.0000000000000000     
   1.2500000000000000       0.37500000000000000        0.0000000000000000     
   1.2500000000000000       0.25000000000000000        0.0000000000000000     
   1.2812500000000000       0.25000000000000000        0.0000000000000000     
   1.3125000000000000       0.25000000000000000        0.0000000000000000     
   1.3437500000000000       0.25000000000000000        0.0000000000000000     
   1.3750000000000000       0.25000000000000000        0.0000000000000000     
   1.2500000000000000       0.28125000000000000        0.0000000000000000     
   1.2812500000000000       0.28125000000000000        0.0000000000000000     
   1.3125000000000000       0.28125000000000000        0.0000000000000000     
   1.3437500000000000       0.28125000000000000        0.0000000000000000     
   1.3750000000000000       0.28125000000000000        0.0000000000000000     
   1.2500000000000000       0.31250000000000000        0.0000000000000000     
   1.2812500000000000       0.31250000000000000        0.0000000000000000     
   1.3125000000000000       0.31250000000000000        0.0000000000000000     
   1.3437500000000000       0.31250000000000000        0.0000000000000000     
   1.3750000000000000       0.31250000000000000        0.0000000000000000     
   1.2500000000000000       0.34375000000000000        0.0000000000000000     
   1.2812500000000000       0.34375000000000000        0.0000000000000000     
   1.3125000000000000       0.34375000000000000        0.0000000000000000     
   1.3437500000000000       0.34375000000000000        0.0000000000000000     
   1.3750000000000000       0.34375000000000000        0.0000000000000000     
   1.2500000000000000       0.37500000000000000        0.0000000000000000     
   1.2812500000000000       0.37500000000000000        0.0000000000000000     
   1.3125000000000000       0.37500000000000000        0.0000000000000000     
   1.3437500000000000       0.37500000000000000        0.0000000000000000     
   1.3750000000000000       0.37500000000000000        0.0000000000000000     
   1.3750000000000000       0.25000000000000000        0.0000000000000000     
   1.4062500000000000       0.25000000000000000        0.0000000000000000     
   1.4375000000000000       0.25000000000000000        0.0000000000000000     
   1.4687500000000000       0.25000000000000000        0.0000000000000000     
   1.5000000000000000       0.25000000000000000        0.0000000000000000     
   1.3750000000000000       0.28125000000000000        0.0000000000000000     
   1.4062500000000000       0.28125000000000000        0.0000000000000000     
   1.4375000000000000       0.28125000000000000        0.0000000000000000     
   1.4687500000000000       0.28125000000000000        0.0000000000000000     
   1.5000000000000000       0.28125000000000000        0.0000000000000000     
   1.3750000000000000       0.31250000000000000        0.0000000000000000     
   1.4062500000000000       0.31250000000000000        0.0000000000000000     
   1.4375000000000000       0.31250000000000000        0.0000000000000000     
   1.4687500000000000       0.31250000000000000        0.0000000000000000     
   1.5000000000000000       0.31250000000000000        0.0000000000000000     
   1.3750000000000000       0.34375000000000000        0.0000000000000000     
   1.4062500000000000       0.34375000000000000        0.0000000000000000     
   1.4375000000000000       0.34375000000000000        0.0000000000000000     
   1.4687500000000000       0.34375000000000000        0.0000000000000000     
   1.5000000000000000       0.34375000000000000        0.0000000000000000     
   1.3750000000000000       0.37500000000000000        0.0000000000000000     
   1.4062500000000000       0.37500000000000000        0.0000000000000000     
   1.4375000000000000       0.37500000000000000        0.0000000000000000     
   1.4687500000000000       0.37500000000000000        0.0000000000000000     
   1.5000000000000000       0.37500000000000000        0.0000000000000000     
  0.50000000000000000       0.37500000000000000        0.0000000000000000     
  0.53125000000000000       0.37500000000000000        0.0000000000000000     
  0.56250000000000000       0.37500000000000000        0.0000000000000000     
  0.59375000000000000       0.37500000000000000        0.0000000000000000     
  0.62500000000000000       0.37500000000000000        0.0000000000000000     
  0.50000000000000000       0.40625000000000000        0.0000000000000000     
  0.53125000000000000       0.40625000000000000        0.0000000000000000     
  0.56250000000000000       0.40625000000000000        0.0000000000000000     
  0.59375000000000000       0.40625000000000000        0.0000000000000000     
  0.62500000000000000       0.40625000000000000        0.0000000000000000     
  0.50000000000000000       0.43750000000000000        0.0000000000000000     
  0.53125000000000000       0.43750000000000000        0.0000000000000000     
  0.56250000000000000       0.43750000000000000        0.0000000000000000     
  0.59375000000000000       0.43750000000000000        0.0000000000000000     
  0.62500000000000000       0.43750000000000000        0.0000000000000000     
  0.50000000000000000       0.46875000000000000        0.0000000000000000     
  0.53125000000000000       0.46875000000000000        0.0000000000000000     
  0.56250000000000000       0.46875000000000000        0.0000000000000000     
  0.59375000000000000       0.46875000000000000        0.0000000000000000     
  0.62500000000000000       0.46875000000000000        0.0000000000000000     
  0.50000000000000000       0.50000000000000000        0.0000000000000000     
  0.53125000000000000       0.50000000000000000        0.0000000000000000     
  0.56250000000000000       0.50000000000000000        0.0000000000000000     
  0.59375000000000000       0.50000000000000000        0.0000000000000000     
  0.62500000000000000       0.50000000000000000        0.0000000000000000     
  0.62500000000000000       0.37500000000000000        0.0000000000000000     
  0.65625000000000000       0.37500000000000000        0.0000000000000000     
  0.68750000000000000       0.37500000000000000        0.0000000000000000     
  0.71875000000000000       0.37500000000000000        0.0000000000000000     
  0.75000000000000000       0.37500000000000000        0.0000000000000000     
  0.62500000000000000       0.40625000000000000        0.0000000000000000     
  0.65625000000000000       0.40625000000000000        0.0000000000000000     
  0.68750000000000000       0.40625000000000000        0.0000000000000000     
  0.71875000000000000       0.40625000000000000        0.0000000000000000     
  0.75000000000000000       0.40625000000000000        0.0000000000000000     
  0.62500000000000000       0.43750000000000000        0.0000000000000000     
  0.65625000000000000       0.43750000000000000        0.0000000000000000     
  0.68750000000000000       0.43750000000000000        0.0000000000000000     
  0.71875000000000000       0.43750000000000000        0.0000000000000000     
  0.75000000000000000       0.43750000000000000        0.0000000000000000     
  0.62500000000000000       0.46875000000000000        0.0000000000000000     
  0.65625000000000000       0.46875000000000000        0.0000000000000000     
  0.68750000000000000       0.46875000000000000        0.0000000000000000     
  0.71875000000000000       0.46875000000000000        0.0000000000000000     
  0.75000000000000000       0.46875000000000000        0.0000000000000000     
  0.62500000000000000       0.50000000000000000        0.0000000000000000     
  0.65625000000000000       0.50000000000000000        0.0000000000000000     
  0.68750000000000000       0.50000000000000000        0.0000000000000000     
  0.71875000000000000       0.50000000000000000        0.0000000000000000     
  0.75000000000000000       0.50000000000000000        0.0000000000000000     
  0.75000000000000000       0.37500000000000000        0.0000000000000000     
  0.78125000000000000       0.37500000000000000        0.0000000000000000     
  0.81250000000000000       0.37500000000000000        0.0000000000000000     
  0.84375000000000000       0.37500000000000000        0.0000000000000000     
  0.87500000000000000       0.37500000000000000        0.0000000000000000     
  0.75000000000000000       0.40625000000000000        0.0000000000000000     
  0.78125000000000000       0.40625000000000000        0.0000000000000000     
  0.81250000000000000       0.40625000000000000        0.0000000000000000     
  0.84375000000000000       0.40625000000000000        0.0000000000000000     
  0.87500000000000000       0.40625000000000000        0.0000000000000000     
  0.75000000000000000       0.43750000000000000        0.0000000000000000     
  0.78125000000000000       0.43750000000000000        0.0000000000000000     
  0.81250000000000000       0.43750000000000000        0.0000000000000000     
  0.84375000000000000       0.43750000000000000        0.0000000000000000     
  0.87500000000000000       0.43750000000000000        0.0000000000000000     
  0.75000000000000000       0.46875000000000000        0.0000000000000000     
  0.78125000000000000       0.46875000000000000        0.0000000000000000     
  0.81250000000000000       0.46875000000000000        0.0000000000000000     
  0.84375000000000000       0.46875000000000000        0.0000000000000000     
  0.87500000000000000       0.46875000000000000        0.0000000000000000     
  0.75000000000000000       0.50000000000000000        0.0000000000000000     
  0.78125000000000000       0.50000000000000000        0.0000000000000000     
  0.81250000000000000       0.50000000000000000        0.0000000000000000     
  0.84375000000000000       0.50000000000000000        0.0000000000000000     
  0.87500000000000000       0.50000000000000000        0.0000000000000000     
  0.87500000000000000       0.37500000000000000        0.0000000000000000     
  0.90625000000000000       0.37500000000000000        0.0000000000000000     
  0.93750000000000000       0.37500000000000000        0.0000000000000000     
  0.96875000000000000       0.37500000000000000        0.0000000000000000     
   1.0000000000000000       0.37500000000000000        0.0000000000000000     
  0.87500000000000000       0.40625000000000000        0.0000000000000000     
  0.90625000000000000       0.40625000000000000        0.0000000000000000     
  0.93750000000000000       0.40625000000000000        0.0000000000000000     
  0.96875000000000000       0.40625000000000000        0.0000000000000000     
   1.0000000000000000       0.40625000000000000        0.0000000000000000     
  0.87500000000000000       0.43750000000000000        0.0000000000000000     
  0.90625000000000000       0.43750000000000000        0.0000000000000000     
  0.93750000000000000       0.43750000000000000        0.0000000000000000     
  0.96875000000000000       0.43750000000000000        0.0000000000000000     
   1.0000000000000000       0.43750000000000000        0.0000000000000000     
  0.87500000000000000       0.46875000000000000        0.0000000000000000     
  0.90625000000000000       0.46875000000000000        0.0000000000000000     
  0.93750000000000000       0.46875000000000000        0.0000000000000000     
  0.96875000000000000       0.46875000000000000        0.0000000000000000     
   1.0000000000000000       0.46875000000000000        0.0000000000000000     
  0.87500000000000000       0.50000000000000000        0.0000000000000000     
  0.90625000000000000       0.50000000000000000        0.0000000000000000     
  0.93750000000000000       0.50000000000000000        0.0000000000000000     
  0.96875000000000000       0.50000000000000000        0.0000000000000000     
   1.0000000000000000       0.50000000000000000        0.0000000000000000     
   1.0000000000000000       0.37500000000000000        0.0000000000000000     
   1.0312500000000000       0.37500000000000000        0.0000000000000000     
   1.0625000000000000       0.37500000000000000        0.0000000000000000     
   1.0937500000000000       0.37500000000000000        0.0000000000000000     
   1.1250000000000000       0.37500000000000000        0.0000000000000000     
   1.0000000000000000       0.40625000000000000        0.0000000000000000     
   1.0312500000000000       0.40625000000000000        0.0000000000000000     
   1.0625000000000000       0.40625000000000000        0.0000000000000000     
   1.0937500000000000       0.40625000000000000        0.0000000000000000     
   1.1250000000000000       0.40625000000000000        0.0000000000000000     
   1.0000000000000000       0.43750000000000000        0.0000000000000000     
   1.0312500000000000       0.43750000000000000        0.0000000000000000     
   1.0625000000000000       0.43750000000000000        0.0000000000000000     
   1.0937500000000000       0.43750000000000000        0.0000000000000000     
   1.1250000000000000       0.43750000000000000        0.0000000000000000     
   1.0000000000000000       0.46875000000000000        0.0000000000000000     
   1.0312500000000000       0.46875000000000000        0.0000000000000000     
   1.0625000000000000       0.46875000000000000        0.0000000000000000     
   1.0937500000000000       0.46875000000000000        0.0000000000000000     
   1.1250000000000000       0.46875000000000000        0.0000000000000000     
   1.0000000000000000       0.50000000000000000        0.0000000000000000     
   1.0312500000000000       0.50000000000000000        0.0000000000000000     
   1.0625000000000000       0.50000000000000000        0.0000000000000000     
   1.0937500000000000       0.50000000000000000        0.0000000000000000     
   1.1250000000000000       0.50000000000000000        0.0000000000000000     
   1.1250000000000000       0.37500000000000000        0.0000000000000000     
   1.1562500000000000       0.37500000000000000        0.0000000000000000     
   1.1875000000000000       0.37500000000000000        0.0000000000000000     
   1.2187500000000000       0.37500000000000000        0.0000000000000000     
   1.2500000000000000       0.37500000000000000        0.0000000000000000     
   1.1250000000000000       0.40625000000000000        0.0000000000000000     
   1.1562500000000000       0.40625000000000000        0.0000000000000000     
   1.1875000000000000       0.40625000000000000        0.0000000000000000     
   1.2187500000000000       0.40625000000000000        0.0000000000000000     
   1.2500000000000000       0.40625000000000000        0.0000000000000000     
   1.1250000000000000       0.43750000000000000        0.0000000000000000     
   1.1562500000000000       0.43750000000000000        0.0000000000000000     
   1.1875000000000000       0.43750000000000000        0.0000000000000000     
   1.2187500000000000       0.43750000000000000        0.0000000000000000     
   1.2500000000000000       0.43750000000000000        0.0000000000000000     
   1.1250000000000000       0.46875000000000000        0.0000000000000000     
   1.1562500000000000       0.46875000000000000        0.0000000000000000     
   1.1875000000000000       0.46875000000000000        0.0000000000000000     
   1.2187500000000000       0.46875000000000000        0.0000000000000000     
   1.2500000000000000       0.46875000000000000        0.0000000000000000     
   1.1250000000000000       0.50000000000000000        0.0000000000000000     
   1.1562500000000000       0.50000000000000000        0.0000000000000000     
   1.1875000000000000       0.50000000000000000        0.0000000000000000     
   1.2187500000000000       0.50000000000000000        0.0000000000000000     
   1.2500000000000000       0.50000000000000000        0.0000000000000000     
   1.2500000000000000       0.37500000000000000        0.0000000000000000     
   1.2812500000000000       0.37500000000000000        0.0000000000000000     
   1.3125000000000000       0.37500000000000000        0.0000000000000000     
   1.3437500000000000       0.37500000000000000        0.0000000000000000     
   1.3750000000000000       0.37500000000000000        0.0000000000000000     
   1.2500000000000000       0.40625000000000000        0.0000000000000000     
   1.2812500000000000       0.40625000000000000        0.0000000000000000     
   1.3125000000000000       0.40625000000000000        0.0000000000000000     
   1.3437500000000000       0.40625000000000000        0.0000000000000000     
   1.3750000000000000       0.40625000000000000        0.0000000000000000     
   1.2500000000000000       0.43750000000000000        0.0000000000000000     
   1.2812500000000000       0.43750000000000000        0.0000000000000000     
   1.3125000000000000       0.43750000000000000        0.0000000000000000     
   1.3437500000000000       0.43750000000000000        0.0000000000000000     
   1.3750000000000000       0.43750000000000000        0.0000000000000000     
   1.2500000000000000       0.46875000000000000        0.0000000000000000     
   1.2812500000000000       0.46875000000000000        0.0000000000000000     
   1.3125000000000000       0.46875000000000000        0.0000000000000000     
   1.3437500000000000       0.46875000000000000        0.0000000000000000     
   1.3750000000000000       0.46875000000000000        0.0000000000000000     
   1.2500000000000000       0.50000000000000000        0.0000000000000000     
   1.2812500000000000       0.50000000000000000        0.0000000000000000     
   1.3125000000000000       0.50000000000000000        0.0000000000000000     
   1.3437500000000000       0.50000000000000000        0.0000000000000000     
   1.3750000000000000       0.50000000000000000        0.0000000000000000     
   1.3750000000000000       0.37500000000000000        0.0000000000000000     
   1.4062500000000000       0.37500000000000000        0.0000000000000000     
   1.4375000000000000       0.37500000000000000        0.0000000000000000     
   1.4687500000000000       0.37500000000000000        0.0000000000000000     
   1.5000000000000000       0.37500000000000000        0.0000000000000000     
   1.3750000000000000       0.40625000000000000        0.0000000000000000     
   1.4062500000000000       0.40625000000000000        0.0000000000000000     
   1.4375000000000000       0.40625000000000000        0.0000000000000000     
   1.4687500000000000       0.40625000000000000        0.0000000000000000     
   1.5000000000000000       0.40625000000000000        0.0000000000000000     
   1.3750000000000000       0.43750000000000000        0.0000000000000000     
   1.4062500000000000       0.43750000000000000        0.0000000000000000     
   1.4375000000000000       0.43750000000000000        0.0000000000000000     
   1.4687500000000000       0.43750000000000000        0.0000000000000000     
   1.5000000000000000       0.43750000000000000        0.0000000000000000     
   1.3750000000000000       0.46875000000000000        0.0000000000000000     
   1.4062500000000000       0.46875000000000000        0.0000000000000000     
   1.4375000000000000       0.46875000000000000        0.0000000000000000     
   1.4687500000000000       0.46875000000000000        0.0000000000000000     
   1.5000000000000000       0.46875000000000000        0.0000000000000000     
   1.3750000000000000       0.50000000000000000        0.0000000000000000     
   1.4062500000000000       0.50000000000000000        0.0000000000000000     
   1.4375000000000000       0.50000000000000000        0.0000000000000000     
   1.4687500000000000       0.50000000000000000        0.0000000000000000     
   1.5000000000000000       0.50000000000000000        0.0000000000000000     
  0.50000000000000000       0.50000000000000000        0.0000000000000000     
  0.53125000000000000       0.50000000000000000        0.0000000000000000     
  0.56250000000000000       0.50000000000000000        0.0000000000000000     
  0.59375000000000000       0.50000000000000000        0.0000000000000000     
  0.62500000000000000       0.50000000000000000        0.0000000000000000     
  0.50000000000000000       0.53125000000000000        0.0000000000000000     
  0.53125000000000000       0.53125000000000000        0.0000000000000000     
  0.56250000000000000       0.53125000000000000        0.0000000000000000     
  0.59375000000000000       0.53125000000000000        0.0000000000000000     
  0.62500000000000000       0.53125000000000000        0.0000000000000000     
  0.50000000000000000       0.56250000000000000        0.0000000000000000     
  0.53125000000000000       0.56250000000000000        0.0000000000000000     
  0.56250000000000000       0.56250000000000000        0.0000000000000000     
  0.59375000000000000       0.56250000000000000        0.0000000000000000     
  0.62500000000000000       0.56250000000000000        0.0000000000000000     
  0.50000000000000000       0.59375000000000000        0.0000000000000000     
  0.53125000000000000       0.59375000000000000        0.0000000000000000     
  0.56250000000000000       0.59375000000000000        0.0000000000000000     
  0.59375000000000000       0.59375000000000000        0.0000000000000000     
  0.62500000000000000       0.59375000000000000        0.0000000000000000     
  0.50000000000000000       0.62500000000000000        0.0000000000000000     
  0.53125000000000000       0.62500000000000000        0.0000000000000000     
  0.56250000000000000       0.62500000000000000        0.0000000000000000     
  0.59375000000000000       0.62500000000000000        0.0000000000000000     
  0.62500000000000000       0.62500000000000000        0.0000000000000000     
  0.62500000000000000       0.50000000000000000        0.0000000000000000     
  0.65625000000000000       0.50000000000000000        0.0000000000000000     
  0.68750000000000000       0.50000000000000000        0.0000000000000000     
  0.71875000000000000       0.50000000000000000        0.0000000000000000     
  0.75000000000000000       0.50000000000000000        0.0000000000000000     
  0.62500000000000000       0.53125000000000000        0.0000000000000000     
  0.65625000000000000       0.53125000000000000        0.0000000000000000     
  0.68750000000000000       0.53125000000000000        0.0000000000000000     
  0.71875000000000000       0.53125000000000000        0.0000000000000000     
  0.75000000000000000       0.53125000000000000        0.0000000000000000     
  0.62500000000000000       0.56250000000000000        0.0000000000000000     
  0.65625000000000000       0.56250000000000000        0.0000000000000000     
  0.68750000000000000       0.56250000000000000        0.0000000000000000     
  0.71875000000000000       0.56250000000000000        0.0000000000000000     
  0.75000000000000000       0.56250000000000000        0.0000000000000000     
  0.62500000000000000       0.59375000000000000        0.0000000000000000     
  0.65625000000000000       0.59375000000000000        0.0000000000000000     
  0.68750000000000000       0.59375000000000000        0.0000000000000000     
  0.71875000000000000       0.59375000000000000        0.0000000000000000     
  0.75000000000000000       0.59375000000000000        0.0000000000000000     
  0.62500000000000000       0.62500000000000000        0.0000000000000000     
  0.65625000000000000       0.62500000000000000        0.0000000000000000     
  0.68750000000000000       0.62500000000000000        0.0000000000000000     
  0.71875000000000000       0.62500000000000000        0.0000000000000000     
  0.75000000000000000       0.62500000000000000        0.0000000000000000     
  0.75000000000000000       0.50000000000000000        0.0000000000000000     
  0.78125000000000000       0.50000000000000000        0.0000000000000000     
  0.81250000000000000       0.50000000000000000        0.0000000000000000     
  0.84375000000000000       0.50000000000000000        0.0000000000000000     
  0.87500000000000000       0.50000000000000000        0.0000000000000000     
  0.75000000000000000       0.53125000000000000        0.0000000000000000     
  0.78125000000000000       0.53125000000000000        0.0000000000000000     
  0.81250000000000000       0.53125000000000000        0.0000000000000000     
  0.84375000000000000       0.53125000000000000        0.0000000000000000     
  0.87500000000000000       0.53125000000000000        0.0000000000000000     
  0.75000000000000000       0.56250000000000000        0.0000000000000000     
  0.78125000000000000       0.56250000000000000        0.0000000000000000     
  0.81250000000000000       0.56250000000000000        0.0000000000000000     
  0.84375000000000000       0.56250000000000000        0.0000000000000000     
  0.87500000000000000       0.56250000000000000        0.0000000000000000     
  0.75000000000000000       0.59375000000000000        0.0000000000000000     
  0.78125000000000000       0.59375000000000000        0.0000000000000000     
  0.81250000000000000       0.59375000000000000        0.0000000000000000     
  0.84375000000000000       0.59375000000000000        0.0000000000000000     
  0.87500000000000000       0.59375000000000000        0.0000000000000000     
  0.75000000000000000       0.62500000000000000        0.0000000000000000     
  0.78125000000000000       0.62500000000000000        0.0000000000000000     
  0.81250000000000000       0.62500000000000000        0.0000000000000000     
  0.84375000000000000       0.62500000000000000        0.0000000000000000     
  0.87500000000000000       0.62500000000000000        0.0000000000000000     
  0.87500000000000000       0.50000000000000000        0.0000000000000000     
  0.90625000000000000       0.50000000000000000        0.0000000000000000     
  0.93750000000000000       0.50000000000000000        0.0000000000000000     
  0.96875000000000000       0.50000000000000000        0.0000000000000000     
   1.0000000000000000       0.50000000000000000        0.0000000000000000     
  0.87500000000000000       0.53125000000000000        0.0000000000000000     
  0.90625000000000000       0.53125000000000000        0.0000000000000000     
  0.93750000000000000       0.53125000000000000        0.0000000000000000     
  0.96875000000000000       0.53125000000000000        0.0000000000000000     
   1.0000000000000000       0.53125000000000000        0.0000000000000000     
  0.87500000000000000       0.56250000000000000        0.0000000000000000     
  0.90625000000000000       0.56250000000000000        0.0000000000000000     
  0.93750000000000000       0.56250000000000000        0.0000000000000000     
  0.96875000000000000       0.56250000000000000        0.0000000000000000     
   1.0000000000000000       0.56250000000000000        0.0000000000000000     
  0.87500000000000000       0.59375000000000000        0.0000000000000000     
  0.90625000000000000       0.59375000000000000        0.0000000000000000     
  0.93750000000000000       0.59375000000000000        0.0000000000000000     
  0.96875000000000000       0.59375000000000000        0.0000000000000000     
   1.0000000000000000       0.59375000000000000        0.0000000000000000     
  0.87500000000000000       0.62500000000000000        0.0000000000000000     
  0.90625000000000000       0.62500000000000000        0.0000000000000000     
  0.93750000000000000       0.62500000000000000        0.0000000000000000     
  0.96875000000000000       0.62500000000000000        0.0000000000000000     
   1.0000000000000000       0.62500000000000000        0.0000000000000000     
   1.0000000000000000       0.50000000000000000        0.0000000000000000     
   1.0312500000000000       0.50000000000000000        0.0000000000000000     
   1.0625000000000000       0.50000000000000000        0.0000000000000000     
   1.0937500000000000       0.50000000000000000        0.0000000000000000     
   1.1250000000000000       0.50000000000000000        0.0000000000000000     
   1.0000000000000000       0.53125000000000000        0.0000000000000000     
   1.0312500000000000       0.53125000000000000        0.0000000000000000     
   1.0625000000000000       0.53125000000000000        0.0000000000000000     
   1.0937500000000000       0.53125000000000000        0.0000000000000000     
   1.1250000000000000       0.53125000000000000        0.0000000000000000     
   1.0000000000000000       0.56250000000000000        0.0000000000000000     
   1.0312500000000000       0.56250000000000000        0.0000000000000000     
   1.0625000000000000       0.56250000000000000        0.0000000000000000     
   1.0937500000000000       0.56250000000000000        0.0000000000000000     
   1.1250000000000000       0.56250000000000000        0.0000000000000000     
   1.0000000000000000       0.59375000000000000        0.0000000000000000     
   1.0312500000000000       0.59375000000000000        0.0000000000000000     
   1.0625000000000000       0.59375000000000000        0.0000000000000000     
   1.0937500000000000       0.59375000000000000        0.0000000000000000     
   1.1250000000000000       0.59375000000000000        0.0000000000000000     
   1.0000000000000000       0.62500000000000000        0.0000000000000000     
   1.0312500000000000       0.62500000000000000        0.0000000000000000     
   1.0625000000000000       0.62500000000000000        0.0000000000000000     
   1.0937500000000000       0.62500000000000000        0.0000000000000000     
   1.1250000000000000       0.62500000000000000        0.0000000000000000     
   1.1250000000000000       0.50000000000000000        0.0000000000000000     
   1.1562500000000000       0.50000000000000000        0.0000000000000000     
   1.1875000000000000       0.50000000000000000        0.0000000000000000     
   1.2187500000000000       0.50000000000000000        0.0000000000000000     
   1.2500000000000000       0.50000000000000000        0.0000000000000000     
   1.1250000000000000       0.53125000000000000        0.0000000000000000     
   1.1562500000000000       0.53125000000000000        0.0000000000000000     
   1.1875000000000000       0.53125000000000000        0.0000000000000000     
   1.2187500000000000       0.53125000000000000        0.0000000000000000     
   1.2500000000000000       0.53125000000000000        0.0000000000000000     
   1.1250000000000000       0.56250000000000000        0.0000000000000000     
   1.1562500000000000       0.56250000000000000        0.0000000000000000     
   1.1875000000000000       0.56250000000000000        0.0000000000000000     
   1.2187500000000000       0.56250000000000000        0.0000000000000000     
   1.2500000000000000       0.56250000000000000        0.0000000000000000     
   1.1250000000000000       0.59375000000000000        0.0000000000000000     
   1.1562500000000000       0.59375000000000000        0.0000000000000000     
   1.1875000000000000       0.59375000000000000        0.0000000000000000     
   1.2187500000000000       0.59375000000000000        0.0000000000000000     
   1.2500000000000000       0.59375000000000000        0.0000000000000000     
   1.1250000000000000       0.62500000000000000        0.0000000000000000     
   1.1562500000000000       0.62500000000000000        0.0000000000000000     
   1.1875000000000000       0.62500000000000000        0.0000000000000000     
   1.2187500000000000       0.62500000000000000        0.0000000000000000     
   1.2500000000000000       0.62500000000000000        0.0000000000000000     
   1.2500000000000000       0.50000000000000000        0.0000000000000000     
   1.2812500000000000       0.50000000000000000        0.0000000000000000     
   1.3125000000000000       0.50000000000000000        0.0000000000000000     
   1.3437500000000000       0.50000000000000000        0.0000000000000000     
   1.3750000000000000       0.50000000000000000        0.0000000000000000     
   1.2500000000000000       0.53125000000000000        0.0000000000000000     
   1.2812500000000000       0.53125000000000000        0.0000000000000000     
   1.3125000000000000       0.53125000000000000        0.0000000000000000     
   1.3437500000000000       0.53125000000000000        0.0000000000000000     
   1.3750000000000000       0.53125000000000000        0.0000000000000000     
   1.2500000000000000       0.56250000000000000        0.0000000000000000     
   1.2812500000000000       0.56250000000000000        0.0000000000000000     
   1.3125000000000000       0.56250000000000000        0.0000000000000000     
   1.3437500000000000       0.56250000000000000        0.0000000000000000     
   1.3750000000000000       0.56250000000000000        0.0000000000000000     
   1.2500000000000000       0.59375000000000000        0.0000000000000000     
   1.2812500000000000       0.59375000000000000        0.0000000000000000     
   1.3125000000000000       0.59375000000000000        0.0000000000000000     
   1.3437500000000000       0.59375000000000000        0.0000000000000000     
   1.3750000000000000       0.59375000000000000        0.0000000000000000     
   1.2500000000000000       0.62500000000000000        0.0000000000000000     
   1.2812500000000000       0.62500000000000000        0.0000000000000000     
   1.3125000000000000       0.62500000000000000        0.0000000000000000     
   1.3437500000000000       0.62500000000000000        0.0000000000000000     
   1.3750000000000000       0.62500000000000000        0.0000000000000000     
   1.3750000000000000       0.50000000000000000        0.0000000000000000     
   1.4062500000000000       0.50000000000000000        0.0000000000000000     
   1.4375000000000000       0.50000000000000000        0.0000000000000000     
   1.4687500000000000       0.50000000000000000        0.0000000000000000     
   1.5000000000000000       0.50000000000000000        0.0000000000000000     
   1.3750000000000000       0.53125000000000000        0.0000000000000000     
   1.4062500000000000       0.53125000000000000        0.0000000000000000     
   1.4375000000000000       0.53125000000000000        0.0000000000000000     
   1.4687500000000000       0.53125000000000000        0.0000000000000000     
   1.5000000000000000       0.53125000000000000        0.0000000000000000     
   1.3750000000000000       0.56250000000000000        0.0000000000000000     
   1.4062500000000000       0.56250000000000000        0.0000000000000000     
   1.4375000000000000       0.56250000000000000        0.0000000000000000     
   1.4687500000000000       0.56250000000000000        0.0000000000000000     
   1.5000000000000000       0.56250000000000000        0.0000000000000000     
   1.3750000000000000       0.59375000000000000        0.0000000000000000     
   1.4062500000000000       0.59375000000000000        0.0000000000000000     
   1.4375000000000000       0.59375000000000000        0.0000000000000000     
   1.4687500000000000       0.59375000000000000        0.0000000000000000     
   1.5000000000000000       0.59375000000000000        0.0000000000000000     
   1.3750000000000000       0.62500000000000000        0.0000000000000000     
   1.4062500000000000       0.62500000000000000        0.0000000000000000     
   1.4375000000000000       0.62500000000000000        0.0000000000000000     
   1.4687500000000000       0.62500000000000000        0.0000000000000000     
   1.5000000000000000       0.62500000000000000        0.0000000000000000     
  0.50000000000000000       0.62500000000000000        0.0000000000000000     
  0.53125000000000000       0.62500000000000000        0.0000000000000000     
  0.56250000000000000       0.62500000000000000        0.0000000000000000     
  0.59375000000000000       0.62500000000000000        0.0000000000000000     
  0.62500000000000000       0.62500000000000000        0.0000000000000000     
  0.50000000000000000       0.65625000000000000        0.0000000000000000     
  0.53125000000000000       0.65625000000000000        0.0000000000000000     
  0.56250000000000000       0.65625000000000000        0.0000000000000000     
  0.59375000000000000       0.65625000000000000        0.0000000000000000     
  0.62500000000000000       0.65625000000000000        0.0000000000000000     
  0.50000000000000000       0.68750000000000000        0.0000000000000000     
  0.53125000000000000       0.68750000000000000        0.0000000000000000     
  0.56250000000000000       0.68750000000000000        0.0000000000000000     
  0.59375000000000000       0.68750000000000000        0.0000000000000000     
  0.62500000000000000       0.68750000000000000        0.0000000000000000     
  0.50000000000000000       0.71875000000000000        0.0000000000000000     
  0.53125000000000000       0.71875000000000000        0.0000000000000000     
  0.56250000000000000       0.71875000000000000        0.0000000000000000     
  0.59375000000000000       0.71875000000000000        0.0000000000000000     
  0.62500000000000000       0.71875000000000000        0.0000000000000000     
  0.50000000000000000       0.75000000000000000        0.0000000000000000     
  0.53125000000000000       0.75000000000000000        0.0000000000000000     
  0.56250000000000000       0.75000000000000000        0.0000000000000000     
  0.59375000000000000       0.75000000000000000        0.0000000000000000     
  0.62500000000000000       0.75000000000000000        0.0000000000000000     
  0.62500000000000000       0.62500000000000000        0.0000000000000000     
  0.65625000000000000       0.62500000000000000        0.0000000000000000     
  0.68750000000000000       0.62500000000000000        0.0000000000000000     
  0.71875000000000000       0.62500000000000000        0.0000000000000000     
  0.75000000000000000       0.62500000000000000        0.0000000000000000     
  0.62500000000000000       0.65625000000000000        0.0000000000000000     
  0.65625000000000000       0.65625000000000000        0.0000000000000000     
  0.68750000000000000       0.65625000000000000        0.0000000000000000     
  0.71875000000000000       0.65625000000000000        0.0000000000000000     
  0.75000000000000000       0.65625000000000000        0.0000000000000000     
  0.62500000000000000       0.68750000000000000        0.0000000000000000     
  0.65625000000000000       0.68750000000000000        0.0000000000000000     
  0.68750000000000000       0.68750000000000000        0.0000000000000000     
  0.71875000000000000       0.68750000000000000        0.0000000000000000     
  0.75000000000000000       0.68750000000000000        0.0000000000000000     
  0.62500000000000000       0.71875000000000000        0.0000000000000000     
  0.65625000000000000       0.71875000000000000        0.0000000000000000     
  0.68750000000000000       0.71875000000000000        0.0000000000000000     
  0.71875000000000000       0.71875000000000000        0.0000000000000000     
  0.75000000000000000       0.71875000000000000        0.0000000000000000     
  0.62500000000000000       0.75000000000000000        0.0000000000000000     
  0.65625000000000000       0.75000000000000000        0.0000000000000000     
  0.68750000000000000       0.75000000000000000        0.0000000000000000     
  0.71875000000000000       0.75000000000000000        0.0000000000000000     
  0.75000000000000000       0.75000000000000000        0.0000000000000000     
  0.75000000000000000       0.62500000000000000        0.0000000000000000     
  0.78125000000000000       0.62500000000000000        0.0000000000000000     
  0.81250000000000000       0.62500000000000000        0.0000000000000000     
  0.84375000000000000       0.62500000000000000        0.0000000000000000     
  0.87500000000000000       0.62500000000000000        0.0000000000000000     
  0.75000000000000000       0.65625000000000000        0.0000000000000000     
  0.78125000000000000       0.65625000000000000        0.0000000000000000     
  0.81250000000000000       0.65625000000000000        0.0000000000000000     
  0.84375000000000000       0.65625000000000000        0.0000000000000000     
  0.87500000000000000       0.65625000000000000        0.0000000000000000     
  0.75000000000000000       0.68750000000000000        0.0000000000000000     
  0.78125000000000000       0.68750000000000000        0.0000000000000000     
  0.81250000000000000       0.68750000000000000        0.0000000000000000     
  0.84375000000000000       0.68750000000000000        0.0000000000000000     
  0.87500000000000000       0.68750000000000000        0.0000000000000000     
  0.75000000000000000       0.71875000000000000        0.0000000000000000     
  0.78125000000000000       0.71875000000000000        0.0000000000000000     
  0.81250000000000000       0.71875000000000000        0.0000000000000000     
  0.84375000000000000       0.71875000000000000        0.0000000000000000     
  0.87500000000000000       0.71875000000000000        0.0000000000000000     
  0.75000000000000000       0.75000000000000000        0.0000000000000000     
  0.78125000000000000       0.75000000000000000        0.0000000000000000     
  0.81250000000000000       0.75000000000000000        0.0000000000000000     
  0.84375000000000000       0.75000000000000000        0.0000000000000000     
  0.87500000000000000       0.75000000000000000        0.0000000000000000     
  0.87500000000000000       0.62500000000000000        0.0000000000000000     
  0.90625000000000000       0.62500000000000000        0.0000000000000000     
  0.93750000000000000       0.62500000000000000        0.0000000000000000     
  0.96875000000000000       0.62500000000000000        0.0000000000000000     
   1.0000000000000000       0.62500000000000000        0.0000000000000000     
  0.87500000000000000       0.65625000000000000        0.0000000000000000     
  0.90625000000000000       0.65625000000000000        0.0000000000000000     
  0.93750000000000000       0.65625000000000000        0.0000000000000000     
  0.96875000000000000       0.65625000000000000        0.0000000000000000     
   1.0000000000000000       0.65625000000000000        0.0000000000000000     
  0.87500000000000000       0.68750000000000000        0.0000000000000000     
  0.90625000000000000       0.68750000000000000        0.0000000000000000     
  0.93750000000000000       0.68750000000000000        0.0000000000000000     
  0.96875000000000000       0.68750000000000000        0.0000000000000000     
   1.0000000000000000       0.68750000000000000        0.0000000000000000     
  0.87500000000000000       0.71875000000000000        0.0000000000000000     
  0.90625000000000000       0.71875000000000000        0.0000000000000000     
  0.93750000000000000       0.71875000000000000        0.0000000000000000     
  0.96875000000000000       0.71875000000000000        0.0000000000000000     
   1.0000000000000000       0.71875000000000000        0.0000000000000000     
  0.87500000000000000       0.75000000000000000        0.0000000000000000     
  0.90625000000000000       0.75000000000000000        0.0000000000000000     
  0.93750000000000000       0.75000000000000000        0.0000000000000000     
  0.96875000000000000       0.75000000000000000        0.0000000000000000     
   1.0000000000000000       0.75000000000000000        0.0000000000000000     
   1.0000000000000000       0.62500000000000000        0.0000000000000000     
   1.0312500000000000       0.62500000000000000        0.0000000000000000     
   1.0625000000000000       0.62500000000000000        0.0000000000000000     
   1.0937500000000000       0.62500000000000000        0.0000000000000000     
   1.1250000000000000       0.62500000000000000        0.0000000000000000     
   1.0000000000000000       0.65625000000000000        0.0000000000000000     
   1.0312500000000000       0.65625000000000000        0.0000000000000000     
   1.0625000000000000       0.65625000000000000        0.0000000000000000     
   1.0937500000000000       0.65625000000000000        0.0000000000000000     
   1.1250000000000000       0.65625000000000000        0.0000000000000000     
   1.0000000000000000       0.68750000000000000        0.0000000000000000     
   1.0312500000000000       0.68750000000000000        0.0000000000000000     
   1.0625000000000000       0.68750000000000000        0.0000000000000000     
   1.0937500000000000       0.68750000000000000        0.0000000000000000     
   1.1250000000000000       0.68750000000000000        0.0000000000000000     
   1.0000000000000000       0.71875000000000000        0.0000000000000000     
   1.0312500000000000       0.71875000000000000        0.0000000000000000     
   1.0625000000000000       0.71875000000000000        0.0000000000000000     
   1.0937500000000000       0.71875000000000000        0.0000000000000000     
   1.1250000000000000       0.71875000000000000        0.0000000000000000     
   1.0000000000000000       0.75000000000000000        0.0000000000000000     
   1.0312500000000000       0.75000000000000000        0.0000000000000000     
   1.0625000000000000       0.75000000000000000        0.0000000000000000     
   1.0937500000000000       0.75000000000000000        0.0000000000000000     
   1.1250000000000000       0.75000000000000000        0.0000000000000000     
   1.1250000000000000       0.62500000000000000        0.0000000000000000     
   1.1562500000000000       0.62500000000000000        0.0000000000000000     
   1.1875000000000000       0.62500000000000000        0.0000000000000000     
   1.2187500000000000       0.62500000000000000        0.0000000000000000     
   1.2500000000000000       0.62500000000000000        0.0000000000000000     
   1.1250000000000000       0.65625000000000000        0.0000000000000000     
   1.1562500000000000       0.65625000000000000        0.0000000000000000     
   1.1875000000000000       0.65625000000000000        0.0000000000000000     
   1.2187500000000000       0.65625000000000000        0.0000000000000000     
   1.2500000000000000       0.65625000000000000        0.0000000000000000     
   1.1250000000000000       0.68750000000000000        0.0000000000000000     
   1.1562500000000000       0.68750000000000000        0.0000000000000000     
   1.1875000000000000       0.68750000000000000        0.0000000000000000     
   1.2187500000000000       0.68750000000000000        0.0000000000000000     
   1.2500000000000000       0.68750000000000000        0.0000000000000000     
   1.1250000000000000       0.71875000000000000        0.0000000000000000     
   1.1562500000000000       0.71875000000000000        0.0000000000000000     
   1.1875000000000000       0.71875000000000000        0.0000000000000000     
   1.2187500000000000       0.71875000000000000        0.0000000000000000     
   1.2500000000000000       0.71875000000000000        0.0000000000000000     
   1.1250000000000000       0.75000000000000000        0.0000000000000000     
   1.1562500000000000       0.75000000000000000        0.0000000000000000     
   1.1875000000000000       0.75000000000000000        0.0000000000000000     
   1.2187500000000000       0.75000000000000000        0.0000000000000000     
   1.2500000000000000       0.75000000000000000        0.0000000000000000     
   1.2500000000000000       0.62500000000000000        0.0000000000000000     
   1.2812500000000000       0.62500000000000000        0.0000000000000000     
   1.3125000000000000       0.62500000000000000        0.0000000000000000     
   1.3437500000000000       0.62500000000000000        0.0000000000000000     
   1.3750000000000000       0.62500000000000000        0.0000000000000000     
   1.2500000000000000       0.65625000000000000        0.0000000000000000     
   1.2812500000000000       0.65625000000000000        0.0000000000000000     
   1.3125000000000000       0.65625000000000000        0.0000000000000000     
   1.3437500000000000       0.65625000000000000        0.0000000000000000     
   1.3750000000000000       0.65625000000000000        0.0000000000000000     
   1.2500000000000000       0.68750000000000000        0.0000000000000000     
   1.2812500000000000       0.68750000000000000        0.0000000000000000     
   1.3125000000000000       0.68750000000000000        0.0000000000000000     
   1.3437500000000000       0.68750000000000000        0.0000000000000000     
   1.3750000000000000       0.68750000000000000        0.0000000000000000     
   1.2500000000000000       0.71875000000000000        0.0000000000000000     
   1.2812500000000000       0.71875000000000000        0.0000000000000000     
   1.3125000000000000       0.71875000000000000        0.0000000000000000     
   1.3437500000000000       0.71875000000000000        0.0000000000000000     
   1.3750000000000000       0.71875000000000000        0.0000000000000000     
   1.2500000000000000       0.75000000000000000        0.0000000000000000     
   1.2812500000000000       0.75000000000000000        0.0000000000000000     
   1.3125000000000000       0.75000000000000000        0.0000000000000000     
   1.3437500000000000       0.75000000000000000        0.0000000000000000     
   1.3750000000000000       0.75000000000000000        0.0000000000000000     
   1.3750000000000000       0.62500000000000000        0.0000000000000000     
   1.4062500000000000       0.62500000000000000        0.0000000000000000     
   1.4375000000000000       0.62500000000000000        0.0000000000000000     
   1.4687500000000000       0.62500000000000000        0.0000000000000000     
   1.5000000000000000       0.62500000000000000        0.0000000000000000     
   1.3750000000000000       0.65625000000000000        0.0000000000000000     
   1.4062500000000000       0.65625000000000000        0.0000000000000000     
   1.4375000000000000       0.65625000000000000        0.0000000000000000     
   1.4687500000000000       0.65625000000000000        0.0000000000000000     
   1.5000000000000000       0.65625000000000000        0.0000000000000000     
   1.3750000000000000       0.68750000000000000        0.0000000000000000     
   1.4062500000000000       0.68750000000000000        0.0000000000000000     
   1.4375000000000000       0.68750000000000000        0.0000000000000000     
   1.4687500000000000       0.68750000000000000        0.0000000000000000     
   1.5000000000000000       0.68750000000000000        0.0000000000000000     
   1.3750000000000000       0.71875000000000000        0.0000000000000000     
   1.4062500000000000       0.71875000000000000        0.0000000000000000     
   1.4375000000000000       0.71875000000000000        0.0000000000000000     
   1.4687500000000000       0.71875000000000000        0.0000000000000000     
   1.5000000000000000       0.71875000000000000        0.0000000000000000     
   1.3750000000000000       0.75000000000000000        0.0000000000000000     
   1.4062500000000000       0.75000000000000000        0.0000000000000000     
   1.4375000000000000       0.75000000000000000        0.0000000000000000     
   1.4687500000000000       0.75000000000000000        0.0000000000000000     
   1.5000000000000000       0.75000000000000000        0.0000000000000000     
  0.50000000000000000       0.75000000000000000        0.0000000000000000     
  0.53125000000000000       0.75000000000000000        0.0000000000000000     
  0.56250000000000000       0.75000000000000000        0.0000000000000000     
  0.59375000000000000       0.75000000000000000        0.0000000000000000     
  0.62500000000000000       0.75000000000000000        0.0000000000000000     
  0.50000000000000000       0.78125000000000000        0.0000000000000000     
  0.53125000000000000       0.78125000000000000        0.0000000000000000     
  0.56250000000000000       0.78125000000000000        0.0000000000000000     
  0.59375000000000000       0.78125000000000000        0.0000000000000000     
  0.62500000000000000       0.78125000000000000        0.0000000000000000     
  0.50000000000000000       0.81250000000000000        0.0000000000000000     
  0.53125000000000000       0.81250000000000000        0.0000000000000000     
  0.56250000000000000       0.81250000000000000        0.0000000000000000     
  0.59375000000000000       0.81250000000000000        0.0000000000000000     
  0.62500000000000000       0.81250000000000000        0.0000000000000000     
  0.50000000000000000       0.84375000000000000        0.0000000000000000     
  0.53125000000000000       0.84375000000000000        0.0000000000000000     
  0.56250000000000000       0.84375000000000000        0.0000000000000000     
  0.59375000000000000       0.84375000000000000        0.0000000000000000     
  0.62500000000000000       0.84375000000000000        0.0000000000000000     
  0.50000000000000000       0.87500000000000000        0.0000000000000000     
  0.53125000000000000       0.87500000000000000        0.0000000000000000     
  0.56250000000000000       0.87500000000000000        0.0000000000000000     
  0.59375000000000000       0.87500000000000000        0.0000000000000000     
  0.62500000000000000       0.87500000000000000        0.0000000000000000     
  0.62500000000000000       0.75000000000000000        0.0000000000000000     
  0.65625000000000000       0.75000000000000000        0.0000000000000000     
  0.68750000000000000       0.75000000000000000        0.0000000000000000     
  0.71875000000000000       0.75000000000000000        0.0000000000000000     
  0.75000000000000000       0.75000000000000000        0.0000000000000000     
  0.62500000000000000       0.78125000000000000        0.0000000000000000     
  0.65625000000000000       0.78125000000000000        0.0000000000000000     
  0.68750000000000000       0.78125000000000000        0.0000000000000000     
  0.71875000000000000       0.78125000000000000        0.0000000000000000     
  0.75000000000000000       0.78125000000000000        0.0000000000000000     
  0.62500000000000000       0.81250000000000000        0.0000000000000000     
  0.65625000000000000       0.81250000000000000        0.0000000000000000     
  0.68750000000000000       0.81250000000000000        0.0000000000000000     
  0.71875000000000000       0.81250000000000000        0.0000000000000000     
  0.75000000000000000       0.81250000000000000        0.0000000000000000     
  0.62500000000000000       0.84375000000000000        0.0000000000000000     
  0.65625000000000000       0.84375000000000000        0.0000000000000000     
  0.68750000000000000       0.84375000000000000        0.0000000000000000     
  0.71875000000000000       0.84375000000000000        0.0000000000000000     
  0.75000000000000000       0.84375000000000000        0.0000000000000000     
  0.62500000000000000       0.87500000000000000        0.0000000000000000     
  0.65625000000000000       0.87500000000000000        0.0000000000000000     
  0.68750000000000000       0.87500000000000000        0.0000000000000000     
  0.71875000000000000       0.87500000000000000        0.0000000000000000     
  0.75000000000000000       0.87500000000000000        0.0000000000000000     
  0.75000000000000000       0.75000000000000000        0.0000000000000000     
  0.78125000000000000       0.75000000000000000        0.0000000000000000     
  0.81250000000000000       0.75000000000000000        0.0000000000000000     
  0.84375000000000000       0.75000000000000000        0.0000000000000000     
  0.87500000000000000       0.75000000000000000        0.0000000000000000     
  0.75000000000000000       0.78125000000000000        0.0000000000000000     
  0.78125000000000000       0.78125000000000000        0.0000000000000000     
  0.81250000000000000       0.78125000000000000        0.0000000000000000     
  0.84375000000000000       0.78125000000000000        0.0000000000000000     
  0.87500000000000000       0.78125000000000000        0.0000000000000000     
  0.75000000000000000       0.81250000000000000        0.0000000000000000     
  0.78125000000000000       0.81250000000000000        0.0000000000000000     
  0.81250000000000000       0.81250000000000000        0.0000000000000000     
  0.84375000000000000       0.81250000000000000        0.0000000000000000     
  0.87500000000000000       0.81250000000000000        0.0000000000000000     
  0.75000000000000000       0.84375000000000000        0.0000000000000000     
  0.78125000000000000       0.84375000000000000        0.0000000000000000     
  0.81250000000000000       0.84375000000000000        0.0000000000000000     
  0.84375000000000000       0.84375000000000000        0.0000000000000000     
  0.87500000000000000       0.84375000000000000        0.0000000000000000     
  0.75000000000000000       0.87500000000000000        0.0000000000000000     
  0.78125000000000000       0.87500000000000000        0.0000000000000000     
  0.81250000000000000       0.87500000000000000        0.0000000000000000     
  0.84375000000000000       0.87500000000000000        0.0000000000000000     
  0.87500000000000000       0.87500000000000000        0.0000000000000000     
  0.87500000000000000       0.75000000000000000        0.0000000000000000     
  0.90625000000000000       0.75000000000000000        0.0000000000000000     
  0.93750000000000000       0.75000000000000000        0.0000000000000000     
  0.96875000000000000       0.75000000000000000        0.0000000000000000     
   1.0000000000000000       0.75000000000000000        0.0000000000000000     
  0.87500000000000000       0.78125000000000000        0.0000000000000000     
  0.90625000000000000       0.78125000000000000        0.0000000000000000     
  0.93750000000000000       0.78125000000000000        0.0000000000000000     
  0.96875000000000000       0.78125000000000000        0.0000000000000000     
   1.0000000000000000       0.78125000000000000        0.0000000000000000     
  0.87500000000000000       0.81250000000000000        0.0000000000000000     
  0.90625000000000000       0.81250000000000000        0.0000000000000000     
  0.93750000000000000       0.81250000000000000        0.0000000000000000     
  0.96875000000000000       0.81250000000000000        0.0000000000000000     
   1.0000000000000000       0.81250000000000000        0.0000000000000000     
  0.87500000000000000       0.84375000000000000        0.0000000000000000     
  0.90625000000000000       0.84375000000000000        0.0000000000000000     
  0.93750000000000000       0.84375000000000000        0.0000000000000000     
  0.96875000000000000       0.84375000000000000        0.0000000000000000     
   1.0000000000000000       0.84375000000000000        0.0000000000000000     
  0.87500000000000000       0.87500000000000000        0.0000000000000000     
  0.90625000000000000       0.87500000000000000        0.0000000000000000     
  0.93750000000000000       0.87500000000000000        0.0000000000000000     
  0.96875000000000000       0.87500000000000000        0.0000000000000000     
   1.0000000000000000       0.87500000000000000        0.0000000000000000     
   1.0000000000000000       0.75000000000000000        0.0000000000000000     
   1.0312500000000000       0.75000000000000000        0.0000000000000000     
   1.0625000000000000       0.75000000000000000        0.0000000000000000     
   1.0937500000000000       0.75000000000000000        0.0000000000000000     
   1.1250000000000000       0.75000000000000000        0.0000000000000000     
   1.0000000000000000       0.78125000000000000        0.0000000000000000     
   1.0312500000000000       0.78125000000000000        0.0000000000000000     
   1.0625000000000000       0.78125000000000000        0.0000000000000000     
   1.0937500000000000       0.78125000000000000        0.0000000000000000     
   1.1250000000000000       0.78125000000000000        0.0000000000000000     
   1.0000000000000000       0.81250000000000000        0.0000000000000000     
   1.0312500000000000       0.81250000000000000        0.0000000000000000     
   1.0625000000000000       0.81250000000000000        0.0000000000000000     
   1.0937500000000000       0.81250000000000000        0.0000000000000000     
   1.1250000000000000       0.81250000000000000        0.0000000000000000     
   1.0000000000000000       0.84375000000000000        0.0000000000000000     
   1.0312500000000000       0.84375000000000000        0.0000000000000000     
   1.0625000000000000       0.84375000000000000        0.0000000000000000     
   1.0937500000000000       0.84375000000000000        0.0000000000000000     
   1.1250000000000000       0.84375000000000000        0.0000000000000000     
   1.0000000000000000       0.87500000000000000        0.0000000000000000     
   1.0312500000000000       0.87500000000000000        0.0000000000000000     
   1.0625000000000000       0.87500000000000000        0.0000000000000000     
   1.0937500000000000       0.87500000000000000        0.0000000000000000     
   1.1250000000000000       0.87500000000000000        0.0000000000000000     
   1.1250000000000000       0.75000000000000000        0.0000000000000000     
   1.1562500000000000       0.75000000000000000        0.0000000000000000     
   1.1875000000000000       0.75000000000000000        0.0000000000000000     
   1.2187500000000000       0.75000000000000000        0.0000000000000000     
   1.2500000000000000       0.75000000000000000        0.0000000000000000     
   1.1250000000000000       0.78125000000000000        0.0000000000000000     
   1.1562500000000000       0.78125000000000000        0.0000000000000000     
   1.1875000000000000       0.78125000000000000        0.0000000000000000     
   1.2187500000000000       0.78125000000000000        0.0000000000000000     
   1.2500000000000000       0.78125000000000000        0.0000000000000000     
   1.1250000000000000       0.81250000000000000        0.0000000000000000     
   1.1562500000000000       0.81250000000000000        0.0000000000000000     
   1.1875000000000000       0.81250000000000000        0.0000000000000000     
   1.2187500000000000       0.81250000000000000        0.0000000000000000     
   1.2500000000000000       0.81250000000000000        0.0000000000000000     
   1.1250000000000000       0.84375000000000000        0.0000000000000000     
   1.1562500000000000       0.84375000000000000        0.0000000000000000     
   1.1875000000000000       0.84375000000000000        0.0000000000000000     
   1.2187500000000000       0.84375000000000000        0.0000000000000000     
   1.2500000000000000       0.84375000000000000        0.0000000000000000     
   1.1250000000000000       0.87500000000000000        0.0000000000000000     
   1.1562500000000000       0.87500000000000000        0.0000000000000000     
   1.1875000000000000       0.87500000000000000        0.0000000000000000     
   1.2187500000000000       0.87500000000000000        0.0000000000000000     
   1.2500000000000000       0.87500000000000000        0.0000000000000000     
   1.2500000000000000       0.75000000000000000        0.0000000000000000     
   1.2812500000000000       0.75000000000000000        0.0000000000000000     
   1.3125000000000000       0.75000000000000000        0.0000000000000000     
   1.3437500000000000       0.75000000000000000        0.0000000000000000     
   1.3750000000000000       0.75000000000000000        0.0000000000000000     
   1.2500000000000000       0.78125000000000000        0.0000000000000000     
   1.2812500000000000       0.78125000000000000        0.0000000000000000     
   1.3125000000000000       0.78125000000000000        0.0000000000000000     
   1.3437500000000000       0.78125000000000000        0.0000000000000000     
   1.3750000000000000       0.78125000000000000        0.0000000000000000     
   1.2500000000000000       0.81250000000000000        0.0000000000000000     
   1.2812500000000000       0.81250000000000000        0.0000000000000000     
   1.3125000000000000       0.81250000000000000        0.0000000000000000     
   1.3437500000000000       0.81250000000000000        0.0000000000000000     
   1.3750000000000000       0.81250000000000000        0.0000000000000000     
   1.2500000000000000       0.84375000000000000        0.0000000000000000     
   1.2812500000000000       0.84375000000000000        0.0000000000000000     
   1.3125000000000000       0.84375000000000000        0.0000000000000000     
   1.3437500000000000       0.84375000000000000        0.0000000000000000     
   1.3750000000000000       0.84375000000000000        0.0000000000000000     
   1.2500000000000000       0.87500000000000000        0.0000000000000000     
   1.2812500000000000       0.87500000000000000        0.0000000000000000     
   1.3125000000000000       0.87500000000000000        0.0000000000000000     
   1.3437500000000000       0.87500000000000000        0.0000000000000000     
   1.3750000000000000       0.87500000000000000        0.0000000000000000     
   1.3750000000000000       0.75000000000000000        0.0000000000000000     
   1.4062500000000000       0.75000000000000000        0.0000000000000000     
   1.4375000000000000       0.75000000000000000        0.0000000000000000     
   1.4687500000000000       0.75000000000000000        0.0000000000000000     
   1.5000000000000000       0.75000000000000000        0.0000000000000000     
   1.3750000000000000       0.78125000000000000        0.0000000000000000     
   1.4062500000000000       0.78125000000000000        0.0000000000000000     
   1.4375000000000000       0.78125000000000000        0.0000000000000000     
   1.4687500000000000       0.78125000000000000        0.0000000000000000     
   1.5000000000000000       0.78125000000000000        0.0000000000000000     
   1.3750000000000000       0.81250000000000000        0.0000000000000000     
   1.4062500000000000       0.81250000000000000        0.0000000000000000     
   1.4375000000000000       0.81250000000000000        0.0000000000000000     
   1.4687500000000000       0.81250000000000000        0.0000000000000000     
   1.5000000000000000       0.81250000000000000        0.0000000000000000     
   1.3750000000000000       0.84375000000000000        0.0000000000000000     
   1.4062500000000000       0.84375000000000000        0.0000000000000000     
   1.4375000000000000       0.84375000000000000        0.0000000000000000     
   1.4687500000000000       0.84375000000000000        0.0000000000000000     
   1.5000000000000000       0.84375000000000000        0.0000000000000000     
   1.3750000000000000       0.87500000000000000        0.0000000000000000     
   1.4062500000000000       0.87500000000000000        0.0000000000000000     
   1.4375000000000000       0.87500000000000000        0.0000000000000000     
   1.4687500000000000       0.87500000000000000        0.0000000000000000     
   1.5000000000000000       0.87500000000000000        0.0000000000000000     
  0.50000000000000000       0.87500000000000000        0.0000000000000000     
  0.53125000000000000       0.87500000000000000        0.0000000000000000     
  0.56250000000000000       0.87500000000000000        0.0000000000000000     
  0.59375000000000000       0.87500000000000000        0.0000000000000000     
  0.62500000000000000       0.87500000000000000        0.0000000000000000     
  0.50000000000000000       0.90625000000000000        0.0000000000000000     
  0.53125000000000000       0.90625000000000000        0.0000000000000000     
  0.56250000000000000       0.90625000000000000        0.0000000000000000     
  0.59375000000000000       0.90625000000000000        0.0000000000000000     
  0.62500000000000000       0.90625000000000000        0.0000000000000000     
  0.50000000000000000       0.93750000000000000        0.0000000000000000     
  0.53125000000000000       0.93750000000000000        0.0000000000000000     
  0.56250000000000000       0.93750000000000000        0.0000000000000000     
  0.59375000000000000       0.93750000000000000        0.0000000000000000     
  0.62500000000000000       0.93750000000000000        0.0000000000000000     
  0.50000000000000000       0.96875000000000000        0.0000000000000000     
  0.53125000000000000       0.96875000000000000        0.0000000000000000     
  0.56250000000000000       0.96875000000000000        0.0000000000000000     
  0.59375000000000000       0.96875000000000000        0.0000000000000000     
  0.62500000000000000       0.96875000000000000        0.0000000000000000     
  0.50000000000000000        1.0000000000000000        0.0000000000000000     
  0.53125000000000000        1.0000000000000000        0.0000000000000000     
  0.56250000000000000        1.0000000000000000        0.0000000000000000     
  0.59375000000000000        1.0000000000000000        0.0000000000000000     
  0.62500000000000000        1.0000000000000000        0.0000000000000000     
  0.62500000000000000       0.87500000000000000        0.0000000000000000     
  0.65625000000000000       0.87500000000000000        0.0000000000000000     
  0.68750000000000000       0.87500000000000000        0.0000000000000000     
  0.71875000000000000       0.87500000000000000        0.0000000000000000     
  0.75000000000000000       0.87500000000000000        0.0000000000000000     
  0.62500000000000000       0.90625000000000000        0.0000000000000000     
  0.65625000000000000       0.90625000000000000        0.0000000000000000     
  0.68750000000000000       0.90625000000000000        0.0000000000000000     
  0.71875000000000000       0.90625000000000000        0.0000000000000000     
  0.75000000000000000       0.90625000000000000        0.0000000000000000     
  0.62500000000000000       0.93750000000000000        0.0000000000000000     
  0.65625000000000000       0.93750000000000000        0.0000000000000000     
  0.68750000000000000       0.93750000000000000        0.0000000000000000     
  0.71875000000000000       0.93750000000000000        0.0000000000000000     
  0.75000000000000000       0.93750000000000000        0.0000000000000000     
  0.62500000000000000       0.96875000000000000        0.0000000000000000     
  0.65625000000000000       0.96875000000000000        0.0000000000000000     
  0.68750000000000000       0.96875000000000000        0.0000000000000000     
  0.71875000000000000       0.96875000000000000        0.0000000000000000     
  0.75000000000000000       0.96875000000000000        0.0000000000000000     
  0.62500000000000000        1.0000000000000000        0.0000000000000000     
  0.65625000000000000        1.0000000000000000        0.0000000000000000     
  0.68750000000000000        1.0000000000000000        0.0000000000000000     
  0.71875000000000000        1.0000000000000000        0.0000000000000000     
  0.75000000000000000        1.0000000000000000        0.0000000000000000     
  0.75000000000000000       0.87500000000000000        0.0000000000000000     
  0.78125000000000000       0.87500000000000000        0.0000000000000000     
  0.81250000000000000       0.87500000000000000        0.0000000000000000     
  0.84375000000000000       0.87500000000000000        0.0000000000000000     
  0.87500000000000000       0.87500000000000000        0.0000000000000000     
  0.75000000000000000       0.90625000000000000        0.0000000000000000     
  0.78125000000000000       0.90625000000000000        0.0000000000000000     
  0.81250000000000000       0.90625000000000000        0.0000000000000000     
  0.84375000000000000       0.90625000000000000        0.0000000000000000     
  0.87500000000000000       0.90625000000000000        0.0000000000000000     
  0.75000000000000000       0.93750000000000000        0.0000000000000000     
  0.78125000000000000       0.93750000000000000        0.0000000000000000     
  0.81250000000000000       0.93750000000000000        0.0000000000000000     
  0.84375000000000000       0.93750000000000000        0.0000000000000000     
  0.87500000000000000       0.93750000000000000        0.0000000000000000     
  0.75000000000000000       0.96875000000000000        0.0000000000000000     
  0.78125000000000000       0.96875000000000000        0.0000000000000000     
  0.81250000000000000       0.96875000000000000        0.0000000000000000     
  0.84375000000000000       0.96875000000000000        0.0000000000000000     
  0.87500000000000000       0.96875000000000000        0.0000000000000000     
  0.75000000000000000        1.0000000000000000        0.0000000000000000     
  0.78125000000000000        1.0000000000000000        0.0000000000000000     
  0.81250000000000000        1.0000000000000000        0.0000000000000000     
  0.84375000000000000        1.0000000000000000        0.0000000000000000     
  0.87500000000000000        1.0000000000000000        0.0000000000000000     
  0.87500000000000000       0.87500000000000000        0.0000000000000000     
  0.90625000000000000       0.87500000000000000        0.0000000000000000     
  0.93750000000000000       0.87500000000000000        0.0000000000000000     
  0.96875000000000000       0.87500000000000000        0.0000000000000000     
   1.0000000000000000       0.87500000000000000        0.0000000000000000     
  0.87500000000000000       0.90625000000000000        0.0000000000000000     
  0.90625000000000000       0.90625000000000000        0.0000000000000000     
  0.93750000000000000       0.90625000000000000        0.0000000000000000     
  0.96875000000000000       0.90625000000000000        0.0000000000000000     
   1.0000000000000000       0.90625000000000000        0.0000000000000000     
  0.87500000000000000       0.93750000000000000        0.0000000000000000     
  0.90625000000000000       0.93750000000000000        0.0000000000000000     
  0.93750000000000000       0.93750000000000000        0.0000000000000000     
  0.96875000000000000       0.93750000000000000        0.0000000000000000     
   1.0000000000000000       0.93750000000000000        0.0000000000000000     
  0.87500000000000000       0.96875000000000000        0.0000000000000000     
  0.90625000000000000       0.96875000000000000        0.0000000000000000     
  0.93750000000000000       0.96875000000000000        0.0000000000000000     
  0.96875000000000000       0.96875000000000000        0.0000000000000000     
   1.0000000000000000       0.96875000000000000        0.0000000000000000     
  0.87500000000000000        1.0000000000000000        0.0000000000000000     
  0.90625000000000000        1.0000000000000000        0.0000000000000000     
  0.93750000000000000        1.0000000000000000        0.0000000000000000     
  0.96875000000000000        1.0000000000000000        0.0000000000000000     
   1.0000000000000000        1.0000000000000000        0.0000000000000000     
   1.0000000000000000       0.87500000000000000        0.0000000000000000     
   1.0312500000000000       0.87500000000000000        0.0000000000000000     
   1.0625000000000000       0.87500000000000000        0.0000000000000000     
   1.0937500000000000       0.87500000000000000        0.0000000000000000     
   1.1250000000000000       0.87500000000000000        0.0000000000000000     
   1.0000000000000000       0.90625000000000000        0.0000000000000000     
   1.0312500000000000       0.90625000000000000        0.0000000000000000     
   1.0625000000000000       0.90625000000000000        0.0000000000000000     
   1.0937500000000000       0.90625000000000000        0.0000000000000000     
   1.1250000000000000       0.90625000000000000        0.0000000000000000     
   1.0000000000000000       0.93750000000000000        0.0000000000000000     
   1.0312500000000000       0.93750000000000000        0.0000000000000000     
   1.0625000000000000       0.93750000000000000        0.0000000000000000     
   1.0937500000000000       0.93750000000000000        0.0000000000000000     
   1.1250000000000000       0.93750000000000000        0.0000000000000000     
   1.0000000000000000       0.96875000000000000        0.0000000000000000     
   1.0312500000000000       0.96875000000000000        0.0000000000000000     
   1.0625000000000000       0.96875000000000000        0.0000000000000000     
   1.0937500000000000       0.96875000000000000        0.0000000000000000     
   1.1250000000000000       0.96875000000000000        0.0000000000000000     
   1.0000000000000000        1.0000000000000000        0.0000000000000000     
   1.0312500000000000        1.0000000000000000        0.0000000000000000     
   1.0625000000000000        1.0000000000000000        0.0000000000000000     
   1.0937500000000000        1.0000000000000000        0.0000000000000000     
   1.1250000000000000        1.0000000000000000        0.0000000000000000     
   1.1250000000000000       0.87500000000000000        0.0000000000000000     
   1.1562500000000000       0.87500000000000000        0.0000000000000000     
   1.1875000000000000       0.87500000000000000        0.0000000000000000     
   1.2187500000000000       0.87500000000000000        0.0000000000000000     
   1.2500000000000000       0.87500000000000000        0.0000000000000000     
   1.1250000000000000       0.90625000000000000        0.0000000000000000     
   1.1562500000000000       0.90625000000000000        0.0000000000000000     
   1.1875000000000000       0.90625000000000000        0.0000000000000000     
   1.2187500000000000       0.90625000000000000        0.0000000000000000     
   1.2500000000000000       0.90625000000000000        0.0000000000000000     
   1.1250000000000000       0.93750000000000000        0.0000000000000000     
   1.1562500000000000       0.93750000000000000        0.0000000000000000     
   1.1875000000000000       0.93750000000000000        0.0000000000000000     
   1.2187500000000000       0.93750000000000000        0.0000000000000000     
   1.2500000000000000       0.93750000000000000        0.0000000000000000     
   1.1250000000000000       0.96875000000000000        0.0000000000000000     
   1.1562500000000000       0.96875000000000000        0.0000000000000000     
   1.1875000000000000       0.96875000000000000        0.0000000000000000     
   1.2187500000000000       0.96875000000000000        0.0000000000000000     
   1.2500000000000000       0.96875000000000000        0.0000000000000000     
   1.1250000000000000        1.0000000000000000        0.0000000000000000     
   1.1562500000000000        1.0000000000000000        0.0000000000000000     
   1.1875000000000000        1.0000000000000000        0.0000000000000000     
   1.2187500000000000        1.0000000000000000        0.0000000000000000     
   1.2500000000000000        1.0000000000000000        0.0000000000000000     
   1.2500000000000000       0.87500000000000000        0.0000000000000000     
   1.2812500000000000       0.87500000000000000        0.0000000000000000     
   1.3125000000000000       0.87500000000000000        0.0000000000000000     
   1.3437500000000000       0.87500000000000000        0.0000000000000000     
   1.3750000000000000       0.87500000000000000        0.0000000000000000     
   1.2500000000000000       0.90625000000000000        0.0000000000000000     
   1.2812500000000000       0.90625000000000000        0.0000000000000000     
   1.3125000000000000       0.90625000000000000        0.0000000000000000     
   1.3437500000000000       0.90625000000000000        0.0000000000000000     
   1.3750000000000000       0.90625000000000000        0.0000000000000000     
   1.2500000000000000       0.93750000000000000        0.0000000000000000     
   1.2812500000000000       0.93750000000000000        0.0000000000000000     
   1.3125000000000000       0.93750000000000000        0.0000000000000000     
   1.3437500000000000       0.93750000000000000        0.0000000000000000     
   1.3750000000000000       0.93750000000000000        0.0000000000000000     
   1.2500000000000000       0.96875000000000000        0.0000000000000000     
   1.2812500000000000       0.96875000000000000        0.0000000000000000     
   1.3125000000000000       0.96875000000000000        0.0000000000000000     
   1.3437500000000000       0.96875000000000000        0.0000000000000000     
   1.3750000000000000       0.96875000000000000        0.0000000000000000     
   1.2500000000000000        1.0000000000000000        0.0000000000000000     
   1.2812500000000000        1.0000000000000000        0.0000000000000000     
   1.3125000000000000        1.0000000000000000        0.0000000000000000     
   1.3437500000000000        1.0000000000000000        0.0000000000000000     
   1.3750000000000000        1.0000000000000000        0.0000000000000000     
   1.3750000000000000       0.87500000000000000        0.0000000000000000     
   1.4062500000000000       0.87500000000000000        0.0000000000000000     
   1.4375000000000000       0.87500000000000000        0.0000000000000000     
   1.4687500000000000       0.87500000000000000        0.0000000000000000     
   1.5000000000000000       0.87500000000000000        0.0000000000000000     
   1.3750000000000000       0.90625000000000000        0.0000000000000000     
   1.4062500000000000       0.90625000000000000        0.0000000000000000     
   1.4375000000000000       0.90625000000000000        0.0000000000000000     
   1.4687500000000000       0.90625000000000000        0.0000000000000000     
   1.5000000000000000       0.90625000000000000        0.0000000000000000     
   1.3750000000000000       0.93750000000000000        0.0000000000000000     
   1.4062500000000000       0.93750000000000000        0.0000000000000000     
   1.4375000000000000       0.93750000000000000        0.0000000000000000     
   1.4687500000000000       0.93750000000000000        0.0000000000000000     
   1.5000000000000000       0.93750000000000000        0.0000000000000000     
   1.3750000000000000       0.96875000000000000        0.0000000000000000     
   1.4062500000000000       0.96875000000000000        0.0000000000000000     
   1.4375000000000000       0.96875000000000000        0.0000000000000000     
   1.4687500000000000       0.96875000000000000        0.0000000000000000     
   1.5000000000000000       0.96875000000000000        0.0000000000000000     
   1.3750000000000000        1.0000000000000000        0.0000000000000000     
   1.4062500000000000        1.0000000000000000        0.0000000000000000     
   1.4375000000000000        1.0000000000000000        0.0000000000000000     
   1.4687500000000000        1.0000000000000000        0.0000000000000000     
   1.5000000000000000        1.0000000000000000        0.0000000000000000     
 </DataArray>
 </Points>
 <Cells>
 <DataArray  type="Int32"  Name="connectivity"  format="ascii">
           0           1           6           5
           1           2           7           6
           2           3           8           7
           3           4           9           8
           5           6          11          10
           6           7          12          11
           7           8          13          12
           8           9          14          13
          10          11          16          15
          11          12          17          16
          12          13          18          17
          13          14          19          18
          15          16          21          20
          16          17          22          21
          17          18          23          22
          18          19          24          23
          25          26          31          30
          26          27          32          31
          27          28          33          32
          28          29          34          33
          30          31          36          35
          31          32          37          36
          32          33          38          37
          33          34          39          38
          35          36          41          40
          36          37          42          41
          37          38          43          42
          38          39          44          43
          40          41          46          45
          41          42          47          46
          42          43          48          47
          43          44          49          48
          50          51          56          55
          51          52          57          56
          52          53          58          57
          53          54          59          58
          55          56          61          60
          56          57          62          61
          57          58          63          62
          58          59          64          63
          60          61          66          65
          61          62          67          66
          62          63          68          67
          63          64          69          68
          65          66          71          70
          66          67          72          71
          67          68          73          72
          68          69          74          73
          75          76          81          80
          76          77          82          81
          77          78          83          82
          78          79          84          83
          80          81          86          85
          81          82          87          86
          82          83          88          87
          83          84          89          88
          85          86          91          90
          86          87          92          91
          87          88          93          92
          88          89          94          93
          90          91          96          95
          91          92          97          96
          92          93          98          97
          93          94          99          98
         100         101         106         105
         101         102         107         106
         102         103         108         107
         103         104         109         108
         105         106         111         110
         106         107         112         111
         107         108         113         112
         108         109         114         113
         110         111         116         115
         111         112         117         116
         112         113         118         117
         113         114         119         118
         115         116         121         120
         116         117         122         121
         117         118         123         122
         118         119         124         123
         125         126         131         130
         126         127         132         131
         127         128         133         132
         128         129         134         133
         130         131         136         135
         131         132         137         136
         132         133         138         137
         133         134         139         138
         135         136         141         140
         136         137         142         141
         137         138         143         142
         138         139         144         143
         140         141         146         145
         141         142         147         146
         142         143         148         147
         143         144         149         148
         150         151         156         155
         151         152         157         156
         152         153         158         157
         153         154         159         158
         155         156         161         160
         156         157         162         161
         157         158         163         162
         158         159         164         163
         160         161         166         165
         161         162         167         166
         162         163         168         167
         163         164         169         168
         165         166         171         170
         166         167         172         171
         167         168         173         172
         168         169         174         173
         175         176         181         180
         176         177         182         181
         177         178         183         182
         178         179         184         183
         180         181         186         185
         181         182         187         186
         182         183         188         187
         183         184         189         188
         185         186         191         190
         186         187         192         191
         187         188         193         192
         188         189         194         193
         190         191         196         195
         191         192         197         196
         192         193         198         197
         193         194         199         198
         200         201         206         205
         201         202         207         206
         202         203         208         207
         203         204         209         208
         205         206         211         210
         206         207         212         211
         207         208         213         212
         208         209         214         213
         210         211         216         215
         211         212         217         216
         212         213         218         217
         213         214         219         218
         215         216         221         220
         216         217         222         221
         217         218         223         222
         218         219         224         223
         225         226         231         230
         226         227         232         231
         227         228         233         232
         228         229         234         233
         230         231         236         235
         231         232         237         236
         232         233         238         237
         233         234         239         238
         235         236         241         240
         236         237         242         241
         237         238         243         242
         238         239         244         243
         240         241         246         245
         241         242         247         246
         242         243         248         247
         243         244         249         248
         250         251         256         255
         251         252         257         256
         252         253         258         257
         253         254         259         258
         255         256         261         260
         256         257         262         261
         257         258         263         262
         258         259         264         263
         260         261         266         265
         261         262         267         266
         262         263         268         267
         263         264         269         268
         265         266         271         270
         266         267         272         271
         267         268         273         272
         268         269         274         273
         275         276         281         280
         276         277         282         281
         277         278         283         282
         278         279         284         283
         280         281         286         285
         281         282         287         286
         282         283         288         287
         283         284         289         288
         285         286         291         290
         286         287         292         291
         287         288         293         292
         288         289         294         293
         290         291         296         295
         291         292         297         296
         292         293         298         297
         293         294         299         298
         300         301         306         305
         301         302         307         306
         302         303         308         307
         303         304         309         308
         305         306         311         310
         306         307         312         311
         307         308         313         312
         308         309         314         313
         310         311         316         315
         311         312         317         316
         312         313         318         317
         313         314         319         318
         315         316         321         320
         316         317         322         321
         317         318         323         322
         318         319         324         323
         325         326         331         330
         326         327         332         331
         327         328         333         332
         328         329         334         333
         330         331         336         335
         331         332         337         336
         332         333         338         337
         333         334         339         338
         335         336         341         340
         336         337         342         341
         337         338         343         342
         338         339         344         343
         340         341         346         345
         341         342         347         346
         342         343         348         347
         343         344         349         348
         350         351         356         355
         351         352         357         356
         352         353         358         357
         353         354         359         358
         355         356         361         360
         356         357         362         361
         357         358         363         362
         358         359         364         363
         360         361         366         365
         361         362         367         366
         362         363         368         367
         363         364         369         368
         365         366         371         370
         366         367         372         371
         367         368         373         372
         368         369         374         373
         375         376         381         380
         376         377         382         381
         377         378         383         382
         378         379         384         383
         380         381         386         385
         381         382         387         386
         382         383         388         387
         383         384         389         388
         385         386         391         390
         386         387         392         391
         387         388         393         392
         388         389         394         393
         390         391         396         395
         391         392         397         396
         392         393         398         397
         393         394         399         398
         400         401         406         405
         401         402         407         406
         402         403         408         407
         403         404         409         408
         405         406         411         410
         406         407         412         411
         407         408         413         412
         408         409         414         413
         410         411         416         415
         411         412         417         416
         412         413         418         417
         413         414         419         418
         415         416         421         420
         416         417         422         421
         417         418         423         422
         418         419         424         423
         425         426         431         430
         426         427         432         431
         427         428         433         432
         428         429         434         433
         430         431         436         435
         431         432         437         436
         432         433         438         437
         433         434         439         438
         435         436         441         440
         436         437         442         441
         437         438         443         442
         438         439         444         443
         440         441         446         445
         441         442         447         446
         442         443         448         447
         443         444         449         448
         450         451         456         455
         451         452         457         456
         452         453         458         457
         453         454         459         458
         455         456         461         460
         456         457         462         461
         457         458         463         462
         458         459         464         463
         460         461         466         465
         461         462         467         466
         462         463         468         467
         463         464         469         468
         465         466         471         470
         466         467         472         471
         467         468         473         472
         468         469         474         473
         475         476         481         480
         476         477         482         481
         477         478         483         482
         478         479         484         483
         480         481         486         485
         481         482         487         486
         482         483         488         487
         483         484         489         488
         485         486         491         490
         486         487         492         491
         487         488         493         492
         488         489         494         493
         490         491         496         495
         491         492         497         496
         492         493         498         497
         493         494         499         498
         500         501         506         505
         501         502         507         506
         502         503         508         507
         503         504         509         508
         505         506         511         510
         506         507         512         511
         507         508         513         512
         508         509         514         513
         510         511         516         515
         511         512         517         516
         512         513         518         517
         513         514         519         518
         515         516         521         520
         516         517         522         521
         517         518         523         522
         518         519         524         523
         525         526         531         530
         526         527         532         531
         527         528         533         532
         528         529         534         533
         530         531         536         535
         531         532         537         536
         532         533         538         537
         533         534         539         538
         535         536         541         540
         536         537         542         541
         537         538         543         542
         538         539         544         543
         540         541         546         545
         541         542         547         546
         542         543         548         547
         543         544         549         548
         550         551         556         555
         551         552         557         556
         552         553         558         557
         553         554         559         558
         555         556         561         560
         556         557         562         561
         557         558         563         562
         558         559         564         563
         560         561         566         565
         561         562         567         566
         562         563         568         567
         563         564         569         568
         565         566         571         570
         566         567         572         571
         567         568         573         572
         568         569         574         573
         575         576         581         580
         576         577         582         581
         577         578         583         582
         578         579         584         583
         580         581         586         585
         581         582         587         586
         582         583         588         587
         583         584         589         588
         585         586         591         590
         586         587         592         591
         587         588         593         592
         588         589         594         593
         590         591         596         595
         591         592         597         596
         592         593         598         597
         593         594         599         598
         600         601         606         605
         601         602         607         606
         602         603         608         607
         603         604         609         608
         605         606         611         610
         606         607         612         611
         607         608         613         612
         608         609         614         613
         610         611         616         615
         611         612         617         616
         612         613         618         617
         613         614         619         618
         615         616         621         620
         616         617         622         621
         617         618         623         622
         618         619         624         623
         625         626         631         630
         626         627         632         631
         627         628         633         632
         628         629         634         633
         630         631         636         635
         631         632         637         636
         632         633         638         637
         633         634         639         638
         635         636         641         640
         636         637         642         641
         637         638         643         642
         638         639         644         643
         640         641         646         645
         641         642         647         646
         642         643         648         647
         643         644         649         648
         650         651         656         655
         651         652         657         656
         652         653         658         657
         653         654         659         658
         655         656         661         660
         656         657         662         661
         657         658         663         662
         658         659         664         663
         660         661         666         665
         661         662         667         666
         662         663         668         667
         663         664         669         668
         665         666         671         670
         666         667         672         671
         667         668         673         672
         668         669         674         673
         675         676         681         680
         676         677         682         681
         677         678         683         682
         678         679         684         683
         680         681         686         685
         681         682         687         686
         682         683         688         687
         683         684         689         688
         685         686         691         690
         686         687         692         691
         687         688         693         692
         688         689         694         693
         690         691         696         695
         691         692         697         696
         692         693         698         697
         693         694         699         698
         700         701         706         705
         701         702         707         706
         702         703         708         707
         703         704         709         708
         705         706         711         710
         706         707         712         711
         707         708         713         712
         708         709         714         713
         710         711         716         715
         711         712         717         716
         712         713         718         717
         713         714         719         718
         715         716         721         720
         716         717         722         721
         717         718         723         722
         718         719         724         723
         725         726         731         730
         726         727         732         731
         727         728         733         732
         728         729         734         733
         730         731         736         735
         731         732         737         736
         732         733         738         737
         733         734         739         738
         735         736         741         740
         736         737         742         741
         737         738         743         742
         738         739         744         743
         740         741         746         745
         741         742         747         746
         742         743         748         747
         743         744         749         748
         750         751         756         755
         751         752         757         756
         752         753         758         757
         753         754         759         758
         755         756         761         760
         756         757         762         761
         757         758         763         762
         758         759         764         763
         760         761         766         765
         761         762         767         766
         762         763         768         767
         763         764         769         768
         765         766         771         770
         766         767         772         771
         767         768         773         772
         768         769         774         773
         775         776         781         780
         776         777         782         781
         777         778         783         782
         778         779         784         783
         780         781         786         785
         781         782         787         786
         782         783         788         787
         783         784         789         788
         785         786         791         790
         786         787         792         791
         787         788         793         792
         788         789         794         793
         790         791         796         795
         791         792         797         796
         792         793         798         797
         793         794         799         798
         800         801         806         805
         801         802         807         806
         802         803         808         807
         803         804         809         808
         805         806         811         810
         806         807         812         811
         807         808         813         812
         808         809         814         813
         810         811         816         815
         811         812         817         816
         812         813         818         817
         813         814         819         818
         815         816         821         820
         816         817         822         821
         817         818         823         822
         818         819         824         823
         825         826         831         830
         826         827         832         831
         827         828         833         832
         828         829         834         833
         830         831         836         835
         831         832         837         836
         832         833         838         837
         833         834         839         838
         835         836         841         840
         836         837         842         841
         837         838         843         842
         838         839         844         843
         840         841         846         845
         841         842         847         846
         842         843         848         847
         843         844         849         848
         850         851         856         855
         851         852         857         856
         852         853         858         857
         853         854         859         858
         855         856         861         860
         856         857         862         861
         857         858         863         862
         858         859         864         863
         860         861         866         865
         861         862         867         866
         862         863         868         867
         863         864         869         868
         865         866         871         870
         866         867         872         871
         867         868         873         872
         868         869         874         873
         875         876         881         880
         876         877         882         881
         877         878         883         882
         878         879         884         883
         880         881         886         885
         881         882         887         886
         882         883         888         887
         883         884         889         888
         885         886         891         890
         886         887         892         891
         887         888         893         892
         888         889         894         893
         890         891         896         895
         891         892         897         896
         892         893         898         897
         893         894         899         898
         900         901         906         905
         901         902         907         906
         902         903         908         907
         903         904         909         908
         905         906         911         910
         906         907         912         911
         907         908         913         912
         908         909         914         913
         910         911         916         915
         911         912         917         916
         912         913         918         917
         913         914         919         918
         915         916         921         920
         916         917         922         921
         917         918         923         922
         918         919         924         923
         925         926         931         930
         926         927         932         931
         927         928         933         932
         928         929         934         933
         930         931         936         935
         931         932         937         936
         932         933         938         937
         933         934         939         938
         935         936         941         940
         936         937         942         941
         937         938         943         942
         938         939         944         943
         940         941         946         945
         941         942         947         946
         942         943         948         947
         943         944         949         948
         950         951         956         955
         951         952         957         956
         952         953         958         957
         953         954         959         958
         955         956         961         960
         956         957         962         961
         957         958         963         962
         958         959         964         963
         960         961         966         965
         961         962         967         966
         962         963         968         967
         963         964         969         968
         965         966         971         970
         966         967         972         971
         967         968         973         972
         968         969         974         973
         975         976         981         980
         976         977         982         981
         977         978         983         982
         978         979         984         983
         980         981         986         985
         981         982         987         986
         982         983         988         987
         983         984         989         988
         985         986         991         990
         986         987         992         991
         987         988         993         992
         988         989         994         993
         990         991         996         995
         991         992         997         996
         992         993         998         997
         993         994         999         998
        1000        1001        1006        1005
        1001        1002        1007        1006
        1002        1003        1008        1007
        1003        1004        1009        1008
        1005        1006        1011        1010
        1006        1007        1012        1011
        1007        1008        1013        1012
        1008        1009        1014        1013
        1010        1011        1016        1015
        1011        1012        1017        1016
        1012        1013        1018        1017
        1013        1014        1019        1018
        1015        1016        1021        1020
        1016        1017        1022        1021
        1017        1018        1023        1022
        1018        1019        1024        1023
        1025        1026        1031        1030
        1026        1027        1032        1031
        1027        1028        1033        1032
        1028        1029        1034        1033
        1030        1031        1036        1035
        1031        1032        1037        1036
        1032        1033        1038        1037
        1033        1034        1039        1038
        1035        1036        1041        1040
        1036        1037        1042        1041
        1037        1038        1043        1042
        1038        1039        1044        1043
        1040        1041        1046        1045
        1041        1042        1047        1046
        1042        1043        1048        1047
        1043        1044        1049        1048
        1050        1051        1056        1055
        1051        1052        1057        1056
        1052        1053        1058        1057
        1053        1054        1059        1058
        1055        1056        1061        1060
        1056        1057        1062        1061
        1057        1058        1063        1062
        1058        1059        1064        1063
        1060        1061        1066        1065
        1061        1062        1067        1066
        1062        1063        1068        1067
        1063        1064        1069        1068
        1065        1066        1071        1070
        1066        1067        1072        1071
        1067        1068        1073        1072
        1068        1069        1074        1073
        1075        1076        1081        1080
        1076        1077        1082        1081
        1077        1078        1083        1082
        1078        1079        1084        1083
        1080        1081        1086        1085
        1081        1082        1087        1086
        1082        1083        1088        1087
        1083        1084        1089        1088
        1085        1086        1091        1090
        1086        1087        1092        1091
        1087        1088        1093        1092
        1088        1089        1094        1093
        1090        1091        1096        1095
        1091        1092        1097        1096
        1092        1093        1098        1097
        1093        1094        1099        1098
        1100        1101        1106        1105
        1101        1102        1107        1106
        1102        1103        1108        1107
        1103        1104        1109        1108
        1105        1106        1111        1110
        1106        1107        1112        1111
        1107        1108        1113        1112
        1108        1109        1114        1113
        1110        1111        1116        1115
        1111        1112        1117        1116
        1112        1113        1118        1117
        1113        1114        1119        1118
        1115        1116        1121        1120
        1116        1117        1122        1121
        1117        1118        1123        1122
        1118        1119        1124        1123
        1125        1126        1131        1130
        1126        1127        1132        1131
        1127        1128        1133        1132
        1128        1129        1134        1133
        1130        1131        1136        1135
        1131        1132        1137        1136
        1132        1133        1138        1137
        1133        1134        1139        1138
        1135        1136        1141        1140
        1136        1137        1142        1141
        1137        1138        1143        1142
        1138        1139        1144        1143
        1140        1141        1146        1145
        1141        1142        1147        1146
        1142        1143        1148        1147
        1143        1144        1149        1148
        1150        1151        1156        1155
        1151        1152        1157        1156
        1152        1153        1158        1157
        1153        1154        1159        1158
        1155        1156        1161        1160
        1156        1157        1162        1161
        1157        1158        1163        1162
        1158        1159        1164        1163
        1160        1161        1166        1165
        1161        1162        1167        1166
        1162        1163        1168        1167
        1163        1164        1169        1168
        1165        1166        1171        1170
        1166        1167        1172        1171
        1167        1168        1173        1172
        1168        1169        1174        1173
        1175        1176        1181        1180
        1176        1177        1182        1181
        1177        1178        1183        1182
        1178        1179        1184        1183
        1180        1181        1186        1185
        1181        1182        1187        1186
        1182        1183        1188        1187
        1183        1184        1189        1188
        1185        1186        1191        1190
        1186        1187        1192        1191
        1187        1188        1193        1192
        1188        1189        1194        1193
        1190        1191        1196        1195
        1191        1192        1197        1196
        1192        1193        1198        1197
        1193        1194        1199        1198
        1200        1201        1206        1205
        1201        1202        1207        1206
        1202        1203        1208        1207
        1203        1204        1209        1208
        1205        1206        1211        1210
        1206        1207        1212        1211
        1207        1208        1213        1212
        1208        1209        1214        1213
        1210        1211        1216        1215
        1211        1212        1217        1216
        1212        1213        1218        1217
        1213        1214        1219        1218
        1215        1216        1221        1220
        1216        1217        1222        1221
        1217        1218        1223        1222
        1218        1219        1224        1223
        1225        1226        1231        1230
        1226        1227        1232        1231
        1227        1228        1233        1232
        1228        1229        1234        1233
        1230        1231        1236        1235
        1231        1232        1237        1236
        1232        1233        1238        1237
        1233        1234        1239        1238
        1235        1236        1241        1240
        1236        1237        1242        1241
        1237        1238        1243        1242
        1238        1239        1244        1243
        1240        1241        1246        1245
        1241        1242        1247        1246
        1242        1243        1248        1247
        1243        1244        1249        1248
        1250        1251        1256        1255
        1251        1252        1257        1256
        1252        1253        1258        1257
        1253        1254        1259        1258
        1255        1256        1261        1260
        1256        1257        1262        1261
        1257        1258        1263        1262
        1258        1259        1264        1263
        1260        1261        1266        1265
        1261        1262        1267        1266
        1262        1263        1268        1267
        1263        1264        1269        1268
        1265        1266        1271        1270
        1266        1267        1272        1271
        1267        1268        1273        1272
        1268        1269        1274        1273
        1275        1276        1281        1280
        1276        1277        1282        1281
        1277        1278        1283        1282
        1278        1279        1284        1283
        1280        1281        1286        1285
        1281        1282        1287        1286
        1282        1283        1288        1287
        1283        1284        1289        1288
        1285        1286        1291        1290
        1286        1287        1292        1291
        1287        1288        1293        1292
        1288        1289        1294        1293
        1290        1291        1296        1295
        1291        1292        1297        1296
        1292        1293        1298        1297
        1293        1294        1299        1298
        1300        1301        1306        1305
        1301        1302        1307        1306
        1302        1303        1308        1307
        1303        1304        1309        1308
        1305        1306        1311        1310
        1306        1307        1312        1311
        1307        1308        1313        1312
        1308        1309        1314        1313
        1310        1311        1316        1315
        1311        1312        1317        1316
        1312        1313        1318        1317
        1313        1314        1319        1318
        1315        1316        1321        1320
        1316        1317        1322        1321
        1317        1318        1323        1322
        1318        1319        1324        1323
        1325        1326        1331        1330
        1326        1327        1332        1331
        1327        1328        1333        1332
        1328        1329        1334        1333
        1330        1331        1336        1335
        1331        1332        1337        1336
        1332        1333        1338        1337
        1333        1334        1339        1338
        1335        1336        1341        1340
        1336        1337        1342        1341
        1337        1338        1343        1342
        1338        1339        1344        1343
        1340        1341        1346        1345
        1341        1342        1347        1346
        1342        1343        1348        1347
        1343        1344        1349        1348
        1350        1351        1356        1355
        1351        1352        1357        1356
        1352        1353        1358        1357
        1353        1354        1359        1358
        1355        1356        1361        1360
        1356        1357        1362        1361
        1357        1358        1363        1362
        1358        1359        1364        1363
        1360        1361        1366        1365
        1361        1362        1367        1366
        1362        1363        1368        1367
        1363        1364        1369        1368
        1365        1366        1371        1370
        1366        1367        1372        1371
        1367        1368        1373        1372
        1368        1369        1374        1373
        1375        1376        1381        1380
        1376        1377        1382        1381
        1377        1378        1383        1382
        1378        1379        1384        1383
        1380        1381        1386        1385
        1381        1382        1387        1386
        1382        1383        1388        1387
        1383        1384        1389        1388
        1385        1386        1391        1390
        1386        1387        1392        1391
        1387        1388        1393        1392
        1388        1389        1394        1393
        1390        1391        1396        1395
        1391        1392        1397        1396
        1392        1393        1398        1397
        1393        1394        1399        1398
        1400        1401        1406        1405
        1401        1402        1407        1406
        1402        1403        1408        1407
        1403        1404        1409        1408
        1405        1406        1411        1410
        1406        1407        1412        1411
        1407        1408        1413        1412
        1408        1409        1414        1413
        1410        1411        1416        1415
        1411        1412        1417        1416
        1412        1413        1418        1417
        1413        1414        1419        1418
        1415        1416        1421        1420
        1416        1417        1422        1421
        1417        1418        1423        1422
        1418        1419        1424        1423
        1425        1426        1431        1430
        1426        1427        1432        1431
        1427        1428        1433        1432
        1428        1429        1434        1433
        1430        1431        1436        1435
        1431        1432        1437        1436
        1432        1433        1438        1437
        1433        1434        1439        1438
        1435        1436        1441        1440
        1436        1437        1442        1441
        1437        1438        1443        1442
        1438        1439        1444        1443
        1440        1441        1446        1445
        1441        1442        1447        1446
        1442        1443        1448        1447
        1443        1444        1449        1448
        1450        1451        1456        1455
        1451        1452        1457        1456
        1452        1453        1458        1457
        1453        1454        1459        1458
        1455        1456        1461        1460
        1456        1457        1462        1461
        1457        1458        1463        1462
        1458        1459        1464        1463
        1460        1461        1466        1465
        1461        1462        1467        1466
        1462        1463        1468        1467
        1463        1464        1469        1468
        1465        1466        1471        1470
        1466        1467        1472        1471
        1467        1468        1473        1472
        1468        1469        1474        1473
        1475        1476        1481        1480
        1476        1477        1482        1481
        1477        1478        1483        1482
        1478        1479        1484        1483
        1480        1481        1486        1485
        1481        1482        1487        1486
        1482        1483        1488        1487
        1483        1484        1489        1488
        1485        1486        1491        1490
        1486        1487        1492        1491
        1487        1488        1493        1492
        1488        1489        1494        1493
        1490        1491        1496        1495
        1491        1492        1497        1496
        1492        1493        1498        1497
        1493        1494        1499        1498
        1500        1501        1506        1505
        1501        1502        1507        1506
        1502        1503        1508        1507
        1503        1504        1509        1508
        1505        1506        1511        1510
        1506        1507        1512        1511
        1507        1508        1513        1512
        1508        1509        1514        1513
        1510        1511        1516        1515
        1511        1512        1517        1516
        1512        1513        1518        1517
        1513        1514        1519        1518
        1515        1516        1521        1520
        1516        1517        1522        1521
        1517        1518        1523        1522
        1518        1519        1524        1523
        1525        1526        1531        1530
        1526        1527        1532        1531
        1527        1528        1533        1532
        1528        1529        1534        1533
        1530        1531        1536        1535
        1531        1532        1537        1536
        1532        1533        1538        1537
        1533        1534        1539        1538
        1535        1536        1541        1540
        1536        1537        1542        1541
        1537        1538        1543        1542
        1538        1539        1544        1543
        1540        1541        1546        1545
        1541        1542        1547        1546
        1542        1543        1548        1547
        1543        1544        1549        1548
        1550        1551        1556        1555
        1551        1552        1557        1556
        1552        1553        1558        1557
        1553        1554        1559        1558
        1555        1556        1561        1560
        1556        1557        1562        1561
        1557        1558        1563        1562
        1558        1559        1564        1563
        1560        1561        1566        1565
        1561        1562        1567        1566
        1562        1563        1568        1567
        1563        1564        1569        1568
        1565        1566        1571        1570
        1566        1567        1572        1571
        1567        1568        1573        1572
        1568        1569        1574        1573
        1575        1576        1581        1580
        1576        1577        1582        1581
        1577        1578        1583        1582
        1578        1579        1584        1583
        1580        1581        1586        1585
        1581        1582        1587        1586
        1582        1583        1588        1587
        1583        1584        1589        1588
        1585        1586        1591        1590
        1586        1587        1592        1591
        1587        1588        1593        1592
        1588        1589        1594        1593
        1590        1591        1596        1595
        1591        1592        1597        1596
        1592        1593        1598        1597
        1593        1594        1599        1598
 </DataArray>
 <DataArray  type="Int32"  Name="offsets"  format="ascii"> 
           4
           8
          12
          16
          20
          24
          28
          32
          36
          40
          44
          48
          52
          56
          60
          64
          68
          72
          76
          80
          84
          88
          92
          96
         100
         104
         108
         112
         116
         120
         124
         128
         132
         136
         140
         144
         148
         152
         156
         160
         164
         168
         172
         176
         180
         184
         188
         192
         196
         200
         204
         208
         212
         216
         220
         224
         228
         232
         236
         240
         244
         248
         252
         256
         260
         264
         268
         272
         276
         280
         284
         288
         292
         296
         300
         304
         308
         312
         316
         320
         324
         328
         332
         336
         340
         344
         348
         352
         356
         360
         364
         368
         372
         376
         380
         384
         388
         392
         396
         400
         404
         408
         412
         416
         420
         424
         428
         432
         436
         440
         444
         448
         452
         456
         460
         464
         468
         472
         476
         480
         484
         488
         492
         496
         500
         504
         508
         512
         516
         520
         524
         528
         532
         536
         540
         544
         548
         552
         556
         560
         564
         568
         572
         576
         580
         584
         588
         592
         596
         600
         604
         608
         612
         616
         620
         624
         628
         632
         636
         640
         644
         648
         652
         656
         660
         664
         668
         672
         676
         680
         684
         688
         692
         696
         700
         704
         708
         712
         716
         720
         724
         728
         732
         736
         740
         744
         748
         752
         756
         760
         764
         768
         772
         776
         780
         784
         788
         792
         796
         800
         804
         808
         812
         816
         820
         824
         828
         832
         836
         840
         844
         848
         852
         856
         860
         864
         868
         872
         876
         880
         884
         888
         892
         896
         900
         904
         908
         912
         916
         920
         924
         928
         932
         936
         940
         944
         948
         952
         956
         960
         964
         968
         972
         976
         980
         984
         988
         992
         996
        1000
        1004
        1008
        1012
        1016
        1020
        1024
        1028
        1032
        1036
        1040
        1044
        1048
        1052
        1056
        1060
        1064
        1068
        1072
        1076
        1080
        1084
        1088
        1092
        1096
        1100
        1104
        1108
        1112
        1116
        1120
        1124
        1128
        1132
        1136
        1140
        1144
        1148
        1152
        1156
        1160
        1164
        1168
        1172
        1176
        1180
        1184
        1188
        1192
        1196
        1200
        1204
        1208
        1212
        1216
        1220
        1224
        1228
        1232
        1236
        1240
        1244
        1248
        1252
        1256
        1260
        1264
        1268
        1272
        1276
        1280
        1284
        1288
        1292
        1296
        1300
        1304
        1308
        1312
        1316
        1320
        1324
        1328
        1332
        1336
        1340
        1344
        1348
        1352
        1356
        1360
        1364
        1368
        1372
        1376
        1380
        1384
        1388
        1392
        1396
        1400
        1404
        1408
        1412
        1416
        1420
        1424
        1428
        1432
        1436
        1440
        1444
        1448
        1452
        1456
        1460
        1464
        1468
        1472
        1476
        1480
        1484
        1488
        1492
        1496
        1500
        1504
        1508
        1512
        1516
        1520
        1524
        1528
        1532
        1536
        1540
        1544
        1548
        1552
        1556
        1560
        1564
        1568
        1572
        1576
        1580
        1584
        1588
        1592
        1596
        1600
        1604
        1608
        1612
        1616
        1620
        1624
        1628
        1632
        1636
        1640
        1644
        1648
        1652
        1656
        1660
        1664
        1668
        1672
        1676
        1680
        1684
        1688
        1692
        1696
        1700
        1704
        1708
        1712
        1716
        1720
        1724
        1728
        1732
        1736
        1740
        1744
        1748
        1752
        1756
        1760
        1764
        1768
        1772
        1776
        1780
        1784
        1788
        1792
        1796
        1800
        1804
        1808
        1812
        1816
        1820
        1824
        1828
        1832
        1836
        1840
        1844
        1848
        1852
        1856
        1860
        1864
        1868
        1872
        1876
        1880
        1884
        1888
        1892
        1896
        1900
        1904
        1908
        1912
        1916
        1920
        1924
        1928
        1932
        1936
        1940
        1944
        1948
        1952
        1956
        1960
        1964
        1968
        1972
        1976
        1980
        1984
        1988
        1992
        1996
        2000
        2004
        2008
        2012
        2016
        2020
        2024
        2028
        2032
        2036
        2040
        2044
        2048
        2052
        2056
        2060
        2064
        2068
        2072
        2076
        2080
        2084
        2088
        2092
        2096
        2100
        2104
        2108
        2112
        2116
        2120
        2124
        2128
        2132
        2136
        2140
        2144
        2148
        2152
        2156
        2160
        2164
        2168
        2172
        2176
        2180
        2184
        2188
        2192
        2196
        2200
        2204
        2208
        2212
        2216
        2220
        2224
        2228
        2232
        2236
        2240
        2244
        2248
        2252
        2256
        2260
        2264
        2268
        2272
        2276
        2280
        2284
        2288
        2292
        2296
        2300
        2304
        2308
        2312
        2316
        2320
        2324
        2328
        2332
        2336
        2340
        2344
        2348
        2352
        2356
        2360
        2364
        2368
        2372
        2376
        2380
        2384
        2388
        2392
        2396
        2400
        2404
        2408
        2412
        2416
        2420
        2424
        2428
        2432
        2436
        2440
        2444
        2448
        2452
        2456
        2460
        2464
        2468
        2472
        2476
        2480
        2484
        2488
        2492
        2496
        2500
        2504
        2508
        2512
        2516
        2520
        2524
        2528
        2532
        2536
        2540
        2544
        2548
        2552
        2556
        2560
        2564
        2568
        2572
        2576
        2580
        2584
        2588
        2592
        2596
        2600
        2604
        2608
        2612
        2616
        2620
        2624
        2628
        2632
        2636
        2640
        2644
        2648
        2652
        2656
        2660
        2664
        2668
        2672
        2676
        2680
        2684
        2688
        2692
        2696
        2700
        2704
        2708
        2712
        2716
        2720
        2724
        2728
        2732
        2736
        2740
        2744
        2748
        2752
        2756
        2760
        2764
        2768
        2772
        2776
        2780
        2784
        2788
        2792
        2796
        2800
        2804
        2808
        2812
        2816
        2820
        2824
        2828
        2832
        2836
        2840
        2844
        2848
        2852
        2856
        2860
        2864
        2868
        2872
        2876
        2880
        2884
        2888
        2892
        2896
        2900
        2904
        2908
        2912
        2916
        2920
        2924
        2928
        2932
        2936
        2940
        2944
        2948
        2952
        2956
        2960
        2964
        2968
        2972
        2976
        2980
        2984
        2988
        2992
        2996
        3000
        3004
        3008
        3012
        3016
        3020
        3024
        3028
        3032
        3036
        3040
        3044
        3048
        3052
        3056
        3060
        3064
        3068
        3072
        3076
        3080
        3084
        3088
        3092
        3096
        3100
        3104
        3108
        3112
        3116
        3120
        3124
        3128
        3132
        3136
        3140
        3144
        3148
        3152
        3156
        3160
        3164
        3168
        3172
        3176
        3180
        3184
        3188
        3192
        3196
        3200
        3204
        3208
        3212
        3216
        3220
        3224
        3228
        3232
        3236
        3240
        3244
        3248
        3252
        3256
        3260
        3264
        3268
        3272
        3276
        3280
        3284
        3288
        3292
        3296
        3300
        3304
        3308
        3312
        3316
        3320
        3324
        3328
        3332
        3336
        3340
        3344
        3348
        3352
        3356
        3360
        3364
        3368
        3372
        3376
        3380
        3384
        3388
        3392
        3396
        3400
        3404
        3408
        3412
        3416
        3420
        3424
        3428
        3432
        3436
        3440
        3444
        3448
        3452
        3456
        3460
        3464
        3468
        3472
        3476
        3480
        3484
        3488
        3492
        3496
        3500
        3504
        3508
        3512
        3516
        3520
        3524
        3528
        3532
        3536
        3540
        3544
        3548
        3552
        3556
        3560
        3564
        3568
        3572
        3576
        3580
        3584
        3588
        3592
        3596
        3600
        3604
        3608
        3612
        3616
        3620
        3624
        3628
        3632
        3636
        3640
        3644
        3648
        3652
        3656
        3660
        3664
        3668
        3672
        3676
        3680
        3684
        3688
        3692
        3696
        3700
        3704
        3708
        3712
        3716
        3720
        3724
        3728
        3732
        3736
        3740
        3744
        3748
        3752
        3756
        3760
        3764
        3768
        3772
        3776
        3780
        3784
        3788
        3792
        3796
        3800
        3804
        3808
        3812
        3816
        3820
        3824
        3828
        3832
        3836
        3840
        3844
        3848
        3852
        3856
        3860
        3864
        3868
        3872
        3876
        3880
        3884
        3888
        3892
        3896
        3900
        3904
        3908
        3912
        3916
        3920
        3924
        3928
        3932
        3936
        3940
        3944
        3948
        3952
        3956
        3960
        3964
        3968
        3972
        3976
        3980
        3984
        3988
        3992
        3996
        4000
        4004
        4008
        4012
        4016
        4020
        4024
        4028
        4032
        4036
        4040
        4044
        4048
        4052
        4056
        4060
        4064
        4068
        4072
        4076
        4080
        4084
        4088
        4092
        4096
 </DataArray>
 <DataArray  type="UInt8"  Name="types"  format="ascii">
 9
 9
 9
 9
 9
 9
 9
 9
 9
 9
 9
 9
 9
 9
 9
 9
 9
 9
 9
 9
 9
 9
 9
 9
 9
 9
 9
 9
 9
 9
 9
 9
 9
 9
 9
 9
 9
 9
 9
 9
 9
 9
 9
 9
 9
 9
 9
 9
 9
 9
 9
 9
 9
 9
 9
 9
 9
 9
 9
 9
 9
 9
 9
 9
 9
 9
 9
 9
 9
 9
 9
 9
 9
 9
 9
 9
 9
 9
 9
 9
 9
 9
 9
 9
 9
 9
 9
 9
 9
 9
 9
 9
 9
 9
 9
 9
 9
 9
 9
 9
 9
 9
 9
 9
 9
 9
 9
 9
 9
 9
 9
 9
 9
 9
 9
 9
 9
 9
 9
 9
 9
 9
 9
 9
 9
 9
 9
 9
 9
 9
 9
 9
 9
 9
 9
 9
 9
 9
 9
 9
 9
 9
 9
 9
 9
 9
 9
 9
 9
 9
 9
 9
 9
 9
 9
 9
 9
 9
 9
 9
 9
 9
 9
 9
 9
 9
 9
 9
 9
 9
 9
 9
 9
 9
 9
 9
 9
 9
 9
 9
 9
 9
 9
 9
 9
 9
 9
 9
 9
 9
 9
 9
 9
 9
 9
 9
 9
 9
 9
 9
 9
 9
 9
 9
 9
 9
 9
 9
 9
 9
 9
 9
 9
 9
 9
 9
 9
 9
 9
 9
 9
 9
 9
 9
 9
 9
 9
 9
 9
 9
 9
 9
 9
 9
 9
 9
 9
 9
 9
 9
 9
 9
 9
 9
 9
 9
 9
 9
 9
 9
 9
 9
 9
 9
 9
 9
 9
 9
 9
 9
 9
 9
 9
 9
 9
 9
 9
 9
 9
 9
 9
 9
 9
 9
 9
 9
 9
 9
 9
 9
 9
 9
 9
 9
 9
 9
 9
 9
 9
 9
 9
 9
 9
 9
 9
 9
 9
 9
 9
 9
 9
 9
 9
 9
 9
 9
 9
 9
 9
 9
 9
 9
 9
 9
 9
 9
 9
 9
 9
 9
 9
 9
 9
 9
 9
 9
 9
 9
 9
 9
 9
 9
 9
 9
 9
 9
 9
 9
 9
 9
 9
 9
 9
 9
 9
 9
 9
 9
 9
 9
 9
 9
 9
 9
 9
 9
 9
 9
 9
 9
 9
 9
 9
 9
 9
 9
 9
 9
 9
 9
 9
 9
 9
 9
 9
 9
 9
 9
 9
 9
 9
 9
 9
 9
 9
 9
 9
 9
 9
 9
 9
 9
 9
 9
 9
 9
 9
 9
 9
 9
 9
 9
 9
 9
 9
 9
 9
 9
 9
 9
 9
 9
 9
 9
 9
 9
 9
 9
 9
 9
 9
 9
 9
 9
 9
 9
 9
 9
 9
 9
 9
 9
 9
 9
 9
 9
 9
 9
 9
 9
 9
 9
 9
 9
 9
 9
 9
 9
 9
 9
 9
 9
 9
 9
 9
 9
 9
 9
 9
 9
 9
 9
 9
 9
 9
 9
 9
 9
 9
 9
 9
 9
 9
 9
 9
 9
 9
 9
 9
 9
 9
 9
 9
 9
 9
 9
 9
 9
 9
 9
 9
 9
 9
 9
 9
 9
 9
 9
 9
 9
 9
 9
 9
 9
 9
 9
 9
 9
 9
 9
 9
 9
 9
 9
 9
 9
 9
 9
 9
 9
 9
 9
 9
 9
 9
 9
 9
 9
 9
 9
 9
 9
 9
 9
 9
 9
 9
 9
 9
 9
 9
 9
 9
 9
 9
 9
 9
 9
 9
 9
 9
 9
 9
 9
 9
 9
 9
 9
 9
 9
 9
 9
 9
 9
 9
 9
 9
 9
 9
 9
 9
 9
 9
 9
 9
 9
 9
 9
 9
 9
 9
 9
 9
 9
 9
 9
 9
 9
 9
 9
 9
 9
 9
 9
 9
 9
 9
 9
 9
 9
 9
 9
 9
 9
 9
 9
 9
 9
 9
 9
 9
 9
 9
 9
 9
 9
 9
 9
 9
 9
 9
 9
 9
 9
 9
 9
 9
 9
 9
 9
 9
 9
 9
 9
 9
 9
 9
 9
 9
 9
 9
 9
 9
 9
 9
 9
 9
 9
 9
 9
 9
 9
 9
 9
 9
 9
 9
 9
 9
 9
 9
 9
 9
 9
 9
 9
 9
 9
 9
 9
 9
 9
 9
 9
 9
 9
 9
 9
 9
 9
 9
 9
 9
 9
 9
 9
 9
 9
 9
 9
 9
 9
 9
 9
 9
 9
 9
 9
 9
 9
 9
 9
 9
 9
 9
 9
 9
 9
 9
 9
 9
 9
 9
 9
 9
 9
 9
 9
 9
 9
 9
 9
 9
 9
 9
 9
 9
 9
 9
 9
 9
 9
 9
 9
 9
 9
 9
 9
 9
 9
 9
 9
 9
 9
 9
 9
 9
 9
 9
 9
 9
 9
 9
 9
 9
 9
 9
 9
 9
 9
 9
 9
 9
 9
 9
 9
 9
 9
 9
 9
 9
 9
 9
 9
 9
 9
 9
 9
 9
 9
 9
 9
 9
 9
 9
 9
 9
 9
 9
 9
 9
 9
 9
 9
 9
 9
 9
 9
 9
 9
 9
 9
 9
 9
 9
 9
 9
 9
 9
 9
 9
 9
 9
 9
 9
 9
 9
 9
 9
 9
 9
 9
 9
 9
 9
 9
 9
 9
 9
 9
 9
 9
 9
 9
 9
 9
 9
 9
 9
 9
 9
 9
 9
 9
 9
 9
 9
 9
 9
 9
 9
 9
 9
 9
 9
 9
 9
 9
 9
 9
 9
 9
 9
 9
 9
 9
 9
 9
 9
 9
 9
 9
 9
 9
 9
 9
 9
 9
 9
 9
 9
 9
 9
 9
 9
 9
 9
 9
 9
 9
 9
 9
 9
 9
 9
 9
 9
 9
 9
 9
 9
 9
 9
 9
 9
 9
 9
 9
 9
 9
 9
 9
 9
 9
 9
 9
 9
 9
 9
 9
 9
 9
 9
 9
 9
 9
 9
 9
 9
 9
 9
 9
 9
 9
 9
 9
 9
 9
 9
 9
 9
 9
 9
 9
 9
 9
 9
 9
 9
 9
 9
 9
 9
 9
 9
 9
 9
 9
 9
 9
 9
 9
 9
 9
 9
 9
 9
 9
 9
 9
 9
 9
 9
 9
 9
 9
 9
 9
 9
 9
 9
 9
 9
 9
 9
 9
 9
 9
 9
 9
 9
 9
 9
 9
 9
 9
 9
 9
 9
 9
 9
 9
 9
 9
 9
 9
 9
 9
 9
 9
 9
 9
 9
 9
 9
 9
 9
 9
 9
 9
 9
 9
 9
 9
 </DataArray>
 </Cells> 
 <PointData>
 <DataArray  type="Float64" Name="disp" NumberOfComponents="3" format="ascii">
   6.8536752085465960E-002   6.2584362119486300E-002   0.0000000000000000     
   7.0596493414256639E-002   6.8106017578066669E-002   0.0000000000000000     
   7.2814090438812346E-002   7.3754233397438501E-002   0.0000000000000000     
   7.5189543159133038E-002   7.9529009577601797E-002   0.0000000000000000     
   7.7722851575218729E-002   8.5430346118556516E-002   0.0000000000000000     
   6.1048930612197100E-002   6.1751312752312534E-002   0.0000000000000000     
   6.3604767276211463E-002   6.7253628918901395E-002   0.0000000000000000     
   6.6161597185572546E-002   7.2901185043122055E-002   0.0000000000000000     
   6.8719420340280349E-002   7.8693981124974485E-002   0.0000000000000000     
   7.1278236740334872E-002   8.4632017164458700E-002   0.0000000000000000     
   5.4737416468105399E-002   6.0957777508515373E-002   0.0000000000000000     
   5.7505513690317853E-002   6.6450141845128582E-002   0.0000000000000000     
   6.0183653273671957E-002   7.2102152207150438E-002   0.0000000000000000     
   6.2771835218167690E-002   7.7913808594580927E-002   0.0000000000000000     
   6.5270059523805060E-002   8.3885111007420021E-002   0.0000000000000000     
   4.9602209653190843E-002   6.0203756388094783E-002   0.0000000000000000     
   5.2298732656575829E-002   6.5695556356748216E-002   0.0000000000000000     
   5.4880258703110550E-002   7.1357134889523652E-002   0.0000000000000000     
   5.7346787792795027E-002   7.7188491986421082E-002   0.0000000000000000     
   5.9698319925629260E-002   8.3189627647440534E-002   0.0000000000000000     
   4.5643310167453433E-002   5.9489249391050783E-002   0.0000000000000000     
   4.7984424174985364E-002   6.4989872453760311E-002   0.0000000000000000     
   5.0251413473888347E-002   7.0666133090241723E-002   0.0000000000000000     
   5.2444278064162381E-002   7.6518031300495004E-002   0.0000000000000000     
   5.4563017945807479E-002   8.2545567084520183E-002   0.0000000000000000     
   7.7722851575218729E-002   8.5430346118556516E-002   0.0000000000000000     
   8.0293914798239427E-002   9.1485756500612331E-002   0.0000000000000000     
   8.2782631939365137E-002   9.7722754204078874E-002   0.0000000000000000     
   8.5189002998595859E-002  0.10414133922895613        0.0000000000000000     
   8.7513027975931579E-002  0.11074151157524412        0.0000000000000000     
   7.1278236740334872E-002   8.4632017164458700E-002   0.0000000000000000     
   7.3789396066162069E-002   9.0729669286411324E-002   0.0000000000000000     
   7.6204247998187896E-002   9.7001313615668966E-002   0.0000000000000000     
   7.8522792536412353E-002  0.10344695015223164        0.0000000000000000     
   8.0745029680835426E-002  0.11006657889609933        0.0000000000000000     
   6.5270059523805060E-002   8.3885111007420021E-002   0.0000000000000000     
   6.7672804780390144E-002   9.0020258200830788E-002   0.0000000000000000     
   6.9974549577729056E-002   9.6323448929976185E-002   0.0000000000000000     
   7.2175293915821781E-002  0.10279468319485620        0.0000000000000000     
   7.4275037794668333E-002  0.10943396099547083        0.0000000000000000     
   5.9698319925629260E-002   8.3189627647440534E-002   0.0000000000000000     
   6.1944140940923646E-002   8.9357523243870723E-002   0.0000000000000000     
   6.4093536677988616E-002   9.5689160147000463E-002   0.0000000000000000     
   6.6146507136824170E-002  0.10218453835682977        0.0000000000000000     
   6.8103052317430329E-002  0.10884365787335860        0.0000000000000000     
   5.4563017945807479E-002   8.2545567084520183E-002   0.0000000000000000     
   5.6603404547762567E-002   8.8741464415531157E-002   0.0000000000000000     
   5.8561209298966570E-002   9.5098447266741895E-002   0.0000000000000000     
   6.0436432199419500E-002  0.10161651563815240        0.0000000000000000     
   6.2229073249121358E-002  0.10829566952976266        0.0000000000000000     
   8.7513027975931579E-002  0.11074151157524412        0.0000000000000000     
   8.9753737629026692E-002  0.11749094981209746        0.0000000000000000     
   9.1910162715535537E-002  0.12435733250867084        0.0000000000000000     
   9.3982303235458170E-002  0.13134065966496428        0.0000000000000000     
   9.5970159188794535E-002  0.13844093128097770        0.0000000000000000     
   8.0745029680835426E-002  0.11006657889609933        0.0000000000000000     
   8.2877823216357394E-002  0.11683425893967590        0.0000000000000000     
   8.4928036927878522E-002  0.12372404937536521        0.0000000000000000     
   8.6895670815398812E-002  0.13073595020316722        0.0000000000000000     
   8.8780724878918249E-002  0.13786996142308200        0.0000000000000000     
   7.4275037794668333E-002  0.10943396099547083        0.0000000000000000     
   7.6284611771787983E-002  0.11622034117024731        0.0000000000000000     
   7.8214846404699986E-002  0.12313288255761282        0.0000000000000000     
   8.0065741693404344E-002  0.13017158515756730        0.0000000000000000     
   8.1837297637901069E-002  0.13733644897011088        0.0000000000000000     
   6.8103052317430329E-002  0.10884365787335860        0.0000000000000000     
   6.9974103295318432E-002  0.11564919650381167        0.0000000000000000     
   7.1770591145999915E-002  0.12258383205541364        0.0000000000000000     
   7.3492515869474750E-002  0.12964756452816451        0.0000000000000000     
   7.5139877465742980E-002  0.13684039392206435        0.0000000000000000     
   6.2229073249121358E-002  0.10829566952976266        0.0000000000000000     
   6.3946297786948755E-002  0.11512082494036900        0.0000000000000000     
   6.5595271151778323E-002  0.12207689786876774        0.0000000000000000     
   6.7175993343610060E-002  0.12916388831495890        0.0000000000000000     
   6.8688464362443954E-002  0.13638179627894242        0.0000000000000000     
   9.5970159188794535E-002  0.13844093128097770        0.0000000000000000     
   9.7868140469441048E-002  0.14566026083582137        0.0000000000000000     
   9.9670656971294166E-002  0.15300076180860542        0.0000000000000000     
  0.10137770869435381       0.16046243419932982        0.0000000000000000     
  0.10298929563862003       0.16804527800799460        0.0000000000000000     
   8.8780724878918249E-002  0.13786996142308200        0.0000000000000000     
   9.0579435274421499E-002  0.14512354715575804        0.0000000000000000     
   9.2288038157893243E-002  0.15249417152184389        0.0000000000000000     
   9.3906533529333452E-002  0.15998183452133960        0.0000000000000000     
   9.5434921388742155E-002  0.16758653615424515        0.0000000000000000     
   8.1837297637901069E-002  0.13733644897011088        0.0000000000000000     
   8.3526664695883240E-002  0.14462143296833679        0.0000000000000000     
   8.5130993325043966E-002  0.15202049612533841        0.0000000000000000     
   8.6650283525383204E-002  0.15953363844111576        0.0000000000000000     
   8.8084535296901023E-002  0.16716085991566887        0.0000000000000000     
   7.5139877465742980E-002  0.13684039392206435        0.0000000000000000     
   7.6709828733826230E-002  0.14415391827355767        0.0000000000000000     
   7.8199522472746280E-002  0.15157973561908897        0.0000000000000000     
   7.9608958682503075E-002  0.15911784595865835        0.0000000000000000     
   8.0938137363096643E-002  0.16676824929226577        0.0000000000000000     
   6.8688464362443954E-002  0.13638179627894242        0.0000000000000000     
   7.0128927388250523E-002  0.14372100307142055        0.0000000000000000     
   7.1493625601000199E-002  0.15117189000309553        0.0000000000000000     
   7.2782559000693026E-002  0.15873445707396724        0.0000000000000000     
   7.3995727587329002E-002  0.16640870428403584        0.0000000000000000     
  0.10298929563862003       0.16804527800799460        0.0000000000000000     
  0.10451329598060953       0.17573099368742057        0.0000000000000000     
  0.10595758789683900       0.18350128169042854        0.0000000000000000     
  0.10732217138730848       0.19135614201701848        0.0000000000000000     
  0.10860704645201794       0.19929557466719044        0.0000000000000000     
   9.5434921388742155E-002  0.16758653615424515        0.0000000000000000     
   9.6877106601307203E-002  0.17529323977204614        0.0000000000000000     
   9.8236994032216432E-002  0.18308690872622815        0.0000000000000000     
   9.9514583681469926E-002  0.19096754301679128        0.0000000000000000     
  0.10070987554906762       0.19893514264373544        0.0000000000000000     
   8.8084535296901023E-002  0.16716085991566887        0.0000000000000000     
   8.9435132586213856E-002  0.17488936628382215        0.0000000000000000     
   9.0703459339938175E-002  0.18270636328040010        0.0000000000000000     
   9.1889515558073967E-002  0.19061185090540272        0.0000000000000000     
   9.2993301240621259E-002  0.19860582915883004        0.0000000000000000     
   8.0938137363096643E-002  0.16676824929226577        0.0000000000000000     
   8.2187373935329475E-002  0.17451937322274863        0.0000000000000000     
   8.3356983820004144E-002  0.18235964535294436        0.0000000000000000     
   8.4446967017120622E-002  0.19028906568285292        0.0000000000000000     
   8.5457323526678897E-002  0.19830763421247433        0.0000000000000000     
   7.3995727587329002E-002  0.16640870428403584        0.0000000000000000     
   7.5133830648654115E-002  0.17418326058882561        0.0000000000000000     
   7.6197567472414421E-002  0.18204675494386091        0.0000000000000000     
   7.7186938058609877E-002  0.18999918734914181        0.0000000000000000     
   7.8101942407240499E-002  0.19804055780466825        0.0000000000000000     
  0.10860704645201794       0.19929557466719044        0.0000000000000000     
  0.10981442147204616       0.20731867921075126        0.0000000000000000     
  0.11094650482847189       0.21542455521750778        0.0000000000000000     
  0.11200329652129513       0.22361320268746004        0.0000000000000000     
  0.11298479655051591       0.23188462162060802        0.0000000000000000     
  0.10070987554906762       0.19893514264373544        0.0000000000000000     
  0.10182730161494356       0.20698523931407550        0.0000000000000000     
  0.10287129385903183       0.21511336473482631        0.0000000000000000     
  0.10384185228133239       0.22331951890598792        0.0000000000000000     
  0.10473897688184525       0.23160370182756029        0.0000000000000000     
   9.2993301240621259E-002  0.19860582915883004        0.0000000000000000     
   9.4019679115385710E-002  0.20668163588872562        0.0000000000000000     
   9.4973511910172947E-002  0.21483260894313314        0.0000000000000000     
   9.5854799624983014E-002  0.22305874832205250        0.0000000000000000     
   9.6663542259815841E-002  0.23136005402548376        0.0000000000000000     
   8.5457323526678897E-002  0.19830763421247433        0.0000000000000000     
   8.6391553973372573E-002  0.20640786893470173        0.0000000000000000     
   8.7253158981895271E-002  0.21458228784242822        0.0000000000000000     
   8.8042138552246949E-002  0.22283089093565372        0.0000000000000000     
   8.8758492684427662E-002  0.23115367821437835        0.0000000000000000     
   7.8101942407240499E-002  0.19804055780466825        0.0000000000000000     
   7.8942926188904194E-002  0.20616393845200368        0.0000000000000000     
   7.9710235074198776E-002  0.21436240143271149        0.0000000000000000     
   8.0403869063124286E-002  0.22263594674679163        0.0000000000000000     
   8.1023828155680711E-002  0.23098457439424414        0.0000000000000000     
  0.11298479655051591       0.23188462162060802        0.0000000000000000     
  0.11391919229926645       0.24025477399885625        0.0000000000000000     
  0.11483467115067904       0.24873962180410919        0.0000000000000000     
  0.11573123310475367       0.25733916503636695        0.0000000000000000     
  0.11660887816149033       0.26605340369562935        0.0000000000000000     
  0.10473897688184525       0.23160370182756029        0.0000000000000000     
  0.10556789978225178       0.23998914877450572        0.0000000000000000     
  0.10633385310423332       0.24849909502178644        0.0000000000000000     
  0.10703683684778986       0.25713354056940257        0.0000000000000000     
  0.10767685101292140       0.26589248541735400        0.0000000000000000     
   9.6663542259815841E-002  0.23136005402548376        0.0000000000000000     
   9.7390902379207570E-002  0.23976299146314653        0.0000000000000000     
   9.8028042547694219E-002  0.24829402604476039        0.0000000000000000     
   9.8574962765275831E-002  0.25695315777032540        0.0000000000000000     
   9.9031663031952349E-002  0.26574038663984156        0.0000000000000000     
   8.8758492684427662E-002  0.23115367821437835        0.0000000000000000     
   8.9388200090133790E-002  0.23957630206477862        0.0000000000000000     
   8.9917239481061756E-002  0.24812441487303100        0.0000000000000000     
   9.0345610857211545E-002  0.25679801663913560        0.0000000000000000     
   9.0673314218583198E-002  0.26559710736309228        0.0000000000000000     
   8.1023828155680711E-002  0.23098457439424414        0.0000000000000000     
   8.1559792915030460E-002  0.23942908057940207        0.0000000000000000     
   8.2001443904335905E-002  0.24799026150659834        0.0000000000000000     
   8.2348781123597073E-002  0.25666811717583299        0.0000000000000000     
   8.2601804572813936E-002  0.26546264758710597        0.0000000000000000     
  0.11660887816149033       0.26605340369562935        0.0000000000000000     
  0.11740789427723577       0.27504708700607328        0.0000000000000000     
  0.11806856940833671       0.28448496419187552        0.0000000000000000     
  0.11859090355479313       0.29436703525303592        0.0000000000000000     
  0.11897489671660504       0.30469330018955459        0.0000000000000000     
  0.10767685101292140       0.26589248541735400        0.0000000000000000     
  0.10823481610764552       0.27490809460487498        0.0000000000000000     
  0.10869165263997978       0.28431253317119964        0.0000000000000000     
  0.10904736060992416       0.29410580111632806        0.0000000000000000     
  0.10930194001747867       0.30428789844026016        0.0000000000000000     
   9.9031663031952349E-002  0.26574038663984156        0.0000000000000000     
   9.9409040994439812E-002  0.27475394689137722        0.0000000000000000     
   9.9717994299454230E-002  0.28409207276300047        0.0000000000000000     
   9.9958522946995559E-002  0.29375476425471153        0.0000000000000000     
  0.10013062693706383       0.30374202136651018        0.0000000000000000     
   9.0673314218583198E-002  0.26559710736309228        0.0000000000000000     
   9.0930568937618694E-002  0.27458464386558012        0.0000000000000000     
   9.1147594386760067E-002  0.28382358296727817        0.0000000000000000     
   9.1324390566007344E-002  0.29331392466818623        0.0000000000000000     
   9.1460957475360483E-002  0.30305566896830455        0.0000000000000000     
   8.2601804572813936E-002  0.26546264758710597        0.0000000000000000     
   8.2799399937182147E-002  0.27440018552748369        0.0000000000000000     
   8.2980452901897359E-002  0.28350706378403251        0.0000000000000000     
   8.3144963466959515E-002  0.29278328235675238        0.0000000000000000     
   8.3292931632368630E-002  0.30222884124564342        0.0000000000000000     
   4.5643310167453433E-002   5.9489249391050783E-002   0.0000000000000000     
   4.7984424174985364E-002   6.4989872453760311E-002   0.0000000000000000     
   5.0251413473888347E-002   7.0666133090241723E-002   0.0000000000000000     
   5.2444278064162381E-002   7.6518031300495004E-002   0.0000000000000000     
   5.4563017945807479E-002   8.2545567084520183E-002   0.0000000000000000     
   4.2076724929890612E-002   5.8823030133174366E-002   0.0000000000000000     
   4.3993229898999779E-002   6.4337208604112864E-002   0.0000000000000000     
   4.5893315009123713E-002   7.0030291880440604E-002   0.0000000000000000     
   4.7776980260262406E-002   7.5902279962157565E-002   0.0000000000000000     
   4.9644225652415858E-002   8.1953172849263789E-002   0.0000000000000000     
   3.8118460859499805E-002   5.8213872230256501E-002   0.0000000000000000     
   3.9755791482072360E-002   6.3741683275753899E-002   0.0000000000000000     
   4.1402160731934992E-002   6.9450756331256303E-002   0.0000000000000000     
   4.3057568609087722E-002   7.5341091396763732E-002   0.0000000000000000     
   4.4722015113530529E-002   8.1412688472276160E-002   0.0000000000000000     
   3.3768517956281024E-002   5.7661775682297217E-002   0.0000000000000000     
   3.5272108924203113E-002   6.3203296468683404E-002   0.0000000000000000     
   3.6777950642322213E-002   6.8927526442688819E-002   0.0000000000000000     
   3.8286043110638331E-002   7.4834465604313449E-002   0.0000000000000000     
   3.9796386329151480E-002   8.0924113953557322E-002   0.0000000000000000     
   2.9026896220234258E-002   5.7166740489296500E-002   0.0000000000000000     
   3.0542182225392039E-002   6.2722048182901391E-002   0.0000000000000000     
   3.2020684740285375E-002   6.8460602214738139E-002   0.0000000000000000     
   3.3462403764914266E-002   7.4382402584806759E-002   0.0000000000000000     
   3.4867339299278710E-002   8.0487449293107249E-002   0.0000000000000000     
   5.4563017945807479E-002   8.2545567084520183E-002   0.0000000000000000     
   5.6603404547762567E-002   8.8741464415531157E-002   0.0000000000000000     
   5.8561209298966570E-002   9.5098447266741895E-002   0.0000000000000000     
   6.0436432199419500E-002  0.10161651563815240        0.0000000000000000     
   6.2229073249121358E-002  0.10829566952976266        0.0000000000000000     
   4.9644225652415858E-002   8.1953172849263789E-002   0.0000000000000000     
   5.1469747692599682E-002   8.8173294792191562E-002   0.0000000000000000     
   5.3228242887829430E-002   9.4552970041373308E-002   0.0000000000000000     
   5.4919711238105115E-002  0.10109219859680897        0.0000000000000000     
   5.6544152743426737E-002  0.10779098045849861        0.0000000000000000     
   4.4722015113530529E-002   8.1412688472276160E-002   0.0000000000000000     
   4.6362322467127751E-002   8.7654227450231492E-002   0.0000000000000000     
   4.7945312891743697E-002   9.4054388223067581E-002   0.0000000000000000     
   4.9470986387378360E-002  0.10061317079078444        0.0000000000000000     
   5.0939342954031755E-002  0.10733057515338208        0.0000000000000000     
   3.9796386329151480E-002   8.0924113953557322E-002   0.0000000000000000     
   4.1281128871346766E-002   8.7184262389650879E-002   0.0000000000000000     
   4.2712419310709356E-002   9.3602701811824729E-002   0.0000000000000000     
   4.4090257647239221E-002  0.10017943222007876        0.0000000000000000     
   4.5414643880936384E-002  0.10691445361441307        0.0000000000000000     
   3.4867339299278710E-002   8.0487449293107249E-002   0.0000000000000000     
   3.6226166905256756E-002   8.6763399610449821E-002   0.0000000000000000     
   3.7529562144726421E-002   9.3197910807644738E-002   0.0000000000000000     
   3.8777525017687726E-002   9.9790982884691973E-002   0.0000000000000000     
   3.9970055524140652E-002  0.10654261584159155        0.0000000000000000     
   6.2229073249121358E-002  0.10829566952976266        0.0000000000000000     
   6.3946297786948755E-002  0.11512082494036900        0.0000000000000000     
   6.5595271151778323E-002  0.12207689786876774        0.0000000000000000     
   6.7175993343610060E-002  0.12916388831495890        0.0000000000000000     
   6.8688464362443954E-002  0.13638179627894242        0.0000000000000000     
   5.6544152743426737E-002  0.10779098045849861        0.0000000000000000     
   5.8104250850786958E-002  0.11463557296101978        0.0000000000000000     
   5.9602689007178425E-002  0.12161223343895011        0.0000000000000000     
   6.1039467212601159E-002  0.12872096189228960        0.0000000000000000     
   6.2414585467055125E-002  0.13596175832103824        0.0000000000000000     
   5.0939342954031755E-002  0.10733057515338208        0.0000000000000000     
   5.2351018090941059E-002  0.11419378704686452        0.0000000000000000     
   5.3706647297343459E-002  0.12118999220723581        0.0000000000000000     
   5.5006230573238973E-002  0.12831919063449593        0.0000000000000000     
   5.6249767918627583E-002  0.13558138232864494        0.0000000000000000     
   4.5414643880936384E-002  0.10691445361441307        0.0000000000000000     
   4.6686599507411053E-002  0.11379546719790319        0.0000000000000000     
   4.7907146022273424E-002  0.12081017417362483        0.0000000000000000     
   4.9076283425523511E-002  0.12795857454157791        0.0000000000000000     
   5.0194011717161306E-002  0.13524066830176248        0.0000000000000000     
   3.9970055524140652E-002  0.10654261584159155        0.0000000000000000     
   4.1110995100196938E-002  0.11344061341413580        0.0000000000000000     
   4.2204185181968314E-002  0.12047277933811713        0.0000000000000000     
   4.3249625769454771E-002  0.12763911361353550        0.0000000000000000     
   4.4247316862656316E-002  0.13493961624039094        0.0000000000000000     
   6.8688464362443954E-002  0.13638179627894242        0.0000000000000000     
   7.0128927388250523E-002  0.14372100307142055        0.0000000000000000     
   7.1493625601000199E-002  0.15117189000309553        0.0000000000000000     
   7.2782559000693026E-002  0.15873445707396724        0.0000000000000000     
   7.3995727587329002E-002  0.16640870428403584        0.0000000000000000     
   6.2414585467055125E-002  0.13596175832103824        0.0000000000000000     
   6.3723280722394998E-002  0.14332442157004421        0.0000000000000000     
   6.4960789930475452E-002  0.15079875048415572        0.0000000000000000     
   6.6127113091296444E-002  0.15838474506337277        0.0000000000000000     
   6.7222250204858003E-002  0.16608240530769536        0.0000000000000000     
   5.6249767918627583E-002  0.13558138232864494        0.0000000000000000     
   5.7432208799498695E-002  0.14296590797754719        0.0000000000000000     
   5.8548502681841731E-002  0.15046210826906720        0.0000000000000000     
   5.9598649565656664E-002  0.15806998320320495        0.0000000000000000     
   6.0582649450943514E-002  0.16578953277996042        0.0000000000000000     
   5.0194011717161306E-002  0.13524066830176248        0.0000000000000000     
   5.1255711619561564E-002  0.14264546229392952        0.0000000000000000     
   5.2256763855099024E-002  0.15016196335783000        0.0000000000000000     
   5.3197168423773700E-002  0.15779017149346383        0.0000000000000000     
   5.4076925325585570E-002  0.16553008670083108        0.0000000000000000     
   4.4247316862656316E-002  0.13493961624039094        0.0000000000000000     
   4.5193789182583627E-002  0.14236308451919119        0.0000000000000000     
   4.6085573450247365E-002  0.14989831575044402        0.0000000000000000     
   4.6922669665647537E-002  0.15754530993414939        0.0000000000000000     
   4.7705077828784144E-002  0.16530406707030737        0.0000000000000000     
   7.3995727587329002E-002  0.16640870428403584        0.0000000000000000     
   7.5133830648654115E-002  0.17418326058882561        0.0000000000000000     
   7.6197567472414421E-002  0.18204675494386091        0.0000000000000000     
   7.7186938058609877E-002  0.18999918734914181        0.0000000000000000     
   7.8101942407240499E-002  0.19804055780466825        0.0000000000000000     
   6.7222250204858003E-002  0.16608240530769536        0.0000000000000000     
   6.8247680230053800E-002  0.17388010590975131        0.0000000000000000     
   6.9204882125777523E-002  0.18176622156216860        0.0000000000000000     
   7.0093855892029197E-002  0.18974075226494716        0.0000000000000000     
   7.0914601528808810E-002  0.19780369801808709        0.0000000000000000     
   6.0582649450943514E-002  0.16578953277996042        0.0000000000000000     
   6.1502100183394574E-002  0.17360898671322403        0.0000000000000000     
   6.2358599608702076E-002  0.18151657471688612        0.0000000000000000     
   6.3152147726866087E-002  0.18951229679094680        0.0000000000000000     
   6.3882744537886532E-002  0.19759615293540600        0.0000000000000000     
   5.4076925325585570E-002  0.16553008670083108        0.0000000000000000     
   5.4897090508676437E-002  0.17336990299924368        0.0000000000000000     
   5.5658719921188086E-002  0.18129781440801357        0.0000000000000000     
   5.6361813563120491E-002  0.18931382092714066        0.0000000000000000     
   5.7006371434473672E-002  0.19741792255662499        0.0000000000000000     
   4.7705077828784144E-002  0.16530406707030737        0.0000000000000000     
   4.8432651205899402E-002  0.17316285476781035        0.0000000000000000     
   4.9105243063235493E-002  0.18110994063555080        0.0000000000000000     
   4.9722853400792431E-002  0.18914532467352874        0.0000000000000000     
   5.0285482218570224E-002  0.19726900688174415        0.0000000000000000     
   7.8101942407240499E-002  0.19804055780466825        0.0000000000000000     
   7.8942926188904194E-002  0.20616393845200368        0.0000000000000000     
   7.9710235074198776E-002  0.21436240143271149        0.0000000000000000     
   8.0403869063124286E-002  0.22263594674679163        0.0000000000000000     
   8.1023828155680711E-002  0.23098457439424414        0.0000000000000000     
   7.0914601528808810E-002  0.19780369801808709        0.0000000000000000     
   7.1664212645618897E-002  0.20594897212662194        0.0000000000000000     
   7.2339782851961978E-002  0.21417048789558543        0.0000000000000000     
   7.2941312147838056E-002  0.22246824532497766        0.0000000000000000     
   7.3468800533247142E-002  0.23084224441479848        0.0000000000000000     
   6.3882744537886532E-002  0.19759615293540600        0.0000000000000000     
   6.4545830227155099E-002  0.20576209764454687        0.0000000000000000     
   6.5136844980063391E-002  0.21400408541265262        0.0000000000000000     
   6.5655788796611395E-002  0.22232211623972317        0.0000000000000000     
   6.6102661676799110E-002  0.23071619012575861        0.0000000000000000     
   5.7006371434473672E-002  0.19741792255662499        0.0000000000000000     
   5.7587778933512780E-002  0.20560331500577847        0.0000000000000000     
   5.8101421458502979E-002  0.21386319398391290        0.0000000000000000     
   5.8547299009444269E-002  0.22219755949102829        0.0000000000000000     
   5.8925411586336622E-002  0.23060641152712463        0.0000000000000000     
   5.0285482218570224E-002  0.19726900688174415        0.0000000000000000     
   5.0790058764691962E-002  0.20547262421031678        0.0000000000000000     
   5.1233512287280791E-002  0.21374781360936637        0.0000000000000000     
   5.1615842786336699E-002  0.22209457507889294        0.0000000000000000     
   5.1937050261859678E-002  0.23051290861889648        0.0000000000000000     
   8.1023828155680711E-002  0.23098457439424414        0.0000000000000000     
   8.1559792915030460E-002  0.23942908057940207        0.0000000000000000     
   8.2001443904335905E-002  0.24799026150659834        0.0000000000000000     
   8.2348781123597073E-002  0.25666811717583299        0.0000000000000000     
   8.2601804572813936E-002  0.26546264758710597        0.0000000000000000     
   7.3468800533247142E-002  0.23084224441479848        0.0000000000000000     
   7.3919202431081965E-002  0.23930630027862448        0.0000000000000000     
   7.4289472264235282E-002  0.24787422803003223        0.0000000000000000     
   7.4579610032707119E-002  0.25654602766902168        0.0000000000000000     
   7.4789615736497422E-002  0.26532169919559279        0.0000000000000000     
   6.6102661676799110E-002  0.23071619012575861        0.0000000000000000     
   6.6479950215472761E-002  0.23919293443405354        0.0000000000000000     
   6.6790141007478557E-002  0.24775897652790252        0.0000000000000000     
   6.7033234052816457E-002  0.25641431640730561        0.0000000000000000     
   6.7209229351486516E-002  0.26515895407226275        0.0000000000000000     
   5.8925411586336622E-002  0.23060641152712463        0.0000000000000000     
   5.9242036268202840E-002  0.23908898304568921        0.0000000000000000     
   5.9503450134065675E-002  0.24764450700020926        0.0000000000000000     
   5.9709653183925133E-002  0.25627298339068477        0.0000000000000000     
   5.9860645417781209E-002  0.26497441221711582        0.0000000000000000     
   5.1937050261859678E-002  0.23051290861889648        0.0000000000000000     
   5.2205460589272196E-002  0.23899444611353149        0.0000000000000000     
   5.2429399643996656E-002  0.24753081944695243        0.0000000000000000     
   5.2608867426033101E-002  0.25612202861915928        0.0000000000000000     
   5.2743863935381496E-002  0.26476807363015220        0.0000000000000000     
   8.2601804572813936E-002  0.26546264758710597        0.0000000000000000     
   8.2799399937182147E-002  0.27440018552748369        0.0000000000000000     
   8.2980452901897359E-002  0.28350706378403251        0.0000000000000000     
   8.3144963466959515E-002  0.29278328235675238        0.0000000000000000     
   8.3292931632368630E-002  0.30222884124564342        0.0000000000000000     
   7.4789615736497422E-002  0.26532169919559279        0.0000000000000000     
   7.4960376014201302E-002  0.27419488394278974        0.0000000000000000     
   7.5132777504413772E-002  0.28315922324365661        0.0000000000000000     
   7.5306820207134875E-002  0.29221471709819347        0.0000000000000000     
   7.5482504122364583E-002  0.30136136550640036        0.0000000000000000     
   6.7209229351486516E-002  0.26515895407226275        0.0000000000000000     
   6.7358339189747235E-002  0.27396305117720005        0.0000000000000000     
   6.7520775853857157E-002  0.28279676937654347        0.0000000000000000     
   6.7696539343816281E-002  0.29166010867029313        0.0000000000000000     
   6.7885629659624608E-002  0.30055306905844897        0.0000000000000000     
   5.9860645417781209E-002  0.26497441221711582        0.0000000000000000     
   5.9993289463819967E-002  0.27370468723071456        0.0000000000000000     
   6.0144447950227470E-002  0.28241970218269308        0.0000000000000000     
   6.0314120877003718E-002  0.29111945707305131        0.0000000000000000     
   6.0502308244148713E-002  0.29980395190178932        0.0000000000000000     
   5.2743863935381496E-002  0.26476807363015220        0.0000000000000000     
   5.2865226836419497E-002  0.27341979210333345        0.0000000000000000     
   5.3003793793524739E-002  0.28202802166210539        0.0000000000000000     
   5.3159564806697195E-002  0.29059276230646802        0.0000000000000000     
   5.3332539875936898E-002  0.29911401403642146        0.0000000000000000     
   2.9026896220234258E-002   5.7166740489296500E-002   0.0000000000000000     
   3.0542182225392039E-002   6.2722048182901391E-002   0.0000000000000000     
   3.2020684740285375E-002   6.8460602214738139E-002   0.0000000000000000     
   3.3462403764914266E-002   7.4382402584806759E-002   0.0000000000000000     
   3.4867339299278710E-002   8.0487449293107249E-002   0.0000000000000000     
   2.4389546148408416E-002   5.6729681883565961E-002   0.0000000000000000     
   2.5920572908578264E-002   6.2297924771959931E-002   0.0000000000000000     
   2.7374606556613921E-002   6.8049490755316494E-002   0.0000000000000000     
   2.8751647092515386E-002   7.3984379833635691E-002   0.0000000000000000     
   3.0051694516282659E-002   8.0102592006917467E-002   0.0000000000000000     
   2.0352418237852402E-002   5.6351515097417190E-002   0.0000000000000000     
   2.1761842496700913E-002   6.1930912589411115E-002   0.0000000000000000     
   2.3083959622097316E-002   6.7693699172336169E-002   0.0000000000000000     
   2.4318769614041596E-002   7.3639874846192305E-002   0.0000000000000000     
   2.5466272472533757E-002   7.9769439610979542E-002   0.0000000000000000     
   1.6915512488566205E-002   5.6032240130850217E-002   0.0000000000000000     
   1.8065990989760004E-002   6.1621011635254956E-002   0.0000000000000000     
   1.9148743936735563E-002   6.7393227465797081E-002   0.0000000000000000     
   2.0163771329492902E-002   7.3348887622476558E-002   0.0000000000000000     
   2.1111073168032006E-002   7.9487992105293448E-002   0.0000000000000000     
   1.4078828900549841E-002   5.5771856983865026E-002   0.0000000000000000     
   1.4833018387755519E-002   6.1368221909491441E-002   0.0000000000000000     
   1.5568959500528671E-002   6.7148075635699286E-002   0.0000000000000000     
   1.6286652238869301E-002   7.3111418162488534E-002   0.0000000000000000     
   1.6986096602777404E-002   7.9258249489859184E-002   0.0000000000000000     
   3.4867339299278710E-002   8.0487449293107249E-002   0.0000000000000000     
   3.6226166905256756E-002   8.6763399610449821E-002   0.0000000000000000     
   3.7529562144726421E-002   9.3197910807644738E-002   0.0000000000000000     
   3.8777525017687726E-002   9.9790982884691973E-002   0.0000000000000000     
   3.9970055524140652E-002  0.10654261584159155        0.0000000000000000     
   3.0051694516282659E-002   8.0102592006917467E-002   0.0000000000000000     
   3.1284560178246844E-002   8.6392027753800338E-002   0.0000000000000000     
   3.2460055428739039E-002   9.2840587552922779E-002   0.0000000000000000     
   3.3578180267759238E-002   9.9448271404284791E-002   0.0000000000000000     
   3.4638934695307447E-002  0.10621507930788637        0.0000000000000000     
   2.5466272472533757E-002   7.9769439610979542E-002   0.0000000000000000     
   2.6543432299706203E-002   8.6070535460874578E-002   0.0000000000000000     
   2.7567213197691336E-002   9.2531304390054039E-002   0.0000000000000000     
   2.8537615166489158E-002   9.9151746398517995E-002   0.0000000000000000     
   2.9454638206099667E-002  0.10593186148626636        0.0000000000000000     
   2.1111073168032006E-002   7.9487992105293448E-002   0.0000000000000000     
   2.2002783269634830E-002   8.5798922731672500E-002   0.0000000000000000     
   2.2851035451583318E-002   9.2270061319038518E-002   0.0000000000000000     
   2.3655829713877478E-002   9.8901407867391516E-002   0.0000000000000000     
   2.4417166056517312E-002  0.10569296237673148        0.0000000000000000     
   1.6986096602777404E-002   7.9258249489859184E-002   0.0000000000000000     
   1.7662613088032724E-002   8.5577189566194131E-002   0.0000000000000000     
   1.8311522190414993E-002   9.2056858339876216E-002   0.0000000000000000     
   1.8932823909924214E-002   9.8697255810905424E-002   0.0000000000000000     
   1.9526518246560383E-002  0.10549838197928177        0.0000000000000000     
   3.9970055524140652E-002  0.10654261584159155        0.0000000000000000     
   4.1110995100196938E-002  0.11344061341413580        0.0000000000000000     
   4.2204185181968314E-002  0.12047277933811713        0.0000000000000000     
   4.3249625769454771E-002  0.12763911361353550        0.0000000000000000     
   4.4247316862656316E-002  0.13493961624039094        0.0000000000000000     
   3.4638934695307447E-002  0.10621507930788637        0.0000000000000000     
   3.5649041926829418E-002  0.11312869527037804        0.0000000000000000     
   3.6615225177770896E-002  0.12017680329841030        0.0000000000000000     
   3.7537484448131889E-002  0.12735940339198309        0.0000000000000000     
   3.8415819737912402E-002  0.13467649555109648        0.0000000000000000     
   2.9454638206099667E-002  0.10593186148626636        0.0000000000000000     
   3.0325577044839163E-002  0.11285918234144551        0.0000000000000000     
   3.1157726411023930E-002  0.11992124165220173        0.0000000000000000     
   3.1951086304654000E-002  0.12711803941853503        0.0000000000000000     
   3.2705656725729344E-002  0.13444957564044538        0.0000000000000000     
   2.4417166056517312E-002  0.10569296237673148        0.0000000000000000     
   2.5140600454226173E-002  0.11263207462733822        0.0000000000000000     
   2.5831688881727440E-002  0.11970609439949147        0.0000000000000000     
   2.6490431339021098E-002  0.12691502169319127        0.0000000000000000     
   2.7116827826107151E-002  0.13425885650843761        0.0000000000000000     
   1.9526518246560383E-002  0.10549838197928177        0.0000000000000000     
   2.0094112154990462E-002  0.11244737212805617        0.0000000000000000     
   2.0637112589881393E-002  0.11953136154027955        0.0000000000000000     
   2.1155519551233182E-002  0.12675035021595185        0.0000000000000000     
   2.1649333039045829E-002  0.13410433815507314        0.0000000000000000     
   4.4247316862656316E-002  0.13493961624039094        0.0000000000000000     
   4.5193789182583627E-002  0.14236308451919119        0.0000000000000000     
   4.6085573450247365E-002  0.14989831575044402        0.0000000000000000     
   4.6922669665647537E-002  0.15754530993414939        0.0000000000000000     
   4.7705077828784144E-002  0.16530406707030737        0.0000000000000000     
   3.8415819737912402E-002  0.13467649555109648        0.0000000000000000     
   3.9247982464113186E-002  0.14211676896498848        0.0000000000000000     
   4.0031724043735034E-002  0.14966891282289699        0.0000000000000000     
   4.0767044476777932E-002  0.15733292712482214        0.0000000000000000     
   4.1453943763241886E-002  0.16510881187076384        0.0000000000000000     
   3.2705656725729344E-002  0.13444957564044538        0.0000000000000000     
   3.3419832439698587E-002  0.14190450994297765        0.0000000000000000     
   3.4092008212010347E-002  0.14947150195117673        0.0000000000000000     
   3.4722184042664632E-002  0.15715055166504255        0.0000000000000000     
   3.5310359931661428E-002  0.16494165908457517        0.0000000000000000     
   2.7116827826107151E-002  0.13425885650843761        0.0000000000000000     
   2.7709339109339825E-002  0.14172630745315878        0.0000000000000000     
   2.8266425955073313E-002  0.14930608313528312        0.0000000000000000     
   2.8788088363307627E-002  0.15699818355481063        0.0000000000000000     
   2.9274326334042762E-002  0.16480260871174135        0.0000000000000000     
   2.1649333039045829E-002  0.13410433815507314        0.0000000000000000     
   2.2116502473036891E-002  0.14158216149553179        0.0000000000000000     
   2.2554977272923916E-002  0.14917265637521621        0.0000000000000000     
   2.2964757438706920E-002  0.15687582279412643        0.0000000000000000     
   2.3345842970385892E-002  0.16469166075226238        0.0000000000000000     
   4.7705077828784144E-002  0.16530406707030737        0.0000000000000000     
   4.8432651205899402E-002  0.17316285476781035        0.0000000000000000     
   4.9105243063235493E-002  0.18110994063555080        0.0000000000000000     
   4.9722853400792431E-002  0.18914532467352874        0.0000000000000000     
   5.0285482218570224E-002  0.19726900688174415        0.0000000000000000     
   4.1453943763241886E-002  0.16510881187076384        0.0000000000000000     
   4.2091096582044484E-002  0.17298488470760245        0.0000000000000000     
   4.2677177612103281E-002  0.18094946328221834        0.0000000000000000     
   4.3212186853418294E-002  0.18900254759461144        0.0000000000000000     
   4.3696124305989528E-002  0.19714413764478181        0.0000000000000000     
   3.5310359931661428E-002  0.16494165908457517        0.0000000000000000     
   3.5854740944092689E-002  0.17283303550729850        0.0000000000000000     
   3.6353532145050362E-002  0.18081289223073649        0.0000000000000000     
   3.6806733534534446E-002  0.18888122925488904        0.0000000000000000     
   3.7214345112544935E-002  0.19703804657975624        0.0000000000000000     
   2.9274326334042762E-002  0.16480260871174135        0.0000000000000000     
   2.9723584292044029E-002  0.17270730716689850        0.0000000000000000     
   3.0134306662076733E-002  0.18070022748110526        0.0000000000000000     
   3.0506493444140869E-002  0.18878136965436160        0.0000000000000000     
   3.0840144638236453E-002  0.19695073368666760        0.0000000000000000     
   2.3345842970385892E-002  0.16469166075226238        0.0000000000000000     
   2.3697626625898496E-002  0.17260769968640238        0.0000000000000000     
   2.4019501163182397E-002  0.18061146903332459        0.0000000000000000     
   2.4311466582237585E-002  0.18870296879302906        0.0000000000000000     
   2.4573522883064074E-002  0.19688219896551576        0.0000000000000000     
   5.0285482218570224E-002  0.19726900688174415        0.0000000000000000     
   5.0790058764691962E-002  0.20547262421031678        0.0000000000000000     
   5.1233512287280791E-002  0.21374781360936637        0.0000000000000000     
   5.1615842786336699E-002  0.22209457507889294        0.0000000000000000     
   5.1937050261859678E-002  0.23051290861889648        0.0000000000000000     
   4.3696124305989528E-002  0.19714413764478181        0.0000000000000000     
   4.4127889753840410E-002  0.20536398027451194        0.0000000000000000     
   4.4506382980994373E-002  0.21365182232558466        0.0000000000000000     
   4.4831603987451431E-002  0.22200766379799974        0.0000000000000000     
   4.5103552773211576E-002  0.23043150469175736        0.0000000000000000     
   3.7214345112544935E-002  0.19703804657975624        0.0000000000000000     
   3.7576491934105880E-002  0.20527133821471433        0.0000000000000000     
   3.7893299054241311E-002  0.21356909816913930        0.0000000000000000     
   3.8164766472951223E-002  0.22193132644303135        0.0000000000000000     
   3.8390894190235621E-002  0.23035802303639041        0.0000000000000000     
   3.0840144638236453E-002  0.19695073368666760        0.0000000000000000     
   3.1135865305488383E-002  0.20519469803092369        0.0000000000000000     
   3.1394260507021585E-002  0.21349964114003042        0.0000000000000000     
   3.1615330242836061E-002  0.22186556301398772        0.0000000000000000     
   3.1799074512931805E-002  0.23029246365279565        0.0000000000000000     
   2.4573522883064074E-002  0.19688219896551576        0.0000000000000000     
   2.4806009867987925E-002  0.20513405972314022        0.0000000000000000     
   2.5009267339335221E-002  0.21344345123825792        0.0000000000000000     
   2.5183295297105956E-002  0.22181037351086888        0.0000000000000000     
   2.5328093741300135E-002  0.23023482654097305        0.0000000000000000     
   5.1937050261859678E-002  0.23051290861889648        0.0000000000000000     
   5.2205460589272196E-002  0.23899444611353149        0.0000000000000000     
   5.2429399643996656E-002  0.24753081944695243        0.0000000000000000     
   5.2608867426033101E-002  0.25612202861915928        0.0000000000000000     
   5.2743863935381496E-002  0.26476807363015220        0.0000000000000000     
   4.5103552773211576E-002  0.23043150469175736        0.0000000000000000     
   4.5331312914682148E-002  0.23890799560530246        0.0000000000000000     
   4.5523967988270450E-002  0.24742178713708010        0.0000000000000000     
   4.5681517993976531E-002  0.25597287928709034        0.0000000000000000     
   4.5803962931800342E-002  0.26456127205533309        0.0000000000000000     
   3.8390894190235621E-002  0.23035802303639041        0.0000000000000000     
   3.8580682980434045E-002  0.23882830348872414        0.0000000000000000     
   3.8743133617886033E-002  0.24732128333954037        0.0000000000000000     
   3.8878246102591565E-002  0.25583696258883898        0.0000000000000000     
   3.8986020434550669E-002  0.26437534123662004        0.0000000000000000     
   3.1799074512931805E-002  0.23029246365279565        0.0000000000000000     
   3.1953570786527885E-002  0.23875536976379660        0.0000000000000000     
   3.2086896532843349E-002  0.24722930805433313        0.0000000000000000     
   3.2199051751878226E-002  0.25571427852440520        0.0000000000000000     
   3.2290036443632493E-002  0.26421028117401285        0.0000000000000000     
   2.5328093741300135E-002  0.23023482654097305        0.0000000000000000     
   2.5449976332963663E-002  0.23868919443051981        0.0000000000000000     
   2.5555256733142448E-002  0.24714586128145849        0.0000000000000000     
   2.5643934941836494E-002  0.25560482709378912        0.0000000000000000     
   2.5716010959045806E-002  0.26406609186751162        0.0000000000000000     
   5.2743863935381496E-002  0.26476807363015220        0.0000000000000000     
   5.2865226836419497E-002  0.27341979210333345        0.0000000000000000     
   5.3003793793524739E-002  0.28202802166210539        0.0000000000000000     
   5.3159564806697195E-002  0.29059276230646802        0.0000000000000000     
   5.3332539875936898E-002  0.29911401403642146        0.0000000000000000     
   4.5803962931800342E-002  0.26456127205533309        0.0000000000000000     
   4.5915453158642691E-002  0.27313709522840890        0.0000000000000000     
   4.6040139031404373E-002  0.28165047859291814        0.0000000000000000     
   4.6178020550085373E-002  0.29010142214886075        0.0000000000000000     
   4.6329097714685699E-002  0.29848992589623680        0.0000000000000000     
   3.8986020434550669E-002  0.26437534123662004        0.0000000000000000     
   3.9085270281586398E-002  0.27288532603929339        0.0000000000000000     
   3.9194809311521799E-002  0.28131582375326902        0.0000000000000000     
   3.9314637524356891E-002  0.28966683437854690        0.0000000000000000     
   3.9444754920091654E-002  0.29793835791512707        0.0000000000000000     
   3.2290036443632493E-002  0.26421028117401285        0.0000000000000000     
   3.2374678205250605E-002  0.27266448453598680        0.0000000000000000     
   3.2467804633877023E-002  0.28102405714315798        0.0000000000000000     
   3.2569415729511733E-002  0.28928899899552651        0.0000000000000000     
   3.2679511492154756E-002  0.29745931009309223        0.0000000000000000     
   2.5716010959045806E-002  0.26406609186751162        0.0000000000000000     
   2.5783676929635332E-002  0.27247457071848930        0.0000000000000000     
   2.5859124998470043E-002  0.28077517876258523        0.0000000000000000     
   2.5942355165549942E-002  0.28896791599979960        0.0000000000000000     
   2.6033367430875014E-002  0.29705278243013222        0.0000000000000000     
   1.4078828900549841E-002   5.5771856983865026E-002   0.0000000000000000     
   1.4833018387755519E-002   6.1368221909491441E-002   0.0000000000000000     
   1.5568959500528671E-002   6.7148075635699286E-002   0.0000000000000000     
   1.6286652238869301E-002   7.3111418162488534E-002   0.0000000000000000     
   1.6986096602777404E-002   7.9258249489859184E-002   0.0000000000000000     
   1.1296472713757374E-002   5.5569786898989670E-002   0.0000000000000000     
   1.1654804876397950E-002   6.1172017060585331E-002   0.0000000000000000     
   1.2044347923053485E-002   6.6957770229757907E-002   0.0000000000000000     
   1.2465101853723978E-002   7.2927046406507406E-002   0.0000000000000000     
   1.2917066668409430E-002   7.9079845590833808E-002   0.0000000000000000     
   8.0225491681428732E-003   5.5425451118752238E-002   0.0000000000000000     
   8.1232306413977790E-003   6.1031870737001372E-002   0.0000000000000000     
   8.2746508138868587E-003   6.6821837795688094E-002   0.0000000000000000     
   8.4768096856101174E-003   7.2795352294812404E-002   0.0000000000000000     
   8.7297072565675517E-003   7.8952414234374296E-002   0.0000000000000000     
   4.2570582637063434E-003   5.5338849643152721E-002   0.0000000000000000     
   4.2382956827550049E-003   6.0947782938739571E-002   0.0000000000000000     
   4.2598681730287979E-003   6.6740278333489833E-002   0.0000000000000000     
   4.3217757345277216E-003   7.2716335827403542E-002   0.0000000000000000     
   4.4240183672517750E-003   7.8875955420480676E-002   0.0000000000000000     
   4.4778156876867925E-013   5.5309982472191113E-002   0.0000000000000000     
   4.6962997726773814E-013   6.0919753665799922E-002   0.0000000000000000     
   4.7929824172066038E-013   6.6713091843163166E-002   0.0000000000000000     
   4.7678760895994432E-013   7.2689997004280846E-002   0.0000000000000000     
   4.6209650689243986E-013   7.8850469149152932E-002   0.0000000000000000     
   1.6986096602777404E-002   7.9258249489859184E-002   0.0000000000000000     
   1.7662613088032724E-002   8.5577189566194131E-002   0.0000000000000000     
   1.8311522190414993E-002   9.2056858339876216E-002   0.0000000000000000     
   1.8932823909924214E-002   9.8697255810905424E-002   0.0000000000000000     
   1.9526518246560383E-002  0.10549838197928177        0.0000000000000000     
   1.2917066668409430E-002   7.9079845590833808E-002   0.0000000000000000     
   1.3378751702036878E-002   8.5404995355494978E-002   0.0000000000000000     
   1.3828666289533364E-002   9.1891323273248768E-002   0.0000000000000000     
   1.4266810430898884E-002   9.8538829344095177E-002   0.0000000000000000     
   1.4693184126133442E-002  0.10534751356803419        0.0000000000000000     
   8.7297072565675517E-003   7.8952414234374296E-002   0.0000000000000000     
   9.0070290587842879E-003   8.5281999490630520E-002   0.0000000000000000     
   9.2824606242854473E-003   9.1773083939837838E-002   0.0000000000000000     
   9.5560019530710315E-003   9.8425667581996251E-002   0.0000000000000000     
   9.8276530451410406E-003  0.10523975041710573        0.0000000000000000     
   4.4240183672517750E-003   7.8875955420480676E-002   0.0000000000000000     
   4.5474451582749520E-003   8.5208201971600769E-002   0.0000000000000000     
   4.6729051946712450E-003   9.1702140339643440E-002   0.0000000000000000     
   4.8003984764406534E-003   9.8357770524608631E-002   0.0000000000000000     
   4.9299250035831762E-003  0.10517509252649637        0.0000000000000000     
   4.6209650689243986E-013   7.8850469149152932E-002   0.0000000000000000     
   5.0887159069867849E-013   8.5183602798405755E-002   0.0000000000000000     
   6.9075561243137074E-013   9.1678492472665546E-002   0.0000000000000000     
   1.0077494394522546E-012   9.8335138171932318E-002   0.0000000000000000     
   1.4598522043995921E-012  0.10515353989620611        0.0000000000000000     
   1.9526518246560383E-002  0.10549838197928177        0.0000000000000000     
   2.0094112154990462E-002  0.11244737212805617        0.0000000000000000     
   2.0637112589881393E-002  0.11953136154027955        0.0000000000000000     
   2.1155519551233182E-002  0.12675035021595185        0.0000000000000000     
   2.1649333039045829E-002  0.13410433815507314        0.0000000000000000     
   1.4693184126133442E-002  0.10534751356803419        0.0000000000000000     
   1.5105297030254424E-002  0.11230430972268980        0.0000000000000000     
   1.5500658798279211E-002  0.11939615158568603        0.0000000000000000     
   1.5879269430207798E-002  0.12662303915702286        0.0000000000000000     
   1.6241128926040196E-002  0.13398497243670027        0.0000000000000000     
   9.8276530451410406E-003  0.10523975041710573        0.0000000000000000     
   1.0093339963140460E-002  0.11220212229032958        0.0000000000000000     
   1.0348988769714270E-002  0.11929957304683110        0.0000000000000000     
   1.0594599464862478E-002  0.12653210268661030        0.0000000000000000     
   1.0830172048585078E-002  0.13389971120966720        0.0000000000000000     
   4.9299250035831762E-003  0.10517509252649637        0.0000000000000000     
   5.0582409536485693E-003  0.11214080983097546        0.0000000000000000     
   5.1821025041865814E-003  0.11924162592371476        0.0000000000000000     
   5.3015096551972153E-003  0.12647754080471424        0.0000000000000000     
   5.4164624066804692E-003  0.13384855447397387        0.0000000000000000     
   1.4598522043995921E-012  0.10515353989620611        0.0000000000000000     
   1.7787537935631814E-012  0.11212037234462748        0.0000000000000000     
   1.6961423585093449E-012  0.11922231021633699        0.0000000000000000     
   1.2120154055730858E-012  0.12645935351133461        0.0000000000000000     
   3.2637564525983542E-013  0.13383150222962042        0.0000000000000000     
   2.1649333039045829E-002  0.13410433815507314        0.0000000000000000     
   2.2116502473036891E-002  0.14158216149553179        0.0000000000000000     
   2.2554977272923916E-002  0.14917265637521621        0.0000000000000000     
   2.2964757438706920E-002  0.15687582279412643        0.0000000000000000     
   2.3345842970385892E-002  0.16469166075226238        0.0000000000000000     
   1.6241128926040196E-002  0.13398497243670027        0.0000000000000000     
   1.6583714851474751E-002  0.14147093351564749        0.0000000000000000     
   1.6904504772209811E-002  0.14906990448479374        0.0000000000000000     
   1.7203498688245372E-002  0.15678188534413898        0.0000000000000000     
   1.7480696599581437E-002  0.16460687609368324        0.0000000000000000     
   1.0830172048585078E-002  0.13389971120966720        0.0000000000000000     
   1.1053368565338360E-002  0.14139148495905660        0.0000000000000000     
   1.1261851059578609E-002  0.14899651027783334        0.0000000000000000     
   1.1455619531305828E-002  0.15671478716599749        0.0000000000000000     
   1.1634673980520016E-002  0.16454631562354899        0.0000000000000000     
   5.4164624066804692E-003  0.13384855447397387        0.0000000000000000     
   5.5254636146277163E-003  0.14134381582575908        0.0000000000000000     
   5.6270161350303240E-003  0.14895247375433507        0.0000000000000000     
   5.7211199678882949E-003  0.15667452825970188        0.0000000000000000     
   5.8077751132016263E-003  0.16450997934185951        0.0000000000000000     
   3.2637564525983542E-013  0.13383150222962042        0.0000000000000000     
  -6.5717765430906017E-013  0.14132792611575495        0.0000000000000000     
  -1.4350467428952962E-012  0.14893779491429893        0.0000000000000000     
  -2.0072310241876778E-012  0.15666110862525226        0.0000000000000000     
  -2.3737301187154447E-012  0.16449786724861498        0.0000000000000000     
   2.3345842970385892E-002  0.16469166075226238        0.0000000000000000     
   2.3697626625898496E-002  0.17260769968640238        0.0000000000000000     
   2.4019501163182397E-002  0.18061146903332459        0.0000000000000000     
   2.4311466582237585E-002  0.18870296879302906        0.0000000000000000     
   2.4573522883064074E-002  0.19688219896551576        0.0000000000000000     
   1.7480696599581437E-002  0.16460687609368324        0.0000000000000000     
   1.7736506331722968E-002  0.17253197101723050        0.0000000000000000     
   1.7971335710174924E-002  0.18054426439858470        0.0000000000000000     
   1.8185184734937299E-002  0.18864375623774587        0.0000000000000000     
   1.8378053406010102E-002  0.19683044653471393        0.0000000000000000     
   1.1634673980520016E-002  0.16454631562354899        0.0000000000000000     
   1.1799861795584319E-002  0.17247787911080326        0.0000000000000000     
   1.1952030364861897E-002  0.18049626108807570        0.0000000000000000     
   1.2091179688352736E-002  0.18860146155536633        0.0000000000000000     
   1.2217309766056844E-002  0.19679348051267520        0.0000000000000000     
   5.8077751132016263E-003  0.16450997934185951        0.0000000000000000     
   5.8876930174825539E-003  0.17244542396712059        0.0000000000000000     
   5.9615851272433081E-003  0.18046745910179759        0.0000000000000000     
   6.0294514424838897E-003  0.18857608474589058        0.0000000000000000     
   6.0912919632042997E-003  0.19677130089939954        0.0000000000000000     
  -2.3737301187154447E-012  0.16449786724861498        0.0000000000000000     
  -2.5823360377125182E-012  0.17243460558618254        0.0000000000000000     
  -2.6808367808647815E-012  0.18045785843975040        0.0000000000000000     
  -2.6692364410354358E-012  0.18856762580931855        0.0000000000000000     
  -2.5475311964118230E-012  0.19676390769488700        0.0000000000000000     
   2.4573522883064074E-002  0.19688219896551576        0.0000000000000000     
   2.4806009867987925E-002  0.20513405972314022        0.0000000000000000     
   2.5009267339335221E-002  0.21344345123825792        0.0000000000000000     
   2.5183295297105956E-002  0.22181037351086888        0.0000000000000000     
   2.5328093741300135E-002  0.23023482654097305        0.0000000000000000     
   1.8378053406010102E-002  0.19683044653471393        0.0000000000000000     
   1.8549781869632249E-002  0.20508800202457500        0.0000000000000000     
   1.8700210272042654E-002  0.21340008944241529        0.0000000000000000     
   1.8829338613241334E-002  0.22176670878823462        0.0000000000000000     
   1.8937166893228274E-002  0.23018786006203318        0.0000000000000000     
   1.2217309766056844E-002  0.19679348051267520        0.0000000000000000     
   1.2330037558449091E-002  0.20505510366843929        0.0000000000000000     
   1.2428980026004347E-002  0.21336911673109590        0.0000000000000000     
   1.2514137168722612E-002  0.22173551970064498        0.0000000000000000     
   1.2585508986603886E-002  0.23015431257708646        0.0000000000000000     
   6.0912919632042997E-003  0.19677130089939954        0.0000000000000000     
   6.1467769344384594E-003  0.20503536465473307        0.0000000000000000     
   6.1955766012202909E-003  0.21335053310429983        0.0000000000000000     
   6.2376909635497978E-003  0.22171680624809978        0.0000000000000000     
   6.2731200214269766E-003  0.23013418408613295        0.0000000000000000     
  -2.5475311964118230E-012  0.19676390769488700        0.0000000000000000     
  -2.3996466706061037E-012  0.20502878498345628        0.0000000000000000     
  -2.3095050177834864E-012  0.21334433856202700        0.0000000000000000     
  -2.2771092737100540E-012  0.22171056843059914        0.0000000000000000     
  -2.3024572699814616E-012  0.23012747458917268        0.0000000000000000     
   2.5328093741300135E-002  0.23023482654097305        0.0000000000000000     
   2.5449976332963663E-002  0.23868919443051981        0.0000000000000000     
   2.5555256733142448E-002  0.24714586128145849        0.0000000000000000     
   2.5643934941836494E-002  0.25560482709378912        0.0000000000000000     
   2.5716010959045806E-002  0.26406609186751162        0.0000000000000000     
   1.8937166893228274E-002  0.23018786006203318        0.0000000000000000     
   1.9027976124461554E-002  0.23863424781025508        0.0000000000000000     
   1.9106047319399258E-002  0.24707657657934473        0.0000000000000000     
   1.9171380478041379E-002  0.25551484636930205        0.0000000000000000     
   1.9223975600387917E-002  0.26394905718012712        0.0000000000000000     
   1.2585508986603886E-002  0.23015431257708646        0.0000000000000000     
   1.2645646665741738E-002  0.23859500022436375        0.0000000000000000     
   1.2697101392229732E-002  0.24702708750642008        0.0000000000000000     
   1.2739873166067872E-002  0.25545057442325553        0.0000000000000000     
   1.2773961987256152E-002  0.26386546097487007        0.0000000000000000     
   6.2731200214269766E-003  0.23013418408613295        0.0000000000000000     
   6.3029879568042074E-003  0.23857145167284580        0.0000000000000000     
   6.3284189516338738E-003  0.24699739406268462        0.0000000000000000     
   6.3494130059159742E-003  0.25541201125564944        0.0000000000000000     
   6.3659701196505060E-003  0.26381530325174035        0.0000000000000000     
  -2.3024572699814616E-012  0.23012747458917268        0.0000000000000000     
  -2.3510323462344607E-012  0.23856360215570119        0.0000000000000000     
  -2.3883177336855854E-012  0.24698749624813829        0.0000000000000000     
  -2.4143143810117368E-012  0.25539915686648396        0.0000000000000000     
  -2.4290209600652535E-012  0.26379858401073819        0.0000000000000000     
   2.5716010959045806E-002  0.26406609186751162        0.0000000000000000     
   2.5783676929635332E-002  0.27247457071848930        0.0000000000000000     
   2.5859124998470043E-002  0.28077517876258523        0.0000000000000000     
   2.5942355165549942E-002  0.28896791599979960        0.0000000000000000     
   2.6033367430875014E-002  0.29705278243013222        0.0000000000000000     
   1.9223975600387917E-002  0.26394905718012712        0.0000000000000000     
   1.9273792714939258E-002  0.27232192699072905        0.0000000000000000     
   1.9330791850195775E-002  0.28057617378001709        0.0000000000000000     
   1.9394973006157470E-002  0.28871179754799126        0.0000000000000000     
   1.9466336182824347E-002  0.29672879829465137        0.0000000000000000     
   1.2773961987256152E-002  0.26386546097487007        0.0000000000000000     
   1.2806551821361077E-002  0.27221289575663454        0.0000000000000000     
   1.2844826633949138E-002  0.28043402736392004        0.0000000000000000     
   1.2888786425020334E-002  0.28852885579672655        0.0000000000000000     
   1.2938431194574667E-002  0.29649738105505397        0.0000000000000000     
   6.3659701196505060E-003  0.26381530325174035        0.0000000000000000     
   6.3819542489007867E-003  0.27214747701620584        0.0000000000000000     
   6.4012293497301264E-003  0.28034873951429418        0.0000000000000000     
   6.4237954221385250E-003  0.28841909074600564        0.0000000000000000     
   6.4496524661259826E-003  0.29635853071134000        0.0000000000000000     
  -2.4290209600652535E-012  0.26379858401073819        0.0000000000000000     
  -2.4416111493730241E-012  0.27212567076944272        0.0000000000000000     
  -2.4612555916958545E-012  0.28032031023113951        0.0000000000000000     
  -2.4879543954539618E-012  0.28838250239582847        0.0000000000000000     
  -2.5217076690675633E-012  0.29631224726350952        0.0000000000000000     
   4.4778156876867925E-013   5.5309982472191113E-002   0.0000000000000000     
   4.6962997726773814E-013   6.0919753665799922E-002   0.0000000000000000     
   4.7929824172066038E-013   6.6713091843163166E-002   0.0000000000000000     
   4.7678760895994432E-013   7.2689997004280846E-002   0.0000000000000000     
   4.6209650689243986E-013   7.8850469149152932E-002   0.0000000000000000     
  -4.2570582643066419E-003   5.5338849611586388E-002   0.0000000000000000     
  -4.2382956831734410E-003   6.0947782921459026E-002   0.0000000000000000     
  -4.2598681732558446E-003   6.6740278326244143E-002   0.0000000000000000     
  -4.3217757345538526E-003   7.2716335825941739E-002   0.0000000000000000     
  -4.4240183670674641E-003   7.8875955420551841E-002   0.0000000000000000     
  -8.0225491732307582E-003   5.5425451067057513E-002   0.0000000000000000     
  -8.1232306458892973E-003   6.1031870708993449E-002   0.0000000000000000     
  -8.2746508176708353E-003   6.6821837784268839E-002   0.0000000000000000     
  -8.4768096885753669E-003   7.2795352292883725E-002   0.0000000000000000     
  -8.7297072586028941E-003   7.8952414234838106E-002   0.0000000000000000     
  -1.1296472726324567E-002   5.5569786838604494E-002   0.0000000000000000     
  -1.1654804887677945E-002   6.1172017028403199E-002   0.0000000000000000     
  -1.2044347932765676E-002   6.6957770217237297E-002   0.0000000000000000     
  -1.2465101861587757E-002   7.2927046405106818E-002   0.0000000000000000     
  -1.2917066674144190E-002   7.9079845592011727E-002   0.0000000000000000     
  -1.4078828923588067E-002   5.5771856926227326E-002   0.0000000000000000     
  -1.4833018408539383E-002   6.1368221879688267E-002   0.0000000000000000     
  -1.5568959518540364E-002   6.7148075625149489E-002   0.0000000000000000     
  -1.6286652253591022E-002   7.3111418162610978E-002   0.0000000000000000     
  -1.6986096613691347E-002   7.9258249492072747E-002   0.0000000000000000     
   4.6209650689243986E-013   7.8850469149152932E-002   0.0000000000000000     
   5.0887159069867849E-013   8.5183602798405755E-002   0.0000000000000000     
   6.9075561243137074E-013   9.1678492472665546E-002   0.0000000000000000     
   1.0077494394522546E-012   9.8335138171932318E-002   0.0000000000000000     
   1.4598522043995921E-012  0.10515353989620611        0.0000000000000000     
  -4.4240183670674641E-003   7.8875955420551841E-002   0.0000000000000000     
  -4.5474451577802045E-003   8.5208201971203032E-002   0.0000000000000000     
  -4.6729051936755927E-003   9.1702140339024005E-002   0.0000000000000000     
  -4.8003984747536288E-003   9.8357770524014704E-002   0.0000000000000000     
  -4.9299250010143170E-003  0.10517509252617516        0.0000000000000000     
  -8.7297072586028941E-003   7.8952414234838106E-002   0.0000000000000000     
  -9.0070290598585241E-003   8.5281999490150265E-002   0.0000000000000000     
  -9.2824606244473716E-003   9.1773083938838568E-002   0.0000000000000000     
  -9.5560019523694348E-003   9.8425667580903015E-002   0.0000000000000000     
  -9.8276530436247154E-003  0.10523975041634358        0.0000000000000000     
  -1.2917066674144190E-002   7.9079845592011727E-002   0.0000000000000000     
  -1.3378751705726085E-002   8.5404995355247440E-002   0.0000000000000000     
  -1.3828666291624582E-002   9.1891323272109263E-002   0.0000000000000000     
  -1.4266810431839664E-002   9.8538829342597292E-002   0.0000000000000000     
  -1.4693184126371344E-002  0.10534751356671143        0.0000000000000000     
  -1.6986096613691347E-002   7.9258249492072747E-002   0.0000000000000000     
  -1.7662613095382897E-002   8.5577189566494544E-002   0.0000000000000000     
  -1.8311522195207219E-002   9.2056858338836131E-002   0.0000000000000000     
  -1.8932823913164323E-002   9.8697255809097509E-002   0.0000000000000000     
  -1.9526518249254197E-002  0.10549838197727868        0.0000000000000000     
   1.4598522043995921E-012  0.10515353989620611        0.0000000000000000     
   1.7787537935631814E-012  0.11212037234462748        0.0000000000000000     
   1.6961423585093449E-012  0.11922231021633699        0.0000000000000000     
   1.2120154055730858E-012  0.12645935351133461        0.0000000000000000     
   3.2637564525983542E-013  0.13383150222962042        0.0000000000000000     
  -4.9299250010143170E-003  0.10517509252617516        0.0000000000000000     
  -5.0582409504847554E-003  0.11214080983110020        0.0000000000000000     
  -5.1821025011920515E-003  0.11924162592438464        0.0000000000000000     
  -5.3015096531362016E-003  0.12647754080602855        0.0000000000000000     
  -5.4164624063172120E-003  0.13384855447603192        0.0000000000000000     
  -9.8276530436247154E-003  0.10523975041634358        0.0000000000000000     
  -1.0093339961157731E-002  0.11220212229020818        0.0000000000000000     
  -1.0348988767912999E-002  0.11929957304754474        0.0000000000000000     
  -1.0594599463890521E-002  0.12653210268835322        0.0000000000000000     
  -1.0830172049090304E-002  0.13389971121263364        0.0000000000000000     
  -1.4693184126371344E-002  0.10534751356671143        0.0000000000000000     
  -1.5105297030240168E-002  0.11230430972195149        0.0000000000000000     
  -1.5500658798466701E-002  0.11939615158581715        0.0000000000000000     
  -1.5879269431050946E-002  0.12662303915830853        0.0000000000000000     
  -1.6241128927992898E-002  0.13398497243942556        0.0000000000000000     
  -1.9526518249254197E-002  0.10549838197727868        0.0000000000000000     
  -2.0094112157732068E-002  0.11244737212633002        0.0000000000000000     
  -2.0637112592853158E-002  0.11953136153920199        0.0000000000000000     
  -2.1155519554617468E-002  0.12675035021589451        0.0000000000000000     
  -2.1649333043024993E-002  0.13410433815640765        0.0000000000000000     
   3.2637564525983542E-013  0.13383150222962042        0.0000000000000000     
  -6.5717765430906017E-013  0.14132792611575495        0.0000000000000000     
  -1.4350467428952962E-012  0.14893779491429893        0.0000000000000000     
  -2.0072310241876778E-012  0.15666110862525226        0.0000000000000000     
  -2.3737301187154447E-012  0.16449786724861498        0.0000000000000000     
  -5.4164624063172120E-003  0.13384855447603192        0.0000000000000000     
  -5.5254636161430701E-003  0.14134381582838196        0.0000000000000000     
  -5.6270161380217714E-003  0.14895247375706591        0.0000000000000000     
  -5.7211199719533080E-003  0.15667452826208378        0.0000000000000000     
  -5.8077751179376877E-003  0.16450997934343561        0.0000000000000000     
  -1.0830172049090304E-002  0.13389971121263364        0.0000000000000000     
  -1.1053368567456708E-002  0.14139148496297768        0.0000000000000000     
  -1.1261851062934106E-002  0.14899651028197708        0.0000000000000000     
  -1.1455619535522498E-002  0.15671478716963178        0.0000000000000000     
  -1.1634673985221881E-002  0.16454631562594180        0.0000000000000000     
  -1.6241128927992898E-002  0.13398497243942556        0.0000000000000000     
  -1.6583714854598090E-002  0.14147093351954218        0.0000000000000000     
  -1.6904504776172051E-002  0.14906990448903237        0.0000000000000000     
  -1.7203498692714796E-002  0.15678188534789619        0.0000000000000000     
  -1.7480696604226308E-002  0.16460687609613359        0.0000000000000000     
  -2.1649333043024993E-002  0.13410433815640765        0.0000000000000000     
  -2.2116502477567218E-002  0.14158216149807545        0.0000000000000000     
  -2.2554977277735623E-002  0.14917265637823193        0.0000000000000000     
  -2.2964757443530208E-002  0.15687582279687706        0.0000000000000000     
  -2.3345842974950969E-002  0.16469166075401093        0.0000000000000000     
  -2.3737301187154447E-012  0.16449786724861498        0.0000000000000000     
  -2.5823360377125182E-012  0.17243460558618254        0.0000000000000000     
  -2.6808367808647815E-012  0.18045785843975040        0.0000000000000000     
  -2.6692364410354358E-012  0.18856762580931855        0.0000000000000000     
  -2.5475311964118230E-012  0.19676390769488700        0.0000000000000000     
  -5.8077751179376877E-003  0.16450997934343561        0.0000000000000000     
  -5.8876930225899779E-003  0.17244542396780876        0.0000000000000000     
  -5.9615851325252427E-003  0.18046745910189069        0.0000000000000000     
  -6.0294514477434828E-003  0.18857608474568133        0.0000000000000000     
  -6.0912919682446984E-003  0.19677130089918071        0.0000000000000000     
  -1.1634673985221881E-002  0.16454631562594180        0.0000000000000000     
  -1.1799861800520006E-002  0.17247787911181897        0.0000000000000000     
  -1.1952030369904606E-002  0.18049626108817504        0.0000000000000000     
  -1.2091179693375691E-002  0.18860146155501004        0.0000000000000000     
  -1.2217309770933254E-002  0.19679348051232387        0.0000000000000000     
  -1.7480696604226308E-002  0.16460687609613359        0.0000000000000000     
  -1.7736506336372415E-002  0.17253197101821316        0.0000000000000000     
  -1.7971335714818935E-002  0.18054426439860352        0.0000000000000000     
  -1.8185184739565860E-002  0.18864375623730453        0.0000000000000000     
  -1.8378053410613198E-002  0.19683044653431644        0.0000000000000000     
  -2.3345842974950969E-002  0.16469166075401093        0.0000000000000000     
  -2.3697626630147212E-002  0.17260769968699130        0.0000000000000000     
  -2.4019501167268219E-002  0.18061146903317604        0.0000000000000000     
  -2.4311466586313991E-002  0.18870296879256510        0.0000000000000000     
  -2.4573522887284528E-002  0.19688219896515846        0.0000000000000000     
  -2.5475311964118230E-012  0.19676390769488700        0.0000000000000000     
  -2.3996466706061037E-012  0.20502878498345628        0.0000000000000000     
  -2.3095050177834864E-012  0.21334433856202700        0.0000000000000000     
  -2.2771092737100540E-012  0.22171056843059914        0.0000000000000000     
  -2.3024572699814616E-012  0.23012747458917268        0.0000000000000000     
  -6.0912919682446984E-003  0.19677130089918071        0.0000000000000000     
  -6.1467769392141106E-003  0.20503536465463532        0.0000000000000000     
  -6.1955766058369322E-003  0.21335053310429158        0.0000000000000000     
  -6.2376909681131692E-003  0.22171680624814952        0.0000000000000000     
  -6.2731200260428173E-003  0.23013418408620909        0.0000000000000000     
  -1.2217309770933254E-002  0.19679348051232387        0.0000000000000000     
  -1.2330037563153812E-002  0.20505510366829649        0.0000000000000000     
  -1.2428980030613877E-002  0.21336911673110764        0.0000000000000000     
  -1.2514137173313440E-002  0.22173551970075739        0.0000000000000000     
  -1.2585508991252509E-002  0.23015431257724567        0.0000000000000000     
  -1.8378053410613198E-002  0.19683044653431644        0.0000000000000000     
  -1.8549781874218754E-002  0.20508800202443980        0.0000000000000000     
  -1.8700210276640324E-002  0.21340008944247527        0.0000000000000000     
  -1.8829338617877920E-002  0.22176670878842283        0.0000000000000000     
  -1.8937166897931530E-002  0.23018786006228253        0.0000000000000000     
  -2.4573522887284528E-002  0.19688219896515846        0.0000000000000000     
  -2.4806009872408934E-002  0.20513405972306525        0.0000000000000000     
  -2.5009267343916296E-002  0.21344345123839428        0.0000000000000000     
  -2.5183295301806609E-002  0.22181037351114577        0.0000000000000000     
  -2.5328093746079888E-002  0.23023482654131958        0.0000000000000000     
  -2.3024572699814616E-012  0.23012747458917268        0.0000000000000000     
  -2.3510323462344607E-012  0.23856360215570119        0.0000000000000000     
  -2.3883177336855854E-012  0.24698749624813829        0.0000000000000000     
  -2.4143143810117368E-012  0.25539915686648396        0.0000000000000000     
  -2.4290209600652535E-012  0.26379858401073819        0.0000000000000000     
  -6.2731200260428173E-003  0.23013418408620909        0.0000000000000000     
  -6.3029879615148637E-003  0.23857145167293289        0.0000000000000000     
  -6.3284189564182941E-003  0.24699739406278348        0.0000000000000000     
  -6.3494130107531093E-003  0.25541201125576096        0.0000000000000000     
  -6.3659701245193084E-003  0.26381530325186520        0.0000000000000000     
  -1.2585508991252509E-002  0.23015431257724567        0.0000000000000000     
  -1.2645646670478175E-002  0.23859500022454372        0.0000000000000000     
  -1.2697101397037513E-002  0.24702708750662267        0.0000000000000000     
  -1.2739873170930532E-002  0.25545057442348251        0.0000000000000000     
  -1.2773961992157232E-002  0.26386546097512326        0.0000000000000000     
  -1.8937166897931530E-002  0.23018786006228253        0.0000000000000000     
  -1.9027976129240957E-002  0.23863424781053375        0.0000000000000000     
  -1.9106047324245971E-002  0.24707657657965576        0.0000000000000000     
  -1.9171380482946587E-002  0.25551484636964866        0.0000000000000000     
  -1.9223975605342794E-002  0.26394905718051237        0.0000000000000000     
  -2.5328093746079888E-002  0.23023482654131958        0.0000000000000000     
  -2.5449976337803212E-002  0.23868919443090289        0.0000000000000000     
  -2.5555256738043673E-002  0.24714586128188282        0.0000000000000000     
  -2.5643934946801266E-002  0.25560482709425936        0.0000000000000000     
  -2.5716010964075994E-002  0.26406609186803254        0.0000000000000000     
  -2.4290209600652535E-012  0.26379858401073819        0.0000000000000000     
  -2.4416111493730241E-012  0.27212567076944272        0.0000000000000000     
  -2.4612555916958545E-012  0.28032031023113951        0.0000000000000000     
  -2.4879543954539618E-012  0.28838250239582847        0.0000000000000000     
  -2.5217076690675633E-012  0.29631224726350952        0.0000000000000000     
  -6.3659701245193084E-003  0.26381530325186520        0.0000000000000000     
  -6.3819542537972241E-003  0.27214747701634689        0.0000000000000000     
  -6.4012293546671910E-003  0.28034873951445660        0.0000000000000000     
  -6.4237954271292134E-003  0.28841909074619443        0.0000000000000000     
  -6.4496524711832801E-003  0.29635853071156026        0.0000000000000000     
  -1.2773961992157232E-002  0.26386546097512326        0.0000000000000000     
  -1.2806551826297162E-002  0.27221289575691954        0.0000000000000000     
  -1.2844826638929868E-002  0.28043402736424611        0.0000000000000000     
  -1.2888786430055347E-002  0.28852885579710297        0.0000000000000000     
  -1.2938431199673608E-002  0.29649738105548995        0.0000000000000000     
  -1.9223975605342794E-002  0.26394905718051237        0.0000000000000000     
  -1.9273792719941417E-002  0.27232192699116087        0.0000000000000000     
  -1.9330791855249281E-002  0.28057617378050809        0.0000000000000000     
  -1.9394973011266366E-002  0.28871179754855392        0.0000000000000000     
  -1.9466336187992692E-002  0.29672879829529863        0.0000000000000000     
  -2.5716010964075994E-002  0.26406609186803254        0.0000000000000000     
  -2.5783676934730000E-002  0.27247457071907072        0.0000000000000000     
  -2.5859125003625430E-002  0.28077517876324248        0.0000000000000000     
  -2.5942355170762276E-002  0.28896791600054761        0.0000000000000000     
  -2.6033367436140535E-002  0.29705278243098621        0.0000000000000000     
  -1.4078828923588067E-002   5.5771856926227326E-002   0.0000000000000000     
  -1.4833018408539383E-002   6.1368221879688267E-002   0.0000000000000000     
  -1.5568959518540364E-002   6.7148075625149489E-002   0.0000000000000000     
  -1.6286652253591022E-002   7.3111418162610978E-002   0.0000000000000000     
  -1.6986096613691347E-002   7.9258249492072747E-002   0.0000000000000000     
  -1.6915512520045757E-002   5.6032240083126059E-002   0.0000000000000000     
  -1.8065991018068436E-002   6.1621011611710491E-002   0.0000000000000000     
  -1.9148743961184992E-002   6.7393227458796945E-002   0.0000000000000000     
  -2.0163771349395433E-002   7.3348887624385475E-002   0.0000000000000000     
  -2.1111073182699756E-002   7.9487992108476027E-002   0.0000000000000000     
  -2.0352418270722129E-002   5.6351515062500752E-002   0.0000000000000000     
  -2.1761842525859929E-002   6.1930912573331685E-002   0.0000000000000000     
  -2.3083959646889644E-002   6.7693699168971264E-002   0.0000000000000000     
  -2.4318769633811268E-002   7.3639874849419543E-002   0.0000000000000000     
  -2.5466272486624808E-002   7.9769439614676460E-002   0.0000000000000000     
  -2.4389546175617189E-002   5.6729681864351400E-002   0.0000000000000000     
  -2.5920572931913868E-002   6.2297924764551836E-002   0.0000000000000000     
  -2.7374606575654312E-002   6.8049490755672432E-002   0.0000000000000000     
  -2.8751647106838526E-002   7.3984379837713166E-002   0.0000000000000000     
  -3.0051694525466500E-002   8.0102592010674059E-002   0.0000000000000000     
  -2.9026896234730929E-002   5.7166740488678015E-002   0.0000000000000000     
  -3.0542182236230252E-002   6.2722048185370957E-002   0.0000000000000000     
  -3.2020684747479010E-002   6.8460602218900407E-002   0.0000000000000000     
  -3.3462403768477200E-002   7.4382402589266372E-002   0.0000000000000000     
  -3.4867339299224823E-002   8.0487449296468838E-002   0.0000000000000000     
  -1.6986096613691347E-002   7.9258249492072747E-002   0.0000000000000000     
  -1.7662613095382897E-002   8.5577189566494544E-002   0.0000000000000000     
  -1.8311522195207219E-002   9.2056858338836131E-002   0.0000000000000000     
  -1.8932823913164323E-002   9.8697255809097509E-002   0.0000000000000000     
  -1.9526518249254197E-002  0.10549838197727868        0.0000000000000000     
  -2.1111073182699756E-002   7.9487992108476027E-002   0.0000000000000000     
  -2.2002783279474237E-002   8.5798922732585770E-002   0.0000000000000000     
  -2.2851035458095127E-002   9.2270061318231872E-002   0.0000000000000000     
  -2.3655829718562442E-002   9.8901407865414334E-002   0.0000000000000000     
  -2.4417166060876166E-002  0.10569296237413317        0.0000000000000000     
  -2.5466272486624808E-002   7.9769439614676460E-002   0.0000000000000000     
  -2.6543432308645400E-002   8.6070535462215311E-002   0.0000000000000000     
  -2.7567213203188147E-002   9.2531304389509295E-002   0.0000000000000000     
  -2.8537615170253054E-002   9.9151746396558410E-002   0.0000000000000000     
  -2.9454638209840133E-002  0.10593186148336271        0.0000000000000000     
  -3.0051694525466500E-002   8.0102592010674059E-002   0.0000000000000000     
  -3.1284560182896368E-002   8.6392027755383127E-002   0.0000000000000000     
  -3.2460055430486259E-002   9.2840587552668358E-002   0.0000000000000000     
  -3.3578180268236175E-002   9.9448271402529750E-002   0.0000000000000000     
  -3.4638934696146109E-002  0.10621507930496732        0.0000000000000000     
  -3.4867339299224823E-002   8.0487449296468838E-002   0.0000000000000000     
  -3.6226166902227172E-002   8.6763399612089259E-002   0.0000000000000000     
  -3.7529562139989488E-002   9.3197910807709075E-002   0.0000000000000000     
  -3.8777525012511790E-002   9.9790982883328327E-002   0.0000000000000000     
  -3.9970055519794073E-002  0.10654261583894700        0.0000000000000000     
  -1.9526518249254197E-002  0.10549838197727868        0.0000000000000000     
  -2.0094112157732068E-002  0.11244737212633002        0.0000000000000000     
  -2.0637112592853158E-002  0.11953136153920199        0.0000000000000000     
  -2.1155519554617468E-002  0.12675035021589451        0.0000000000000000     
  -2.1649333043024993E-002  0.13410433815640765        0.0000000000000000     
  -2.4417166060876166E-002  0.10569296237413317        0.0000000000000000     
  -2.5140600458974101E-002  0.11263207462461061        0.0000000000000000     
  -2.5831688886794036E-002  0.11970609439706895        0.0000000000000000     
  -2.6490431344335968E-002  0.12691502169150815        0.0000000000000000     
  -2.7116827831599896E-002  0.13425885650792826        0.0000000000000000     
  -2.9454638209840133E-002  0.10593186148336271        0.0000000000000000     
  -3.0325577049306929E-002  0.11285918233805994        0.0000000000000000     
  -3.1157726416010997E-002  0.11992124164878781        0.0000000000000000     
  -3.1951086309952317E-002  0.12711803941554642        0.0000000000000000     
  -3.2705656731130919E-002  0.13444957563833568        0.0000000000000000     
  -3.4638934696146109E-002  0.10621507930496732        0.0000000000000000     
  -3.5649041928730557E-002  0.11312869526667796        0.0000000000000000     
  -3.6615225180504037E-002  0.12017680329435863        0.0000000000000000     
  -3.7537484451466541E-002  0.12735940338800927        0.0000000000000000     
  -3.8415819741618056E-002  0.13467649554762989        0.0000000000000000     
  -3.9970055519794073E-002  0.10654261583894700        0.0000000000000000     
  -4.1110995097244987E-002  0.11344061341046476        0.0000000000000000     
  -4.2204185180273163E-002  0.12047277933378134        0.0000000000000000     
  -4.3249625768878593E-002  0.12763911360889674        0.0000000000000000     
  -4.4247316863061305E-002  0.13493961623581097        0.0000000000000000     
  -2.1649333043024993E-002  0.13410433815640765        0.0000000000000000     
  -2.2116502477567218E-002  0.14158216149807545        0.0000000000000000     
  -2.2554977277735623E-002  0.14917265637823193        0.0000000000000000     
  -2.2964757443530208E-002  0.15687582279687706        0.0000000000000000     
  -2.3345842974950969E-002  0.16469166075401093        0.0000000000000000     
  -2.7116827831599896E-002  0.13425885650792826        0.0000000000000000     
  -2.7709339114870408E-002  0.14172630745376910        0.0000000000000000     
  -2.8266425960432068E-002  0.14930608313647056        0.0000000000000000     
  -2.8788088368284892E-002  0.15699818355603254        0.0000000000000000     
  -2.9274326338428872E-002  0.16480260871245514        0.0000000000000000     
  -3.2705656731130919E-002  0.13444957563833568        0.0000000000000000     
  -3.3419832445013967E-002  0.14190450994181489        0.0000000000000000     
  -3.4092008217068669E-002  0.14947150195064327        0.0000000000000000     
  -3.4722184047295011E-002  0.15715055166482073        0.0000000000000000     
  -3.5310359935693002E-002  0.16494165908434738        0.0000000000000000     
  -3.8415819741618056E-002  0.13467649554762989        0.0000000000000000     
  -3.9247982467997912E-002  0.14211676896221276        0.0000000000000000     
  -4.0031724047645420E-002  0.14966891282075004        0.0000000000000000     
  -4.0767044480560566E-002  0.15733292712324171        0.0000000000000000     
  -4.1453943766743370E-002  0.16510881186968776        0.0000000000000000     
  -4.4247316863061305E-002  0.13493961623581097        0.0000000000000000     
  -4.5193789183822219E-002  0.14236308451496274        0.0000000000000000     
  -4.6085573452162312E-002  0.14989831574679088        0.0000000000000000     
  -4.6922669668081556E-002  0.15754530993129537        0.0000000000000000     
  -4.7705077831579963E-002  0.16530406706847620        0.0000000000000000     
  -2.3345842974950969E-002  0.16469166075401093        0.0000000000000000     
  -2.3697626630147212E-002  0.17260769968699130        0.0000000000000000     
  -2.4019501167268219E-002  0.18061146903317604        0.0000000000000000     
  -2.4311466586313991E-002  0.18870296879256510        0.0000000000000000     
  -2.4573522887284528E-002  0.19688219896515846        0.0000000000000000     
  -2.9274326338428872E-002  0.16480260871245514        0.0000000000000000     
  -2.9723584295877709E-002  0.17270730716696836        0.0000000000000000     
  -3.0134306665645101E-002  0.18070022748080236        0.0000000000000000     
  -3.0506493447731060E-002  0.18878136965395712        0.0000000000000000     
  -3.0840144642135577E-002  0.19695073368643257        0.0000000000000000     
  -3.5310359935693002E-002  0.16494165908434738        0.0000000000000000     
  -3.5854740947597219E-002  0.17283303550695919        0.0000000000000000     
  -3.6353532148342242E-002  0.18081289223039215        0.0000000000000000     
  -3.6806733537928057E-002  0.18888122925464623        0.0000000000000000     
  -3.7214345116354672E-002  0.19703804657972146        0.0000000000000000     
  -4.1453943766743370E-002  0.16510881186968776        0.0000000000000000     
  -4.2091096585305743E-002  0.17298488470696380        0.0000000000000000     
  -4.2677177615359600E-002  0.18094946328194533        0.0000000000000000     
  -4.3212186856904956E-002  0.18900254759463248        0.0000000000000000     
  -4.3696124309941818E-002  0.19714413764502511        0.0000000000000000     
  -4.7705077831579963E-002  0.16530406706847620        0.0000000000000000     
  -4.8432651209003273E-002  0.17316285476698212        0.0000000000000000     
  -4.9105243066697210E-002  0.18110994063546199        0.0000000000000000     
  -4.9722853404661795E-002  0.18914532467391582        0.0000000000000000     
  -5.0285482222897006E-002  0.19726900688234350        0.0000000000000000     
  -2.4573522887284528E-002  0.19688219896515846        0.0000000000000000     
  -2.4806009872408934E-002  0.20513405972306525        0.0000000000000000     
  -2.5009267343916296E-002  0.21344345123839428        0.0000000000000000     
  -2.5183295301806609E-002  0.22181037351114577        0.0000000000000000     
  -2.5328093746079888E-002  0.23023482654131958        0.0000000000000000     
  -3.0840144642135577E-002  0.19695073368643257        0.0000000000000000     
  -3.1135865309788603E-002  0.20519469803096049        0.0000000000000000     
  -3.1394260511620073E-002  0.21349964114027251        0.0000000000000000     
  -3.1615330247630004E-002  0.22186556301436861        0.0000000000000000     
  -3.1799074517818375E-002  0.23029246365324876        0.0000000000000000     
  -3.7214345116354672E-002  0.19703804657972146        0.0000000000000000     
  -3.7576491938422010E-002  0.20527133821491336        0.0000000000000000     
  -3.7893299058929984E-002  0.21356909816951741        0.0000000000000000     
  -3.8164766477878573E-002  0.22193132644353364        0.0000000000000000     
  -3.8390894195267797E-002  0.23035802303696198        0.0000000000000000     
  -4.3696124309941818E-002  0.19714413764502511        0.0000000000000000     
  -4.4127889758309162E-002  0.20536398027492378        0.0000000000000000     
  -4.4506382985845999E-002  0.21365182232612909        0.0000000000000000     
  -4.4831603992552323E-002  0.22200766379864084        0.0000000000000000     
  -4.5103552778428160E-002  0.23043150469245924        0.0000000000000000     
  -5.0285482222897006E-002  0.19726900688234350        0.0000000000000000     
  -5.0790058769450058E-002  0.20547262421099180        0.0000000000000000     
  -5.1233512292368145E-002  0.21374781361010742        0.0000000000000000     
  -5.1615842791651267E-002  0.22209457507969035        0.0000000000000000     
  -5.1937050267299445E-002  0.23051290861974055        0.0000000000000000     
  -2.5328093746079888E-002  0.23023482654131958        0.0000000000000000     
  -2.5449976337803212E-002  0.23868919443090289        0.0000000000000000     
  -2.5555256738043673E-002  0.24714586128188282        0.0000000000000000     
  -2.5643934946801266E-002  0.25560482709425936        0.0000000000000000     
  -2.5716010964075994E-002  0.26406609186803254        0.0000000000000000     
  -3.1799074517818375E-002  0.23029246365324876        0.0000000000000000     
  -3.1953570791461085E-002  0.23875536976429179        0.0000000000000000     
  -3.2086896537834038E-002  0.24722930805487631        0.0000000000000000     
  -3.2199051756937193E-002  0.25571427852500250        0.0000000000000000     
  -3.2290036448770584E-002  0.26421028117467021        0.0000000000000000     
  -3.8390894195267797E-002  0.23035802303696198        0.0000000000000000     
  -3.8580682985510741E-002  0.23882830348934092        0.0000000000000000     
  -3.8743133623020461E-002  0.24732128334020886        0.0000000000000000     
  -3.8878246107796992E-002  0.25583696258956584        0.0000000000000000     
  -3.8986020439840306E-002  0.26437534123741185        0.0000000000000000     
  -4.5103552778428160E-002  0.23043150469245924        0.0000000000000000     
  -4.5331312919952148E-002  0.23890799560605042        0.0000000000000000     
  -4.5523967993602983E-002  0.24742178713788046        0.0000000000000000     
  -4.5681517999380659E-002  0.25597287928794948        0.0000000000000000     
  -4.5803962937285177E-002  0.26456127205625762        0.0000000000000000     
  -5.1937050267299445E-002  0.23051290861974055        0.0000000000000000     
  -5.2205460594785320E-002  0.23899444611442011        0.0000000000000000     
  -5.2429399649581571E-002  0.24753081944789107        0.0000000000000000     
  -5.2608867431688189E-002  0.25612202862015343        0.0000000000000000     
  -5.2743863941105189E-002  0.26476807363120719        0.0000000000000000     
  -2.5716010964075994E-002  0.26406609186803254        0.0000000000000000     
  -2.5783676934730000E-002  0.27247457071907072        0.0000000000000000     
  -2.5859125003625430E-002  0.28077517876324248        0.0000000000000000     
  -2.5942355170762276E-002  0.28896791600054761        0.0000000000000000     
  -2.6033367436140535E-002  0.29705278243098621        0.0000000000000000     
  -3.2290036448770584E-002  0.26421028117467021        0.0000000000000000     
  -3.2374678210467814E-002  0.27266448453671616        0.0000000000000000     
  -3.2467804639162504E-002  0.28102405714397694        0.0000000000000000     
  -3.2569415734854654E-002  0.28928899899645244        0.0000000000000000     
  -3.2679511497544250E-002  0.29745931009414284        0.0000000000000000     
  -3.8986020439840306E-002  0.26437534123741185        0.0000000000000000     
  -3.9085270286959767E-002  0.27288532604016397        0.0000000000000000     
  -3.9194809316964695E-002  0.28131582375423908        0.0000000000000000     
  -3.9314637529855097E-002  0.28966683437963719        0.0000000000000000     
  -3.9444754925630973E-002  0.29793835791635853        0.0000000000000000     
  -4.5803962937285177E-002  0.26456127205625762        0.0000000000000000     
  -4.5915453164205859E-002  0.27313709522941415        0.0000000000000000     
  -4.6040139037031996E-002  0.28165047859402897        0.0000000000000000     
  -4.6178020555763616E-002  0.29010142215010204        0.0000000000000000     
  -4.6329097720400697E-002  0.29848992589763312        0.0000000000000000     
  -5.2743863941105189E-002  0.26476807363120719        0.0000000000000000     
  -5.2865226842206084E-002  0.27341979210446682        0.0000000000000000     
  -5.3003793799364422E-002  0.28202802166334656        0.0000000000000000     
  -5.3159564812580211E-002  0.29059276230784664        0.0000000000000000     
  -5.3332539881853429E-002  0.29911401403796684        0.0000000000000000     
  -2.9026896234730929E-002   5.7166740488678015E-002   0.0000000000000000     
  -3.0542182236230252E-002   6.2722048185370957E-002   0.0000000000000000     
  -3.2020684747479010E-002   6.8460602218900407E-002   0.0000000000000000     
  -3.3462403768477200E-002   7.4382402589266372E-002   0.0000000000000000     
  -3.4867339299224823E-002   8.0487449296468838E-002   0.0000000000000000     
  -3.3768517957687573E-002   5.7661775697930559E-002   0.0000000000000000     
  -3.5272108922458731E-002   6.3203296479471788E-002   0.0000000000000000     
  -3.6777950637861968E-002   6.8927526449696366E-002   0.0000000000000000     
  -3.8286043103897306E-002   7.4834465608604281E-002   0.0000000000000000     
  -3.9796386320564731E-002   8.0924113956195531E-002   0.0000000000000000     
  -3.8118460854111330E-002   5.8213872254558999E-002   0.0000000000000000     
  -3.9755791474248944E-002   6.3741683290537088E-002   0.0000000000000000     
  -4.1402160722301469E-002   6.9450756339101430E-002   0.0000000000000000     
  -4.3057568598268862E-002   7.5341091400252053E-002   0.0000000000000000     
  -4.4722015102151152E-002   8.1412688473988942E-002   0.0000000000000000     
  -4.2076724924002204E-002   5.8823030158563341E-002   0.0000000000000000     
  -4.3993229891600920E-002   6.4337208618566816E-002   0.0000000000000000     
  -4.5893315000797470E-002   7.0030291887115598E-002   0.0000000000000000     
  -4.7776980251591855E-002   7.5902279964209673E-002   0.0000000000000000     
  -4.9644225643984102E-002   8.1953172849849071E-002   0.0000000000000000     
  -4.5643310167360195E-002   5.9489249409943573E-002   0.0000000000000000     
  -4.7984424174514630E-002   6.4989872463560985E-002   0.0000000000000000     
  -5.0251413473350000E-002   7.0666133093738856E-002   0.0000000000000000     
  -5.2444278063866305E-002   7.6518031300477143E-002   0.0000000000000000     
  -5.4563017946063552E-002   8.2545567083775889E-002   0.0000000000000000     
  -3.4867339299224823E-002   8.0487449296468838E-002   0.0000000000000000     
  -3.6226166902227172E-002   8.6763399612089259E-002   0.0000000000000000     
  -3.7529562139989488E-002   9.3197910807709075E-002   0.0000000000000000     
  -3.8777525012511790E-002   9.9790982883328327E-002   0.0000000000000000     
  -3.9970055519794073E-002  0.10654261583894700        0.0000000000000000     
  -3.9796386320564731E-002   8.0924113956195531E-002   0.0000000000000000     
  -4.1281128861533775E-002   8.7184262391148848E-002   0.0000000000000000     
  -4.2712419300473994E-002   9.3602701812142849E-002   0.0000000000000000     
  -4.4090257637385361E-002  0.10017943221917761        0.0000000000000000     
  -4.5414643872267887E-002  0.10691445361225310        0.0000000000000000     
  -4.4722015102151152E-002   8.1412688473988942E-002   0.0000000000000000     
  -4.6362322455712222E-002   8.7654227451376979E-002   0.0000000000000000     
  -4.7945312880715955E-002   9.4054388223481000E-002   0.0000000000000000     
  -4.9470986377162351E-002  0.10061317079030102        0.0000000000000000     
  -5.0939342945051404E-002  0.10733057515183703        0.0000000000000000     
  -4.9644225643984102E-002   8.1953172849849071E-002   0.0000000000000000     
  -5.1469747684762486E-002   8.8173294792773707E-002   0.0000000000000000     
  -5.3228242880715371E-002   9.4552970041723555E-002   0.0000000000000000     
  -5.4919711231842742E-002  0.10109219859669857        0.0000000000000000     
  -5.6544152738144608E-002  0.10779098045769880        0.0000000000000000     
  -5.4563017946063552E-002   8.2545567083775889E-002   0.0000000000000000     
  -5.6603404548684594E-002   8.8741464415339019E-002   0.0000000000000000     
  -5.8561209300472261E-002   9.5098447266870473E-002   0.0000000000000000     
  -6.0436432201426568E-002  0.10161651563837026        0.0000000000000000     
  -6.2229073251547501E-002  0.10829566952983838        0.0000000000000000     
  -3.9970055519794073E-002  0.10654261583894700        0.0000000000000000     
  -4.1110995097244987E-002  0.11344061341046476        0.0000000000000000     
  -4.2204185180273163E-002  0.12047277933378134        0.0000000000000000     
  -4.3249625768878593E-002  0.12763911360889674        0.0000000000000000     
  -4.4247316863061305E-002  0.13493961623581097        0.0000000000000000     
  -4.5414643872267887E-002  0.10691445361225310        0.0000000000000000     
  -4.6686599500324971E-002  0.11379546719459853        0.0000000000000000     
  -4.7907146016759980E-002  0.12081017416944310        0.0000000000000000     
  -4.9076283421572914E-002  0.12795857453678683        0.0000000000000000     
  -5.0194011714763787E-002  0.13524066829662970        0.0000000000000000     
  -5.0939342945051404E-002  0.10733057515183703        0.0000000000000000     
  -5.2351018083445278E-002  0.11419378704425753        0.0000000000000000     
  -5.3706647291406090E-002  0.12118999220373103        0.0000000000000000     
  -5.5006230568933875E-002  0.12831919063025757        0.0000000000000000     
  -5.6249767916028620E-002  0.13558138232383704        0.0000000000000000     
  -5.6544152738144608E-002  0.10779098045769880        0.0000000000000000     
  -5.8104250846605886E-002  0.11463557295944179        0.0000000000000000     
  -5.9602689004211507E-002  0.12161223343664515        0.0000000000000000     
  -6.1039467210961464E-002  0.12872096188930893        0.0000000000000000     
  -6.2414585466855785E-002  0.13596175831743304        0.0000000000000000     
  -6.2229073251547501E-002  0.10829566952983838        0.0000000000000000     
  -6.3946297789806816E-002  0.11512082494015127        0.0000000000000000     
  -6.5595271155176216E-002  0.12207689786818544        0.0000000000000000     
  -6.7175993347655713E-002  0.12916388831394091        0.0000000000000000     
  -6.8688464367245294E-002  0.13638179627741762        0.0000000000000000     
  -4.4247316863061305E-002  0.13493961623581097        0.0000000000000000     
  -4.5193789183822219E-002  0.14236308451496274        0.0000000000000000     
  -4.6085573452162312E-002  0.14989831574679088        0.0000000000000000     
  -4.6922669668081556E-002  0.15754530993129537        0.0000000000000000     
  -4.7705077831579963E-002  0.16530406706847620        0.0000000000000000     
  -5.0194011714763787E-002  0.13524066829662970        0.0000000000000000     
  -5.1255711618629157E-002  0.14264546228881875        0.0000000000000000     
  -5.2256763855465592E-002  0.15016196335320098        0.0000000000000000     
  -5.3197168425273070E-002  0.15779017148977639        0.0000000000000000     
  -5.4076925328051646E-002  0.16553008669854496        0.0000000000000000     
  -5.6249767916028620E-002  0.13558138232383704        0.0000000000000000     
  -5.7432208798560952E-002  0.14296590797253464        0.0000000000000000     
  -5.8548502682401506E-002  0.15046210826441539        0.0000000000000000     
  -5.9598649567550253E-002  0.15806998319947929        0.0000000000000000     
  -6.0582649454007251E-002  0.16578953277772635        0.0000000000000000     
  -6.2414585466855785E-002  0.13596175831743304        0.0000000000000000     
  -6.3723280723617590E-002  0.14332442156611047        0.0000000000000000     
  -6.4960789932970012E-002  0.15079875048043417        0.0000000000000000     
  -6.6127113094913093E-002  0.15838474506040409        0.0000000000000000     
  -6.7222250209446777E-002  0.16608240530602034        0.0000000000000000     
  -6.8688464367245294E-002  0.13638179627741762        0.0000000000000000     
  -7.0128927393799084E-002  0.14372100306954622        0.0000000000000000     
  -7.1493625607171180E-002  0.15117189000125730        0.0000000000000000     
  -7.2782559007361552E-002  0.15873445707255088        0.0000000000000000     
  -7.3995727594370231E-002  0.16640870428342691        0.0000000000000000     
  -4.7705077831579963E-002  0.16530406706847620        0.0000000000000000     
  -4.8432651209003273E-002  0.17316285476698212        0.0000000000000000     
  -4.9105243066697210E-002  0.18110994063546199        0.0000000000000000     
  -4.9722853404661795E-002  0.18914532467391582        0.0000000000000000     
  -5.0285482222897006E-002  0.19726900688234350        0.0000000000000000     
  -5.4076925328051646E-002  0.16553008669854496        0.0000000000000000     
  -5.4897090511955918E-002  0.17336990299838265        0.0000000000000000     
  -5.5658719925140557E-002  0.18129781440816525        0.0000000000000000     
  -5.6361813567605570E-002  0.18931382092789281        0.0000000000000000     
  -5.7006371439350945E-002  0.19741792255756532        0.0000000000000000     
  -6.0582649454007251E-002  0.16578953277772635        0.0000000000000000     
  -6.1502100187429770E-002  0.17360898671253364        0.0000000000000000     
  -6.2358599613475126E-002  0.18151657471727825        0.0000000000000000     
  -6.3152147732143324E-002  0.18951229679196011        0.0000000000000000     
  -6.3882744543434372E-002  0.19759615293657928        0.0000000000000000     
  -6.7222250209446777E-002  0.16608240530602034        0.0000000000000000     
  -6.8247680235424810E-002  0.17388010590943517        0.0000000000000000     
  -6.9204882131700896E-002  0.18176622156280092        0.0000000000000000     
  -7.0093855898275062E-002  0.18974075226611767        0.0000000000000000     
  -7.0914601535147267E-002  0.19780369801938538        0.0000000000000000     
  -7.3995727594370231E-002  0.16640870428342691        0.0000000000000000     
  -7.5133830655941064E-002  0.17418326058908715        0.0000000000000000     
  -7.6197567479817915E-002  0.18204675494473338        0.0000000000000000     
  -7.7186938066000771E-002  0.18999918735036553        0.0000000000000000     
  -7.8101942414489631E-002  0.19804055780598359        0.0000000000000000     
  -5.0285482222897006E-002  0.19726900688234350        0.0000000000000000     
  -5.0790058769450058E-002  0.20547262421099180        0.0000000000000000     
  -5.1233512292368145E-002  0.21374781361010742        0.0000000000000000     
  -5.1615842791651267E-002  0.22209457507969035        0.0000000000000000     
  -5.1937050267299445E-002  0.23051290861974055        0.0000000000000000     
  -5.7006371439350945E-002  0.19741792255756532        0.0000000000000000     
  -5.7587778938683547E-002  0.20560331500670792        0.0000000000000000     
  -5.8101421463910216E-002  0.21386319398484557        0.0000000000000000     
  -5.8547299015030960E-002  0.22219755949197842        0.0000000000000000     
  -5.8925411592045757E-002  0.23060641152810638        0.0000000000000000     
  -6.3882744543434372E-002  0.19759615293657928        0.0000000000000000     
  -6.4545830232848517E-002  0.20576209764566250        0.0000000000000000     
  -6.5136844985886053E-002  0.21400408541373658        0.0000000000000000     
  -6.5655788802546924E-002  0.22232211624080142        0.0000000000000000     
  -6.6102661682831201E-002  0.23071619012685715        0.0000000000000000     
  -7.0914601535147267E-002  0.19780369801938538        0.0000000000000000     
  -7.1664212651944961E-002  0.20594897212785576        0.0000000000000000     
  -7.2339782858295634E-002  0.21417048789678048        0.0000000000000000     
  -7.2941312154199231E-002  0.22246824532615952        0.0000000000000000     
  -7.3468800539655779E-002  0.23084224441599291        0.0000000000000000     
  -7.8101942414489631E-002  0.19804055780598359        0.0000000000000000     
  -7.8942926195972915E-002  0.20616393845328754        0.0000000000000000     
  -7.9710235081138975E-002  0.21436240143397720        0.0000000000000000     
  -8.0403869069987824E-002  0.22263594674805254        0.0000000000000000     
  -8.1023828162519476E-002  0.23098457439551368        0.0000000000000000     
  -5.1937050267299445E-002  0.23051290861974055        0.0000000000000000     
  -5.2205460594785320E-002  0.23899444611442011        0.0000000000000000     
  -5.2429399649581571E-002  0.24753081944789107        0.0000000000000000     
  -5.2608867431688189E-002  0.25612202862015343        0.0000000000000000     
  -5.2743863941105189E-002  0.26476807363120719        0.0000000000000000     
  -5.8925411592045757E-002  0.23060641152810638        0.0000000000000000     
  -5.9242036273999744E-002  0.23908898304671192        0.0000000000000000     
  -5.9503450139937963E-002  0.24764450700127755        0.0000000000000000     
  -5.9709653189860462E-002  0.25627298339180327        0.0000000000000000     
  -5.9860645423767199E-002  0.26497441221828905        0.0000000000000000     
  -6.6102661682831201E-002  0.23071619012685715        0.0000000000000000     
  -6.6479950221584844E-002  0.23919293443518760        0.0000000000000000     
  -6.6790141013653881E-002  0.24775897652907672        0.0000000000000000     
  -6.7033234059038299E-002  0.25641431640852452        0.0000000000000000     
  -6.7209229357738098E-002  0.26515895407353107        0.0000000000000000     
  -7.3468800539655779E-002  0.23084224441599291        0.0000000000000000     
  -7.3919202437540688E-002  0.23930630027984712        0.0000000000000000     
  -7.4289472270729323E-002  0.24787422803128861        0.0000000000000000     
  -7.4579610039221714E-002  0.25654602767031737        0.0000000000000000     
  -7.4789615743017859E-002  0.26532169919693338        0.0000000000000000     
  -8.1023828162519476E-002  0.23098457439551368        0.0000000000000000     
  -8.1559792921867214E-002  0.23942908058069054        0.0000000000000000     
  -8.2001443911164276E-002  0.24799026150791317        0.0000000000000000     
  -8.2348781130410734E-002  0.25666811717718169        0.0000000000000000     
  -8.2601804579606503E-002  0.26546264758849597        0.0000000000000000     
  -5.2743863941105189E-002  0.26476807363120719        0.0000000000000000     
  -5.2865226842206084E-002  0.27341979210446682        0.0000000000000000     
  -5.3003793799364422E-002  0.28202802166334656        0.0000000000000000     
  -5.3159564812580211E-002  0.29059276230784664        0.0000000000000000     
  -5.3332539881853429E-002  0.29911401403796684        0.0000000000000000     
  -5.9860645423767199E-002  0.26497441221828905        0.0000000000000000     
  -5.9993289469848415E-002  0.27370468723196167        0.0000000000000000     
  -6.0144447956294311E-002  0.28241970218404810        0.0000000000000000     
  -6.0314120883104894E-002  0.29111945707454823        0.0000000000000000     
  -6.0502308250280148E-002  0.29980395190346210        0.0000000000000000     
  -6.7209229357738098E-002  0.26515895407353107        0.0000000000000000     
  -6.7358339196020814E-002  0.27396305117853864        0.0000000000000000     
  -6.7520775860154023E-002  0.28279676937798953        0.0000000000000000     
  -6.7696539350137711E-002  0.29166010867188380        0.0000000000000000     
  -6.7885629665971878E-002  0.30055306906022150        0.0000000000000000     
  -7.4789615743017859E-002  0.26532169919693338        0.0000000000000000     
  -7.4960376020723279E-002  0.27419488394419766        0.0000000000000000     
  -7.5132777510943549E-002  0.28315922324517090        0.0000000000000000     
  -7.5306820213678669E-002  0.29221471709985336        0.0000000000000000     
  -7.5482504128928582E-002  0.30136136550824494        0.0000000000000000     
  -8.2601804579606503E-002  0.26546264758849597        0.0000000000000000     
  -8.2799399943955826E-002  0.27440018552893869        0.0000000000000000     
  -8.2980452908662905E-002  0.28350706378559232        0.0000000000000000     
  -8.3144963473727740E-002  0.29278328235845702        0.0000000000000000     
  -8.3292931639150303E-002  0.30222884124753258        0.0000000000000000     
  -4.5643310167360195E-002   5.9489249409943573E-002   0.0000000000000000     
  -4.7984424174514630E-002   6.4989872463560985E-002   0.0000000000000000     
  -5.0251413473350000E-002   7.0666133093738856E-002   0.0000000000000000     
  -5.2444278063866305E-002   7.6518031300477143E-002   0.0000000000000000     
  -5.4563017946063552E-002   8.2545567083775889E-002   0.0000000000000000     
  -4.9602209661423632E-002   6.0203756397932087E-002   0.0000000000000000     
  -5.2298732665380855E-002   6.5695556360643670E-002   0.0000000000000000     
  -5.4880258712478168E-002   7.1357134889481186E-002   0.0000000000000000     
  -5.7346787802715612E-002   7.7188491984444621E-002   0.0000000000000000     
  -5.9698319936093133E-002   8.3189627645533989E-002   0.0000000000000000     
  -5.4737416483430862E-002   6.0957777511761235E-002   0.0000000000000000     
  -5.7505513706590350E-002   6.6450141844938901E-002   0.0000000000000000     
  -6.0183653290701113E-002   7.2102152204852554E-002   0.0000000000000000     
  -6.2771835235763143E-002   7.7913808591502223E-002   0.0000000000000000     
  -6.5270059541776421E-002   8.3885111004887880E-002   0.0000000000000000     
  -6.1048930633381862E-002   6.1751312751431038E-002   0.0000000000000000     
  -6.3604767298143128E-002   6.7253628916446678E-002   0.0000000000000000     
  -6.6161597208018813E-002   7.2901185039852989E-002   0.0000000000000000     
  -6.8719420363008904E-002   7.8693981121649950E-002   0.0000000000000000     
  -7.1278236763113442E-002   8.4632017161837561E-002   0.0000000000000000     
  -6.8536752111276661E-002   6.2584362116941461E-002   0.0000000000000000     
  -7.0596493440039182E-002   6.8106017575167002E-002   0.0000000000000000     
  -7.2814090464431297E-002   7.3754233394482449E-002   0.0000000000000000     
  -7.5189543184452950E-002   7.9529009574887802E-002   0.0000000000000000     
  -7.7722851600104170E-002   8.5430346116383060E-002   0.0000000000000000     
  -5.4563017946063552E-002   8.2545567083775889E-002   0.0000000000000000     
  -5.6603404548684594E-002   8.8741464415339019E-002   0.0000000000000000     
  -5.8561209300472261E-002   9.5098447266870473E-002   0.0000000000000000     
  -6.0436432201426568E-002  0.10161651563837026        0.0000000000000000     
  -6.2229073251547501E-002  0.10829566952983838        0.0000000000000000     
  -5.9698319936093133E-002   8.3189627645533989E-002   0.0000000000000000     
  -6.1944140951819902E-002   8.9357523242938067E-002   0.0000000000000000     
  -6.4093536689105043E-002   9.5689160146845614E-002   0.0000000000000000     
  -6.6146507147948563E-002  0.10218453835725669        0.0000000000000000     
  -6.8103052328350469E-002  0.10884365787417125        0.0000000000000000     
  -6.5270059541776421E-002   8.3885111004887880E-002   0.0000000000000000     
  -6.7672804798509831E-002   9.0020258199435904E-002   0.0000000000000000     
  -6.9974549595732211E-002   9.6323448929572772E-002   0.0000000000000000     
  -7.2175293933443546E-002  0.10279468319529843        0.0000000000000000     
  -7.4275037811643851E-002  0.10943396099661289        0.0000000000000000     
  -7.1278236763113442E-002   8.4632017161837561E-002   0.0000000000000000     
  -7.3789396088754386E-002   9.0729669284832642E-002   0.0000000000000000     
  -7.6204248020353721E-002   9.7001313615051946E-002   0.0000000000000000     
  -7.8522792557911503E-002  0.10344695015249550        0.0000000000000000     
  -8.0745029701427662E-002  0.11006657889716329        0.0000000000000000     
  -7.7722851600104170E-002   8.5430346116383060E-002   0.0000000000000000     
  -8.0293914822553519E-002   9.1485756499128185E-002   0.0000000000000000     
  -8.2782631962969602E-002   9.7722754203283108E-002   0.0000000000000000     
  -8.5189003021352405E-002  0.10414133922884788        0.0000000000000000     
  -8.7513027997701914E-002  0.11074151157582246        0.0000000000000000     
  -6.2229073251547501E-002  0.10829566952983838        0.0000000000000000     
  -6.3946297789806816E-002  0.11512082494015127        0.0000000000000000     
  -6.5595271155176216E-002  0.12207689786818544        0.0000000000000000     
  -6.7175993347655713E-002  0.12916388831394091        0.0000000000000000     
  -6.8688464367245294E-002  0.13638179627741762        0.0000000000000000     
  -6.8103052328350469E-002  0.10884365787417125        0.0000000000000000     
  -6.9974103305965943E-002  0.11564919650482344        0.0000000000000000     
  -7.1770591156450236E-002  0.12258383205644752        0.0000000000000000     
  -7.3492515879803322E-002  0.12964756452904339        0.0000000000000000     
  -7.5139877476025213E-002  0.13684039392261108        0.0000000000000000     
  -7.4275037811643851E-002  0.10943396099661289        0.0000000000000000     
  -7.6284611788001180E-002  0.11622034117189582        0.0000000000000000     
  -7.8214846420183573E-002  0.12313288255952694        0.0000000000000000     
  -8.0065741708191057E-002  0.13017158515950628        0.0000000000000000     
  -8.1837297652023577E-002  0.13733644897183375        0.0000000000000000     
  -8.0745029701427662E-002  0.11006657889716329        0.0000000000000000     
  -8.2877823235912487E-002  0.11683425894136837        0.0000000000000000     
  -8.4928036946376226E-002  0.12372404937742378        0.0000000000000000     
  -8.6895670832818850E-002  0.13073595020532952        0.0000000000000000     
  -8.8780724895240359E-002  0.13786996142508559        0.0000000000000000     
  -8.7513027997701914E-002  0.11074151157582246        0.0000000000000000     
  -8.9753737649699933E-002  0.11749094981324110        0.0000000000000000     
  -9.1910162735028195E-002  0.12435733251013799        0.0000000000000000     
  -9.3982303253686755E-002  0.13134065966651315        0.0000000000000000     
  -9.5970159205675587E-002  0.13844093128236659        0.0000000000000000     
  -6.8688464367245294E-002  0.13638179627741762        0.0000000000000000     
  -7.0128927393799084E-002  0.14372100306954622        0.0000000000000000     
  -7.1493625607171180E-002  0.15117189000125730        0.0000000000000000     
  -7.2782559007361552E-002  0.15873445707255088        0.0000000000000000     
  -7.3995727594370231E-002  0.16640870428342691        0.0000000000000000     
  -7.5139877476025213E-002  0.13684039392261108        0.0000000000000000     
  -7.6709828744055811E-002  0.14415391827378332        0.0000000000000000     
  -7.8199522482834960E-002  0.15157973561919275        0.0000000000000000     
  -7.9608958692362716E-002  0.15911784595883927        0.0000000000000000     
  -8.0938137372639038E-002  0.16676824929272299        0.0000000000000000     
  -8.1837297652023577E-002  0.13733644897183375        0.0000000000000000     
  -8.3526664709338047E-002  0.14462143296976318        0.0000000000000000     
  -8.5130993337791366E-002  0.15202049612654828        0.0000000000000000     
  -8.6650283537383549E-002  0.15953363844218907        0.0000000000000000     
  -8.8084535308114581E-002  0.16716085991668553        0.0000000000000000     
  -8.8780724895240359E-002  0.13786996142508559        0.0000000000000000     
  -9.0579435289645863E-002  0.14512354715748582        0.0000000000000000     
  -9.2288038172040454E-002  0.15249417152332403        0.0000000000000000     
  -9.3906533542424120E-002  0.15998183452260026        0.0000000000000000     
  -9.5434921400796860E-002  0.16758653615531444        0.0000000000000000     
  -9.5970159205675587E-002  0.13844093128236659        0.0000000000000000     
  -9.7868140484979216E-002  0.14566026083695122        0.0000000000000000     
  -9.9670656985582140E-002  0.15300076180951999        0.0000000000000000     
 -0.10137770870748436       0.16046243420007286        0.0000000000000000     
 -0.10298929565068590       0.16804527800860986        0.0000000000000000     
  -7.3995727594370231E-002  0.16640870428342691        0.0000000000000000     
  -7.5133830655941064E-002  0.17418326058908715        0.0000000000000000     
  -7.6197567479817915E-002  0.18204675494473338        0.0000000000000000     
  -7.7186938066000771E-002  0.18999918735036553        0.0000000000000000     
  -7.8101942414489631E-002  0.19804055780598359        0.0000000000000000     
  -8.0938137372639038E-002  0.16676824929272299        0.0000000000000000     
  -8.2187373944510839E-002  0.17451937322353764        0.0000000000000000     
  -8.3356983828824990E-002  0.18235964535397692        0.0000000000000000     
  -8.4446967025581507E-002  0.19028906568404086        0.0000000000000000     
  -8.5457323534780388E-002  0.19830763421372949        0.0000000000000000     
  -8.8084535308114581E-002  0.16716085991668553        0.0000000000000000     
  -8.9435132596666397E-002  0.17488936628483454        0.0000000000000000     
  -9.0703459349720988E-002  0.18270636328143303        0.0000000000000000     
  -9.1889515567278299E-002  0.19061185090648097        0.0000000000000000     
  -9.2993301249338370E-002  0.19860582915997840        0.0000000000000000     
  -9.5434921400796860E-002  0.16758653615531444        0.0000000000000000     
  -9.6877106612407754E-002  0.17529323977297787        0.0000000000000000     
  -9.8236994042505854E-002  0.18308690872710165        0.0000000000000000     
  -9.9514583691091132E-002  0.19096754301768590        0.0000000000000000     
 -0.10070987555816366       0.19893514264473047        0.0000000000000000     
 -0.10298929565068590       0.16804527800860986        0.0000000000000000     
 -0.10451329599173492       0.17573099368796766        0.0000000000000000     
 -0.10595758790717964       0.18350128169098284        0.0000000000000000     
 -0.10732217139702008       0.19135614201765555        0.0000000000000000     
 -0.10860704646125617       0.19929557466798567        0.0000000000000000     
  -7.8101942414489631E-002  0.19804055780598359        0.0000000000000000     
  -7.8942926195972915E-002  0.20616393845328754        0.0000000000000000     
  -7.9710235081138975E-002  0.21436240143397720        0.0000000000000000     
  -8.0403869069987824E-002  0.22263594674805254        0.0000000000000000     
  -8.1023828162519476E-002  0.23098457439551368        0.0000000000000000     
  -8.5457323534780388E-002  0.19830763421372949        0.0000000000000000     
  -8.6391553981151656E-002  0.20640786893597796        0.0000000000000000     
  -8.7253158989425345E-002  0.21458228784372152        0.0000000000000000     
  -8.8042138559601482E-002  0.22283089093696015        0.0000000000000000     
  -8.8758492691680055E-002  0.23115367821569396        0.0000000000000000     
  -9.2993301249338370E-002  0.19860582915997840        0.0000000000000000     
  -9.4019679123700517E-002  0.20668163588994690        0.0000000000000000     
  -9.4973511918164055E-002  0.21483260894440803        0.0000000000000000     
  -9.5854799632728943E-002  0.22305874832336184        0.0000000000000000     
  -9.6663542267395236E-002  0.23136005402680837        0.0000000000000000     
 -0.10070987555816366       0.19893514264473047        0.0000000000000000     
 -0.10182730162361955       0.20698523931519447        0.0000000000000000     
 -0.10287129386735508       0.21511336473603690        0.0000000000000000     
 -0.10384185228937028       0.22331951890725771        0.0000000000000000     
 -0.10473897688966503       0.23160370182885689        0.0000000000000000     
 -0.10860704646125617       0.19929557466798567        0.0000000000000000     
 -0.10981442148090871       0.20731867921172070        0.0000000000000000     
 -0.11094650483699844       0.21542455521860801        0.0000000000000000     
 -0.11200329652952536       0.22361320268864762        0.0000000000000000     
 -0.11298479655848945       0.23188462162183959        0.0000000000000000     
  -8.1023828162519476E-002  0.23098457439551368        0.0000000000000000     
  -8.1559792921867214E-002  0.23942908058069054        0.0000000000000000     
  -8.2001443911164276E-002  0.24799026150791317        0.0000000000000000     
  -8.2348781130410734E-002  0.25666811717718169        0.0000000000000000     
  -8.2601804579606503E-002  0.26546264758849597        0.0000000000000000     
  -8.8758492691680055E-002  0.23115367821569396        0.0000000000000000     
  -8.9388200097323928E-002  0.23957630206610611        0.0000000000000000     
  -8.9917239488195966E-002  0.24812441487437997        0.0000000000000000     
  -9.0345610864296239E-002  0.25679801664051555        0.0000000000000000     
  -9.0673314225624663E-002  0.26559710736451275        0.0000000000000000     
  -9.6663542267395236E-002  0.23136005402680837        0.0000000000000000     
  -9.7390902386670308E-002  0.23976299146448229        0.0000000000000000     
  -9.8028042555061631E-002  0.24829402604611850        0.0000000000000000     
  -9.8574962772569177E-002  0.25695315777171684        0.0000000000000000     
  -9.9031663039192988E-002  0.26574038664127747        0.0000000000000000     
 -0.10473897688966503       0.23160370182885689        0.0000000000000000     
 -0.10556789978990638       0.23998914877581909        0.0000000000000000     
 -0.10633385311176123       0.24849909502312867        0.0000000000000000     
 -0.10703683685522962       0.25713354057078575        0.0000000000000000     
 -0.10767685102031146       0.26589248541879024        0.0000000000000000     
 -0.11298479655848945       0.23188462162183959        0.0000000000000000     
 -0.11391919230703212       0.24025477400011636        0.0000000000000000     
 -0.11483467115829479       0.24873962180541054        0.0000000000000000     
 -0.11573123311227747       0.25733916503772208        0.0000000000000000     
 -0.11660887816898013       0.26605340369705105        0.0000000000000000     
  -8.2601804579606503E-002  0.26546264758849597        0.0000000000000000     
  -8.2799399943955826E-002  0.27440018552893869        0.0000000000000000     
  -8.2980452908662905E-002  0.28350706378559232        0.0000000000000000     
  -8.3144963473727740E-002  0.29278328235845702        0.0000000000000000     
  -8.3292931639150303E-002  0.30222884124753258        0.0000000000000000     
  -9.0673314225624663E-002  0.26559710736451275        0.0000000000000000     
  -9.0930568944626936E-002  0.27458464386706538        0.0000000000000000     
  -9.1147594393748615E-002  0.28382358296886717        0.0000000000000000     
  -9.1324390572989758E-002  0.29331392466991818        0.0000000000000000     
  -9.1460957482350363E-002  0.30305566897021835        0.0000000000000000     
  -9.9031663039192988E-002  0.26574038664127747        0.0000000000000000     
  -9.9409041001644993E-002  0.27475394689288118        0.0000000000000000     
  -9.9717994306637192E-002  0.28409207276460896        0.0000000000000000     
  -9.9958522954169543E-002  0.29375476425646063        0.0000000000000000     
 -0.10013062694424212       0.30374202136843625        0.0000000000000000     
 -0.10767685102031146       0.26589248541879024        0.0000000000000000     
 -0.10823481611501010       0.27490809460638621        0.0000000000000000     
 -0.10869165264732861       0.28431253317281757        0.0000000000000000     
 -0.10904736061726714       0.29410580111808426        0.0000000000000000     
 -0.10930194002482557       0.30428789844218640        0.0000000000000000     
 -0.11660887816898013       0.26605340369705105        0.0000000000000000     
 -0.11740789428472218       0.27504708700758035        0.0000000000000000     
 -0.11806856941582294       0.28448496419349306        0.0000000000000000     
 -0.11859090356228245       0.29436703525478913        0.0000000000000000     
 -0.11897489672410071       0.30469330019146867        0.0000000000000000     
 </DataArray>
 <DataArray  type="Float64" Name="stress" NumberOfComponents="3" format="ascii">
   3639500417.9331608       -545538218.03518987       -1932996819.4506650     
   3957346477.9563704       -496327804.18717623       -1368389003.1839008     
   4288368608.4744358       -403197155.35631299       -943954651.67396808     
   4632566809.4873476       -266146271.54261518       -659693764.92086816     
   4989941080.9951191       -85175152.746074438       -515606342.92460245     
   4876699463.0935154       -98511387.604035378       -1085517504.6700101     
   4869524944.3453350       -128783220.31696558       -716716590.69389057     
   4872821493.0804005       -124151494.75243330       -439415984.88638979     
   4886589109.2987080       -84616210.910429478       -253615687.24751806     
   4910827793.0002546       -10177368.790955305       -159315697.77726763     
   5445505238.5244389        147997461.90828347       -229527991.82343438     
   5252376302.6854696        79963231.138589144       -59689816.984829307     
   5067013431.3181305        37815881.940984011        67321206.273357049     
   4889416624.4224138        21555414.315468788        151505077.95112053     
   4719585881.9983311        31181828.262056112        192861798.04846209     
   5345917744.2259445        193988330.50177979        634971719.08907104     
   5105900552.9767742        129911550.17949271        602691317.94327521     
   4870944423.1876154        82704974.723917007        576256921.80526650     
   4641049354.8584709        52368604.135064602        555668530.67504120     
   4416215347.9893456        38902438.412930489        540926144.55260623     
   4577936980.1980286        39461218.176450014        1507981628.0675080     
   4430097695.2192402        21061736.805742979        1270426814.0904331     
   4284614468.6888590        10515783.596381664        1087391161.7093430     
   4141487300.6068788        7823358.5483715534        958874670.92425001     
   4000716190.9733057        12984461.661701918        884877341.73514843     
   4989941080.9951191       -85175152.746074438       -515606342.92460245     
   4844439768.3055735       -43164604.249945879       -407836366.13087291     
   4693609926.8522348       -18915818.299784660       -313798402.97689646     
   4537451556.6351089       -12428794.895579815       -233492453.46266857     
   4375964657.6541977       -23703534.037344456       -166918517.58820015     
   4910827793.0002546       -10177368.790955305       -159315697.77726763     
   4732865161.7602310        12981180.737770319       -92977316.912871018     
   4550616145.6029549        21851780.542296410       -33526706.147360630     
   4364080744.5283947        16434430.622555733        19036134.519248143     
   4173258958.5365810       -3270869.0213768482        64711205.086956590     
   4719585881.9983311        31181828.262056112        192861798.04846209     
   4528716913.7531385        41354873.286974907        218984417.47115225     
   4334603704.4371996        40713781.409408331        245063510.33579773     
   4137246254.0505176        29258552.629362345        271099076.64239430     
   3936644562.5930877        6989186.9468276501        297091116.39094555     
   4416215347.9893456        38902438.412930489        540926144.55260623     
   4231995024.2842803        41956473.397636652        528048837.02118415     
   4045572603.3549876        37670184.301590204        521972246.47257507     
   3856948085.2014709        26043571.124801159        522696372.90677387     
   3666121469.8237329        7076633.8672735691        530221216.32377779     
   4000716190.9733057        12984461.661701918        884877341.73514843     
   3842699493.3536596        14785981.069776058        834215941.73723340     
   3683522842.3563108        12720989.218847275        797199502.26297104     
   3523186237.9812598        6789486.1088945866        773828023.31238115     
   3361689680.2285113       -3008528.2600367069        764101504.88545215     
   4375964657.6541977       -23703534.037344456       -166918517.58820015     
   4209534894.3329916       -39048185.622740269       -154600932.92739818     
   4046727910.4514604       -42316905.742515802       -141591502.86488593     
   3887543706.0096254       -33509694.396668434       -127890227.40064035     
   3731982281.0074797       -12626551.585167885       -113497106.53466913     
   4173258958.5365810       -3270869.0213768482        64711205.086956590     
   4010716119.0203552       -16569460.470059633        69542629.671565101     
   3851090229.8626800       -20144884.056911230        76199982.519046128     
   3694381291.0635343       -13997139.782014132        84683263.629396439     
   3540589302.6229315        1873772.3547167778        94992473.002625674     
   3936644562.5930877        6989186.9468276501        297091116.39094555     
   3781228883.6279950       -3291273.3412611485        293612913.63803375     
   3628024325.9402852       -6201329.3714120388        293094722.00913489     
   3477030889.5299659       -1740981.1435899734        295536541.50424981     
   3328248574.3970299        10089771.342172146        300938372.12337863     
   3666121469.8237329        7076633.8672735691        530221216.32377779     
   3521073188.1558909        786375.76359319687        517609918.97199237     
   3377530198.6842756       -486241.68597960472        509092715.60537070     
   3235492501.4089007        3258781.5185588598        504669606.22390932     
   3094960096.3297582        12021445.377228022        504340590.82760179     
   3361689680.2285113       -3008528.2600367069        764101504.88545215     
   3230249032.6040459       -4336513.1554666758        741533645.67345381     
   3099607848.0946593       -2999621.0006278753        724193963.30775821     
   2969766126.7003522        1002148.2044748068        712082457.78836620     
   2840723868.4211359        7668794.4598753452        705199129.11527956     
   3731982281.0074797       -12626551.585167885       -113497106.53466913     
   3553149601.7606869        2239101.8701798916       -93605346.052681401     
   3371329672.9097581        7147256.6450743675       -69651043.881227344     
   3186522494.4546766        2097912.7394714355       -41634200.020270437     
   2998728066.3954673       -12908929.846581817       -9554814.4698561672     
   3540589302.6229315        1873772.3547167778        94992473.002625674     
   3371250903.2752099        14100518.197386265        104394212.38303933     
   3199667920.8072271        18845320.305856943        117645680.98389916     
   3025840355.2190161        16108178.680237174        134746878.80516487     
   2849768206.5105629        5889093.3204629421        155697805.84685755     
   3328248574.3970299        10089771.342172146        300938372.12337863     
   3167796419.3224850        19495198.884354949        300716534.63346189     
   3005842347.6116037        23894237.638746023        304131613.89490169     
   2842386359.2643628        23286887.605278373        311183609.90770465     
   2677428454.2807918        17673148.784034491        321872522.67188948     
   3094960096.3297582        12021445.377228022        504340590.82760179     
   2942786149.9025373        18423143.931202173        495361620.69854766     
   2789852953.3228693        22294008.643684864        489806754.85180193     
   2636160506.5907483        23634039.514671683        487675993.28736186     
   2481708809.7061882        22443236.544169426        488969336.00524026     
   2840723868.4211359        7668794.4598753452        705199129.11527956     
   2696220095.0153570        10884353.337869406        688329470.57830870     
   2551699737.9410305        14044633.320698142        674671103.85459113     
   2407162797.1981478        17149634.408340216        664224028.94412327     
   2262609272.7867227        20199356.600846052        656988245.84692597     
   2998728066.3954673       -12908929.846581817       -9554814.4698561672     
   2843578845.7309890       -19939073.864100933       -3910316.4478953695     
   2690218942.5938001       -21004826.123998880       -1144088.1199292336     
   2538648356.9838920       -16106186.626283288       -1256129.4859705705     
   2388867088.9012814       -5243155.3709206581       -4246440.5460014455     
   2849768206.5105629        5889093.3204629421        155697805.84685755     
   2689671478.5703015       -1060863.8834023476        155892619.41686928     
   2530814829.5253043       -3877224.7697196007        155141423.20404327     
   2373198259.3755817       -2559989.3384582996        153444217.20839295     
   2216821768.1211276        2890842.4103666544        150801001.42991897     
   2677428454.2807918        17673148.784034491        321872522.67188948     
   2517904961.6681070        12459601.174854159        315976873.38591921     
   2359072309.3186569        9548854.4431406260        311067474.22829050     
   2200930497.2324634        8940908.5889376402        307144325.19900405     
   2043479525.4095111        10635763.612201929        304207426.29806685     
   2481708809.7061882        22443236.544169426        488969336.00524026     
   2328279295.0244098        20622321.310668111        476342445.45927542     
   2174991381.9738483        19273411.514552474        466634064.95281446     
   2021845070.5545201        18396507.155879498        459844194.48586160     
   1868840360.7664154        17991608.234600186        455972834.05842811     
   2262609272.7867227        20199356.600846052        656988245.84692597     
   2120794478.6391988        23427296.524001360        636989335.63692486     
   1978572047.4908781        25296446.444509149        621841195.37760031     
   1835941979.3417592        25806806.362364411        611543825.06896389     
   1692904274.1918485        24958376.277557135        606097224.71101415     
   2388867088.9012814       -5243155.3709206581       -4246440.5460014455     
   2247500832.0535131        5402635.5257252455       -9140869.4520238414     
   2102537514.5603206        4058224.2710007429       -12305532.093237480     
   1953977136.4217081       -9276389.1351461411       -13740428.469634678     
   1801819697.6376858       -34601204.692659020       -13445558.581223119     
   2216821768.1211276        2890842.4103666544        150801001.42991897     
   2078563847.0574427        12007564.972652674        141592517.32816726     
   1937899024.9597478        13101284.088259459        133398156.41113357     
   1794827301.8280509        6171999.7571814060        126217918.67883646     
   1649348677.6623425       -8780288.0205991268        120051804.13123561     
   2043479525.4095111        10635763.612201929        304207426.29806685     
   1906285245.6153624        17610009.485773683        292073406.54723471     
   1767874224.3986092        20528450.617361784        280237866.90103048     
   1628246461.7592602        19391087.006942391        268700807.35945356     
   1487401957.6973088        14197918.654526889        257462227.92250583     
   1868840360.7664154        17991608.234600186        455972834.05842811     
   1730665027.7272434        22209969.065078139        442301798.20515931     
   1592463112.8768842        26339723.858254910        428213599.37643248     
   1454234616.2153449        30380872.614159405        413708237.57224351     
   1315979537.7426224        34333415.332783759        398785712.79257286     
   1692904274.1918485        24958376.277557135        606097224.71101415     
   1551703193.3931112        25807443.710572124        592277692.30195761     
   1411665690.3945966        30535103.810999215        577325353.83734953     
   1272791765.1963167        39141356.578877330        561240209.31717753     
   1135081417.7982483        51626202.014121056        544022258.74145007     
   1801819697.6376858       -34601204.692659020       -13445558.581223119     
   1770893107.6804399       -16621694.920568347       -8078756.1225426076     
   1748136152.4443760        28589930.588828206       -41447093.644565187     
   1733548831.9294834        101033671.83545738       -113550571.14727934     
   1727131146.1358104        200709528.81946355       -224389188.63068891     
   1649348677.6623425       -8780288.0205991268        120051804.13123561     
   1526865717.8111379       -14051518.937992454        135545824.30791354     
   1408624180.4660397       -5184674.8350186348        124712563.16753003     
   1294624065.6270390        17820244.288273871        87552020.710041523     
   1184865373.2941663        54963238.431971610        24064196.935473621     
   1487401957.6973088        14197918.654526889        257462227.92250583     
   1308813652.7053144       -3688745.5264130235        278500551.56627756     
   1130538558.0043480       -20531375.403912008        285619452.55655909     
   952576673.59441662       -36329970.977962971        278818930.89338428     
   774927999.47551823       -51084532.248581499        258098986.57672948     
   1315979537.7426224        34333415.332783759        398785712.79257286     
   1116736912.3629971        14466625.314251482        420785425.65251207     
   913879285.05932188       -17450171.117779255        441273574.52256876     
   707406655.83160377       -61416973.963297009        460250159.40277267     
   497319024.67985272       -117433783.22225985        477715180.29309404     
   1135081417.7982483        51626202.014121056        544022258.74145007     
   950635496.78415823        40414593.583916306        562400446.56662440     
   758646361.63095427        4058938.0233478844        591674929.06553662     
   559114012.33862054       -57440764.667652994        631845706.23819196     
   352038448.90717548       -144084514.48904175        682912778.08457756     
   1727131146.1358104        200709528.81946355       -224389188.63068891     
   1456712861.3455637        184697547.91016579       -96701132.056232512     
   1154067145.2224662        61260795.891364515        60131550.431018732     
   819193997.76652551       -169600727.23689127        246108858.83104944     
   452093418.97776175       -507887021.47460222        461230793.14387500     
   1184865373.2941663        54963238.431971610        24064196.935473621     
   977785943.89399731        11921273.059885979        155517958.54142475     
   732846143.59503639       -157321928.64150655        312786979.41068667     
   450045972.39726567       -452766366.67230976        495871259.54326963     
   129385430.30068696       -874412041.03242767        704770798.93912756     
   774927999.47551823       -51084532.248581499        258098986.57672948     
   621674949.32406032       -124010224.92579836        386746690.38722879     
   424928588.70781493       -341913619.15230179        537880286.81154072     
   184688917.62678960       -704794714.92806625        711499775.84965897     
  -99044063.919000745       -1212653512.2530637        907605157.50160003     
   497319024.67985272       -117433783.22225985        477715180.29309404     
   388379877.63569629       -223096946.04705086        596985063.48117256     
   230314480.56078622       -492514275.64101928        735411472.63357961     
   23122833.455125868       -925685772.00415254        892994407.75030053     
  -233195063.68128738       -1522611435.1364663        1069733868.8313475     
   352038448.90717548       -144084514.48904175        682912778.08457756     
   277900728.82891214       -285338890.30385596        786233077.82326436     
   149003819.15394506       -609123898.10769379        905380536.87679434     
  -34652280.117770910       -1115439537.9006586        1040355155.2451509     
  -273067568.98617995       -1804285809.6826503        1191156932.9283381     
   4577936980.1980286        39461218.176450014        1507981628.0675080     
   4430097695.2192402        21061736.805742979        1270426814.0904331     
   4284614468.6888590        10515783.596381664        1087391161.7093430     
   4141487300.6068788        7823358.5483715534        958874670.92425001     
   4000716190.9733057        12984461.661701918        884877341.73514843     
   3657301080.2271099       -127171750.29437399        1227545659.7664542     
   3631261530.5471749       -108883151.72200131        1099801496.9919651     
   3607002022.2245317       -84661081.958632469        1002763796.7106549     
   3584522555.2591929       -54505541.004267216        936432558.92252588     
   3563823129.6511512       -18416528.858901739        900807783.62757826     
   3077534539.8771372       -191543910.87891471        947502685.80191457     
   3105258442.3451600       -156978117.30873275        928897154.29038846     
   3134186369.0793729       -118398909.51790619        917185386.16923201     
   3164318320.0797873       -75806287.506421924        912367381.43844259     
   3195654295.3463912       -29200251.274287224        914443140.09802890     
   2838637359.1481256       -153655263.57716787        667852706.17388356     
   2852088430.6132126       -123223159.95445049        757713785.98569798     
   2866167509.2533922       -90697699.081419587        830655930.08507645     
   2880874595.0686641       -56078880.958090067        886679138.47201455     
   2896209688.0590267       -19366705.584452510        925783411.14650738     
   2940609538.0400610       -13505808.389135122        388595720.88236374     
   2871751495.3513265       -7618279.6591379642        586251392.07790565     
   2802945442.7465811       -1557450.6491863728        743175428.45819497     
   2734191380.2258210        4676678.6407253742        859367830.02322888     
   2665489307.7890539        11084108.210600019        934828596.77301085     
   4000716190.9733057        12984461.661701918        884877341.73514843     
   3842699493.3536596        14785981.069776058        834215941.73723340     
   3683522842.3563108        12720989.218847275        797199502.26297104     
   3523186237.9812598        6789486.1088945866        773828023.31238115     
   3361689680.2285113       -3008528.2600367069        764101504.88545215     
   3563823129.6511512       -18416528.858901739        900807783.62757826     
   3436848681.3084803       -12692882.295135975        870910195.00604570     
   3309094504.5132022       -9568330.5733861923        850341192.88413405     
   3180560599.2653217       -9042873.6936457157        839100777.26184535     
   3051246965.5648417       -11116511.655906677        837188948.13917315     
   3195654295.3463912       -29200251.274287224        914443140.09802890     
   3087389599.0691433       -23254226.718291879        905752958.59883499     
   2978725399.2643890       -18639880.587317944        902074989.57521820     
   2869661695.9321294       -15357212.881362557        903409233.02718008     
   2760198489.0723662       -13406223.600420356        909755688.95471501     
   2896209688.0590267       -19366705.584452510        925783411.14650738     
   2794322246.6356497       -16898052.199696422        938744232.51559794     
   2692415526.6098638       -14493660.822971702        952400892.33622468     
   2590489527.9816713       -12153531.454266787        966753390.60838199     
   2488544250.7510743       -9877664.0935792923        981801727.33207321     
   2665489307.7890539        11084108.210600019        934828596.77301085     
   2557646624.0079994        6375641.2606519461        969884016.75633705     
   2450164886.5496321        2870328.7196677923        1001318901.1671505     
   2343044095.4139600        568170.58766531944        1029133250.0054544     
   2236284250.6009769       -530833.13537693024        1053327063.2712519     
   3361689680.2285113       -3008528.2600367069        764101504.88545215     
   3230249032.6040459       -4336513.1554666758        741533645.67345381     
   3099607848.0946593       -2999621.0006278753        724193963.30775821     
   2969766126.7003522        1002148.2044748068        712082457.78836620     
   2840723868.4211359        7668794.4598753452        705199129.11527956     
   3051246965.5648417       -11116511.655906677        837188948.13917315     
   2933195494.3651967       -9997729.4547441006        821897828.10233164     
   2815800963.5389347       -6689146.0089726448        811113259.13906443     
   2699063373.0860500       -1190761.3186062574        804835241.24936819     
   2582982723.0065508        6497424.6163750887        803063774.43325424     
   2760198489.0723662       -13406223.600420356        909755688.95471501     
   2653474406.3754559       -10459210.679290175        901575031.56104279     
   2547264741.3102326       -5797472.3192179203        897179299.46821809     
   2441569493.8766890        578991.47978830338        896568492.67624009     
   2336388664.0748243        8670180.7177340984        899742611.18510818     
   2488544250.7510743       -9877664.0935792923        981801727.33207321     
   2391085768.6348233       -5720956.8291033506        980565256.04958928     
   2293999181.4085569       -324599.93134856224        982392084.29522610     
   2197284489.0722656        6311406.5996625423        987282212.06897879     
   2100941691.6259589        14187062.763950348        995235639.37084591     
   2236284250.6009769       -530833.13537693024        1053327063.2712519     
   2146029581.1433010        4217032.0958182812        1058868501.5679781     
   2056004283.8339033        9729471.1546201706        1066751613.6200849     
   1966208358.6727877        16006484.041020274        1076976399.4275825     
   1876641805.6599548        23048070.755028486        1089542858.9904704     
   2840723868.4211359        7668794.4598753452        705199129.11527956     
   2696220095.0153570        10884353.337869406        688329470.57830870     
   2551699737.9410305        14044633.320698142        674671103.85459113     
   2407162797.1981478        17149634.408340216        664224028.94412327     
   2262609272.7867227        20199356.600846052        656988245.84692597     
   2582982723.0065508        6497424.6163750887        803063774.43325424     
   2447130656.9757996        9247906.9743047953        790254858.22732735     
   2311276851.3683786        11992590.743336916        780997135.07817590     
   2175421306.1842761        14731475.923433781        775290604.98581362     
   2039564021.4235032        17464562.514625907        773135267.95021927     
   2336388664.0748243        8670180.7177340984        899742611.18510818     
   2210159451.8291731        11246930.478647828        891011755.41741812     
   2083943344.0987148        13867361.956879020        886171993.95002401     
   1957740340.8834586        16531475.152447104        885223326.78293633     
   1831550442.1833997        19239270.065340519        888165753.91614425     
   2100941691.6259589        14187062.763950348        995235639.37084591     
   1985306479.5754614        16881423.850847960        990600162.14857578     
   1869699216.1320405        19668946.961316228        990195680.47012949     
   1754119901.2956960        22549632.095371842        994022194.33550715     
   1638568535.0664170        25523479.252997994        1002079703.7447077     
   1876641805.6599548        23048070.755028486        1089542858.9904704     
   1772571740.2146811        26151387.090930820        1089020078.4208057     
   1668544467.4683592        29397345.756662190        1093068194.6384902     
   1564559987.4209795        32785946.752210498        1101687207.6435215     
   1460618300.0725482        36317190.077576399        1114877117.4358914     
   2262609272.7867227        20199356.600846052        656988245.84692597     
   2120794478.6391988        23427296.524001360        636989335.63692486     
   1978572047.4908781        25296446.444509149        621841195.37760031     
   1835941979.3417592        25806806.362364411        611543825.06896389     
   1692904274.1918485        24958376.277557135        606097224.71101415     
   2039564021.4235032        17464562.514625907        773135267.95021927     
   1909819525.1752684        21642936.975042820        757693214.47890329     
   1779820582.5578585        24973156.871543050        746465904.54776680     
   1649567193.5712888        27455222.204173744        739453338.15680206     
   1519059358.2155390        29089132.972877085        736655515.30600524     
   1831550442.1833997        19239270.065340519        888165753.91614425     
   1712059025.5187109        23822913.568289518        877459279.58708346     
   1592466353.1164789        28069037.946095288        870331522.38768876     
   1472772424.9767008        31977643.198747754        866782482.31795859     
   1352977241.0993774        35548729.326248050        866812159.37788415     
   1638568535.0664170        25523479.252997994        1002079703.7447077     
   1527512979.6695287        29967226.303745568        996287530.96146202     
   1416509359.1667295        34584089.668123484        993438048.89736962     
   1305557673.5580037        39374069.346085787        993531257.55242932     
   1194657922.8433595        44337165.337652206        996567156.92664611     
   1460618300.0725482        36317190.077576399        1114877117.4358914     
   1356181387.6277215        40075875.181427360        1114177968.6020234     
   1251949600.7086067        44518312.037639558        1115785484.0768025     
   1147922939.3151939        49644500.646196604        1119699663.8602257     
   1044101403.4474927        55454441.007114887        1125920507.9522843     
   1692904274.1918485        24958376.277557135        606097224.71101415     
   1551703193.3931112        25807443.710572124        592277692.30195761     
   1411665690.3945966        30535103.810999215        577325353.83734953     
   1272791765.1963167        39141356.578877330        561240209.31717753     
   1135081417.7982483        51626202.014121056        544022258.74145007     
   1519059358.2155390        29089132.972877085        736655515.30600524     
   1376311997.4499750        27126424.076461375        727271599.66127646     
   1233868690.4982829        26177227.892962694        718479915.40441966     
   1091729437.3604865        26241544.422442794        710280462.53543353     
   949894238.03656948        27319373.664856374        702673241.05429900     
   1352977241.0993774        35548729.326248050        866812159.37788415     
   1213612278.7767661        32252847.623325408        860861082.51341248     
   1073691846.2816929        27105398.678863108        857227274.48024678     
   933215943.61416626        20106382.492881179        855910735.27836108     
   792184570.77417111        11255799.065362573        856911464.90777159     
   1194657922.8433595        44337165.337652206        996567156.92664611     
   1063604037.3734900        41186714.351167679        993046140.85837078     
   931135157.74481475        33319616.168660462        993567431.06481528     
   797251283.95734429        20735870.790175676        998131027.54597330     
   661952416.01106977        3435478.2156678140        1006736930.3018568     
   1044101403.4474927        55454441.007114887        1125920507.9522843     
   926287273.24014592        53928024.259992957        1123826774.6961453     
   806198624.88765705        44819880.362390578        1127500385.1581388     
   683835458.39001942        28130009.314290166        1136941339.3382823     
   559197773.74724793        3858411.1157435775        1152149637.2365675     
   1135081417.7982483        51626202.014121056        544022258.74145007     
   950635496.78415823        40414593.583916306        562400446.56662440     
   758646361.63095427        4058938.0233478844        591674929.06553662     
   559114012.33862054       -57440764.667652994        631845706.23819196     
   352038448.90717548       -144084514.48904175        682912778.08457756     
   949894238.03656948        27319373.664856374        702673241.05429900     
   791027221.85521507        10607867.021974385        720790491.94192243     
   623495850.21509612       -34984824.483462274        748956736.07623589     
   447300123.11621737       -109458700.85143369        787171973.45721769     
   262440040.55857620       -212813762.08193579        835436204.08488107     
   792184570.77417111        11255799.065362573        856911464.90777159     
   656475598.20537853       -11681864.156273842        873459780.65160990     
   510981128.85817504       -67237849.972589582        899209788.21505880     
   355701162.73257434       -155412158.38357931        934161487.59812164     
   190635699.82857424       -276204789.38922405        978314878.80080450     
   661952416.01106977        3435478.2156678140        1006736930.3018568     
   546980625.83465111       -26454599.950776815        1020408312.6956522     
   421102197.56018305       -92700138.444045693        1042434085.4819963     
   284317131.18768543       -195301137.26408219        1072814248.6609025     
   136625426.71714118       -334257596.41094160        1111548802.2323573     
   559197773.74724793        3858411.1157435775        1152149637.2365675     
   462542304.74303812       -33710340.361535519        1161636088.0740685     
   353859056.32113516       -111371689.89779194        1178629627.8770669     
   233148028.48154998       -229125637.49298900        1203130256.6455519     
   100409221.22428915       -386972183.14710492        1235137974.3795342     
   352038448.90717548       -144084514.48904175        682912778.08457756     
   277900728.82891214       -285338890.30385596        786233077.82326436     
   149003819.15394506       -609123898.10769379        905380536.87679434     
  -34652280.117770910       -1115439537.9006586        1040355155.2451509     
  -273067568.98617995       -1804285809.6826503        1191156932.9283381     
   262440040.55857620       -212813762.08193579        835436204.08488107     
   223670993.75604376       -352547678.14550233        884847987.92453420     
   140683116.32900822       -639677696.29074860        945288408.87271702     
   13476408.277464628       -1074203816.5176785        1016757466.9294109     
  -157949130.39856702       -1656126038.8262520        1099255162.0946076     
   190635699.82857424       -276204789.38922405        978314878.80080450     
   173525262.85513750       -418531264.73557335        986115232.20901763     
   122736354.22942847       -673119312.25618291        1000145700.5194341     
   38268973.951439917       -1039968931.9510599        1020406283.7320520     
  -79876877.978839874       -1519080123.8202059        1046896981.8468667     
   136625426.71714118       -334257596.41094160        1111548802.2323573     
   127463536.12619421       -483289650.07406211        1090034810.6767266     
   95163532.855193824       -709448746.00402701        1069952411.8169740     
   39725416.904134095       -1012734884.2008471        1051301605.6531131     
  -38850811.726977825       -1393148064.6645262        1034082392.1851436     
   100409221.22428915       -386972183.14710492        1235137974.3795342     
   85485813.569220573       -546822834.16095340        1196606723.3276405     
   57964652.206319511       -748665997.53423810        1154708542.7653246     
   17845737.135576665       -992501673.26698697        1109443432.6925664     
  -34870931.643002450       -1278329861.3592124        1060811393.1093946     
   2940609538.0400610       -13505808.389135122        388595720.88236374     
   2871751495.3513265       -7618279.6591379642        586251392.07790565     
   2802945442.7465811       -1557450.6491863728        743175428.45819497     
   2734191380.2258210        4676678.6407253742        859367830.02322888     
   2665489307.7890539        11084108.210600019        934828596.77301085     
   3053516323.4216332        133438520.82235622        841360504.40990222     
   2898693341.7055898        110117832.76102197        937650145.12963879     
   2743915538.8657856        86947740.953830123        1015284902.2108439     
   2589182914.9022269        63928245.400784492        1074264775.6535232     
   2434495469.8149114        41059346.101882935        1114589765.4576800     
   2845105714.6385250        183987631.78444839        1292814363.0330608     
   2667394225.8286686        150381656.51182711        1287730026.8679509     
   2489721104.6873131        116903573.46754074        1286067558.2410429     
   2312086351.2144604        83553382.651591778        1287826957.1523352     
   2134489965.4101028        50331084.063967705        1293008223.6018264     
   2315377711.6907282        138141524.49713135        1742957296.7518332     
   2177854147.7205715        113173191.59328246        1636491037.2928464     
   2040362140.2111681        88310046.891949534        1555523396.5487885     
   1902901689.1625249        63552090.393148303        1500054374.5196593     
   1765472794.5746343        38899322.096856952        1470083971.2054558     
   1464332314.5782459       -4099801.0395911932        2191789305.5662246     
   1430073107.3812900       -1507561.9946224093        1983933176.4043293     
   1395838645.4373477        1167161.2270562649        1823652417.1340830     
   1361628928.7464194        3924368.6254532337        1710947027.7554960     
   1327443957.3084984        6764060.2005394697        1645817008.2685626     
   2665489307.7890539        11084108.210600019        934828596.77301085     
   2557646624.0079994        6375641.2606519461        969884016.75633705     
   2450164886.5496321        2870328.7196677923        1001318901.1671505     
   2343044095.4139600        568170.58766531944        1029133250.0054544     
   2236284250.6009769       -530833.13537693024        1053327063.2712519     
   2434495469.8149114        41059346.101882935        1114589765.4576800     
   2321408352.6158795        31272922.192524314        1128096347.2448356     
   2208673228.2041559        22659807.574190855        1142361121.2736123     
   2096290096.5797379        15220002.246887445        1157384087.5440111     
   1984258957.7426312        8953506.2106060982        1173165246.0560300     
   2134489965.4101028        50331084.063967705        1293008223.6018264     
   2028669065.6906111        39219898.464452386        1284955521.4015346     
   1923191205.2230411        29252177.038022637        1282039739.2569959     
   1818056384.0073974        20427919.784674168        1284260877.1682088     
   1713264602.0436797        12747126.704410672        1291618935.1351712     
   1765472794.5746343        38899322.096856952        1470083971.2054558     
   1679428763.2321944        30216570.076439261        1440461539.2264352     
   1593718817.6062951        22647437.111163318        1420354755.1172969     
   1508342957.6969399        16191923.201029181        1409763618.8780406     
   1423301183.5041261        10850028.346034527        1408688130.5086687     
   1327443957.3084984        6764060.2005394697        1645817008.2685626     
   1273687445.2406266        4262937.0284773707        1594614400.7195332     
   1220256065.3539166        2845587.7936192751        1557306168.8545172     
   1167149817.6483617        2512012.4959483743        1533892312.6735151     
   1114368702.1239653        3262211.1354730129        1524372832.1765211     
   2236284250.6009769       -530833.13537693024        1053327063.2712519     
   2146029581.1433010        4217032.0958182812        1058868501.5679781     
   2056004283.8339033        9729471.1546201706        1066751613.6200849     
   1966208358.6727877        16006484.041020274        1076976399.4275825     
   1876641805.6599548        23048070.755028486        1089542858.9904704     
   1984258957.7426312        8953506.2106060982        1173165246.0560300     
   1900864521.1319797        12085526.556890607        1172789883.7536414     
   1817650513.0843263        15818975.446497798        1175722837.1670172     
   1734616933.5996621        20153852.879410982        1181964106.2961593     
   1651763782.6780000        25090158.855649948        1191513691.1410675     
   1713264602.0436797        12747126.704410672        1291618935.1351712     
   1639492232.4525633        15091852.417540193        1285269671.3841672     
   1565851347.8391557        17874861.389700949        1283195365.3093071     
   1492341948.2034514        21096153.620879650        1285396016.9105890     
   1418964033.5454614        24755729.111094534        1291871626.1880138     
   1423301183.5041261        10850028.346034527        1408688130.5086687     
   1361912715.1050482        13236009.677758992        1396307864.4595504     
   1300606788.0983908        15897128.984220684        1389169198.0469532     
   1239383402.4841542        18833386.265420556        1387272131.2708766     
   1178242558.2623434        22044781.521366119        1390616664.1313221     
   1114368702.1239653        3262211.1354730129        1524372832.1765211     
   1068125969.0894330        6517998.3375443220        1505904462.9797931     
   1021916833.8620341        9885778.2300694585        1493644335.3799610     
   975741296.44176865        13365550.813035131        1487592449.3770251     
   929599356.82864177        16957316.086462677        1487748804.9709811     
   1876641805.6599548        23048070.755028486        1089542858.9904704     
   1772571740.2146811        26151387.090930820        1089020078.4208057     
   1668544467.4683592        29397345.756662190        1093068194.6384902     
   1564559987.4209795        32785946.752210498        1101687207.6435215     
   1460618300.0725482        36317190.077576399        1114877117.4358914     
   1651763782.6780000        25090158.855649948        1191513691.1410675     
   1559558962.2420187        27636095.507622004        1188354656.8303337     
   1467447426.3397570        30492980.605336785        1189880463.3587751     
   1375429174.9712272        33660814.148817420        1196091110.7263825     
   1283504208.1364193        37139596.138041079        1206986598.9331548     
   1418964033.5454614        24755729.111094534        1291871626.1880138     
   1338950012.5525463        26841952.409258425        1286135245.2767904     
   1259079767.9281328        29407430.269104481        1285197649.2565644     
   1179353299.6722281        32452162.690643549        1289058838.1273239     
   1099770607.7848279        35976149.673860312        1297718811.8890777     
   1178242558.2623434        22044781.521366119        1390616664.1313221     
   1110744891.1462688        23768957.795855939        1382361843.7601826     
   1043441492.2334827        26140694.747971237        1379019752.3318634     
   976332361.52398002        29159992.377694964        1380590389.8463545     
   909417499.01776123        32826850.685040325        1387073756.3036590     
   929599356.82864177        16957316.086462677        1487748804.9709811     
   874943598.02319181        18417111.667420149        1477034452.2805097     
   820532599.25580728        20692774.041923672        1471346772.5846713     
   766366360.52648830        23784303.209981650        1470685765.8834722     
   712444881.83522952        27691699.171574146        1475051432.1769061     
   1460618300.0725482        36317190.077576399        1114877117.4358914     
   1356181387.6277215        40075875.181427360        1114177968.6020234     
   1251949600.7086067        44518312.037639558        1115785484.0768025     
   1147922939.3151939        49644500.646196604        1119699663.8602257     
   1044101403.4474927        55454441.007114887        1125920507.9522843     
   1283504208.1364193        37139596.138041079        1206986598.9331548     
   1186062140.5269544        39192152.066723466        1204704424.4853327     
   1088677714.2113538        41436845.641630292        1205889957.7195692     
   991350929.18962300        43873676.862763286        1210543198.6358583     
   894081785.46176767        46502645.730150819        1218664147.2342057     
   1099770607.7848279        35976149.673860312        1297718811.8890777     
   1012640651.7918971        37317756.461732447        1293681546.8901544     
   925420852.86099994        38359886.789717406        1294273032.9467010     
   838111210.99212885        39102540.657786280        1299493270.0587130     
   750711726.18528724        39545718.065953434        1309342258.2261972     
   909417499.01776123        32826850.685040325        1387073756.3036590     
   835916921.42255247        34452688.366468608        1381109335.8164940     
   762179016.65752482        35287435.481844872        1380934709.7582095     
   688203784.72269142        35331092.031196296        1386549878.1288011     
   613991225.61805499        34583658.014543772        1397954840.9282799     
   712444881.83522952        27691699.171574146        1475051432.1769061     
   655890949.41890574        30596947.780880809        1466987791.2643445     
   598952205.60094476        32219491.718060791        1465874988.1540828     
   541628650.38133013        32559330.983062506        1471713022.8461094     
   483920283.76006132        31616465.575885728        1484501895.3404305     
   1044101403.4474927        55454441.007114887        1125920507.9522843     
   926287273.24014592        53928024.259992957        1123826774.6961453     
   806198624.88765705        44819880.362390578        1127500385.1581388     
   683835458.39001942        28130009.314290166        1136941339.3382823     
   559197773.74724793        3858411.1157435775        1152149637.2365675     
   894081785.46176767        46502645.730150819        1218664147.2342057     
   791074682.71553195        44087849.036264181        1216289667.7723413     
   685819359.86943662        34178985.342834264        1219742876.4732139     
   578315816.92349172        16776054.649914145        1229023773.3368194     
   468564053.87768787       -8120943.0425356925        1244132358.3631656     
   750711726.18528724        39545718.065953434        1309342258.2261972     
   662684063.59899807        36294265.234941095        1306717713.6114531     
   572434478.95814192        25636405.555380613        1309981201.6040382     
   479962972.26271570        7572139.0272498429        1319132722.2039559     
   385269543.51272833       -17898534.349424824        1334172275.4111958     
   613991225.61805499        34583658.014543772        1397954840.9282799     
   541115415.89055049        30547272.856066406        1395110912.2134888     
   466043982.15376604        19192140.999986798        1398215360.5506222     
   388776924.40770614        518262.44632901251        1407268185.9396698     
   309314242.65236408       -25474362.804947034        1422269388.3806489     
   483920283.76006132        31616465.575885728        1484501895.3404305     
   426368739.59017783        26846871.899584219        1481469263.5784311     
   366647869.45631194        14846191.676674515        1484445353.3129549     
   304757673.35844815       -4385575.0928933769        1493430164.5439913     
   240698151.29660085       -30848428.409075603        1508423697.2715394     
   559197773.74724793        3858411.1157435775        1152149637.2365675     
   462542304.74303812       -33710340.361535519        1161636088.0740685     
   353859056.32113516       -111371689.89779194        1178629627.8770669     
   233148028.48154998       -229125637.49298900        1203130256.6455519     
   100409221.22428915       -386972183.14710492        1235137974.3795342     
   468564053.87768787       -8120943.0425356925        1244132358.3631656     
   390933550.01321274       -42216854.811048180        1242647939.6250954     
   303132392.51420337       -110214945.36134146        1247489595.9423733     
   205160581.38066995       -212115214.69338161        1258657327.3150158     
   97018116.612614915       -347917662.80716050        1276151133.7430172     
   385269543.51272833       -17898534.349424824        1334172275.4111958     
   323289679.33045071       -49533904.046460196        1323883633.8445616     
   252996287.29681152       -108881033.24804237        1318740053.4231520     
   174389367.41180825       -195939921.95416883        1318741534.1469657     
   87468919.675435320       -310710570.16485775        1323888076.0160017     
   309314242.65236408       -25474362.804947034        1422269388.3806489     
   259610692.69476920       -55661488.067735523        1405343170.7324774     
   203450740.66896501       -107369953.55788298        1392381000.3193941     
   140834386.57496446       -180599759.27535722        1383382877.1414051     
   71761630.412747949       -275350905.22021234        1378348801.1984887     
   240698151.29660085       -30848428.409075603        1508423697.2715394     
   199896590.10615456       -60599606.874890819        1487026550.2888451     
   154495752.63066864       -105681706.29084361        1468412436.6311045     
   104495638.87013409       -166094726.65695286        1452581356.2983258     
   49896248.824552000       -241838667.97322619        1439533309.2904844     
   100409221.22428915       -386972183.14710492        1235137974.3795342     
   85485813.569220573       -546822834.16095340        1196606723.3276405     
   57964652.206319511       -748665997.53423810        1154708542.7653246     
   17845737.135576665       -992501673.26698697        1109443432.6925664     
  -34870931.643002450       -1278329861.3592124        1060811393.1093946     
   97018116.612614915       -347917662.80716050        1276151133.7430172     
   80003108.984979331       -489086488.78296268        1221876916.7083929     
   51595272.571536303       -668231410.71144795        1165049515.7349749     
   11794607.372301459       -885352428.59257960        1105668930.8227785     
  -39398886.612735868       -1140449542.4263802        1043735161.9717935     
   87468919.675435320       -310710570.16485775        1323888076.0160017     
   70687299.422770619       -432500074.89837205        1255276638.7410295     
   43717775.306339473       -588249259.17776763        1184925763.0989022     
   6560347.3261553645       -777958123.00302637        1112835449.0896354     
  -40784984.517804086       -1001626666.3741753        1039005696.7132185     
   71761630.412747949       -275350905.22021234        1378348801.1984887     
   57538384.882595494       -377063592.50717980        1296805889.4255366     
   34332160.410719901       -508719542.93322122        1214337284.8570795     
   2142956.9971167445       -670318756.49835110        1130942987.4931173     
  -39029225.358210325       -861861233.20256519        1046622997.3336480     
   49896248.824552000       -241838667.97322619        1439533309.2904844     
   40556365.364468142       -322777041.60933983        1346464668.7619417     
   23438427.884686768       -429642261.97778392        1253284081.0095224     
  -1457563.6147840619       -562434329.07852077        1159991546.0332334     
  -34131609.133939117       -721153242.91153848        1066587063.8330790     
   1464332314.5782459       -4099801.0395911932        2191789305.5662246     
   1430073107.3812900       -1507561.9946224093        1983933176.4043293     
   1395838645.4373477        1167161.2270562649        1823652417.1340830     
   1361628928.7464194        3924368.6254532337        1710947027.7554960     
   1327443957.3084984        6764060.2005394697        1645817008.2685626     
   613483971.93743396       -148504438.92703956        1833104338.4150488     
   682517651.91991889       -118141830.01449272        1727333754.2438731     
   751569890.45029020       -87717359.275656223        1647035320.3496301     
   820640687.52855206       -57231026.710516751        1592209036.7323253     
   889730043.15469790       -26682832.319097638        1562854903.3919532     
   85812470.003917247       -195956024.60230118        1473185481.6035638     
   194986981.12378886       -156768662.63479322        1469493224.6004586     
   304173864.08642328       -117540061.19140851        1469169898.2595713     
   413373118.89182198       -78270220.272144049        1472215502.5809021     
   522584745.53998172       -38959139.877009481        1478630037.5644505     
  -118682191.22230721       -146454558.06537428        1112032735.1317611     
  -32518905.007099699       -117388059.85551922        1210411587.4740865     
   53650566.345744908       -88300944.520207420        1290056150.8639059     
   139826222.83622876       -59193212.059432745        1350966425.3012259     
   226008064.46435091       -30064862.473195642        1393142410.7860489     
  -11.741237286451572       -39.316259039621116        749646098.99964690     
  -6.4727465145983469       -21.676674374884772        950088842.86475122     
  -2.7717425424442070       -9.2620457091453741        1109694078.1626382     
 -0.63822541574010005       -2.0723738887954752        1228461804.8933053     
  -7.2196095255951429E-002 -0.10766003473332393        1306392023.0567513     
   1327443957.3084984        6764060.2005394697        1645817008.2685626     
   1273687445.2406266        4262937.0284773707        1594614400.7195332     
   1220256065.3539166        2845587.7936192751        1557306168.8545172     
   1167149817.6483617        2512012.4959483743        1533892312.6735151     
   1114368702.1239653        3262211.1354730129        1524372832.1765211     
   889730043.15469790       -26682832.319097638        1562854903.3919532     
   868264719.24907303       -22903056.766346097        1534483810.3999474     
   847043244.50162172       -18310450.686348379        1515608279.0660861     
   826065618.91234040       -12905014.079119861        1506228309.3903682     
   805331842.48123181       -6686746.9446460605        1506343901.3727942     
   522584745.53998172       -38959139.877009481        1478630037.5644505     
   520842569.72269404       -32668877.621617228        1472995628.9359834     
   519262960.04059237       -25836728.248939663        1472457967.9397891     
   517845916.49367493       -18462691.758981377        1477017054.5758712     
   516591439.08194470       -10546768.151731193        1486672888.8442280     
   226008064.46435091       -30064862.473195642        1393142410.7860489     
   231420996.66148952       -25034525.537339285        1410149856.3276341     
   236915211.97082689       -19733244.894153446        1427855235.4756250     
   242490710.39236677       -14161020.543625697        1446258548.2300260     
   248147491.92610294       -8317852.4857777357        1465359794.5908277     
  -7.2196095255951429E-002 -0.10766003473332393        1306392023.0567513     
   6.5461830095786239E-002 -0.51350164962651057        1345946492.5749061     
  0.29232884428150285      -0.62198032896249089        1381800081.6735971     
  0.60841020866031248      -0.43307784098816154        1413952790.3528292     
   1.0137034984319278        5.3198425518243664E-002   1442404618.6125963     
   1114368702.1239653        3262211.1354730129        1524372832.1765211     
   1068125969.0894330        6517998.3375443220        1505904462.9797931     
   1021916833.8620341        9885778.2300694585        1493644335.3799610     
   975741296.44176865        13365550.813035131        1487592449.3770251     
   929599356.82864177        16957316.086462677        1487748804.9709811     
   805331842.48123181       -6686746.9446460605        1506343901.3727942     
   774223881.31282973       -3172679.8236798048        1494596612.6037586     
   743141118.50779700        425381.84185144305        1488223611.3843381     
   712083554.06613445        4107438.0519480109        1487224897.7145300     
   681051187.98784673        7873488.8066311777        1491600471.5943360     
   516591439.08194470       -10546768.151731193        1486672888.8442280     
   498235523.93029517       -7489238.8666866720        1481636881.1518304     
   479896407.69825184       -4375713.1829522550        1481141206.9617627     
   461574090.38581514       -1206191.1005312502        1485185866.2740257     
   443268571.99298763        2019327.3805871606        1493770859.0886219     
   248147491.92610294       -8317852.4857777357        1465359794.5908277     
   240160896.94182745       -6431678.7914701104        1467025268.6240106     
   232182701.43339315       -4517506.8443583995        1472397122.1122365     
   224212905.40080670       -2575336.6444206089        1481475355.0555148     
   216251508.84405982       -605168.19168418646        1494259967.4538407     
   1.0137034984319278        5.3198425518243664E-002   1442404618.6125963     
  0.34742675769272957       0.40196486249423180        1450761775.0202949     
 -0.28677193403819357       0.85765604782963190        1461991356.8357589     
 -0.88889278264011162        1.4202733769283828        1476093364.0589905     
  -1.4589329744296720        2.0898283104031634        1493067796.6899905     
   929599356.82864177        16957316.086462677        1487748804.9709811     
   874943598.02319181        18417111.667420149        1477034452.2805097     
   820532599.25580728        20692774.041923672        1471346772.5846713     
   766366360.52648830        23784303.209981650        1470685765.8834722     
   712444881.83522952        27691699.171574146        1475051432.1769061     
   681051187.98784673        7873488.8066311777        1491600471.5943360     
   639479087.71204877        8794251.2974092364        1484971621.0688961     
   598090557.42145836        10326913.738876194        1483504842.5155144     
   556885597.11607540        12471476.131033301        1487200135.9341931     
   515864206.79589963        15227938.473886698        1496057501.3249357     
   443268571.99298763        2019327.3805871606        1493770859.0886219     
   415166984.46805280        2517113.0475391001        1491156122.3332114     
   387187776.87547410        3422831.8223447800        1493838856.5272903     
   359330949.21524459        4736483.7049795687        1501819061.6708527     
   331596501.48736417        6458068.6954476386        1515096737.7639029     
   216251508.84405982       -605168.19168418646        1494259967.4538407     
   202007288.29120684       -414303.08217770606        1495587956.0734618     
   187824257.61784723       -19471.707692779601        1502348814.6200004     
   173702416.82398778        579325.93179136515        1514542543.0934451     
   159641765.90961766        1382089.8362435773        1532169141.4938061     
  -1.4589329744296720        2.0898283104031634        1493067796.6899905     
 -0.81849444804244853        2.9082388969564308        1498267122.2896478     
 -0.35141006405147901        3.1488030360782417        1509034716.7936432     
  -5.7693387613087843E-002   2.8114748166914589        1525370580.2019756     
   6.2660407997825462E-002   1.8962696339903589        1547274712.5146379     
   712444881.83522952        27691699.171574146        1475051432.1769061     
   655890949.41890574        30596947.780880809        1466987791.2643445     
   598952205.60094476        32219491.718060791        1465874988.1540828     
   541628650.38133013        32559330.983062506        1471713022.8461094     
   483920283.76006132        31616465.575885728        1484501895.3404305     
   515864206.79589963        15227938.473886698        1496057501.3249357     
   476511231.20571494        18325616.786562920        1491553282.9245322     
   436869647.09240001        20461266.688803524        1493285325.1180923     
   396939454.45594686        21634888.180586129        1501253627.9056118     
   356720653.29636651        21846481.261940733        1515458191.2870893     
   331596501.48736417        6458068.6954476386        1515096737.7639029     
   307402833.55664504        9135681.9614712596        1514264178.5672593     
   283016759.98131031        11171943.078776047        1518953302.7562387     
   258438280.76136050        12566852.047365487        1529164110.3308492     
   233667395.89679265        13320408.867225371        1544896601.2910802     
   159641765.90961766        1382089.8362435773        1532169141.4938061     
   148565756.47169650        3027143.3056077063        1535120478.1925194     
   137393544.26768130        4351520.8879934773        1542878921.0685272     
   126125129.29756398        5355222.5833735019        1555444470.1218309     
   114760511.56134857        6038248.3917556182        1572817125.3524215     
   6.2660407997825462E-002   1.8962696339903589        1547274712.5146379     
  -4.9123708763757823E-002  0.81899596994338020        1554122181.8003159     
  -4.8490927390670291E-002  0.11644460578924726        1565062180.0549529     
   6.4561977558979647E-002 -0.21137266616498240        1580094707.2785492     
  0.29002441474054086      -0.16449149734617446        1599219763.4711046     
   483920283.76006132        31616465.575885728        1484501895.3404305     
   426368739.59017783        26846871.899584219        1481469263.5784311     
   366647869.45631194        14846191.676674515        1484445353.3129549     
   304757673.35844815       -4385575.0928933769        1493430164.5439913     
   240698151.29660085       -30848428.409075603        1508423697.2715394     
   356720653.29636651        21846481.261940733        1515458191.2870893     
   314869502.89823115        18663038.356593817        1511509143.9369304     
   271391358.02424687        10056280.531750292        1513262566.2752259     
   226286218.67440146       -3973792.2126321644        1520718458.3019862     
   179554084.84870818       -23427179.876503386        1533876820.0171897     
   233667395.89679265        13320408.867225371        1544896601.2910802     
   206641634.10452342        11460615.183070093        1540663858.4222591     
   178531209.32453811        5985278.2065271512        1541827333.4338269     
   149336121.55683154       -3105602.0624210387        1548387026.3257916     
   119056370.80140680       -15812025.623760439        1560342937.0981565     
   114760511.56134857        6038248.3917556182        1572817125.3524215     
   101685133.20905799        5239602.3790182360        1568933407.0344188     
   88067423.357190415        2633184.7010185570        1570139654.7887490     
   73907382.005732715       -1781004.6422786936        1576435868.6154225     
   59205009.154697873       -8002965.6508330852        1587822048.5144248     
  0.29002441474054086      -0.16449149734617446        1599219763.4711046     
  0.21183567720474733       -5.5560684258510337E-002   1596317789.7734118     
  0.12219716996517230        1.5206311484719789E-002   1598199530.3399994     
   2.1112827603413938E-002   4.7819829597948560E-002   1604864985.1708615     
  -9.1422016477307036E-002   4.2264314758578211E-002   1616314154.2660041     
   240698151.29660085       -30848428.409075603        1508423697.2715394     
   199896590.10615456       -60599606.874890819        1487026550.2888451     
   154495752.63066864       -105681706.29084361        1468412436.6311045     
   104495638.87013409       -166094726.65695286        1452581356.2983258     
   49896248.824552000       -241838667.97322619        1439533309.2904844     
   179554084.84870818       -23427179.876503386        1533876820.0171897     
   148348656.86944824       -45921840.848989598        1508081298.4946349     
   113693771.67645040       -79914692.533932805        1485209803.6188054     
   75589429.269720003       -125405734.93131639        1465262335.3897069     
   34035629.649256811       -182394968.04114541        1448238893.8073220     
   119056370.80140680       -15812025.623760439        1560342937.0981565     
   97849914.095529124       -30929317.684275538        1531490496.6189346     
   74343819.247226924       -53712070.219537728        1505703076.1082146     
   48538086.256506979       -84160283.229526460        1482980675.5659881     
   20432715.123364635       -122273956.71425374        1463323294.9922659     
   59205009.154697873       -8002965.6508330852        1587822048.5144248     
   48400361.784405082       -15622037.380721278        1557254144.6617367     
   36445895.343006939       -27073839.347624548        1529892254.0993192     
   23341609.830493823       -42358371.551579796        1505736376.8271806     
   9087505.2468782105       -61475633.992541976        1484786512.8452985     
  -9.1422016477307036E-002   4.2264314758578211E-002   1616314154.2660041     
  -6.3920389128244867E-002   6.1685867037075195E-002   1585372242.6230509     
  -3.6220339914163478E-002   8.1768131642912453E-002   1557777337.5921354     
  -8.3116434980022996E-003  0.10254623386704423        1533529439.1732643     
   1.9799363613827527E-002  0.12399870507673814        1512628547.3664296     
   49896248.824552000       -241838667.97322619        1439533309.2904844     
   40556365.364468142       -322777041.60933983        1346464668.7619417     
   23438427.884686768       -429642261.97778392        1253284081.0095224     
  -1457563.6147840619       -562434329.07852077        1159991546.0332334     
  -34131609.133939117       -721153242.91153848        1066587063.8330790     
   34035629.649256811       -182394968.04114541        1448238893.8073220     
   29869462.419106439       -242247124.65478671        1347689166.1350281     
   19869754.674624294       -321544416.31619918        1246365117.3198309     
   4036506.4158184230       -420286843.02536160        1144266747.3617175     
  -17630282.357329190       -538474404.78232563        1041394056.2607036     
   20432715.123364635       -122273956.71425374        1463323294.9922659     
   19547767.211610883       -161607645.37884381        1357561079.2658064     
   14773792.290881515       -213904757.40668598        1250362168.4773993     
   6110790.3611735404       -279165292.79779011        1141726562.6270509     
  -6441238.5775078237       -357389251.55213606        1031654261.7147241     
   9087505.2468782105       -61475633.992541976        1484786512.8452985     
   9591279.7419710457       -80858603.781545833        1376080408.1542683     
   8150540.7334307805       -106723285.24932806        1265275234.4822538     
   4765288.2212877348       -139069678.39578414        1152370991.8292236     
  -564477.79448287934       -177897783.22099882        1037367680.1952308     
   1.9799363613827527E-002  0.12399870507673814        1512628547.3664296     
   1.0188370293948847E-002  0.13710927997352454        1403247152.8004138     
   2.3011354726471742E-003  0.15596779820040549        1291104315.3343542     
  -3.8412039117240449E-003  0.18064263455038790        1176200034.9682596     
  -8.2437719654323283E-003  0.21111601477985642        1058534311.7021272     
  -11.741237286451572       -39.316259039621116        749646098.99964690     
  -6.4727465145983469       -21.676674374884772        950088842.86475122     
  -2.7717425424442070       -9.2620457091453741        1109694078.1626382     
 -0.63822541574010005       -2.0723738887954752        1228461804.8933053     
  -7.2196095255951429E-002 -0.10766003473332393        1306392023.0567513     
   118682175.23544009        146454503.64237908        1112032745.0415652     
   32518896.536810987        117388030.42681922        1210411594.4487960     
  -53650569.545889072        88300932.597686782        1290056154.9535713     
  -139826223.01266208        59193210.154978871        1350966426.5558901     
  -226008063.86350667        30064863.098701090        1393142409.2557561     
  -85812477.983637840        195955994.54229060        1473185497.2976446     
  -194986984.46434397        156768647.32710239        1469493235.4609816     
  -304173864.14570922        117540056.10971886        1469169904.3866303     
  -413373117.02773172        78270220.890145063        1472215504.0745869     
  -522584743.11040884        38959141.668386430        1478630034.5248544     
  -613483971.39847159        148504433.38347536        1833104355.7678790     
  -682517649.47621667        118141829.02416697        1727333765.9013152     
  -751569886.57120275        87717361.274051428        1647035326.4618170     
  -820640682.68343353        57231030.133121610        1592209037.4493973     
  -889730037.81290567        26682835.601389170        1562854898.8640504     
  -1464332305.0090604        4099820.1659337282        2191789320.4522772     
  -1430073098.4988012        1507575.5180212259        1983933185.7697837     
  -1395838636.8223729       -1167151.9093257189        1823652421.1791313     
  -1361628919.9797692       -3924362.1160920858        1710947026.6803143     
  -1327443947.9709926       -6764055.1022784710        1645817002.2733364     
  -7.2196095255951429E-002 -0.10766003473332393        1306392023.0567513     
   6.5461830095786239E-002 -0.51350164962651057        1345946492.5749061     
  0.29232884428150285      -0.62198032896249089        1381800081.6735971     
  0.60841020866031248      -0.43307784098816154        1413952790.3528292     
   1.0137034984319278        5.3198425518243664E-002   1442404618.6125963     
  -226008063.86350667        30064863.098701090        1393142409.2557561     
  -231420995.95755970        25034525.287476182        1410149855.3002205     
  -236915211.02929491        19733244.217312485        1427855234.8333046     
  -242490709.07870561        14161019.888228640        1446258547.8550041     
  -248147490.10579410        8317852.3002206385        1465359794.3653247     
  -522584743.11040884        38959141.668386430        1478630034.5248544     
  -520842567.69880527        32668878.372980177        1472995626.8509245     
  -519262958.33176988        25836728.262346596        1472457966.5736942     
  -517845915.00930226        18462691.336487532        1477017053.6931612     
  -516591437.73140216        10546767.595403075        1486672888.2093267     
  -889730037.81290567        26682835.601389170        1562854898.8640504     
  -868264715.15827096        22903058.743023098        1534483807.2270191     
  -847043241.61509275        18310451.513136327        1515608276.8947673     
  -826065617.18337977        12905013.911697209        1506228307.8672938     
  -805331841.86311936        6686745.9387511015        1506343900.1445980     
  -1327443947.9709926       -6764055.1022784710        1645817002.2733364     
  -1273687438.3359578       -4262933.6024003625        1594614396.4285021     
  -1220256060.8792703       -2845586.0303436518        1557306165.7965250     
  -1167149815.6009324       -2512012.3861181736        1533892310.3774056     
  -1114368702.5009434       -3262212.6697262526        1524372830.1711445     
   1.0137034984319278        5.3198425518243664E-002   1442404618.6125963     
  0.34742675769272957       0.40196486249423180        1450761775.0202949     
 -0.28677193403819357       0.85765604782963190        1461991356.8357589     
 -0.88889278264011162        1.4202733769283828        1476093364.0589905     
  -1.4589329744296720        2.0898283104031634        1493067796.6899905     
  -248147490.10579410        8317852.3002206385        1465359794.3653247     
  -240160896.53118953        6431678.7981197089        1467025268.4085064     
  -232182702.37094352        4517507.2481552958        1472397121.9640286     
  -224212907.62505442        2575337.6503357887        1481475355.0318952     
  -216251512.29352975        605170.00463521481        1494259967.6120994     
  -516591437.73140216        10546767.595403075        1486672888.2093267     
  -498235523.90284145        7489238.0463730395        1481636880.5338144     
  -479896408.93507957        4375712.2946789265        1481141206.4752164     
  -461574092.82811630        1206190.3403215408        1485185866.0335357     
  -443268575.58195376       -2019327.8167043924        1493770859.2087710     
  -805331841.86311936        6686745.9387511015        1506343900.1445980     
  -774223881.76753306        3172678.1467098892        1494596611.3962123     
  -743141119.97918653       -425384.00279888511        1488223610.3693161     
  -712083556.49807620       -4107440.5097620785        1487224897.0639117     
  -681051191.32420707       -7873491.3741936386        1491600471.4799984     
  -1114368702.5009434       -3262212.6697262526        1524372830.1711445     
  -1068125970.1252639       -6518000.9008650780        1505904460.9957073     
  -1021916835.5032614       -9885781.6442638040        1493644333.6463332     
  -975741298.63493359       -13365554.899909139        1487592448.1230295     
  -929599359.52028716       -16957320.667827547        1487748804.4257853     
  -1.4589329744296720        2.0898283104031634        1493067796.6899905     
 -0.81849444804244853        2.9082388969564308        1498267122.2896478     
 -0.35141006405147901        3.1488030360782417        1509034716.7936432     
  -5.7693387613087843E-002   2.8114748166914589        1525370580.2019756     
   6.2660407997825462E-002   1.8962696339903589        1547274712.5146379     
  -216251512.29352975        605170.00463521481        1494259967.6120994     
  -202007290.58926725        414306.15702347457        1495587956.0250280     
  -187824258.99617508        19475.272177353501        1502348814.3517978     
  -173702417.51426479       -579322.64994074404        1514542542.5924084     
  -159641766.14352459       -1382087.6092914939        1532169140.7468619     
  -443268575.58195376       -2019327.8167043924        1493770859.2087710     
  -415166987.07241899       -2517112.6078973114        1491156122.1741841     
  -387187778.61187291       -3422830.8957177401        1493838856.0629427     
  -359330950.20031685       -4736482.6801737398        1501819060.8750498     
  -331596501.83775008       -6458067.9612581283        1515096736.6105044     
  -681051191.32420707       -7873491.3741936386        1491600471.4799984     
  -639479090.26795876       -8794253.3865486383        1484971620.7371142     
  -598090559.19850850       -10326915.354899406        1483504841.9270790     
  -556885598.11586225       -12471477.279264778        1487200135.0499032     
  -515864207.02002180       -15227939.159645230        1496057500.1055760     
  -929599359.52028716       -16957320.667827547        1487748804.4257853     
  -874943600.17587304       -18417116.178895652        1477034451.7138157     
  -820532600.75607765       -20692778.105355293        1471346771.9442086     
  -766366361.26089597       -23784306.447197586        1470685765.1169589     
  -712444881.69033408       -27691701.204437912        1475051431.2320721     
   6.2660407997825462E-002   1.8962696339903589        1547274712.5146379     
  -4.9123708763757823E-002  0.81899596994338020        1554122181.8003159     
  -4.8490927390670291E-002  0.11644460578924726        1565062180.0549529     
   6.4561977558979647E-002 -0.21137266616498240        1580094707.2785492     
  0.29002441474054086      -0.16449149734617446        1599219763.4711046     
  -159641766.14352459       -1382087.6092914939        1532169140.7468619     
  -148565756.72610730       -3027142.4068559259        1535120477.7294991     
  -137393544.39677802       -4351520.8313762695        1542878920.8549373     
  -126125129.15553802       -5355222.8828630969        1555444470.1231711     
  -114760511.00238630       -6038248.5613104999        1572817125.5342157     
  -331596501.83775008       -6458067.9612581283        1515096736.6105044     
  -307402833.82302403       -9135681.7586944252        1514264177.8895209     
  -283016760.09688646       -11171943.184756860        1518953302.4851716     
  -258438280.65933883       -12566852.239453778        1529164110.3974638     
  -233667395.51038706       -13320408.922803178        1544896601.6263993     
  -515864207.02002180       -15227939.159645230        1496057500.1055760     
  -476511231.33986616       -18325617.236493886        1491553282.2803779     
  -436869647.14880979       -20461266.943678603        1493285324.9456570     
  -396939454.44684339       -21634888.281160593        1501253628.1014192     
  -356720653.23397315       -21846481.248963133        1515458191.7476544     
  -712444881.69033408       -27691701.204437912        1475051431.2320721     
  -655890949.27664375       -30596948.840297312        1466987790.9020729     
  -598952205.55254948       -32219492.108140230        1465874988.2363966     
  -541628650.51805568       -32559331.007986784        1471713023.2350347     
  -483920284.17315882       -31616465.539822951        1484501895.8979971     
  0.29002441474054086      -0.16449149734617446        1599219763.4711046     
  0.21183567720474733       -5.5560684258510337E-002   1596317789.7734118     
  0.12219716996517230        1.5206311484719789E-002   1598199530.3399994     
   2.1112827603413938E-002   4.7819829597948560E-002   1604864985.1708615     
  -9.1422016477307036E-002   4.2264314758578211E-002   1616314154.2660041     
  -114760511.00238630       -6038248.5613104999        1572817125.5342157     
  -101685132.80721617       -5239602.3955701850        1568933407.1470871     
  -88067423.129526630       -2633184.6214322038        1570139654.8466997     
  -73907381.969306752        1781004.7611425370        1576435868.6330435     
  -59205009.326559067        8002965.7521391138        1587822048.5061276     
  -233667395.51038706       -13320408.922803178        1544896601.6263993     
  -206641633.83484337       -11460615.138162285        1540663858.6261435     
  -178531209.18280378       -5985278.0985350534        1541827333.5350809     
  -149336121.55425709        3105602.1961130947        1548387026.3532112     
  -119056370.94921404        15812025.745751880        1560342937.0805335     
  -356720653.23397315       -21846481.248963133        1515458191.7476544     
  -314869502.87103903       -18663038.283319935        1511509144.2105782     
  -271391358.03762925       -10056280.416096583        1513262566.4051509     
  -226286218.73374540        3973792.3527120501        1520718458.3313706     
  -179554084.95938334        23427180.023110338        1533876819.9892378     
  -483920284.17315882       -31616465.539822951        1484501895.8979971     
  -426368739.91580713       -26846871.831049278        1481469263.9003940     
  -366647869.69401222       -14846191.574133679        1484445353.4569001     
  -304757673.50775641        4385575.2309854478        1493430164.5675085     
  -240698151.35706592        30848428.584221482        1508423697.2322247     
  -9.1422016477307036E-002   4.2264314758578211E-002   1616314154.2660041     
  -6.3920389128244867E-002   6.1685867037075195E-002   1585372242.6230509     
  -3.6220339914163478E-002   8.1768131642912453E-002   1557777337.5921354     
  -8.3116434980022996E-003  0.10254623386704423        1533529439.1732643     
   1.9799363613827527E-002  0.12399870507673814        1512628547.3664296     
  -59205009.326559067        8002965.7521391138        1587822048.5061276     
  -48400361.905285150        15622037.517244045        1557254144.6574631     
  -36445895.412319623        27073839.521318913        1529892254.0968101     
  -23341609.847678427        42358371.764313564        1505736376.8241677     
  -9087505.2113461494        61475634.246278815        1484786512.8395455     
  -119056370.94921404        15812025.745751880        1560342937.0805335     
  -97849914.202812150        30929317.835970208        1531490496.6095576     
  -74343819.313246667        53712070.403400563        1505703076.1025620     
  -48538086.280518681        84160283.448038638        1482980675.5595510     
  -20432715.104620129        122273956.96991041        1463323294.9805255     
  -179554084.95938334        23427180.023110338        1533876819.9892378     
  -148348656.95651081        45921841.017833218        1508081298.4793351     
  -113693771.73899180        79914692.728047177        1485209803.6093857     
  -75589429.306833625        125405735.15372141        1465262335.3793964     
  -34035629.660029523        182394968.29488638        1448238893.7893558     
  -240698151.35706592        30848428.584221482        1508423697.2322247     
  -199896590.16637817        60599607.062845603        1487026550.2667961     
  -154495752.68955737        105681706.49524601        1468412436.6172950     
  -104495638.92662306        166094726.88135809        1452581356.2837157     
  -49896248.877551451        241838668.22126189        1439533309.2660680     
   1.9799363613827527E-002  0.12399870507673814        1512628547.3664296     
   1.0188370293948847E-002  0.13710927997352454        1403247152.8004138     
   2.3011354726471742E-003  0.15596779820040549        1291104315.3343542     
  -3.8412039117240449E-003  0.18064263455038790        1176200034.9682596     
  -8.2437719654323283E-003  0.21111601477985642        1058534311.7021272     
  -9087505.2113461494        61475634.246278815        1484786512.8395455     
  -9591279.7237854972        80858604.060607627        1376080408.1486304     
  -8150540.7296663672        106723285.56346576        1265275234.4783716     
  -4765288.2290043384        139069678.75480232        1152370991.8287606     
   564477.77822125703        177897783.63467887        1037367680.1998291     
  -20432715.104620129        122273956.96991041        1463323294.9805255     
  -19547767.203621097        161607645.66035414        1357561079.2536662     
  -14773792.291250885        213904757.72203118        1250362168.4681523     
  -6110790.3675087839        279165293.15494609        1141726562.6239963     
   6441238.5676047951        357389251.95910388        1031654261.7211753     
  -34035629.660029523        182394968.29488638        1448238893.7893558     
  -29869462.429319501        242247124.93634513        1347689166.1155157     
  -19869754.682428360        321544416.63174236        1246365117.3037152     
  -4036506.4193531275        420286843.38108796        1144266747.3539491     
   17630282.359917611        538474405.18441451        1041394056.2662318     
  -49896248.877551451        241838668.22126189        1439533309.2660680     
  -40556365.400883421        322777041.88856983        1346464668.7341871     
  -23438427.903208077        429642262.29256797        1253284080.9850368     
   1457563.6154692173        562434329.43323863        1159991546.0186257     
   34131609.155153662        721153243.31060195        1066587063.8349340     
  -1464332305.0090604        4099820.1659337282        2191789320.4522772     
  -1430073098.4988012        1507575.5180212259        1983933185.7697837     
  -1395838636.8223729       -1167151.9093257189        1823652421.1791313     
  -1361628919.9797692       -3924362.1160920858        1710947026.6803143     
  -1327443947.9709926       -6764055.1022784710        1645817002.2733364     
  -2315377698.5347948       -138141498.73794866        1742957313.7967083     
  -2177854135.9608402       -113173174.89057899        1636491049.2370512     
  -2040362129.0695038       -88310036.651937723        1555523403.4433377     
  -1902901677.8607838       -63552084.022022009        1500054376.4155617     
  -1765472782.3346832       -38899317.000833273        1470083968.1537271     
  -2845105698.4785013       -183987599.56721926        1292814380.7809565     
  -2667394212.2005510       -150381636.93247247        1287730040.3538771     
  -2489721092.4540167       -116903562.73576105        1286067567.3668430     
  -2312086339.2388883       -83553376.977078795        1287826961.8198524     
  -2134489952.5551672       -50331079.656426191        1293008223.7129037     
  -3053516304.8401709       -133438482.32187879        841360521.40501082     
  -2898693327.2179422       -110117810.60767245        937650159.12025642     
  -2743915526.9759092       -86947730.160800099        1015284912.9496491     
  -2589182904.1140804       -63928240.981265426        1074264782.8931873     
  -2434495458.6324482       -41059343.069056511        1114589768.9508703     
  -2940609517.6198149        13505852.998065829        388595735.66887933     
  -2871751481.0130057        7618304.0838257074        586251405.53619134     
  -2802945432.6351881        1557461.0729418993        743175440.19175327     
  -2734191372.4863601       -4676676.0345749855        859367839.63556254     
  -2665489300.5665240       -11084107.238725185        934828603.86762297     
  -1327443947.9709926       -6764055.1022784710        1645817002.2733364     
  -1273687438.3359578       -4262933.6024003625        1594614396.4285021     
  -1220256060.8792703       -2845586.0303436518        1557306165.7965250     
  -1167149815.6009324       -2512012.3861181736        1533892310.3774056     
  -1114368702.5009434       -3262212.6697262526        1524372830.1711445     
  -1765472782.3346832       -38899317.000833273        1470083968.1537271     
  -1679428754.2988753       -30216566.397739053        1440461537.1667762     
  -1593718812.0118771       -22647434.957340360        1420354753.7899010     
  -1508342955.4736867       -16191922.679632723        1409763618.0230951     
  -1423301184.6843038       -10850029.564622939        1408688129.8663597     
  -2134489952.5551672       -50331079.656426191        1293008223.7129037     
  -2028669056.4122629       -39219895.038213730        1284955521.7516384     
  -1923191199.5886276       -29252174.817570210        1282039739.7976592     
  -1818056382.0842597       -20427918.994482875        1284260877.8509638     
  -1713264603.8991606       -12747127.568956971        1291618935.9115512     
  -2434495458.6324482       -41059343.069056511        1114589768.9508703     
  -2321408344.6761227       -31272919.523839355        1128096350.1830828     
  -2208673223.6095238       -22659805.611043811        1142361123.8197970     
  -2096290095.4326572       -15220001.330685496        1157384089.8610082     
  -1984258960.1455159       -8953506.6827512980        1173165248.3067157     
  -2665489300.5665240       -11084107.238725185        934828603.86762297     
  -2557646619.0904498       -6375639.8545899391        969884022.46111345     
  -2450164884.0745692       -2870327.3377661705        1001318905.8563168     
  -2343044095.5188732       -568169.68822383881        1029133254.0532309     
  -2236284253.4233680        530833.09401547909        1053327067.0518572     
  -1114368702.5009434       -3262212.6697262526        1524372830.1711445     
  -1068125970.1252639       -6518000.9008650780        1505904460.9957073     
  -1021916835.5032614       -9885781.6442638040        1493644333.6463332     
  -975741298.63493359       -13365554.899909139        1487592448.1230295     
  -929599359.52028716       -16957320.667827547        1487748804.4257853     
  -1423301184.6843038       -10850029.564622939        1408688129.8663597     
  -1361912716.3768620       -13236011.652363420        1396307863.8871074     
  -1300606789.4359007       -15897131.628363788        1389169197.6885128     
  -1239383403.8614082       -18833389.492602348        1387272131.2705786     
  -1178242559.6533957       -22044785.245099545        1390616664.6333015     
  -1713264603.8991606       -12747127.568956971        1291618935.9115512     
  -1639492234.0754104       -15091853.837953508        1285269672.2468872     
  -1565851349.2309308       -17874863.371184528        1283195366.3174760     
  -1492341949.3657219       -21096156.168647230        1285396018.1233177     
  -1418964034.4797843       -24755732.230350494        1291871627.6644104     
  -1984258960.1455159       -8953506.6827512980        1173165248.3067157     
  -1900864523.2209010       -12085527.457626224        1172789886.0750430     
  -1817650514.8883560       -15818976.872735381        1175722839.5332201     
  -1734616935.1478677       -20153854.928035021        1181964108.6812427     
  -1651763783.9994571       -25090161.623589277        1191513693.5191126     
  -2236284253.4233680        530833.09401547909        1053327067.0518572     
  -2146029583.8133337       -4217032.5113732815        1058868505.3715843     
  -2056004286.4081616       -9729472.1329721212        1066751617.3357505     
  -1966208361.2078557       -16006485.770783424        1076976402.9443569     
  -1876641808.2124100       -23048073.424805284        1089542862.1974039     
  -929599359.52028716       -16957320.667827547        1487748804.4257853     
  -874943600.17587304       -18417116.178895652        1477034451.7138157     
  -820532600.75607765       -20692778.105355293        1471346771.9442086     
  -766366361.26089597       -23784306.447197586        1470685765.1169589     
  -712444881.69033408       -27691701.204437912        1475051431.2320721     
  -1178242559.6533957       -22044785.245099545        1390616664.6333015     
  -1110744892.1779320       -23768961.663487852        1382361844.0968063     
  -1043441492.7730104       -26140698.317009687        1379019752.4666011     
  -976332361.43862951       -29159995.205665231        1380590389.7426846     
  -909417498.17478299       -32826852.329445869        1387073755.9250574     
  -1418964034.4797843       -24755732.230350494        1291871627.6644104     
  -1338950013.2620518       -26841955.872706532        1286135246.4664810     
  -1259079768.2607791       -29407433.569927871        1285197650.1387689     
  -1179353299.4759631       -32452165.322002888        1289058838.6812785     
  -1099770606.9076109       -35976151.128960729        1297718812.0940015     
  -1651763783.9994571       -25090161.623589277        1191513693.5191126     
  -1559558963.4282246       -27636098.806530416        1188354658.8228390     
  -1467447427.2193770       -30492983.864088297        1189880464.9607170     
  -1375429175.3729060       -33660816.796235025        1196091111.9327397     
  -1283504207.8888195       -37139597.602996588        1206986599.7389095     
  -1876641808.2124100       -23048073.424805284        1089542862.1974039     
  -1772571742.6764576       -26151390.464982271        1089020081.1658804     
  -1668544469.6488051       -29397349.199494302        1093068196.9324341     
  -1564559989.1294529       -32785949.628337622        1101687209.4970636     
  -1460618301.1184072       -36317191.751539350        1114877118.8597703     
  -712444881.69033408       -27691701.204437912        1475051431.2320721     
  -655890949.27664375       -30596948.840297312        1466987790.9020729     
  -598952205.55254948       -32219492.108140230        1465874988.2363966     
  -541628650.51805568       -32559331.007986784        1471713023.2350347     
  -483920284.17315882       -31616465.539822951        1484501895.8979971     
  -909417498.17478299       -32826852.329445869        1387073755.9250574     
  -835916920.85367215       -34452689.086955011        1381109335.7158995     
  -762179016.46262884       -35287435.611364037        1380934709.8762054     
  -688203785.00163376       -35331091.902599245        1386549878.4059751     
  -613991226.47071433       -34583657.960742593        1397954841.3052027     
  -1099770606.9076109       -35976151.128960729        1297718812.0940015     
  -1012640651.2358081       -37317756.975153208        1293681547.0584724     
  -925420852.73453021       -38359886.723093599        1294273033.0975530     
  -838111211.40377963       -39102540.372791797        1299493270.2112427     
  -750711727.24355829       -39545717.924255341        1309342258.3995361     
  -1283504207.8888195       -37139597.602996588        1206986599.7389095     
  -1186062140.4230504       -39192152.504875958        1204704424.9298007     
  -1088677714.3682740       -41436845.443396270        1205889957.9004414     
  -991350929.72448766       -43873676.418554783        1210543198.6508427     
  -894081786.49169838       -46502645.430363685        1218664147.1809895     
  -1460618301.1184072       -36317191.751539350        1114877118.8597703     
  -1356181388.4154069       -40075875.676153004        1114177969.3298693     
  -1251949601.3638513       -44518311.772244096        1115785484.2848706     
  -1147922939.9637599       -49644500.039882481        1119699663.7247672     
  -1044101404.2151240       -55454440.479044259        1125920507.6495702     
  -483920284.17315882       -31616465.539822951        1484501895.8979971     
  -426368739.91580713       -26846871.831049278        1481469263.9003940     
  -366647869.69401222       -14846191.574133679        1484445353.4569001     
  -304757673.50775641        4385575.2309854478        1493430164.5675085     
  -240698151.35706592        30848428.584221482        1508423697.2322247     
  -613991226.47071433       -34583657.960742593        1397954841.3052027     
  -541115416.54159069       -30547272.788249820        1395110912.4283698     
  -466043982.59812009       -19192140.901257813        1398215360.6379323     
  -388776924.64029354       -518262.29974395037        1407268185.9338899     
  -309314242.66810989        25474363.016285464        1422269388.3162544     
  -750711727.24355829       -39545717.924255341        1309342258.3995361     
  -662684064.40753746       -36294265.117492557        1306717713.7016821     
  -572434479.50726521       -25636405.429885626        1309981201.6225212     
  -479962972.54273278       -7572138.8614171147        1319132722.1620555     
  -385269543.51395243        17898534.587883234        1334172275.3202755     
  -894081786.49169838       -46502645.430363685        1218664147.1809895     
  -791074683.51365471       -44087848.818796486        1216289667.7203429     
  -685819360.42145240       -34178985.160033107        1219742876.4106743     
  -578315817.21509194       -16776054.454072982        1229023773.2519929     
  -468564053.89458448        8120943.2990374565        1244132358.2443066     
  -1044101404.2151240       -55454440.479044259        1125920507.6495702     
  -926287273.85993004       -53928023.892131180        1123826774.4843378     
  -806198625.34067667       -44819880.091683388        1127500385.0023851     
  -683835458.65736663       -28130009.077716500        1136941339.2037144     
  -559197773.80999506       -3858410.8502085507        1152149637.0883195     
  -240698151.35706592        30848428.584221482        1508423697.2322247     
  -199896590.16637817        60599607.062845603        1487026550.2667961     
  -154495752.68955737        105681706.49524601        1468412436.6172950     
  -104495638.92662306        166094726.88135809        1452581356.2837157     
  -49896248.877551451        241838668.22126189        1439533309.2660680     
  -309314242.66810989        25474363.016285464        1422269388.3162544     
  -259610692.73062789        55661488.281334296        1405343170.6781719     
  -203450740.72433978        107369953.77573134        1392381000.2709899     
  -140834386.64924431        180599759.49948907        1383382877.0947056     
  -71761630.505349189        275350905.45257890        1378348801.1493111     
  -385269543.51395243        17898534.587883234        1334172275.3202755     
  -323289679.35833323        49533904.280763000        1323883633.7560055     
  -252996287.35122478        108881033.47860673        1318740053.3376021     
  -174389367.49264383        195939922.18136010        1318741534.0650585     
  -87468919.782576874        310710570.38907027        1323888075.9383857     
  -468564053.89458448        8120943.2990374565        1244132358.2443066     
  -390933550.04948300        42216855.061169997        1242647939.5002966     
  -303132392.57022172        110214945.60383478        1247489595.8171256     
  -205160581.45680428        212115214.92702276        1258657327.1947908     
  -97018116.709224358        347917663.03074729        1276151133.6332815     
  -559197773.80999506       -3858410.8502085507        1152149637.0883195     
  -462542304.80408138        33710340.622539103        1161636087.9110427     
  -353859056.38132477        111371690.15144104        1178629627.7095649     
  -233148028.54174113        229125637.73642999        1203130256.4838889     
  -100409221.28530955        386972183.37757313        1235137974.2340147     
  -49896248.877551451        241838668.22126189        1439533309.2660680     
  -40556365.400883421        322777041.88856983        1346464668.7341871     
  -23438427.903208077        429642262.29256797        1253284080.9850368     
   1457563.6154692173        562434329.43323863        1159991546.0186257     
   34131609.155153662        721153243.31060195        1066587063.8349340     
  -71761630.505349189        275350905.45257890        1378348801.1493111     
  -57538384.946596742        377063592.76548237        1296805889.3822422     
  -34332160.444316208        508719543.22348499        1214337284.8235199     
  -2142956.9985342622        670318756.82649386        1130942987.4731543     
   39029225.390784115        861861233.57461417        1046622997.3311301     
  -87468919.782576874        310710570.38907027        1323888075.9383857     
  -70687299.497117460        432500075.14096946        1255276638.6790643     
  -43717775.345631927        588249259.44629228        1184925763.0537140     
  -6560347.3281041980        777958123.30508876        1112835449.0623167     
   40784984.555458248        1001626666.7173260        1039005696.7048994     
  -97018116.709224358        347917663.03074729        1276151133.6332815     
  -80003109.052448243        489086489.01500511        1221876916.6246521     
  -51595272.607124001        668231410.96109045        1165049515.6755872     
  -11794607.373251915        885352428.86899900        1105668930.7861164     
   39398886.649175227        1140449542.7387576        1043735161.9562253     
  -100409221.28530955        386972183.37757313        1235137974.2340147     
  -85485813.612591207        546822834.38759053        1196606723.2189968     
  -57964652.228817105        748665997.76779652        1154708542.6891778     
  -17845737.133967042        992501673.51825428        1109443432.6445522     
   34870931.671940446        1278329861.6389036        1060811393.0851268     
  -2940609517.6198149        13505852.998065829        388595735.66887933     
  -2871751481.0130057        7618304.0838257074        586251405.53619134     
  -2802945432.6351881        1557461.0729418993        743175440.19175327     
  -2734191372.4863601       -4676676.0345749855        859367839.63556254     
  -2665489300.5665240       -11084107.238725185        934828603.86762297     
  -2838637344.1539435        153655291.99955761        667852709.54538012     
  -2852088420.5270109        123223174.80137038        757713789.69124365     
  -2866167502.8166432        90697704.547982335        830655933.89909136     
  -2880874591.0228271        56078881.239407778        886679142.16892469     
  -2896209685.1455722        19366704.875641704        925783414.50074685     
  -3077534530.9930663        191543922.90954947        947502680.51270866     
  -3105258436.7067685        156978122.51918447        928897150.30162597     
  -3134186366.0245924        118398910.11507273        917185383.42626774     
  -3164318318.9465432        75806285.697212338        912367379.88663387     
  -3195654295.4726152        29200249.265608430        914443139.68271983     
  -3657301078.1371865        127171745.72804213        1227545648.5708714     
  -3631261529.5522699        108883147.23728156        1099801487.3673508     
  -3607002022.2590456        84661077.774216175        1002763788.7732912     
  -3584522556.2575088        54505537.338841915        936432552.78868818     
  -3563823131.5476646        18416525.931170464        900807779.41355014     
  -4577936985.5863037       -39461239.544962645        1507981613.7198632     
  -4430097699.0635195       -21061751.044349432        1270426800.8884079     
  -4284614471.5199924       -10515792.474596739        1087391149.9401505     
  -4141487302.9557223       -7823363.8357014656        958874660.87508941     
  -4000716193.3707080       -12984465.127658844        884877333.69323003     
  -2665489300.5665240       -11084107.238725185        934828603.86762297     
  -2557646619.0904498       -6375639.8545899391        969884022.46111345     
  -2450164884.0745692       -2870327.3377661705        1001318905.8563168     
  -2343044095.5188732       -568169.68822383881        1029133254.0532309     
  -2236284253.4233680        530833.09401547909        1053327067.0518572     
  -2896209685.1455722        19366704.875641704        925783414.50074685     
  -2794322245.0527778        16898052.200379848        938744234.75529528     
  -2692415526.4562712        14493661.204152703        952400893.77316153     
  -2590489529.3560524        12153531.886967301        966753391.55434489     
  -2488544253.7521272        9877664.2488085032        981801728.09885204     
  -3195654295.4726152        29200249.265608430        914443139.68271983     
  -3087389599.7299356        23254225.640908241        905752957.38954163     
  -2978725400.5196486        18639880.241569281        902074987.82128739     
  -2869661697.8417525        15357213.067595243        903409230.97795939     
  -2760198491.6962447        13406224.118987203        909755686.85955882     
  -3563823131.5476646        18416525.931170464        900807779.41355014     
  -3436848683.1219339        12692880.466989279        870910190.36385834     
  -3309094506.2646990        9568329.7744870186        850341188.00069773     
  -3180560600.9759550        9042873.8536826372        839100772.32406974     
  -3051246967.2557039        11116512.704568624        837188943.33397555     
  -4000716193.3707080       -12984465.127658844        884877333.69323003     
  -3842699495.2287712       -14785983.321396828        834215933.67824149     
  -3683522843.6914253       -12720990.197099447        797199494.31138945     
  -3523186238.7586765       -6789485.7547945976        773828015.59268022     
  -3361689680.4305196        3008530.0055396557        764101497.52210760     
  -2236284253.4233680        530833.09401547909        1053327067.0518572     
  -2146029583.8133337       -4217032.5113732815        1058868505.3715843     
  -2056004286.4081616       -9729472.1329721212        1066751617.3357505     
  -1966208361.2078557       -16006485.770783424        1076976402.9443569     
  -1876641808.2124100       -23048073.424805284        1089542862.1974039     
  -2488544253.7521272        9877664.2488085032        981801728.09885204     
  -2391085771.6264572        5720956.9531414509        980565256.98082387     
  -2293999184.4533110        324599.81572604179        982392085.31275260     
  -2197284492.2326880       -6311407.1634296179        987282213.09464097     
  -2100941694.9645884       -14187063.984321713        995235640.32649171     
  -2760198491.6962447        13406224.118987203        909755686.85955882     
  -2653474409.0391665        10459211.537779331        901575029.76483548     
  -2547264744.0822768        5797473.2892886400        897179297.92559564     
  -2441569496.8255715       -578990.62648117542        896568491.34182930     
  -2336388667.2690401       -8670180.2095167637        899742610.01354182     
  -3051246967.2557039        11116512.704568624        837188943.33397555     
  -2933195496.0514588        9997731.2425396442        821897823.72362924     
  -2815800965.2950535        6689148.2877081633        811113255.17427540     
  -2699063374.9864960        1190763.8400597572        804835237.68591845     
  -2582982725.1257772       -6497422.1003990173        803063771.25855887     
  -3361689680.4305196        3008530.0055396557        764101497.52210760     
  -3230249032.6633329        4336516.0674318075        741533638.85719335     
  -3099607848.0916519        2999624.8109728098        724193957.05879533     
  -2969766126.7154756       -1002143.7638318539        712082452.12691092     
  -2840723868.5347962       -7668789.6569660902        705199124.06154382     
  -1876641808.2124100       -23048073.424805284        1089542862.1974039     
  -1772571742.6764576       -26151390.464982271        1089020081.1658804     
  -1668544469.6488051       -29397349.199494302        1093068196.9324341     
  -1564559989.1294529       -32785949.628337622        1101687209.4970636     
  -1460618301.1184072       -36317191.751539350        1114877118.8597703     
  -2100941694.9645884       -14187063.984321713        995235640.32649171     
  -1985306482.7395871       -16881425.552854419        990600163.13817072     
  -1869699219.0135357       -19668948.784548879        990195681.49604261     
  -1754119903.7864184       -22549633.679359913        994022195.40011156     
  -1638568537.0582488       -25523480.237318158        1002079704.8503765     
  -2336388667.2690401       -8670180.2095167637        899742610.01354182     
  -2210159454.7889528       -11246930.236622453        891011754.67934763     
  -2083943346.7984419       -13867361.895656109        886171993.63946331     
  -1957740343.2975078       -16531475.186615944        885223326.89389634     
  -1831550444.2861550       -19239270.109503031        888165754.44264162     
  -2582982725.1257772       -6497422.1003990173        803063771.25855887     
  -2447130658.8245416       -9247904.5162513256        790254855.78941202     
  -2311276853.0035253       -11992588.532829881        780997133.36269701     
  -2175421307.6627169       -14731474.150106549        775290603.97841406     
  -2039564022.8021276       -17464561.368107796        773135267.63656163     
  -2840723868.5347962       -7668789.6569660902        705199124.06154382     
  -2696220094.8463631       -10884348.391750336        688329466.46836424     
  -2551699737.6287794       -14044628.696038008        674671100.66574001     
  -2407162796.8820496       -17149630.569834828        664224026.65366864     
  -2262609272.6061711       -20199354.013140440        656988244.43214488     
  -1460618301.1184072       -36317191.751539350        1114877118.8597703     
  -1356181388.4154069       -40075875.676153004        1114177969.3298693     
  -1251949601.3638513       -44518311.772244096        1115785484.2848706     
  -1147922939.9637599       -49644500.039882481        1119699663.7247672     
  -1044101404.2151240       -55454440.479044259        1125920507.6495702     
  -1638568537.0582488       -25523480.237318158        1002079704.8503765     
  -1527512981.1939862       -29967226.628751993        996287531.51770759     
  -1416509360.2863677       -34584089.542335868        993438049.00884020     
  -1305557674.3353925       -39374068.978057981        993531257.32377136     
  -1194657923.3410649       -44337164.935947895        996567156.46250272     
  -1831550444.2861550       -19239270.109503031        888165754.44264162     
  -1712059027.1494944       -23822913.534442902        877459279.78448451     
  -1592466354.2746634       -28069037.832147300        870331522.28902829     
  -1472772425.6616657       -31977643.002628684        866782481.95627499     
  -1352977241.3105073       -35548729.045898616        866812158.78621507     
  -2039564022.8021276       -17464561.368107796        773135267.63656163     
  -1909819526.2819207       -21642936.393192768        757693214.13020158     
  -1779820583.3287401       -24973156.641686678        746465904.12544084     
  -1649567193.9425797       -27455222.113586903        739453337.62228179     
  -1519059358.1234396       -29089132.808887959        736655514.62071705     
  -2262609272.6061711       -20199354.013140440        656988244.43214488     
  -2120794478.5912879       -23427295.205058217        636989334.55485833     
  -1978572047.4486117       -25296445.970994711        621841194.51807630     
  -1835941979.1781394       -25806806.310939431        611543824.32178724     
  -1692904273.7798812       -24958376.224943459        606097223.96599734     
  -1044101404.2151240       -55454440.479044259        1125920507.6495702     
  -926287273.85993004       -53928023.892131180        1123826774.4843378     
  -806198625.34067667       -44819880.091683388        1127500385.0023851     
  -683835458.65736663       -28130009.077716500        1136941339.2037144     
  -559197773.80999506       -3858410.8502085507        1152149637.0883195     
  -1194657923.3410649       -44337164.935947895        996567156.46250272     
  -1063604037.7931089       -41186714.054040074        993046140.51019108     
  -931135158.07506371       -33319615.938511848        993567430.80096126     
  -797251284.18694413       -20735870.589402139        998131027.33481097     
  -661952416.12874651       -3435478.0066895783        1006736930.1117380     
  -1352977241.3105073       -35548729.045898616        866812158.78621507     
  -1213612278.9703560       -32252847.389157832        860861082.05385697     
  -1073691846.4541023       -27105398.478736579        857227274.12437153     
  -933215943.76175272       -20106382.314664066        855910734.99776745     
  -792184570.89329219       -11255798.896892250        856911464.67403674     
  -1519059358.1234396       -29089132.808887959        736655514.62071705     
  -1376311997.3916790       -27126423.897494197        727271599.11532998     
  -1233868690.4777961       -26177227.712364018        718479914.97261596     
  -1091729437.3817925       -26241544.253491819        710280462.19257498     
  -949894238.10365701       -27319373.520855606        702673240.77521360     
  -1692904273.7798812       -24958376.224943459        606097223.96599734     
  -1551703193.0570846       -25807443.579075277        592277691.69461274     
  -1411665690.1461341       -30535103.639366508        577325353.34569275     
  -1272791765.0470495       -39141356.405880153        561240208.91924906     
  -1135081417.7598109       -51626201.878535688        544022258.41527760     
  -559197773.80999506       -3858410.8502085507        1152149637.0883195     
  -462542304.80408138        33710340.622539103        1161636087.9110427     
  -353859056.38132477        111371690.15144104        1178629627.7095649     
  -233148028.54174113        229125637.73642999        1203130256.4838889     
  -100409221.28530955        386972183.37757313        1235137974.2340147     
  -661952416.12874651       -3435478.0066895783        1006736930.1117380     
  -546980625.92909265        26454600.158075035        1020408312.5064549     
  -421102197.63167465        92700138.648719817        1042434085.2993265     
  -284317131.23647219        195301137.46532077        1072814248.4903507     
  -136625426.74348962        334257596.60783994        1111548802.0795138     
  -792184570.89329219       -11255798.896892250        856911464.67403674     
  -656475598.29321384        11681864.321833044        873459780.43518627     
  -510981128.91441518        67237850.136293113        899209788.01683652     
  -355701162.75689322        155412158.54649085        934161487.41897774     
  -190635699.82065964        276204789.55240649        978314878.64161968     
  -949894238.10365701       -27319373.520855606        702673240.77521360     
  -791027221.89642930       -10607866.886111408        720790491.69723105     
  -623495850.22956192        34984824.614115328        748956735.86209381     
  -447300123.10301518        109458700.97993746        787171973.26979256     
  -262440040.51680869        212813762.21128094        835436203.92034173     
  -1135081417.7598109       -51626201.878535688        544022258.41527760     
  -950635496.73874331       -40414593.465795398        562400446.29259229     
  -758646361.57708716       -4058937.9177259803        591674928.83509278     
  -559114012.27481651        57440764.765711099        631845706.04278159     
  -352038448.83195359        144084514.58445001        682912777.91565883     
  -100409221.28530955        386972183.37757313        1235137974.2340147     
  -85485813.612591207        546822834.38759053        1196606723.2189968     
  -57964652.228817105        748665997.76779652        1154708542.6891778     
  -17845737.133967042        992501673.51825428        1109443432.6445522     
   34870931.671940446        1278329861.6389036        1060811393.0851268     
  -136625426.74348962        334257596.60783994        1111548802.0795138     
  -127463536.14653257        483289650.26498961        1090034810.5640612     
  -95163532.867100775        709448746.19706094        1069952411.7404132     
  -39725416.905155003        1012734884.4041672        1051301605.6085603     
   38850811.739272773        1393148064.8862202        1034082392.1685030     
  -190635699.82065964        276204789.55240649        978314878.64161968     
  -173525262.85202822        418531264.89089930        986115232.09239805     
  -122736354.22948653        673119312.40909398        1000145700.4415812     
  -38268973.953006446        1039968932.1070806        1020406283.6891643     
   79876877.977383196        1519080123.9847703        1046896981.8351685     
  -262440040.51680869        212813762.21128094        835436203.92034173     
  -223670993.72907069        352547678.26533651        884847987.80401266     
  -140683116.31597725        639677696.40391588        945288408.79269993     
  -13476408.277545810        1074203816.6269546        1016757466.8864020     
   157949130.38624972        1656126038.9345472        1099255162.0851030     
  -352038448.83195359        144084514.58445001        682912777.91565883     
  -277900728.77765501        285338890.38833785        786233077.69889975     
  -149003819.12658843        609123898.18144655        905380536.79376209     
   34652280.121281683        1115439537.9639118        1040355155.2002286     
   273067568.96590906        1804285809.7355618        1191156932.9183152     
  -4577936985.5863037       -39461239.544962645        1507981613.7198632     
  -4430097699.0635195       -21061751.044349432        1270426800.8884079     
  -4284614471.5199924       -10515792.474596739        1087391149.9401505     
  -4141487302.9557223       -7823363.8357014656        958874660.87508941     
  -4000716193.3707080       -12984465.127658844        884877333.69323003     
  -5345917750.3954659       -193988347.37368441        634971708.26827645     
  -5105900557.3357410       -129911561.07792830        602691308.11324358     
  -4870944426.1984758       -82704981.190379143        576256913.15070701     
  -4641049356.9836702       -52368607.711038589        555668523.38066423     
  -4416215349.6913309       -38902440.639906645        540926138.80311596     
  -5445505244.1157436       -147997473.87574029       -229527999.63282275     
  -5252376306.4925022       -79963238.376860857       -59689823.878505327     
  -5067013433.7349396       -37815885.763554335        67321200.377601370     
  -4889416625.8430376       -21555416.035799503        151505073.13550258     
  -4719585882.8168039       -31181829.193605900        192861794.39519528     
  -4876699466.7471304        98511380.948875666       -1085517509.9834442     
  -4869524946.5338287        128783217.05881953       -716716595.08684707     
  -4872821494.1293955        124151493.80587029       -439415988.37916780     
  -4886589109.5338326        84616211.190006733       -253615689.86039269     
  -4910827792.7471504        10177369.211217642       -159315699.53053182     
  -3639500418.2896390        545538217.10014915       -1932996822.7835784     
  -3957346477.4596968        496327805.22915745       -1368389005.5117810     
  -4288368607.3818350        403197157.51789784       -943954653.11959493     
  -4632566808.0560493        266146273.96638727       -659693765.60702312     
  -4989941079.4823380        85175154.574621916       -515606342.97406417     
  -4000716193.3707080       -12984465.127658844        884877333.69323003     
  -3842699495.2287712       -14785983.321396828        834215933.67824149     
  -3683522843.6914253       -12720990.197099447        797199494.31138945     
  -3523186238.7586765       -6789485.7547945976        773828015.59268022     
  -3361689680.4305196        3008530.0055396557        764101497.52210760     
  -4416215349.6913309       -38902440.639906645        540926138.80311596     
  -4231995025.3533325       -41956474.872976065        528048831.31805253     
  -4045572603.7640243       -37670184.935016394        521972240.88320476     
  -3856948084.9233975       -26043570.825988531        522696367.49857312     
  -3666121468.8314543       -7076632.5459058285        530221211.16415685     
  -4719585882.8168039       -31181829.193605900        192861794.39519528     
  -4528716913.9911051       -41354873.978534698        218984413.93862045     
  -4334603704.0581827       -40713781.739394188        245063506.93433720     
  -4137246253.0180249       -29258552.476144075        271099073.38234520     
  -3936644560.8706565       -6989186.1888346672        297091113.28264672     
  -4910827792.7471504        10177369.211217642       -159315699.53053182     
  -4732865161.1420937       -12981180.638066769       -92977318.460056186     
  -4550616144.5739069       -21851780.610251904       -33526707.535218168     
  -4364080743.0425825       -16434430.705313683        19036133.243997287     
  -4173258956.5481176        3270869.0767638683        64711203.877579927     
  -4989941079.4823380        85175154.574621916       -515606342.97406417     
  -4844439766.8062754        43164605.148476601       -407836365.87798548     
  -4693609925.3111839        18915818.452444553       -313798402.52544957     
  -4537451554.9970293        12428794.486601353       -233492452.91647977     
  -4375964655.8638439        23703533.250882626       -166918517.05105036     
  -3361689680.4305196        3008530.0055396557        764101497.52210760     
  -3230249032.6633329        4336516.0674318075        741533638.85719335     
  -3099607848.0916519        2999624.8109728098        724193957.05879533     
  -2969766126.7154756       -1002143.7638318539        712082452.12691092     
  -2840723868.5347962       -7668789.6569660902        705199124.06154382     
  -3666121468.8314543       -7076632.5459058285        530221211.16415685     
  -3521073187.0696149       -786373.64610576630        517609914.12254846     
  -3377530197.5577202        486244.42053627968        509092711.09387380     
  -3235492500.2957716       -3258778.3459799290        504669602.07813007     
  -3094960095.2837725       -12021441.945641160        504340587.07532138     
  -3936644560.8706565       -6989186.1888346672        297091113.28264672     
  -3781228881.8386812        3291274.5315077305        293612910.63416350     
  -3628024324.1110945        6201330.9038972855        293094719.14502740     
  -3477030887.6878967        1740982.9283161163        295536538.81524438     
  -3328248572.5690899       -10089769.395225525        300938369.64481002     
  -4173258956.5481176        3270869.0767638683        64711203.877579927     
  -4010716116.9705338        16569460.600290298        69542628.392030925     
  -3851090227.7517738        20144884.261055231        76199981.212253943     
  -3694381288.8918505        13997140.059047222        84683262.338246927     
  -3540589300.3907437       -1873772.0056974888        94992471.770008788     
  -4375964655.8638439        23703533.250882626       -166918517.05105036     
  -4209534892.4651628        39048184.560253620       -154600932.60383907     
  -4046727908.4797530        42316904.492045164       -141591502.70444569     
  -3887543703.9076147        33509693.046262264       -127890227.35285342     
  -3731982278.7487502        12626550.222911835       -113497106.54908580     
  -2840723868.5347962       -7668789.6569660902        705199124.06154382     
  -2696220094.8463631       -10884348.391750336        688329466.46836424     
  -2551699737.6287794       -14044628.696038008        674671100.66574001     
  -2407162796.8820496       -17149630.569834828        664224026.65366864     
  -2262609272.6061711       -20199354.013140440        656988244.43214488     
  -3094960095.2837725       -12021441.945641160        504340587.07532138     
  -2942786148.6537075       -18423140.387837887        495361617.61574525     
  -2789852951.9679441       -22294005.311044335        489806752.40704447     
  -2636160505.2264876       -23634036.715276957        487675991.44921720     
  -2481708808.4293480       -22443234.600542545        488969334.74226916     
  -3328248572.5690899       -10089769.395225525        300938369.64481002     
  -3167796417.3964691       -19495196.864547372        300716532.59980243     
  -3005842345.6415987       -23894235.726387382        304131612.26599312     
  -2842386357.3045020       -23286885.980795026        311183608.64338446     
  -2677428452.3851676       -17673147.627733827        321872521.73197532     
  -3540589300.3907437       -1873772.0056974888        94992471.770008788     
  -3371250901.0746498       -14100517.821900606        104394211.42053288     
  -3199667918.6497579       -18845319.942123652        117645680.24259152     
  -3025840353.1160889       -16108178.366410017        134746878.23616430     
  -2849768204.4736314       -5889093.0947469473        155697805.40126896     
  -3731982278.7487502        12626550.222911835       -113497106.54908580     
  -3553149599.6882401       -2239103.2598302364       -93605345.922053844     
  -3371329670.9923844       -7147257.9581315517       -69651043.663161397     
  -3186522492.6612172       -2097913.8720386028       -41634199.772431031     
  -2998728064.6947179        12908928.998493075       -9554814.2498526648     
  -2262609272.6061711       -20199354.013140440        656988244.43214488     
  -2120794478.5912879       -23427295.205058217        636989334.55485833     
  -1978572047.4486117       -25296445.970994711        621841194.51807630     
  -1835941979.1781394       -25806806.310939431        611543824.32178724     
  -1692904273.7798812       -24958376.224943459        606097223.96599734     
  -2481708808.4293480       -22443234.600542545        488969334.74226916     
  -2328279294.0255728       -20622320.290185332        476342444.50287396     
  -2174991381.1630168       -19273411.117233634        466634064.22160703     
  -2021845069.8416765       -18396507.081663251        459844193.89845890     
  -1868840360.0615485       -17991608.183458567        455972833.53344417     
  -2677428452.3851676       -17673147.627733827        321872521.73197532     
  -2517904960.1135674       -12459600.571431875        315976872.68329310     
  -2359072308.0522022       -9548854.2159136534        311067473.71036893     
  -2200930496.2010517       -8940908.5611019135        307144324.81318688     
  -2043479524.5601275       -10635763.607057214        304207425.99176508     
  -2849768204.4736314       -5889093.0947469473        155697805.40126896     
  -2689671476.8552823        1060863.9511620998        155892619.09612849     
  -2530814828.1161656        3877224.7329764366        155141422.98436666     
  -2373198258.2562799        2559989.2506718636        153444217.06598386     
  -2216821767.2756338       -2890842.4957457781        150801001.34097555     
  -2998728064.6947179        12908928.998493075       -9554814.2498526648     
  -2843578844.2506828        19939073.277737021       -3910316.2586262561     
  -2690218941.3549051        21004825.729423761       -1144087.9564029898     
  -2538648356.0073423        16106186.353733182       -1256129.3431705358     
  -2388867088.2080393        5243155.1505291462       -4246440.4189312961     
  -1692904273.7798812       -24958376.224943459        606097223.96599734     
  -1551703193.0570846       -25807443.579075277        592277691.69461274     
  -1411665690.1461341       -30535103.639366508        577325353.34569275     
  -1272791765.0470495       -39141356.405880153        561240208.91924906     
  -1135081417.7598109       -51626201.878535688        544022258.41527760     
  -1868840360.0615485       -17991608.183458567        455972833.53344417     
  -1730665027.1442642       -22209968.950288057        442301797.75916606     
  -1592463112.4261057       -26339723.714208484        428213598.99956572     
  -1454234615.9070594       -30380872.475169182        413708237.25464404     
  -1315979537.5871398       -34333415.233214736        398785712.52440083     
  -2043479524.5601275       -10635763.607057214        304207425.99176508     
  -1906285244.8992047       -17610009.421855569        292073406.26279622     
  -1767874223.8246770       -20528450.524616003        280237866.64070445     
  -1628246461.3365285       -19391086.915335834        268700807.12549710     
  -1487401957.4347665       -14197918.593986213        257462227.71717393     
  -2216821767.2756338       -2890842.4957457781        150801001.34097555     
  -2078563846.3219085       -12007564.993745565        141592517.20549279     
  -1937899024.3418455       -13101284.070603371        133398156.26910296     
  -1794827301.3354373       -6171999.7263044119        126217918.53179564     
  -1649348677.3026705        8780288.0391604900        120051803.99358113     
  -2388867088.2080393        5243155.1505291462       -4246440.4189312961     
  -2247500831.4123602       -5402635.6659265757       -9140869.4127270710     
  -2102537513.9776227       -4058224.3521665335       -12305532.115225662     
  -1953977135.9037919        9276389.0918815136       -13740428.526436837     
  -1801819697.1908782        34601204.666229606       -13445558.646363320     
  -1135081417.7598109       -51626201.878535688        544022258.41527760     
  -950635496.73874331       -40414593.465795398        562400446.29259229     
  -758646361.57708716       -4058937.9177259803        591674928.83509278     
  -559114012.27481651        57440764.765711099        631845706.04278159     
  -352038448.83195359        144084514.58445001        682912777.91565883     
  -1315979537.5871398       -34333415.233214736        398785712.52440083     
  -1116736912.2233639       -14466625.226897895        420785425.43369126     
  -913879284.93439341        17450171.196727931        441273574.34290224     
  -707406655.72022152        61416974.037701398        460250159.25203335     
  -497319024.58085477        117433783.29597732        477715180.16108167     
  -1487401957.4347665       -14197918.593986213        257462227.71717393     
  -1308813652.4861805        3688745.5785490870        278500551.40712607     
  -1130538557.8278124        20531375.450372934        285619452.43173909     
  -952576673.45965457        36329971.021489561        278818930.79099888     
  -774927999.38170075        51084532.291924596        258098986.48490998     
  -1649348677.3026705        8780288.0391604900        120051803.99358113     
  -1526865717.5272028        14051518.950516939        135545824.21289980     
  -1408624180.2573397        5184674.8431797028        124712563.10160407     
  -1294624065.4930952       -17820244.282894313        87552020.659689486     
  -1184865373.2344856       -54963238.427724838        24064196.887152176     
  -1801819697.1908782        34601204.666229606       -13445558.646363320     
  -1770893107.3464367        16621694.889027953       -8078756.1489932435     
  -1748136152.2229834       -28589930.624845266       -41447093.647510268     
  -1733548831.8205884       -101033671.87554651       -113550571.14191793     
  -1727131146.1391892       -200709528.86292326       -224389188.63220307     
  -352038448.83195359        144084514.58445001        682912777.91565883     
  -277900728.77765501        285338890.38833785        786233077.69889975     
  -149003819.12658843        609123898.18144655        905380536.79376209     
   34652280.121281683        1115439537.9639118        1040355155.2002286     
   273067568.96590906        1804285809.7355618        1191156932.9183152     
  -497319024.58085477        117433783.29597732        477715180.16108167     
  -388379877.56434107        223096946.11550641        596985063.38410854     
  -230314480.51820916        492514275.70042670        735411472.57054031     
  -23122833.442448080        925685772.05076110        892994407.72037899     
   233195063.66290224        1522611435.1664290        1069733868.8336341     
  -774927999.38170075        51084532.291924596        258098986.48490998     
  -621674949.25496817        124010224.97152609        386746690.31936002     
  -424928588.66579306        341913619.19262540        537880286.76900387     
  -184688917.61417171        704794714.95517933        711499775.83385086     
   99044063.899913788        1212653512.2593014        907605157.51390302     
  -1184865373.2344856       -54963238.427724838        24064196.887152176     
  -977785943.84956062       -11921273.043660641        155517958.50466105     
  -732846143.56937289        157321928.65796819        312786979.38916630     
  -450045972.39387703        452766366.67727304        495871259.54066467     
  -129385430.32310885        874412041.01416373        704770798.95915508     
  -1727131146.1391892       -200709528.86292326       -224389188.63220307     
  -1456712861.3481157       -184697547.93006271       -96701132.059989750     
  -1154067145.2289007       -61260795.903420031        60131550.431007840     
  -819193997.78159261        169600727.21687686        246108858.84080878     
  -452093419.00612879        507887021.43102682        461230793.16937256     
 </DataArray>
 <DataArray  type="Float64" Name="VM" NumberOfComponents="1" format="ascii">
   5170927569.0179033     
   4846497592.6661501     
   4791125384.0348787     
   4906122405.3893471     
   5111686169.4364586     
   5273268183.6501036     
   5088911417.9076500     
   4994399883.1115150     
   4948975695.1741734     
   4923662962.8288193     
   5387722978.6348534     
   5213879801.6239853     
   5049558199.1710434     
   4885726919.0877972     
   4715918246.4256830     
   5365537213.9541845     
   5149125409.8178291     
   4932170361.1098757     
   4714375765.2994823     
   4495605980.9017267     
   5253611994.0664034     
   4937089882.1212034     
   4675492943.4388723     
   4458463841.9046440     
   4278197660.3130836     
   5111686169.4364586     
   4917169885.3943138     
   4734397927.8580666     
   4561641408.0866795     
   4397378735.6008949     
   4923662962.8288193     
   4729130714.7049437     
   4540101084.7407894     
   4356011567.5120192     
   4176399626.1405663     
   4715918246.4256830     
   4524109318.0451593     
   4335220542.3822203     
   4149348975.4853487     
   3966673002.7129765     
   4495605980.9017267     
   4309349065.3937321     
   4127110895.5891652     
   3949166062.9181333     
   3775970938.1315584     
   4278197660.3130836     
   4098473941.8272161     
   3927877981.6317382     
   3766350510.7186961     
   3614226559.7367082     
   4397378735.6008949     
   4237663015.4759688     
   4075437027.6500726     
   3910684990.9049754     
   3743476729.1810460     
   4176399626.1405663     
   4020831042.0366602     
   3863457111.5878134     
   3704304736.4435606     
   3543474646.7694073     
   3966673002.7129765     
   3816906258.9811869     
   3666443929.4937978     
   3515369941.4241056     
   3363844648.7352576     
   3775970938.1315584     
   3633035674.5805159     
   3490971061.8509612     
   3349918329.9748921     
   3210108240.2231760     
   3614226559.7367082     
   3478239795.9899673     
   3345182528.3480725     
   3215232493.2850523     
   3088673406.9300165     
   3743476729.1810460     
   3555728775.4523554     
   3369921793.1657047     
   3186290191.2101116     
   3005248893.2423582     
   3543474646.7694073     
   3369078441.8702679     
   3196787872.4530320     
   3026829812.7968473     
   2859572762.0722146     
   3363844648.7352576     
   3200757519.4690919     
   3039954762.4331660     
   2881669287.0648890     
   2726246987.9126430     
   3210108240.2231760     
   3056511699.5155411     
   2905393517.1375856     
   2757005855.2783732     
   2611696339.9005857     
   3088673406.9300165     
   2943088010.5632648     
   2800191852.7662797     
   2660267949.3092675     
   2523688996.1525002     
   3005248893.2423582     
   2853608666.0442657     
   2700783343.7261410     
   2546740577.1818614     
   2391504287.5130806     
   2859572762.0722146     
   2703718677.9993443     
   2546970328.7912579     
   2389306861.3040981     
   2230722181.7830243     
   2726246987.9126430     
   2570632743.0381727     
   2415176147.5472164     
   2259979996.5074534     
   2105187450.0152111     
   2611696339.9005857     
   2460488083.3060346     
   2311337604.9010444     
   2164571801.3269196     
   2020643022.5476046     
   2523688996.1525002     
   2380315067.1448731     
   2241739465.7463965     
   2108536623.7157207     
   1981503771.7989480     
   2391504287.5130806     
   2244860222.1954765     
   2100619475.0372422     
   1958776391.3873322     
   1819516130.0398672     
   2230722181.7830243     
   2087045442.8108270     
   1945153082.2344065     
   1805036939.3129191     
   1666777494.8762674     
   2105187450.0152111     
   1963818849.4011745     
   1823488074.5429015     
   1684217758.2797918     
   1546062272.0558178     
   2020643022.5476046     
   1882591125.6251926     
   1744932138.6092899     
   1607794737.3028827     
   1471356173.5043554     
   1981503771.7989480     
   1849535597.4173198     
   1717713814.3909883     
   1586405952.0429664     
   1456144155.3658087     
   1819516130.0398672     
   1779317207.0899508     
   1735503352.0770390     
   1696742098.3627264     
   1681566578.0111136     
   1666777494.8762674     
   1551801907.2751894     
   1427659585.2032351     
   1294717955.4974358     
   1159111784.5621049     
   1546062272.0558178     
   1396611018.3318307     
   1243577860.4854772     
   1084688553.2018039     
   917908017.61479652     
   1471356173.5043554     
   1327530159.1756668     
   1198162889.0737817     
   1087719460.7338636     
   1002075017.5183303     
   1456144155.3658087     
   1347517876.2326889     
   1273859938.7234008     
   1243266200.8270974     
   1262744745.8731971     
   1681566578.0111136     
   1383881345.3243566     
   1129500862.7878456     
   1010191972.6520540     
   1153321984.3957775     
   1159111784.5621049     
   1008517982.9251642     
   985197194.26521182     
   1161451401.4548984     
   1544208153.8372867     
   917908017.61479652     
   963156963.51947534     
   1144859689.6261153     
   1476383809.3924561     
   1957415004.8389335     
   1002075017.5183303     
   1164659194.5085692     
   1425320435.3661973     
   1808632170.6404757     
   2334663080.6028080     
   1262744745.8731971     
   1446523536.2663412     
   1715557518.1818581     
   2110395737.0699720     
   2663434954.5347700     
   5253611994.0664034     
   4937089882.1212034     
   4675492943.4388723     
   4458463841.9046440     
   4278197660.3130836     
   4286925969.2305961     
   4149938438.3977151     
   4042228281.1513100     
   3959528628.0703959     
   3898868003.4875593     
   3576405309.0177159     
   3569773034.3612070     
   3568180747.1076999     
   3571522779.5004191     
   3579803305.7512002     
   3139382945.7120481     
   3197409303.8732042     
   3248548119.4752488     
   3289793182.0523329     
   3318993889.7042017     
   3023260173.0424576     
   3049584328.9505091     
   3085093220.9996276     
   3111041086.5871301     
   3114020721.1103544     
   4278197660.3130836     
   4098473941.8272161     
   3927877981.6317382     
   3766350510.7186961     
   3614226559.7367082     
   3898868003.4875593     
   3759144475.3490448     
   3626444668.7925668     
   3501011175.3809156     
   3383312998.9430375     
   3579803305.7512002     
   3473539321.6770515     
   3371927252.4132533     
   3275318125.8628516     
   3184155383.2674446     
   3318993889.7042017     
   3240287513.1138234     
   3163785196.6812820     
   3089676949.7195320     
   3018167483.0535541     
   3114020721.1103544     
   3057337940.5347114     
   3000700261.0940189     
   2943785054.3019934     
   2886286252.5586491     
   3614226559.7367082     
   3478239795.9899673     
   3345182528.3480725     
   3215232493.2850523     
   3088673406.9300165     
   3383312998.9430375     
   3264905691.9407439     
   3149814164.7043281     
   3038328117.0372448     
   2930834950.2777877     
   3184155383.2674446     
   3083391263.0136452     
   2986327352.4544983     
   2893329132.1426558     
   2804842339.3932886     
   3018167483.0535541     
   2935221941.3337140     
   2856301735.3743982     
   2781799687.7468758     
   2712163897.3965430     
   2886286252.5586491     
   2821350453.5448937     
   2760637871.7358308     
   2704513621.5785041     
   2653370240.2659292     
   3088673406.9300165     
   2943088010.5632648     
   2800191852.7662797     
   2660267949.3092675     
   2523688996.1525002     
   2930834950.2777877     
   2799894884.1483698     
   2672881569.3053088     
   2550265530.4351768     
   2432636582.5416007     
   2804842339.3932886     
   2691055486.4457293     
   2582637368.4810681     
   2480225233.9323711     
   2384580612.4909453     
   2712163897.3965430     
   2617647425.4387946     
   2529990013.5037541     
   2449924636.4120269     
   2378282472.7236967     
   2653370240.2659292     
   2579580092.4066415     
   2514010401.6544995     
   2457391178.1727161     
   2410504545.7982268     
   2523688996.1525002     
   2380315067.1448731     
   2241739465.7463965     
   2108536623.7157207     
   1981503771.7989480     
   2432636582.5416007     
   2308428459.7203007     
   2189879281.1491351     
   2077717545.6318495     
   1972861737.7978523     
   2384580612.4909453     
   2280511294.8377757     
   2182766326.1995835     
   2092109224.9873774     
   2009428890.0822616     
   2378282472.7236967     
   2294817017.4581270     
   2217986385.9282346     
   2148473671.5050073     
   2087017940.9363308     
   2410504545.7982268     
   2347479821.6512661     
   2290972880.5184250     
   2241514131.4954796     
   2199639481.0759559     
   1981503771.7989480     
   1849535597.4173198     
   1717713814.3909883     
   1586405952.0429664     
   1456144155.3658087     
   1972861737.7978523     
   1855911655.5820169     
   1743404169.2245572     
   1636278742.4225690     
   1535690055.6696846     
   2009428890.0822616     
   1912589335.8572452     
   1824544282.3335688     
   1746505719.3196080     
   1679779209.5704401     
   2087017940.9363308     
   2011856220.4360659     
   1949006550.2637734     
   1899553771.5336099     
   1864531153.1238263     
   2199639481.0759559     
   2144743192.1785078     
   2104662128.2585747     
   2080166522.4328890     
   2071932861.4477723     
   1456144155.3658087     
   1347517876.2326889     
   1273859938.7234008     
   1243266200.8270974     
   1262744745.8731971     
   1535690055.6696846     
   1475148223.3322077     
   1447270701.5646491     
   1456000908.3405292     
   1504618316.3378429     
   1679779209.5704401     
   1651533075.9622390     
   1650973847.3593137     
   1680455175.3370790     
   1742580143.1500914     
   1864531153.1238263     
   1854199875.5229888     
   1866805580.7165723     
   1904546523.6527109     
   1970452981.9205825     
   2071932861.4477723     
   2068542828.3206670     
   2084354376.1242223     
   2121990573.7220995     
   2185264859.2435894     
   1262744745.8731971     
   1446523536.2663412     
   1715557518.1818581     
   2110395737.0699720     
   2663434954.5347700     
   1504618316.3378429     
   1613084360.3274693     
   1788765404.9538085     
   2066387935.9587703     
   2476126703.2976913     
   1742580143.1500914     
   1787505227.3267262     
   1884580669.0964546     
   2060700218.2261827     
   2341073521.3425117     
   1970452981.9205825     
   1968742063.3854694     
   2003567258.8911202     
   2093596562.8697879     
   2257482040.6737065     
   2185264859.2435894     
   2156077823.7523394     
   2146465070.0956590     
   2166952735.2421460     
   2228615960.2667599     
   3023260173.0424576     
   3049584328.9505091     
   3085093220.9996276     
   3111041086.5871301     
   3114020721.1103544     
   3325353149.6489182     
   3276112724.2049804     
   3223424488.7363882     
   3162999761.4985638     
   3091185259.1137371     
   3552340164.6378732     
   3422166755.5280190     
   3298974025.9086051     
   3183557230.8822880     
   3076810074.6524115     
   3764825047.2772732     
   3541707342.6154723     
   3354049934.4736342     
   3202285075.7230682     
   3087583569.3854470     
   4069657293.5587196     
   3722262730.4339871     
   3453094573.4474850     
   3260479167.5115557     
   3143137791.3771791     
   3114020721.1103544     
   3057337940.5347114     
   3000700261.0940189     
   2943785054.3019934     
   2886286252.5586491     
   3091185259.1137371     
   3022436371.2856255     
   2956969661.6151147     
   2895059939.9333444     
   2836996261.0858078     
   3076810074.6524115     
   2998466984.9261446     
   2928163289.7087560     
   2866458652.6295538     
   2813971802.5761762     
   3087583569.3854470     
   2999239199.0199752     
   2925163554.4800644     
   2865874747.1610456     
   2821997142.2737861     
   3143137791.3771791     
   3040600843.9729519     
   2959927047.6306095     
   2901342791.3215494     
   2865192931.5038204     
   2886286252.5586491     
   2821350453.5448937     
   2760637871.7358308     
   2704513621.5785041     
   2653370240.2659292     
   2836996261.0858078     
   2777907013.0772762     
   2724394029.5726824     
   2676837745.4287572     
   2635645029.7163634     
   2813971802.5761762     
   2760285121.8686996     
   2713667557.9469490     
   2674467353.3135352     
   2643055273.9274259     
   2821997142.2737861     
   2772360384.7072935     
   2731396713.1298680     
   2699380674.7185564     
   2676604475.5241718     
   2865192931.5038204     
   2817306920.0429921     
   2779789470.9115329     
   2752817153.7505069     
   2736579712.8414350     
   2653370240.2659292     
   2579580092.4066415     
   2514010401.6544995     
   2457391178.1727161     
   2410504545.7982268     
   2635645029.7163634     
   2574188835.5917172     
   2521315425.7798300     
   2477608168.2569661     
   2443674185.3173070     
   2643055273.9274259     
   2592296125.3371234     
   2550356710.6281824     
   2517672108.8384128     
   2494683648.3395214     
   2676604475.5241718     
   2634519069.8445845     
   2601396476.9071250     
   2577536578.7322302     
   2563237268.2750278     
   2736579712.8414350     
   2700859840.0226560     
   2674192741.2313786     
   2656765979.0907202     
   2648763091.1830411     
   2410504545.7982268     
   2347479821.6512661     
   2290972880.5184250     
   2241514131.4954796     
   2199639481.0759559     
   2443674185.3173070     
   2390759994.0869212     
   2346132259.1846013     
   2310292592.1389971     
   2283723818.2174129     
   2494683648.3395214     
   2451505672.3724594     
   2418223366.0510077     
   2395252681.8180752     
   2382976284.5877318     
   2563237268.2750278     
   2528543749.7699418     
   2505236262.6117659     
   2493615735.7807717     
   2493948757.2505093     
   2648763091.1830411     
   2620538186.8558483     
   2605158795.0257716     
   2602807004.6192036     
   2613640416.1140738     
   2199639481.0759559     
   2144743192.1785078     
   2104662128.2585747     
   2080166522.4328890     
   2071932861.4477723     
   2283723818.2174129     
   2242977436.0584655     
   2216166474.2711525     
   2203752950.9101295     
   2206132221.7116523     
   2382976284.5877318     
   2353497261.4948215     
   2337052746.7734451     
   2333906780.9247351     
   2344290024.7785845     
   2493948757.2505093     
   2473097814.6990008     
   2464475508.7440681     
   2468229632.4575934     
   2484502861.0327625     
   2613640416.1140738     
   2599099445.2847705     
   2596139781.6669331     
   2604848168.2261400     
   2625326367.6602960     
   2071932861.4477723     
   2068542828.3206670     
   2084354376.1242223     
   2121990573.7220995     
   2185264859.2435894     
   2206132221.7116523     
   2191720099.3377848     
   2192290395.3637142     
   2209809089.4994502     
   2247197961.8820491     
   2344290024.7785845     
   2319695508.5207367     
   2306650099.9205365     
   2306558398.3881445     
   2321509918.4964662     
   2484502861.0327625     
   2451512698.9396362     
   2427125781.1522717     
   2412287256.5491638     
   2408373670.3001981     
   2625326367.6602960     
   2586404550.2699981     
   2553442810.7041774     
   2527022113.3455791     
   2507949533.9812675     
   2185264859.2435894     
   2156077823.7523394     
   2146465070.0956590     
   2166952735.2421460     
   2228615960.2667599     
   2247197961.8820491     
   2182586568.5871248     
   2134407176.3683143     
   2112330886.3953032     
   2127297406.0732830     
   2321509918.4964662     
   2224810911.2210917     
   2141451044.4799640     
   2079801376.3451371     
   2050040628.6414988     
   2408373670.3001981     
   2283046165.3647046     
   2168244643.8847475     
   2070715918.4029315     
   1999237200.8029335     
   2507949533.9812675     
   2357503300.8810487     
   2215259563.9085555     
   2086206096.1970272     
   1977229561.8110144     
   4069657293.5587196     
   3722262730.4339871     
   3453094573.4474850     
   3260479167.5115557     
   3143137791.3771791     
   3251205282.9368815     
   3084066701.1670103     
   2962541712.9365077     
   2886014810.6878448     
   2853702575.2436438     
   2563865129.7780771     
   2563473268.0669804     
   2572444477.5411205     
   2590678255.9771223     
   2618016892.0413160     
   1930803787.0896244     
   2099120944.0827150     
   2237889061.7946510     
   2346627967.7613773     
   2425142423.1839871     
   1298425131.1631975     
   1645602147.5460727     
   1922046524.2359982     
   2127758261.2329700     
   2262737358.5369854     
   3143137791.3771791     
   3040600843.9729519     
   2959927047.6306095     
   2901342791.3215494     
   2865192931.5038204     
   2853702575.2436438     
   2799681371.5124292     
   2761255627.5974908     
   2738500044.6606994     
   2731520636.3754759     
   2618016892.0413160     
   2607394858.6212130     
   2605401123.8642612     
   2612049814.2790036     
   2627358969.5094376     
   2425142423.1839871     
   2454698305.6819868     
   2485458719.2185798     
   2517424787.3662887     
   2550597655.7390556     
   2262737358.5369854     
   2331247709.4088640     
   2393347947.3614945     
   2449038072.3948851     
   2498318084.5090261     
   2865192931.5038204     
   2817306920.0429921     
   2779789470.9115329     
   2752817153.7505069     
   2736579712.8414350     
   2731520636.3754759     
   2702470379.4860559     
   2682605326.2965293     
   2672015851.2027307     
   2670795080.9003706     
   2627358969.5094376     
   2614912938.0580630     
   2610317494.6556988     
   2613606706.1654296     
   2624814305.5504842     
   2550597655.7390556     
   2552597241.4392819     
   2561022834.1951685     
   2575881046.5409937     
   2597178180.4192581     
   2498318084.5090261     
   2512793104.0139599     
   2532243310.2660952     
   2556668703.2654352     
   2586069283.0119824     
   2736579712.8414350     
   2700859840.0226560     
   2674192741.2313786     
   2656765979.0907202     
   2648763091.1830411     
   2670795080.9003706     
   2649303540.3328352     
   2637044251.3788986     
   2634126924.3390899     
   2640654533.1362810     
   2624814305.5504842     
   2615714946.6507883     
   2615963378.8544955     
   2625608630.8035178     
   2644694849.6589584     
   2597178180.4192581     
   2598314994.6586456     
   2608915002.7853045     
   2628990220.4904509     
   2658551033.6968431     
   2586069283.0119824     
   2595074779.1156821     
   2613724799.8719020     
   2642019345.2806387     
   2679958415.3418808     
   2648763091.1830411     
   2620538186.8558483     
   2605158795.0257716     
   2602807004.6192036     
   2613640416.1140738     
   2640654533.1362810     
   2625425681.0824170     
   2621457234.4913216     
   2628826472.7969465     
   2647597852.9189696     
   2644694849.6589584     
   2640219618.8419738     
   2645509187.1834202     
   2660588119.9590769     
   2685476096.7075257     
   2658551033.6968431     
   2662971247.5833349     
   2675766085.8332639     
   2696939616.9373631     
   2726494931.6638489     
   2679958415.3418808     
   2691818580.0479426     
   2710767212.8596888     
   2736804313.7771201     
   2769929882.8002357     
   2613640416.1140738     
   2599099445.2847705     
   2596139781.6669331     
   2604848168.2261400     
   2625326367.6602960     
   2647597852.9189696     
   2635828971.6635685     
   2634561821.9787216     
   2643837049.9070501     
   2663705923.1349611     
   2685476096.7075257     
   2676079080.3603277     
   2676291321.1518536     
   2686127668.3015256     
   2705608472.4188781     
   2726494931.6638489     
   2719281272.1763172     
   2720945885.8174667     
   2731491762.0331044     
   2750923421.2294011     
   2769929882.8002357     
   2764903516.9136033     
   2768162787.1815963     
   2779707693.6042047     
   2799538236.1814394     
   2625326367.6602960     
   2586404550.2699981     
   2553442810.7041774     
   2527022113.3455791     
   2507949533.9812675     
   2663705923.1349611     
   2617987049.5250049     
   2577972636.9578848     
   2543993090.1314740     
   2516509876.1267071     
   2705608472.4188781     
   2655173644.6345067     
   2610331475.2330880     
   2571229070.0137839     
   2538072497.4404273     
   2750923421.2294011     
   2697862889.1276689     
   2650426183.4352336     
   2608649820.2084785     
   2572584976.7606831     
   2799538236.1814394     
   2745945273.1325378     
   2698149495.5889540     
   2656150903.5506997     
   2619949497.0177622     
   2507949533.9812675     
   2357503300.8810487     
   2215259563.9085555     
   2086206096.1970272     
   1977229561.8110144     
   2516509876.1267071     
   2348533566.1062870     
   2184136590.1653633     
   2026423692.5420902     
   1879967232.9348018     
   2538072497.4404273     
   2357662924.7395310     
   2177004903.9251928     
   1997572315.2032971     
   1821647080.0864751     
   2572584976.7606831     
   2384994237.5316248     
   2194331424.4650130     
   2000975386.8925381     
   1805531121.9424367     
   2619949497.0177622     
   2430495364.2266846     
   2236258272.0305305     
   2037238220.4293158     
   1833435209.4230351     
   1298425131.1631975     
   1645602147.5460727     
   1922046524.2359982     
   2127758261.2329700     
   2262737358.5369854     
   1930803801.3802655     
   2099120954.8359952     
   2237889068.3937612     
   2346627969.8362875     
   2425142420.5239024     
   2563865154.6028118     
   2563473285.5820608     
   2572444487.5146804     
   2590678258.2659688     
   2618016886.5935149     
   3251205311.3984165     
   3084066720.0192947     
   2962541722.4019222     
   2886014811.0033946     
   2853702566.6563339     
   4069657317.6224813     
   3722262744.5979834     
   3453094578.2554469     
   3260479163.5144935     
   3143137779.0916128     
   2262737358.5369854     
   2331247709.4088640     
   2393347947.3614945     
   2449038072.3948851     
   2498318084.5090261     
   2425142420.5239024     
   2454698303.8270526     
   2485458717.9804549     
   2517424786.5544538     
   2550597655.1606927     
   2618016886.5935149     
   2607394854.7549715     
   2605401121.2005148     
   2612049812.4371910     
   2627358968.1064939     
   2853702566.6563339     
   2799681365.3325276     
   2761255623.2593389     
   2738500041.5958843     
   2731520634.0098062     
   3143137779.0916128     
   3040600835.0470772     
   2959927041.3231115     
   2901342786.8790479     
   2865192928.1528406     
   2498318084.5090261     
   2512793104.0139599     
   2532243310.2660952     
   2556668703.2654352     
   2586069283.0119824     
   2550597655.1606927     
   2552597241.0288963     
   2561022834.0443845     
   2575881046.7397428     
   2597178181.0559335     
   2627358968.1064939     
   2614912936.9217706     
   2610317493.9727540     
   2613606706.1198587     
   2624814306.3238344     
   2731520634.0098062     
   2702470377.3709116     
   2682605324.7157426     
   2672015850.4388556     
   2670795081.2348604     
   2865192928.1528406     
   2817306916.7729278     
   2779789468.1019878     
   2752817151.7851601     
   2736579712.1084976     
   2586069283.0119824     
   2595074779.1156821     
   2613724799.8719020     
   2642019345.2806387     
   2679958415.3418808     
   2597178181.0559335     
   2598314994.8738751     
   2608915002.5495410     
   2628990219.7777476     
   2658551032.4851022     
   2624814306.3238344     
   2615714946.8253951     
   2615963378.3822327     
   2625608629.6401482     
   2644694847.7644148     
   2670795081.2348604     
   2649303540.1424241     
   2637044250.6084323     
   2634126922.9343691     
   2640654531.0439119     
   2736579712.1084976     
   2700859839.0829616     
   2674192740.0367990     
   2656765977.5884199     
   2648763089.3141999     
   2679958415.3418808     
   2691818580.0479426     
   2710767212.8596888     
   2736804313.7771201     
   2769929882.8002357     
   2658551032.4851022     
   2662971246.8206820     
   2675766085.4716735     
   2696939616.9267726     
   2726494931.9523592     
   2644694847.7644148     
   2640219617.7175059     
   2645509186.7234092     
   2660588120.0558457     
   2685476097.2514253     
   2640654531.0439119     
   2625425679.9707384     
   2621457234.1865759     
   2628826473.1243057     
   2647597853.7024560     
   2648763089.3141999     
   2620538186.0924587     
   2605158795.1138763     
   2602807005.3042521     
   2613640417.1410275     
   2769929882.8002357     
   2764903516.9136033     
   2768162787.1815963     
   2779707693.6042047     
   2799538236.1814394     
   2726494931.9523592     
   2719281272.3564177     
   2720945885.9117417     
   2731491762.0643015     
   2750923421.2203670     
   2685476097.2514253     
   2676079080.6937618     
   2676291321.3209167     
   2686127668.3526688     
   2705608472.3987217     
   2647597853.7024560     
   2635828972.1350422     
   2634561822.2094722     
   2643837049.9690838     
   2663705923.1008506     
   2613640417.1410275     
   2599099445.8919702     
   2596139781.9533968     
   2604848168.2924938     
   2625326367.6085153     
   2799538236.1814394     
   2745945273.1325378     
   2698149495.5889540     
   2656150903.5506997     
   2619949497.0177622     
   2750923421.2203670     
   2697862889.1248026     
   2650426183.4351645     
   2608649820.2079611     
   2572584976.7566833     
   2705608472.3987217     
   2655173644.6274214     
   2610331475.2322674     
   2571229070.0127068     
   2538072497.4328637     
   2663705923.1008506     
   2617987049.5120077     
   2577972636.9556293     
   2543993090.1299438     
   2516509876.1163316     
   2625326367.6085153     
   2586404550.2489948     
   2553442810.6997786     
   2527022113.3439660     
   2507949533.9692183     
   2619949497.0177622     
   2430495364.2266846     
   2236258272.0305305     
   2037238220.4293158     
   1833435209.4230351     
   2572584976.7566833     
   2384994237.5315070     
   2194331424.4740539     
   2000975386.9174042     
   1805531121.9918535     
   2538072497.4328637     
   2357662924.7386827     
   2177004903.9413352     
   1997572315.2489812     
   1821647080.1774960     
   2516509876.1163316     
   2348533566.1041851     
   2184136590.1863089     
   2026423692.6034372     
   1879967233.0569265     
   2507949533.9692183     
   2357503300.8772454     
   2215259563.9317055     
   2086206096.2680752     
   1977229561.9526198     
   4069657317.6224813     
   3722262744.5979834     
   3453094578.2554469     
   3260479163.5144935     
   3143137779.0916128     
   3764825070.0767150     
   3541707356.7306824     
   3354049940.2801065     
   3202285073.5501847     
   3087583559.4974823     
   3552340182.7236953     
   3422166767.1991034     
   3298974031.2350292     
   3183557229.9181037     
   3076810067.4364095     
   3325353161.9909019     
   3276112732.6985054     
   3223424493.2254262     
   3162999761.8726506     
   3091185255.3137426     
   3023260180.7306042     
   3049584334.7532659     
   3085093225.0304828     
   3111041088.8979931     
   3114020721.7428741     
   3143137779.0916128     
   3040600835.0470772     
   2959927041.3231115     
   2901342786.8790479     
   2865192928.1528406     
   3087583559.4974823     
   2999239192.0880222     
   2925163550.0901618     
   2865874744.8697863     
   2821997141.6022472     
   3076810067.4364095     
   2998466980.2737107     
   2928163287.4534287     
   2866458652.5792966     
   2813971804.5114789     
   3091185255.3137426     
   3022436369.5157642     
   2956969661.8699346     
   2895059942.2115183     
   2836996265.3911591     
   3114020721.7428741     
   3057337942.4404140     
   3000700264.3313532     
   2943785058.9885092     
   2886286258.8687615     
   2865192928.1528406     
   2817306916.7729278     
   2779789468.1019878     
   2752817151.7851601     
   2736579712.1084976     
   2821997141.6022472     
   2772360383.9885120     
   2731396712.6018152     
   2699380674.6272969     
   2676604476.1242623     
   2813971804.5114789     
   2760285123.6192222     
   2713667559.6170030     
   2674467355.0153446     
   2643055275.7814593     
   2836996265.3911591     
   2777907017.1380601     
   2724394033.3669882     
   2676837748.9372592     
   2635645032.9224229     
   2886286258.8687615     
   2821350459.6989508     
   2760637877.5949879     
   2704513626.9967732     
   2653370245.0897298     
   2736579712.1084976     
   2700859839.0829616     
   2674192740.0367990     
   2656765977.5884199     
   2648763089.3141999     
   2676604476.1242623     
   2634519070.0243568     
   2601396476.6551785     
   2577536578.0301957     
   2563237267.0960603     
   2643055275.7814593     
   2592296126.6120753     
   2550356711.3474655     
   2517672109.0162363     
   2494683647.9791765     
   2635645032.9224229     
   2574188838.0995846     
   2521315427.6455579     
   2477608169.5254903     
   2443674186.0206237     
   2653370245.0897298     
   2579580096.4374032     
   2514010404.9788232     
   2457391180.8647714     
   2410504547.9178009     
   2648763089.3141999     
   2620538186.0924587     
   2605158795.1138763     
   2602807005.3042521     
   2613640417.1410275     
   2563237267.0960603     
   2528543749.3116369     
   2505236262.7310915     
   2493615736.3340626     
   2493948758.0942321     
   2494683647.9791765     
   2451505672.3152337     
   2418223366.2575188     
   2395252682.2522173     
   2382976285.2180338     
   2443674186.0206237     
   2390759994.6066270     
   2346132259.5774236     
   2310292592.4738541     
   2283723818.5775323     
   2410504547.9178009     
   2347479823.0015092     
   2290972881.2414985     
   2241514131.7592688     
   2199639481.0778198     
   2613640417.1410275     
   2599099445.8919702     
   2596139781.9533968     
   2604848168.2924938     
   2625326367.6085153     
   2493948758.0942321     
   2473097815.2076616     
   2464475508.9835391     
   2468229632.4958315     
   2484502860.9395370     
   2382976285.2180338     
   2353497261.8812671     
   2337052746.9500084     
   2333906780.9273329     
   2344290024.6449728     
   2283723818.5775323     
   2242977436.2815948     
   2216166474.3599267     
   2203752950.8678260     
   2206132221.5423665     
   2199639481.0778198     
   2144743192.1756246     
   2104662128.2230458     
   2080166522.3340063     
   2071932861.2526762     
   2625326367.6085153     
   2586404550.2489948     
   2553442810.6997786     
   2527022113.3439660     
   2507949533.9692183     
   2484502860.9395370     
   2451512698.8666072     
   2427125781.0936012     
   2412287256.4992604     
   2408373670.2538443     
   2344290024.6449728     
   2319695508.3946300     
   2306650099.8045869     
   2306558398.2850895     
   2321509918.4091191     
   2206132221.5423665     
   2191720099.1594553     
   2192290395.1880136     
   2209809089.3380132     
   2247197961.7461891     
   2071932861.2526762     
   2068542828.0935965     
   2084354375.8869834     
   2121990573.4966424     
   2185264859.0511546     
   2507949533.9692183     
   2357503300.8772454     
   2215259563.9317055     
   2086206096.2680752     
   1977229561.9526198     
   2408373670.2538443     
   2283046165.3437428     
   2168244643.9032359     
   2070715918.4768474     
   1999237200.9493506     
   2321509918.4091191     
   2224810911.1768093     
   2141451044.4876552     
   2079801376.4151196     
   2050040628.7846467     
   2247197961.7461891     
   2182586568.5127659     
   2134407176.3586707     
   2112330886.4545655     
   2127297406.2058485     
   2185264859.0511546     
   2156077823.6406417     
   2146465070.0619152     
   2166952735.2841363     
   2228615960.3825011     
   3023260180.7306042     
   3049584334.7532659     
   3085093225.0304828     
   3111041088.8979931     
   3114020721.7428741     
   3139382948.1799388     
   3197409304.5102549     
   3248548119.1962161     
   3289793181.5920987     
   3318993889.6468201     
   3576405302.7517180     
   3569773028.7141151     
   3568180742.5406685     
   3571522776.4552298     
   3579803304.6331797     
   4286925955.7158837     
   4149938427.7822986     
   4042228273.3207760     
   3959528622.9194622     
   3898868000.9528074     
   5253611977.2368956     
   4937089869.0434818     
   4675492933.7705393     
   4458463835.1542292     
   4278197655.9512649     
   3114020721.7428741     
   3057337942.4404140     
   3000700264.3313532     
   2943785058.9885092     
   2886286258.8687615     
   3318993889.6468201     
   3240287513.6915650     
   3163785198.0118546     
   3089676951.9456301     
   3018167486.3456941     
   3579803304.6331797     
   3473539320.8345785     
   3371927251.9633183     
   3275318125.9272285     
   3184155383.9785905     
   3898868000.9528074     
   3759144472.9417295     
   3626444666.5912447     
   3501011173.4599233     
   3383312997.3799491     
   4278197655.9512649     
   4098473937.6134410     
   3927877977.5845599     
   3766350506.8519711     
   3614226556.0677452     
   2886286258.8687615     
   2821350459.6989508     
   2760637877.5949879     
   2704513626.9967732     
   2653370245.0897298     
   3018167486.3456941     
   2935221944.7577219     
   2856301738.8233795     
   2781799691.1103125     
   2712163900.5597773     
   3184155383.9785905     
   3083391264.1071620     
   2986327353.8469362     
   2893329133.7501764     
   2804842341.1317282     
   3383312997.3799491     
   3264905690.9599743     
   3149814164.2365394     
   3038328117.0149856     
   2930834950.6365952     
   3614226556.0677452     
   3478239793.0413489     
   3345182526.0555239     
   3215232491.5868926     
   3088673405.7695851     
   2653370245.0897298     
   2579580096.4374032     
   2514010404.9788232     
   2457391180.8647714     
   2410504547.9178009     
   2712163900.5597773     
   2617647428.3173952     
   2529990016.1670723     
   2449924638.9272594     
   2378282475.1544108     
   2804842341.1317282     
   2691055488.2356544     
   2582637370.3569303     
   2480225235.9353824     
   2384580614.6692452     
   2930834950.6365952     
   2799894884.7629280     
   2672881570.1576309     
   2550265531.5193787     
   2432636583.8658552     
   3088673405.7695851     
   2943088009.7723832     
   2800191852.2615161     
   2660267949.0205035     
   2523688996.0257158     
   2410504547.9178009     
   2347479823.0015092     
   2290972881.2414985     
   2241514131.7592688     
   2199639481.0778198     
   2378282475.1544108     
   2294817019.0834603     
   2217986386.8225474     
   2148473671.7581334     
   2087017940.6574845     
   2384580614.6692452     
   2280511296.2937536     
   2182766326.9591904     
   2092109225.0808194     
   2009428889.5462837     
   2432636583.8658552     
   2308428460.5225453     
   2189879281.4301829     
   2077717545.3882368     
   1972861737.0206847     
   2523688996.0257158     
   2380315066.8083048     
   2241739465.1976743     
   2108536622.9458978     
   1981503770.7877381     
   2199639481.0778198     
   2144743192.1756246     
   2104662128.2230458     
   2080166522.3340063     
   2071932861.2526762     
   2087017940.6574845     
   2011856220.2104867     
   1949006550.0662448     
   1899553771.3357925     
   1864531152.8942480     
   2009428889.5462837     
   1912589335.4282575     
   1824544281.9880538     
   1746505719.0306487     
   1679779209.3071070     
   1972861737.0206847     
   1855911654.9611392     
   1743404168.7375522     
   1636278742.0437794     
   1535690055.3694618     
   1981503770.7877381     
   1849535596.6076035     
   1717713813.7607396     
   1586405951.5678408     
   1456144155.0189872     
   2071932861.2526762     
   2068542828.0935965     
   2084354375.8869834     
   2121990573.4966424     
   2185264859.0511546     
   1864531152.8942480     
   1854199875.2726974     
   1866805580.4617109     
   1904546523.4099412     
   1970452981.7062106     
   1679779209.3071070     
   1651533075.6881540     
   1650973847.0859780     
   1680455175.0769022     
   1742580142.9152818     
   1535690055.3694618     
   1475148223.0309255     
   1447270701.2699046     
   1456000908.0613880     
   1504618316.0830986     
   1456144155.0189872     
   1347517875.8963435     
   1273859938.4014158     
   1243266200.5255783     
   1262744745.5980585     
   2185264859.0511546     
   2156077823.6406417     
   2146465070.0619152     
   2166952735.2841363     
   2228615960.3825011     
   1970452981.7062106     
   1968742063.2551937     
   2003567258.8440740     
   2093596562.9032185     
   2257482040.7821617     
   1742580142.9152818     
   1787505227.1769612     
   1884580669.0321145     
   2060700218.2430837     
   2341073521.4312162     
   1504618316.0830986     
   1613084360.1569462     
   1788765404.8685164     
   2066387935.9524677     
   2476126703.3573442     
   1262744745.5980585     
   1446523536.0734296     
   1715557518.0725546     
   2110395737.0355792     
   2663434954.5592418     
   5253611977.2368956     
   4937089869.0434818     
   4675492933.7705393     
   4458463835.1542292     
   4278197655.9512649     
   5365537208.3528261     
   5149125405.5049725     
   4932170357.9399519     
   4714375763.0800743     
   4495605979.4163446     
   5387722979.4882526     
   5213879802.1318483     
   5049558199.4620829     
   4885726919.2051420     
   4715918246.3338976     
   5273268187.1427784     
   5088911420.2442904     
   4994399884.5846243     
   4948975695.9528494     
   4923662962.9567575     
   5170927572.5976353     
   4846497594.7390852     
   4791125385.0147018     
   4906122405.5516186     
   5111686168.8850384     
   4278197655.9512649     
   4098473937.6134410     
   3927877977.5845599     
   3766350506.8519711     
   3614226556.0677452     
   4495605979.4163446     
   4309349063.6318150     
   4127110893.5628495     
   3949166060.6439910     
   3775970935.6345248     
   4715918246.3338976     
   4524109317.4295053     
   4335220541.2663279     
   4149348973.8958235     
   3966673000.6814885     
   4923662962.9567575     
   4729130714.2280388     
   4540101083.7088509     
   4356011565.9683952     
   4176399624.1243196     
   5111686168.8850384     
   4917169884.2981949     
   4734397926.3137283     
   4561641406.1666641     
   4397378733.3577108     
   3614226556.0677452     
   3478239793.0413489     
   3345182526.0555239     
   3215232491.5868926     
   3088673405.7695851     
   3775970935.6345248     
   3633035672.4807453     
   3490971060.1104121     
   3349918328.5556445     
   3210108239.0895019     
   3966673000.6814885     
   3816906257.1052017     
   3666443927.7561650     
   3515369939.8069921     
   3363844647.2215171     
   4176399624.1243196     
   4020831039.9868693     
   3863457109.5036478     
   3704304734.3242335     
   3543474644.6146793     
   4397378733.3577108     
   4237663013.0390120     
   4075437025.0314808     
   3910684988.1189299     
   3743476726.2431226     
   3088673405.7695851     
   2943088009.7723832     
   2800191852.2615161     
   2660267949.0205035     
   2523688996.0257158     
   3210108239.0895019     
   3056511698.5024776     
   2905393516.1797724     
   2757005854.3186798     
   2611696338.8901529     
   3363844647.2215171     
   3200757517.9827795     
   3039954760.9345365     
   2881669285.5181141     
   2726246986.2844982     
   3543474644.6146793     
   3369078439.7697139     
   3196787870.3980212     
   3026829810.7794037     
   2859572760.0835867     
   3743476726.2431226     
   3555728772.6783023     
   3369921790.5820246     
   3186290188.8418183     
   3005248891.1127806     
   2523688996.0257158     
   2380315066.8083048     
   2241739465.1976743     
   2108536622.9458978     
   1981503770.7877381     
   2611696338.8901529     
   2460488082.2838564     
   2311337603.8821831     
   2164571800.3237734     
   2020643021.5666246     
   2726246986.2844982     
   2570632741.5527883     
   2415176146.2226405     
   2259979995.3611703     
   2105187449.0625563     
   2859572760.0835867     
   2703718676.2711487     
   2546970327.3315310     
   2389306860.1206150     
   2230722180.8829956     
   3005248891.1127806     
   2853608664.2669644     
   2700783342.2874813     
   2546740576.0675497     
   2391504286.7086086     
   1981503770.7877381     
   1849535596.6076035     
   1717713813.7607396     
   1586405951.5678408     
   1456144155.0189872     
   2020643021.5666246     
   1882591124.8297591     
   1744932137.9874039     
   1607794736.8420169     
   1471356173.1912596     
   2105187449.0625563     
   1963818848.6127474     
   1823488073.9135962     
   1684217757.8047924     
   1546062271.7304280     
   2230722180.8829956     
   2087045442.0450478     
   1945153081.6003444     
   1805036938.8083339     
   1666777494.4989462     
   2391504286.7086086     
   2244860221.4840150     
   2100619474.4144986     
   1958776390.8488696     
   1819516129.5810118     
   1456144155.0189872     
   1347517875.8963435     
   1273859938.4014158     
   1243266200.5255783     
   1262744745.5980585     
   1471356173.1912596     
   1327530158.8866777     
   1198162888.8103340     
   1087719460.4953282     
   1002075017.3015285     
   1546062271.7304280     
   1396611018.0555403     
   1243577860.2594128     
   1084688553.0228148     
   917908017.47623610     
   1666777494.4989462     
   1551801906.9759092     
   1427659584.9837179     
   1294717955.3568242     
   1159111784.5014727     
   1819516129.5810118     
   1779317206.7403388     
   1735503351.8385231     
   1696742098.2355425     
   1681566577.9978576     
   1262744745.5980585     
   1446523536.0734296     
   1715557518.0725546     
   2110395737.0355792     
   2663434954.5592418     
   1002075017.3015285     
   1164659194.3532066     
   1425320435.2797115     
   1808632170.6169019     
   2334663080.6281543     
   917908017.47623610     
   963156963.40932059     
   1144859689.5638154     
   1476383809.3796504     
   1957415004.8647003     
   1159111784.5014727     
   1008517982.8730106     
   985197194.23232675     
   1161451401.4524848     
   1544208153.8618279     
   1681566577.9978576     
   1383881345.3198438     
   1129500862.7887387     
   1010191972.6611946     
   1153321984.4160039     
 </DataArray>
 <DataArray  type="Float64" Name="strain" NumberOfComponents="3" format="ascii">
   6.3386031389061959E-002  -2.7289805723585636E-002  -8.3763195509528821E-002
   6.8437413653542056E-002  -2.8058862459568124E-002  -5.9296856804635700E-002
   7.3488795918022154E-002  -2.8161795631644060E-002  -4.0904701572538615E-002
   7.8540178182502196E-002  -2.7598605239813653E-002  -2.8586729813237621E-002
   8.3591560446982349E-002  -2.6369291284076835E-002  -2.2342941526732774E-002
   8.1770881322912103E-002  -2.6025353775534832E-002  -4.7039091869033767E-002
   8.1802665174007083E-002  -2.6494011727009437E-002  -3.1057718930068590E-002
   8.1834449025102174E-002  -2.6433299044609226E-002  -1.9041359345076891E-002
   8.1866232876197292E-002  -2.5843215728334035E-002  -1.0990013114059116E-002
   8.1898016727292355E-002  -2.4723761778183861E-002  -6.9036802370149308E-003
   9.0018433332532566E-002  -2.4760901827484139E-002  -9.9462129790154896E-003
   8.7139788889064873E-002  -2.4929160994450861E-002  -2.5865587360092701E-003
   8.4261144445597264E-002  -2.4704802457574254E-002   2.9172522718454719E-003
   8.1382500002129557E-002  -2.4087826216854256E-002   6.5652200445485559E-003
   7.8503855558661906E-002  -2.3078232272290722E-002   8.3573445821000236E-003
   8.8128687417923499E-002  -2.3496449879433390E-002   2.7515441160526413E-002
   8.4448784798715440E-002  -2.3364310261892327E-002   2.6116623777541925E-002
   8.0768882179507340E-002  -2.2976305870539462E-002   2.4971133278228218E-002
   7.7088979560299198E-002  -2.2332436705374614E-002   2.4078969662585121E-002
   7.3409076941091111E-002  -2.1432702766397888E-002   2.3440132930612936E-002
   7.6101643579084888E-002  -2.2231997931382641E-002   6.5345870549592011E-002
   7.3729652902958631E-002  -2.1799459529333820E-002   5.5051828610585440E-002
   7.1357662226832402E-002  -2.1247809283504601E-002   4.7120283674071534E-002
   6.8985671550706132E-002  -2.0577047193894870E-002   4.1551235740050832E-002
   6.6613680874579917E-002  -1.9787173260504831E-002   3.8344684808523100E-002
   8.3591560446982349E-002  -2.6369291284076835E-002  -2.2342941526732774E-002
   8.0956485826342628E-002  -2.4941608912360302E-002  -1.7672909199004494E-002
   7.8321411205702851E-002  -2.3783313272590922E-002  -1.3597930795665514E-002
   7.5686336585063047E-002  -2.2894404364768542E-002  -1.0118006316715639E-002
   7.3051261964423353E-002  -2.2274882188893397E-002  -7.2331357621553405E-003
   8.1898016727292355E-002  -2.4723761778183861E-002  -6.9036802370149308E-003
   7.8816180125648339E-002  -2.3447972796504984E-002  -4.0290170662244107E-003
   7.5734343524004433E-002  -2.2388884385643168E-002  -1.4528239330522941E-003
   7.2652506922360471E-002  -2.1546496545599380E-002   8.2489916250075290E-004
   6.9570670320716566E-002  -2.0920809276372521E-002   2.8041522204347857E-003
   7.8503855558661906E-002  -2.3078232272290722E-002   8.3573445821000236E-003
   7.5271840862784101E-002  -2.1954336680649444E-002   9.4893247570832645E-003
   7.2039826166906282E-002  -2.0994455498695858E-002   1.0619418781217901E-002
   6.8807811471028490E-002  -2.0198588726429885E-002   1.1747626654503754E-002
   6.5575796775150658E-002  -1.9566736363851644E-002   1.2873948376940975E-002
   7.3409076941091111E-002  -2.1432702766397888E-002   2.3440132930612936E-002
   7.0323468037749831E-002  -2.0460700564794126E-002   2.2882116270917980E-002
   6.7237859134408509E-002  -1.9600026611748436E-002   2.2618797347144920E-002
   6.4152250231067173E-002  -1.8850680907260668E-002   2.2650176159293534E-002
   6.1066641327725844E-002  -1.8212663451330768E-002   2.2976252707363705E-002
   6.6613680874579917E-002  -1.9787173260504831E-002   3.8344684808523100E-002
   6.3971061650545447E-002  -1.8967064448938697E-002   3.6149357475280114E-002
   6.1328442426510948E-002  -1.8205597724800765E-002   3.4545311764728748E-002
   5.8685823202476520E-002  -1.7502773088091388E-002   3.3532547676869848E-002
   5.6043203978442035E-002  -1.6858590538809837E-002   3.3111065211702928E-002
   7.3051261964423353E-002  -2.2274882188893397E-002  -7.2331357621553405E-003
   7.0354155833663556E-002  -2.1698477565377294E-002  -6.6993737601872549E-003
   6.7657049702903593E-002  -2.0938921314632569E-002  -6.1356317908117242E-003
   6.4959943572143769E-002  -1.9996213436659270E-002  -5.5419098540277489E-003
   6.2262837441383834E-002  -1.8870353931456862E-002  -4.9182079498356623E-003
   6.9570670320716566E-002  -2.0920809276372521E-002   2.8041522204347857E-003
   6.6928115952689549E-002  -2.0329738269602771E-002   3.0135139524344878E-003
   6.4285561584662559E-002  -1.9591199216928590E-002   3.3019992424919986E-003
   6.1643007216635640E-002  -1.8705192118351241E-002   3.6696080906071793E-003
   5.9000452848608609E-002  -1.7671716973869378E-002   4.1163404967804462E-003
   6.5575796775150658E-002  -1.9566736363851644E-002   1.2873948376940975E-002
   6.3036937760506229E-002  -1.8960998973827664E-002   1.2723226257648129E-002
   6.0498078745861814E-002  -1.8243477119224957E-002   1.2700771287062512E-002
   5.7959219731217378E-002  -1.7414170800042993E-002   1.2806583465184158E-002
   5.5420360716572969E-002  -1.6473080016282282E-002   1.3040662792013075E-002
   6.1066641327725844E-002  -1.8212663451330768E-002   2.2976252707363705E-002
   5.8680621257113555E-002  -1.7592259678052904E-002   2.2429763155453003E-002
   5.6294601186501161E-002  -1.6895755021521040E-002   2.2060684342899397E-002
   5.3908581115888886E-002  -1.6123149481735190E-002   2.1869016269702737E-002
   5.1522561045276499E-002  -1.5274443058694992E-002   2.1854758935862743E-002
   5.6043203978442035E-002  -1.6858590538809837E-002   3.3111065211702928E-002
   5.3859166442511430E-002  -1.6223520382278006E-002   3.2133124645849664E-002
   5.1675128906580797E-002  -1.5548032923817096E-002   3.1381738410002857E-002
   4.9491091370650164E-002  -1.4832128163427181E-002   3.0856906504162535E-002
   4.7307053834719559E-002  -1.4075806101107757E-002   3.0558628928328779E-002
   6.2262837441383834E-002  -1.8870353931456862E-002  -4.9182079498356623E-003
   5.9207964519993883E-002  -1.7728429644300436E-002  -4.0562316622828609E-003
   5.6153091598603933E-002  -1.6737527420464221E-002  -3.0182119015198516E-003
   5.3098218677213926E-002  -1.5897647259948862E-002  -1.8041486675450524E-003
   5.0043345755824031E-002  -1.5208789162753700E-002  -4.1404196036043395E-004
   5.9000452848608609E-002  -1.7671716973869378E-002   4.1163404967804462E-003
   5.6117012463599902E-002  -1.6621245879752944E-002   4.5237492032650373E-003
   5.3233572078591168E-002  -1.5684250932271854E-002   5.0979795093022973E-003
   5.0350131693582420E-002  -1.4860732131424463E-002   5.8390314148904776E-003
   4.7466691308573727E-002  -1.4150689477211764E-002   6.7469049200304942E-003
   5.5420360716572969E-002  -1.6473080016282282E-002   1.3040662792013075E-002
   5.2699130994286303E-002  -1.5514062115206506E-002   1.3031049834116681E-002
   4.9977901271999664E-002  -1.4630974444078917E-002   1.3179036602112407E-002
   4.7256671549712984E-002  -1.3823817002900505E-002   1.3484623096000535E-002
   4.4535441827426359E-002  -1.3092589791670051E-002   1.3947809315781878E-002
   5.1522561045276499E-002  -1.5274443058694992E-002   2.1854758935862743E-002
   4.8954320112052946E-002  -1.4406878350659319E-002   2.1465670230270399E-002
   4.6386079178829399E-002  -1.3577697955886266E-002   2.1224959376911417E-002
   4.3817838245605784E-002  -1.2786901874375882E-002   2.1132626375785682E-002
   4.1249597312382286E-002  -1.2034490106128115E-002   2.1188671226893746E-002
   4.7307053834719559E-002  -1.4075806101107757E-002   3.0558628928328779E-002
   4.4882579816899942E-002  -1.3299694586112298E-002   2.9827610391726711E-002
   4.2458105799080353E-002  -1.2524421467693517E-002   2.9235747833698950E-002
   4.0033631781260764E-002  -1.1749986745851735E-002   2.8783041254245342E-002
   3.7609157763441148E-002  -1.0976390420586180E-002   2.8469490653366791E-002
   5.0043345755824031E-002  -1.5208789162753700E-002  -4.1404196036043395E-004
   4.7492676131503653E-002  -1.4550212126389961E-002  -1.6944704607546601E-004
   4.4942006507183330E-002  -1.3801175148368983E-002  -4.9577151863600122E-005
   4.2391336882862951E-002  -1.2961678228690848E-002  -5.4432277725391387E-005
   3.9840667258542628E-002  -1.2031721367355086E-002  -1.8401242366006265E-004
   4.7466691308573727E-002  -1.4150689477211764E-002   6.7469049200304942E-003
   4.4833162295588702E-002  -1.3466038457574880E-002   6.7553468413976692E-003
   4.2199633282603677E-002  -1.2718694560455185E-002   6.7227950055085417E-003
   3.9566104269618652E-002  -1.1908657785852213E-002   6.6492494123636947E-003
   3.6932575256633626E-002  -1.1035928133766193E-002   6.5347100619631560E-003
   4.4535441827426359E-002  -1.3092589791670051E-002   1.3947809315781878E-002
   4.1902784688594180E-002  -1.2381864788759633E-002   1.3692331180056500E-002
   3.9270127549761918E-002  -1.1636213972540943E-002   1.3479590549892589E-002
   3.6637470410929698E-002  -1.0855637343013355E-002   1.3309587425290176E-002
   3.4004813272097506E-002  -1.0040134900177522E-002   1.3182321806249564E-002
   4.1249597312382286E-002  -1.2034490106128115E-002   2.1188671226893746E-002
   3.8701543310520156E-002  -1.1297691119944248E-002   2.0641505969901934E-002
   3.6153489308658047E-002  -1.0553733384626701E-002   2.0220809481288626E-002
   3.3605435306795939E-002  -9.8026169001746086E-003   1.9926581761054003E-002
   3.1057381304933920E-002  -9.0443416665887399E-003   1.9758822809198551E-002
   3.7609157763441148E-002  -1.0976390420586180E-002   2.8469490653366791E-002
   3.5229438161366644E-002  -1.0213517451129306E-002   2.7602871210933411E-002
   3.2849718559292085E-002  -9.4712527967125704E-003   2.6946451799696014E-002
   3.0469998957217498E-002  -8.7495964573360563E-003   2.6500232419655101E-002
   2.8090279355143022E-002  -8.0485484329999579E-003   2.6264213070810616E-002
   3.9840667258542628E-002  -1.2031721367355086E-002  -1.8401242366006265E-004
   3.7431334023263263E-002  -1.1147460234838813E-002  -3.9610434292103314E-004
   3.5022000787983676E-002  -1.0445050501618258E-002  -5.3323972404029085E-004
   3.2612667552704200E-002  -9.9244921676943099E-003  -5.9541856701750273E-004
   3.0203334317424724E-002  -9.5857852330660798E-003  -5.8264087185300184E-004
   3.6932575256633626E-002  -1.1035928133766193E-002   6.5347100619631560E-003
   3.4582692959427452E-002  -1.0192693152409671E-002   6.1356757508872484E-003
   3.2232810662221167E-002  -9.4711403899944147E-003   5.7805867778157882E-003
   2.9882928365014938E-002  -8.8712698465205631E-003   5.4694431427495804E-003
   2.7533046067808709E-002  -8.3930815219883659E-003   5.2022448456868764E-003
   3.4004813272097506E-002  -1.0040134900177522E-002   1.3182321806249564E-002
   3.1683370712827175E-002  -9.2379260699805843E-003   1.2656514283713505E-002
   2.9361928153556677E-002  -8.4972302783703491E-003   1.2143640899044655E-002
   2.7040485594286290E-002  -7.8180475253472603E-003   1.1643701652242988E-002
   2.4719043035015847E-002  -7.2003778109110961E-003   1.1156696543308586E-002
   3.1057381304933920E-002  -9.0443416665887399E-003   1.9758822809198551E-002
   2.8733367283462000E-002  -8.2831589875515810E-003   1.9166411255556903E-002
   2.6409353261990128E-002  -7.5233201667468386E-003   1.8555922639645409E-002
   2.4085339240518287E-002  -6.7648252041740686E-003   1.7927356961463886E-002
   2.1761325219046453E-002  -6.0076740998333822E-003   1.7280714221011489E-002
   2.8090279355143022E-002  -8.0485484329999579E-003   2.6264213070810616E-002
   2.5732682671332330E-002  -7.3283919051226887E-003   2.5665366666418166E-002
   2.3375085987521610E-002  -6.5494100551229950E-003   2.5017431999618478E-002
   2.1017489303710890E-002  -5.7116028830002941E-003   2.4320409070411025E-002
   1.8659892619900198E-002  -4.8149703887558903E-003   2.3574297878796169E-002
   3.0203334317424724E-002  -9.5857852330660798E-003  -5.8264087185300184E-004
   2.9597993602610173E-002  -9.1314937870783375E-003  -3.5007943197684632E-004
   2.8992652887795456E-002  -8.2641819190747423E-003  -1.7960407245978249E-003
   2.8387312172980766E-002  -6.9838496290564600E-003  -4.9205247497154381E-003
   2.7781971458166188E-002  -5.2904969170213256E-003  -9.7235315073298523E-003
   2.7533046067808709E-002  -8.3930815219883659E-003   5.2022448456868764E-003
   2.5518019558208926E-002  -7.8685205713555639E-003   5.8736523866762536E-003
   2.3502993048609089E-002  -7.1295321495805086E-003   5.4042110705929680E-003
   2.1487966539009279E-002  -6.1761162566639632E-003   3.7939208974351324E-003
   1.9472940029409580E-002  -5.0082728926046371E-003   1.0427818672038569E-003
   2.4719043035015847E-002  -7.2003778109110961E-003   1.1156696543308586E-002
   2.1832004606053973E-002  -6.6055473556334565E-003   1.2068357234538696E-002
   1.8944966177092029E-002  -5.9948823800869411E-003   1.2376842944117561E-002
   1.6057927748130092E-002  -5.3683828842714665E-003   1.2082153672046653E-002
   1.3170889319168211E-002  -4.7260488681872825E-003   1.1184289418324944E-002
   2.1761325219046453E-002  -6.0076740998333822E-003   1.7280714221011489E-002
   1.8539948746145361E-002  -5.3425741399107940E-003   1.8234035111608857E-002
   1.5318572273244260E-002  -4.8602326105929294E-003   1.9121854895977980E-002
   1.2097195800343215E-002  -4.5606495118796359E-003   1.9944173574120150E-002
   8.8758193274421776E-003  -4.4438248437702610E-003   2.0700991146034076E-002
   1.8659892619900198E-002  -4.8149703887558903E-003   2.3574297878796169E-002
   1.5641851978483057E-002  -4.0796009241888531E-003   2.4370686017887055E-002
   1.2623811337065832E-002  -3.7255828410989733E-003   2.5639246926173254E-002
   9.6057706956486077E-003  -3.7529161394873195E-003   2.7379980603654985E-002
   6.5877300542314665E-003  -4.1616008193532394E-003   2.9592887050331695E-002
   2.7781971458166188E-002  -5.2904969170213256E-003  -9.7235315073298523E-003
   2.3355059949541901E-002  -4.2052718415583890E-003  -4.1903823891034087E-003
   1.8928148440917614E-002  -4.7493224612562557E-003   2.6057005186774784E-003
   1.4501236932293216E-002  -6.9226487761141486E-003   1.0664717216012143E-002
   1.0074325423669039E-002  -1.0725250786132179E-002   1.9986667702901251E-002
   1.9472940029409580E-002  -5.0082728926046371E-003   1.0427818672038569E-003
   1.6236826032933860E-002  -4.6902418351385533E-003   6.7391115367950727E-003
   1.3000712036458140E-002  -6.2862628620002914E-003   1.3554102441129756E-002
   9.7645980399826415E-003  -9.7963359731914890E-003   2.1487754580208351E-002
   6.5284840435069214E-003  -1.5220461168710564E-002   3.0540067954028860E-002
   1.3170889319168211E-002  -4.7260488681872825E-003   1.1184289418324944E-002
   1.0981300280029999E-002  -5.1752118287169413E-003   1.6759023250113247E-002
   8.7917112408917586E-003  -7.8232032627441050E-003   2.3308145761833432E-002
   6.6021222017534908E-003  -1.2670023170268385E-002   3.0831656953485220E-002
   4.4125331626153064E-003  -1.9715671551289393E-002   3.9329556825069334E-002
   8.8758193274421776E-003  -4.4438248437702610E-003   2.0700991146034076E-002
   7.5884826908301922E-003  -5.6601818222959954E-003   2.5869352750850810E-002
   6.3011460542181999E-003  -9.3601436634875856E-003   3.1867830480788450E-002
   5.0138094176061937E-003  -1.5543710367344837E-002   3.8696424335846358E-002
   3.7264727809942083E-003  -2.4210881933868000E-002   4.6355134316025060E-002
   6.5877300542314665E-003  -4.1616008193532394E-003   2.9592887050331695E-002
   6.0583732653344824E-003  -6.1451518158754936E-003   3.4070100039008122E-002
   5.5290164764375538E-003  -1.0897084064231288E-002   3.9233156597994423E-002
   4.9996596875404448E-003  -1.8417397564422122E-002   4.5082056727289876E-002
   4.4703028986435855E-003  -2.8706092316446608E-002   5.1616800426894649E-002
   7.6101643579084888E-002  -2.2231997931382641E-002   6.5345870549592011E-002
   7.3729652902958631E-002  -2.1799459529333820E-002   5.5051828610585440E-002
   7.1357662226832402E-002  -2.1247809283504601E-002   4.7120283674071534E-002
   6.8985671550706132E-002  -2.0577047193894870E-002   4.1551235740050832E-002
   6.6613680874579917E-002  -1.9787173260504831E-002   3.8344684808523100E-002
   6.1590876755257040E-002  -2.0406034572708454E-002   5.3193645256546351E-002
   6.1065441267729587E-002  -1.9971026848102563E-002   4.7658064869651823E-002
   6.0540005780202022E-002  -1.9446028143766531E-002   4.3453097857461709E-002
   6.0014570292674554E-002  -1.8831038459700418E-002   4.0578744219976121E-002
   5.9489134805147031E-002  -1.8126057795904121E-002   3.9035003957195058E-002
   5.2249961885680193E-002  -1.8580071214034266E-002   4.1058449718082965E-002
   5.2539197958963002E-002  -1.8142594166871348E-002   4.0252210019250168E-002
   5.2828434032245748E-002  -1.7644247004028633E-002   3.9744700067333390E-002
   5.3117670105528564E-002  -1.7085029725505969E-002   3.9535919862332514E-002
   5.3406906178811289E-002  -1.6464942331303412E-002   3.9625869404247921E-002
   4.8078898970354597E-002  -1.6754107855360093E-002   2.8940283934201620E-002
   4.8150922976659127E-002  -1.6314161485640237E-002   3.2834264059380246E-002
   4.8222946982963637E-002  -1.5842465864290622E-002   3.5995090303686646E-002
   4.8294970989268188E-002  -1.5339020991311490E-002   3.8422762667120629E-002
   4.8366994995572704E-002  -1.4803826866702674E-002   4.0117281149681987E-002
   4.9077688009280029E-002  -1.4928144496685891E-002   1.6839147904902430E-002
   4.7900616320817796E-002  -1.4485728804408932E-002   2.5404226990042578E-002
   4.6723544632355618E-002  -1.4040684724552679E-002   3.2204268566521782E-002
   4.5546472943893385E-002  -1.3593012257117013E-002   3.7239272634339918E-002
   4.4369401255431234E-002  -1.3142711402101936E-002   4.0509239193497137E-002
   6.6613680874579917E-002  -1.9787173260504831E-002   3.8344684808523100E-002
   6.3971061650545447E-002  -1.8967064448938697E-002   3.6149357475280114E-002
   6.1328442426510948E-002  -1.8205597724800765E-002   3.4545311764728748E-002
   5.8685823202476520E-002  -1.7502773088091388E-002   3.3532547676869848E-002
   5.6043203978442035E-002  -1.6858590538809837E-002   3.3111065211702928E-002
   5.9489134805147031E-002  -1.8126057795904121E-002   3.9035003957195058E-002
   5.7344275766617020E-002  -1.7395791444794667E-002   3.7739441783595312E-002
   5.5199416728086967E-002  -1.6704944698789116E-002   3.6848118358312476E-002
   5.3054557689556928E-002  -1.6053517557887372E-002   3.6361033681346633E-002
   5.0909698651026902E-002  -1.5441510022089322E-002   3.6278187752697505E-002
   5.3406906178811289E-002  -1.6464942331303412E-002   3.9625869404247921E-002
   5.1572764451410513E-002  -1.5824518440650581E-002   3.9249294872616185E-002
   4.9738622724009744E-002  -1.5204291672777245E-002   3.9089916214926121E-002
   4.7904480996608975E-002  -1.4604262027683359E-002   3.9147733431177806E-002
   4.6070339269208199E-002  -1.4024429505368835E-002   3.9422746521370983E-002
   4.8366994995572704E-002  -1.4803826866702674E-002   4.0117281149681987E-002
   4.6656527704925975E-002  -1.4253245436506523E-002   4.0678916742342579E-002
   4.4946060414279253E-002  -1.3703638646765513E-002   4.1270705334569738E-002
   4.3235593123632524E-002  -1.3155006497479469E-002   4.1892646926363221E-002
   4.1525125832985808E-002  -1.2607348988648362E-002   4.2544741517723174E-002
   4.4369401255431234E-002  -1.3142711402101936E-002   4.0509239193497137E-002
   4.2595565527163398E-002  -1.2681972432362465E-002   4.2028307392774605E-002
   4.0821729798895534E-002  -1.2202985620753698E-002   4.3390485717243188E-002
   3.9047894070627677E-002  -1.1705750967275379E-002   4.4595774166903024E-002
   3.7274058342359834E-002  -1.1190268471927833E-002   4.5644172741754252E-002
   5.6043203978442035E-002  -1.6858590538809837E-002   3.3111065211702928E-002
   5.3859166442511430E-002  -1.6223520382278006E-002   3.2133124645849664E-002
   5.1675128906580797E-002  -1.5548032923817096E-002   3.1381738410002857E-002
   4.9491091370650164E-002  -1.4832128163427181E-002   3.0856906504162535E-002
   4.7307053834719559E-002  -1.4075806101107757E-002   3.0558628928328779E-002
   5.0909698651026902E-002  -1.5441510022089322E-002   3.6278187752697505E-002
   4.8936580220027004E-002  -1.4832606296071721E-002   3.5615572551101038E-002
   4.6963461789027106E-002  -1.4190490584510884E-002   3.5148241229359459E-002
   4.4990343358027193E-002  -1.3515162887407020E-002   3.4876193787472622E-002
   4.3017224927027309E-002  -1.2806623204759837E-002   3.4799430225441019E-002
   4.6070339269208199E-002  -1.4024429505368835E-002   3.9422746521370983E-002
   4.4276869492987384E-002  -1.3441692209865450E-002   3.9068251367645190E-002
   4.2483399716766637E-002  -1.2832948245204798E-002   3.8877769643622787E-002
   4.0689929940545877E-002  -1.2198197611386973E-002   3.8851301349303737E-002
   3.8896460164325075E-002  -1.1537440308411889E-002   3.8988846484688020E-002
   4.1525125832985808E-002  -1.2607348988648362E-002   4.2544741517723174E-002
   3.9880034261392569E-002  -1.2050778123659171E-002   4.2491161095482205E-002
   3.8234942689799357E-002  -1.1475405905898593E-002   4.2570323652793132E-002
   3.6589851118206118E-002  -1.0881232335366952E-002   4.2782229189655747E-002
   3.4944759546612900E-002  -1.0268257412063955E-002   4.3126877706069988E-002
   3.7274058342359834E-002  -1.1190268471927833E-002   4.5644172741754252E-002
   3.5746074525242588E-002  -1.0659864037452865E-002   4.5884301734612387E-002
   3.4218090708125287E-002  -1.0117863566592514E-002   4.6225903256870343E-002
   3.2690106891008028E-002  -9.5642670593469349E-003   4.6668977308528578E-002
   3.1162123073890768E-002  -8.9990745157159657E-003   4.7213523889587050E-002
   4.7307053834719559E-002  -1.4075806101107757E-002   3.0558628928328779E-002
   4.4882579816899942E-002  -1.3299694586112298E-002   2.9827610391726711E-002
   4.2458105799080353E-002  -1.2524421467693517E-002   2.9235747833698950E-002
   4.0033631781260764E-002  -1.1749986745851735E-002   2.8783041254245342E-002
   3.7609157763441148E-002  -1.0976390420586180E-002   2.8469490653366791E-002
   4.3017224927027309E-002  -1.2806623204759837E-002   3.4799430225441019E-002
   4.0739271414725137E-002  -1.2081521501973919E-002   3.4244377189850850E-002
   3.8461317902422965E-002  -1.1356507744452946E-002   3.3843209186720957E-002
   3.6183364390120765E-002  -1.0631581932197483E-002   3.3595926216051925E-002
   3.3905410877818593E-002  -9.9067440652070848E-003   3.3502528277842836E-002
   3.8896460164325075E-002  -1.1537440308411889E-002   3.8988846484688020E-002
   3.6779756211426311E-002  -1.0863348417835067E-002   3.8610509401421453E-002
   3.4663052258527519E-002  -1.0188594021212256E-002   3.8400786404501043E-002
   3.2546348305628740E-002  -9.5131771185431747E-003   3.8359677493927241E-002
   3.0429644352729962E-002  -8.8370977098279901E-003   3.8487182669699582E-002
   3.4944759546612900E-002  -1.0268257412063955E-002   4.3126877706069988E-002
   3.3004034207003451E-002  -9.6451753336965068E-003   4.2926007026438284E-002
   3.1063308867394095E-002  -9.0206802979715985E-003   4.2908479487038943E-002
   2.9122583527784740E-002  -8.3947723048889492E-003   4.3074295087871979E-002
   2.7181858188175291E-002  -7.7674513544487844E-003   4.3423453828937336E-002
   3.1162123073890768E-002  -8.9990745157159657E-003   4.7213523889587050E-002
   2.9412105401456695E-002  -8.4270022495578911E-003   4.7190870064901580E-002
   2.7662087729022677E-002  -7.8527665747307601E-003   4.7366288434334575E-002
   2.5912070056588604E-002  -7.2763674912347219E-003   4.7739778997885937E-002
   2.4162052384154586E-002  -6.6978049990698008E-003   4.8311341755555293E-002
   3.7609157763441148E-002  -1.0976390420586180E-002   2.8469490653366791E-002
   3.5229438161366644E-002  -1.0213517451129306E-002   2.7602871210933411E-002
   3.2849718559292085E-002  -9.4712527967125704E-003   2.6946451799696014E-002
   3.0469998957217498E-002  -8.7495964573360563E-003   2.6500232419655101E-002
   2.8090279355143022E-002  -8.0485484329999579E-003   2.6264213070810616E-002
   3.3905410877818593E-002  -9.9067440652070848E-003   3.3502528277842836E-002
   3.1722110734712594E-002  -9.1883820096256286E-003   3.2833372627419144E-002
   2.9538810591606596E-002  -8.4828836315969103E-003   3.2346855863736562E-002
   2.7355510448500611E-002  -7.7902489311202153E-003   3.2042977986794757E-002
   2.5172210305394599E-002  -7.1104779081964109E-003   3.1921738996593563E-002
   3.0429644352729962E-002  -8.8370977098279901E-003   3.8487182669699582E-002
   2.8415202524137068E-002  -8.1632465681220623E-003   3.8023235448773618E-002
   2.6400760695544173E-002  -7.4945144664808061E-003   3.7714365970133182E-002
   2.4386318866951272E-002  -6.8309014049043743E-003   3.7560574233778204E-002
   2.2371877038358384E-002  -6.1724073833927529E-003   3.7561860239708311E-002
   2.7181858188175291E-002  -7.7674513544487844E-003   4.3423453828937336E-002
   2.5308713529640085E-002  -7.1381111266185515E-003   4.3172459674996687E-002
   2.3435568871104876E-002  -6.5061453013649240E-003   4.3048982118886019E-002
   2.1562424212569632E-002  -5.8715538786885887E-003   4.3053021160605269E-002
   1.9689279554034399E-002  -5.2343368585892613E-003   4.3184576800154667E-002
   2.4162052384154586E-002  -6.6978049990698008E-003   4.8311341755555293E-002
   2.2402643751221557E-002  -6.1129756851148187E-003   4.8281045306087678E-002
   2.0643235118288583E-002  -5.5177761362490418E-003   4.8350704309994774E-002
   1.8883826485355582E-002  -4.9122063524726922E-003   4.8520318767276444E-002
   1.7124417852422635E-002  -4.2962663337855478E-003   4.8789888677932325E-002
   2.8090279355143022E-002  -8.0485484329999579E-003   2.6264213070810616E-002
   2.5732682671332330E-002  -7.3283919051226887E-003   2.5665366666418166E-002
   2.3375085987521610E-002  -6.5494100551229950E-003   2.5017431999618478E-002
   2.1017489303710890E-002  -5.7116028830002941E-003   2.4320409070411025E-002
   1.8659892619900198E-002  -4.8149703887558903E-003   2.3574297878796169E-002
   2.5172210305394599E-002  -7.1104779081964109E-003   3.1921738996593563E-002
   2.2802901170450612E-002  -6.4294529193088534E-003   3.1515102651988647E-002
   2.0433592035506570E-002  -5.7330563209420371E-003   3.1134129667524851E-002
   1.8064282900562563E-002  -5.0212881130950529E-003   3.0778820043202121E-002
   1.5694973765618542E-002  -4.2941482957685739E-003   3.0449173779019623E-002
   2.2371877038358384E-002  -6.1724073833927529E-003   3.7561860239708311E-002
   2.0065607074829475E-002  -5.5305139334950737E-003   3.7303980242247875E-002
   1.7759337111300566E-002  -4.9167025867607461E-003   3.7146515227477361E-002
   1.5453067147771699E-002  -4.3309733431894787E-003   3.7089465195395646E-002
   1.3146797184242706E-002  -3.7733262027814796E-003   3.7132830146003437E-002
   1.9689279554034399E-002  -5.2343368585892613E-003   4.3184576800154667E-002
   1.7520800384468994E-002  -4.6315749476813217E-003   4.3031999437196065E-002
   1.5352321214903611E-002  -4.1003488525797327E-003   4.3054588679475328E-002
   1.3183842045338193E-002  -3.6406585732837934E-003   4.3252344526992177E-002
   1.1015362875772823E-002  -3.2525041097942187E-003   4.3625266979747127E-002
   1.7124417852422635E-002  -4.2962663337855478E-003   4.8789888677932325E-002
   1.5168481099369135E-002  -3.7326359618675142E-003   4.8699160236832961E-002
   1.3212544346315663E-002  -3.2839951183984417E-003   4.8858350023519348E-002
   1.1256607593262205E-002  -2.9503438033785939E-003   4.9267458037992234E-002
   9.3006708402087468E-003  -2.7316820168071798E-003   4.9926484280251260E-002
   1.8659892619900198E-002  -4.8149703887558903E-003   2.3574297878796169E-002
   1.5641851978483057E-002  -4.0796009241888531E-003   2.4370686017887055E-002
   1.2623811337065832E-002  -3.7255828410989733E-003   2.5639246926173254E-002
   9.6057706956486077E-003  -3.7529161394873195E-003   2.7379980603654985E-002
   6.5877300542314665E-003  -4.1616008193532394E-003   2.9592887050331695E-002
   1.5694973765618542E-002  -4.2941482957685739E-003   3.0449173779019623E-002
   1.3130747695810380E-002  -3.7783383255765024E-003   3.1234254650816640E-002
   1.0566521626002245E-002  -3.7005596591331846E-003   3.2454791896636886E-002
   8.0022955561941250E-003  -4.0608122964383153E-003   3.4110785516479433E-002
   5.4380694863859491E-003  -4.8590962374918112E-003   3.6202235510344849E-002
   1.3146797184242706E-002  -3.7733262027814796E-003   3.7132830146003437E-002
   1.0999669290871011E-002  -3.4770757269647901E-003   3.7849923828236431E-002
   8.8525413974991987E-003  -3.6755364771673682E-003   3.8965757489319214E-002
   6.7054135041274693E-003  -4.3687084533891932E-003   4.0480331129251937E-002
   4.5582856107556913E-003  -5.5565916556299388E-003   4.2393644748034864E-002
   1.1015362875772823E-002  -3.2525041097942187E-003   4.3625266979747127E-002
   9.2486167636647368E-003  -3.1758131283528696E-003   4.4217693550144932E-002
   7.4818706515566123E-003  -3.6505132952016767E-003   4.5172143704219840E-002
   5.7151245394485017E-003  -4.6766046103397969E-003   4.6488617441972441E-002
   3.9483784273403946E-003  -6.2540870737680665E-003   4.8167114763402144E-002
   9.3006708402087468E-003  -2.7316820168071798E-003   4.9926484280251260E-002
   7.8775901141916460E-003  -2.8745505297407825E-003   5.0337563816542974E-002
   6.4545093881745452E-003  -3.6254901132355410E-003   5.1073950541339563E-002
   5.0314286621574444E-003  -4.9845007672909003E-003   5.2135644454640584E-002
   3.6083479361403437E-003  -6.9515824919065272E-003   5.3522645556446480E-002
   6.5877300542314665E-003  -4.1616008193532394E-003   2.9592887050331695E-002
   6.0583732653344824E-003  -6.1451518158754936E-003   3.4070100039008122E-002
   5.5290164764375538E-003  -1.0897084064231288E-002   3.9233156597994423E-002
   4.9996596875404448E-003  -1.8417397564422122E-002   4.5082056727289876E-002
   4.4703028986435855E-003  -2.8706092316446608E-002   5.1616800426894649E-002
   5.4380694863859491E-003  -4.8590962374918112E-003   3.6202235510344849E-002
   5.4905882866615741E-003  -6.9941496045385909E-003   3.8343412810063149E-002
   5.5431070869372129E-003  -1.1364710519824184E-002   4.0962497717817736E-002
   5.5956258872128031E-003  -1.7970778983348631E-002   4.4059490233607806E-002
   5.6481446874884766E-003  -2.6812354995111365E-002   4.7634390357432999E-002
   4.5582856107556913E-003  -5.5565916556299388E-003   4.2393644748034864E-002
   4.9847440379301583E-003  -7.8431473932019102E-003   4.2731660062390764E-002
   5.4112024651047225E-003  -1.1832336975416857E-002   4.3339647022508809E-002
   5.8376608922792970E-003  -1.7524160402274863E-002   4.4217605628388917E-002
   6.2641193194536982E-003  -2.4918617673775900E-002   4.5365535880030894E-002
   3.9483784273403946E-003  -6.2540870737680665E-003   4.8167114763402144E-002
   4.5408405191402143E-003  -8.6921451818653406E-003   4.7234841795991481E-002
   5.1333026109400322E-003  -1.2299963431009753E-002   4.6364604512068877E-002
   5.7257647027398042E-003  -1.7077541821201456E-002   4.5556402911634902E-002
   6.3182267945396664E-003  -2.3024880352440547E-002   4.4810236994689556E-002
   3.6083479361403437E-003  -6.9515824919065272E-003   5.3522645556446480E-002
   4.1588777302917768E-003  -9.5411429705286599E-003   5.1852958010864425E-002
   4.7094075244431821E-003  -1.2767589886602232E-002   5.0037370186497399E-002
   5.2599373185945458E-003  -1.6630923240127667E-002   4.8075882083344540E-002
   5.8104671127460206E-003  -2.1131143031105193E-002   4.5968493701407098E-002
   4.9077688009280029E-002  -1.4928144496685891E-002   1.6839147904902430E-002
   4.7900616320817796E-002  -1.4485728804408932E-002   2.5404226990042578E-002
   4.6723544632355618E-002  -1.4040684724552679E-002   3.2204268566521782E-002
   4.5546472943893385E-002  -1.3593012257117013E-002   3.7239272634339918E-002
   4.4369401255431234E-002  -1.3142711402101936E-002   4.0509239193497137E-002
   5.0224746119582109E-002  -1.3043606270068897E-002   3.6458955191095765E-002
   4.7760966531288057E-002  -1.2658169495844251E-002   4.0631506288951014E-002
   4.5297186942993936E-002  -1.2270448678431758E-002   4.3995679095803236E-002
   4.2833407354699864E-002  -1.1880443817831394E-002   4.6551473611652669E-002
   4.0369627766405777E-002  -1.1488154914043175E-002   4.8298889836499465E-002
   4.6498490418386509E-002  -1.1159068043451820E-002   5.6021955731432635E-002
   4.3704662147918676E-002  -1.0830610187279557E-002   5.5801634497611205E-002
   4.0910833877450842E-002  -1.0500212632310886E-002   5.5729594190445188E-002
   3.8117005606983050E-002  -1.0167875378545773E-002   5.5805834809934521E-002
   3.5323177336515209E-002  -9.8335984259843856E-003   5.6030356356079142E-002
   3.7898920905693141E-002  -9.2745298168347839E-003   7.5528149525912774E-002
   3.5731703170709776E-002  -9.0030508787148147E-003   7.0914611616023346E-002
   3.3564485435726391E-002  -8.7299765861900171E-003   6.7406013850447505E-002
   3.1397267700743005E-002  -8.4553069392601515E-003   6.5002356229185237E-002
   2.9230049965759619E-002  -8.1790419379255547E-003   6.3703638752236419E-002
   2.4426037581502053E-002  -7.3899915902177482E-003   9.4977536574536392E-002
   2.3842089599661276E-002  -7.1754915701501554E-003   8.5970437644187603E-002
   2.3258141617820513E-002  -6.9597405400691342E-003   7.9024938075810264E-002
   2.2674193635979722E-002  -6.7427384999745425E-003   7.4141037869404833E-002
   2.2090245654138946E-002  -6.5244854498668348E-003   7.1318737024971046E-002
   4.4369401255431234E-002  -1.3142711402101936E-002   4.0509239193497137E-002
   4.2595565527163398E-002  -1.2681972432362465E-002   4.2028307392774605E-002
   4.0821729798895534E-002  -1.2202985620753698E-002   4.3390485717243188E-002
   3.9047894070627677E-002  -1.1705750967275379E-002   4.4595774166903024E-002
   3.7274058342359834E-002  -1.1190268471927833E-002   4.5644172741754252E-002
   4.0369627766405777E-002  -1.1488154914043175E-002   4.8298889836499465E-002
   3.8533774599302031E-002  -1.1085826393203990E-002   4.8884175047276213E-002
   3.6697921432198306E-002  -1.0665702681450930E-002   4.9502315255189860E-002
   3.4862068265094526E-002  -1.0227783778783897E-002   5.0153310460240477E-002
   3.3026215097990821E-002  -9.7720696852030553E-003   5.0837160662427966E-002
   3.5323177336515209E-002  -9.8335984259843856E-003   5.6030356356079142E-002
   3.3615051602521255E-002  -9.4896803540455155E-003   5.5681405927399834E-002
   3.1906925868527239E-002  -9.1284197421481611E-003   5.5555055367803155E-002
   3.0198800134533250E-002  -8.7498165902924162E-003   5.5651304677289050E-002
   2.8490674400539276E-002  -8.3538708984782217E-003   5.5970153855857421E-002
   2.9230049965759619E-002  -8.1790419379255547E-003   6.3703638752236419E-002
   2.7839396536821048E-002  -7.8935343148869852E-003   6.2420000033145524E-002
   2.6448743107882436E-002  -7.5911368028454204E-003   6.1548706055082864E-002
   2.5058089678943851E-002  -7.2718494018008794E-003   6.1089756818048430E-002
   2.3667436250005263E-002  -6.9356721117533882E-003   6.1043152322042313E-002
   2.2090245654138946E-002  -6.5244854498668348E-003   7.1318737024971046E-002
   2.1206809402201390E-002  -6.2973882757285105E-003   6.9099957364513104E-002
   2.0323373150263849E-002  -6.0538538635425965E-003   6.7483267317029083E-002
   1.9439936898326286E-002  -5.7938822133093357E-003   6.6468666882518984E-002
   1.8556500646388724E-002  -5.5174733250286101E-003   6.6056156060982585E-002
   3.7274058342359834E-002  -1.1190268471927833E-002   4.5644172741754252E-002
   3.5746074525242588E-002  -1.0659864037452865E-002   4.5884301734612387E-002
   3.4218090708125287E-002  -1.0117863566592514E-002   4.6225903256870343E-002
   3.2690106891008028E-002  -9.5642670593469349E-003   4.6668977308528578E-002
   3.1162123073890768E-002  -8.9990745157159657E-003   4.7213523889587050E-002
   3.3026215097990821E-002  -9.7720696852030553E-003   5.0837160662427966E-002
   3.1620647719415210E-002  -9.3028971630450541E-003   5.0820894962657792E-002
   3.0215080340839619E-002  -8.8246029746466698E-003   5.0947989610570746E-002
   2.8809512962263983E-002  -8.3371871200081278E-003   5.1218444606166903E-002
   2.7403945583688416E-002  -7.8406495991291680E-003   5.1632259949446258E-002
   2.8490674400539276E-002  -8.3538708984782217E-003   5.5970153855857421E-002
   2.7249411278788355E-002  -7.9459302886371458E-003   5.5695019093313911E-002
   2.6008148157037426E-002  -7.5313423827007633E-003   5.5605132496736646E-002
   2.4766885035286460E-002  -7.1101071806692635E-003   5.5700494066125525E-002
   2.3525621913535549E-002  -6.6822246825423981E-003   5.5981103801480595E-002
   2.3667436250005263E-002  -6.9356721117533882E-003   6.1043152322042313E-002
   2.2632365203362009E-002  -6.5889634142292583E-003   6.0506674126580520E-002
   2.1597294156718745E-002  -6.2380817907549437E-003   6.0197331915367969E-002
   2.0562223110075467E-002  -5.8830272413304277E-003   6.0115125688404658E-002
   1.9527152063432224E-002  -5.5237997659556143E-003   6.0260055445690630E-002
   1.8556500646388724E-002  -5.5174733250286101E-003   6.6056156060982585E-002
   1.7769509493136160E-002  -5.2319965398214263E-003   6.5255860062457705E-002
   1.6982518339883554E-002  -4.9448211988090129E-003   6.4724587866464983E-002
   1.6195527186630969E-002  -4.6559473019915920E-003   6.4462339473004421E-002
   1.5408536033378384E-002  -4.3653748493688305E-003   6.4469114882075851E-002
   3.1162123073890768E-002  -8.9990745157159657E-003   4.7213523889587050E-002
   2.9412105401456695E-002  -8.4270022495578911E-003   4.7190870064901580E-002
   2.7662087729022677E-002  -7.8527665747307601E-003   4.7366288434334575E-002
   2.5912070056588604E-002  -7.2763674912347219E-003   4.7739778997885937E-002
   2.4162052384154586E-002  -6.6978049990698008E-003   4.8311341755555293E-002
   2.7403945583688416E-002  -7.8406495991291680E-003   5.1632259949446258E-002
   2.5854468893162202E-002  -7.3371932194163936E-003   5.1495368462647795E-002
   2.4304992202635933E-002  -6.8290207882765047E-003   5.1561486745546919E-002
   2.2755515512109699E-002  -6.3161323057091788E-003   5.1830614798143243E-002
   2.1206038821583451E-002  -5.7985277717147454E-003   5.2302752620436710E-002
   2.3525621913535549E-002  -6.6822246825423981E-003   5.5981103801480595E-002
   2.2181623780496144E-002  -6.2473841892750903E-003   5.5732527295327586E-002
   2.0837625647456691E-002  -5.8052750018222563E-003   5.5691898134451127E-002
   1.9493627514417251E-002  -5.3558971201837485E-003   5.5859216318850699E-002
   1.8149629381377833E-002  -4.8992505443598011E-003   5.6234481848526696E-002
   1.9527152063432224E-002  -5.5237997659556143E-003   6.0260055445690630E-002
   1.8393570063458535E-002  -5.1575751591337454E-003   5.9902346562941244E-002
   1.7259988063484857E-002  -4.7815292153678933E-003   5.9757522601047414E-002
   1.6126406063511192E-002  -4.3956619346583172E-003   5.9825583560008694E-002
   1.4992824063537486E-002  -3.9999733170048013E-003   6.0106529439825224E-002
   1.5408536033378384E-002  -4.3653748493688305E-003   6.4469114882075851E-002
   1.4490307742049430E-002  -4.0677661289922895E-003   6.4004826265488757E-002
   1.3572079450720503E-002  -3.7577834289136414E-003   6.3758360145335757E-002
   1.2653851159391563E-002  -3.4354267491327473E-003   6.3729716521617130E-002
   1.1735622868062623E-002  -3.1006960896499125E-003   6.3918895394332598E-002
   2.4162052384154586E-002  -6.6978049990698008E-003   4.8311341755555293E-002
   2.2402643751221557E-002  -6.1129756851148187E-003   4.8281045306087678E-002
   2.0643235118288583E-002  -5.5177761362490418E-003   4.8350704309994774E-002
   1.8883826485355582E-002  -4.9122063524726922E-003   4.8520318767276444E-002
   1.7124417852422635E-002  -4.2962663337855478E-003   4.8789888677932325E-002
   2.1206038821583451E-002  -5.7985277717147454E-003   5.2302752620436710E-002
   1.9571741581782293E-002  -5.2771081681893817E-003   5.2203858394364422E-002
   1.7937444341981079E-002  -4.7527744770295977E-003   5.2255231501181332E-002
   1.6303147102179900E-002  -4.2255266982353934E-003   5.2456871940887190E-002
   1.4668849862378708E-002  -3.6953648318063248E-003   5.2808779713482246E-002
   1.8149629381377833E-002  -4.8992505443598011E-003   5.6234481848526696E-002
   1.6690755414222956E-002  -4.4412406512639446E-003   5.6059533698573361E-002
   1.5231881447068080E-002  -3.9877728178097094E-003   5.6085164761023709E-002
   1.3773007479913217E-002  -3.5388470439975395E-003   5.6311375035877562E-002
   1.2314133512758355E-002  -3.0944633298272128E-003   5.6738164523135209E-002
   1.4992824063537486E-002  -3.9999733170048013E-003   6.0106529439825224E-002
   1.3759685248543532E-002  -3.6053731343382855E-003   5.9848071218714743E-002
   1.2526546433549522E-002  -3.2227711585902097E-003   5.9840504089522406E-002
   1.1293407618555542E-002  -2.8521673897601851E-003   6.0083828052248045E-002
   1.0060268803561530E-002  -2.4935618278478788E-003   6.0578043106892132E-002
   1.1735622868062623E-002  -3.1006960896499125E-003   6.3918895394332598E-002
   1.0778531084744025E-002  -2.7695056174131816E-003   6.3569470954788265E-002
   9.8214393014254414E-003  -2.4577694993703769E-003   6.3521249486676923E-002
   8.8643475181068576E-003  -2.1654877355222757E-003   6.3774230989998071E-002
   7.9072557347882599E-003  -1.8926603258688779E-003   6.4328415464751987E-002
   1.7124417852422635E-002  -4.2962663337855478E-003   4.8789888677932325E-002
   1.5168481099369135E-002  -3.7326359618675142E-003   4.8699160236832961E-002
   1.3212544346315663E-002  -3.2839951183984417E-003   4.8858350023519348E-002
   1.1256607593262205E-002  -2.9503438033785939E-003   4.9267458037992234E-002
   9.3006708402087468E-003  -2.7316820168071798E-003   4.9926484280251260E-002
   1.4668849862378708E-002  -3.6953648318063248E-003   5.2808779713482246E-002
   1.2964138800077546E-002  -3.2205759296399239E-003   5.2705885603468117E-002
   1.1259427737776440E-002  -2.8594470436332786E-003   5.2855524647172608E-002
   9.5547166754752916E-003  -2.6119781737855563E-003   5.3257696844595512E-002
   7.8500056131741436E-003  -2.4781693200973676E-003   5.3912402195737175E-002
   1.2314133512758355E-002  -3.0944633298272128E-003   5.6738164523135209E-002
   1.0863263067141929E-002  -2.7085158974126389E-003   5.6624434256496298E-002
   9.4123926215254616E-003  -2.4348989688676992E-003   5.6765852069508321E-002
   7.9615221759090117E-003  -2.2736125441927477E-003   5.7162417962171419E-002
   6.5106517302925965E-003  -2.2246566233873888E-003   5.7814131934485147E-002
   1.0060268803561530E-002  -2.4935618278478788E-003   6.0578043106892132E-002
   8.8658539005621768E-003  -2.1964558651849792E-003   6.0454806195917851E-002
   7.6714389975628336E-003  -2.0103508941023834E-003   6.0589332290526966E-002
   6.4770240945634565E-003  -1.9352469145997135E-003   6.0981621390719026E-002
   5.2826091915641367E-003  -1.9711439266776043E-003   6.1631673496494788E-002
   7.9072557347882599E-003  -1.8926603258688779E-003   6.4328415464751987E-002
   6.9719113003383765E-003  -1.6843958329578190E-003   6.4197001421732014E-002
   6.0365668658884930E-003  -1.5858028193369844E-003   6.4325965310228050E-002
   5.1012224314386026E-003  -1.5968812850071304E-003   6.4715307130239624E-002
   4.1658779969887261E-003  -1.7176312299675978E-003   6.5365026881766708E-002
   9.3006708402087468E-003  -2.7316820168071798E-003   4.9926484280251260E-002
   7.8775901141916460E-003  -2.8745505297407825E-003   5.0337563816542974E-002
   6.4545093881745452E-003  -3.6254901132355410E-003   5.1073950541339563E-002
   5.0314286621574444E-003  -4.9845007672909003E-003   5.2135644454640584E-002
   3.6083479361403437E-003  -6.9515824919065272E-003   5.3522645556446480E-002
   7.8500056131741436E-003  -2.4781693200973676E-003   5.3912402195737175E-002
   6.7266434409421205E-003  -2.6582819969168670E-003   5.3848077383754134E-002
   5.6032812687100975E-003  -3.3525777185933747E-003   5.4057882490836179E-002
   4.4799190964780744E-003  -4.5610564851263774E-003   5.4541817516984017E-002
   3.3565569242460513E-003  -6.2837182965157501E-003   5.5299882462197414E-002
   6.5106517302925965E-003  -2.2246566233873888E-003   5.7814131934485147E-002
   5.6358308424064793E-003  -2.4420134640932567E-003   5.7368290799930999E-002
   4.7610099545204038E-003  -3.0796653239514304E-003   5.7145402315003258E-002
   3.8861890666343143E-003  -4.1376122029618545E-003   5.7145466479701854E-002
   3.0113681787482111E-003  -5.6158541011248064E-003   5.7368483294026745E-002
   5.2826091915641367E-003  -1.9711439266776043E-003   6.1631673496494788E-002
   4.6051523185848316E-003  -2.2257449312694383E-003   6.0898204065074027E-002
   3.9276954456054988E-003  -2.8067529293095417E-003   6.0336510013840411E-002
   3.2502385726261938E-003  -3.7141679207974426E-003   5.9946591342794217E-002
   2.5727816996468610E-003  -4.9479899057339460E-003   5.9728448051934509E-002
   4.1658779969887261E-003  -1.7176312299675978E-003   6.5365026881766708E-002
   3.6346078694770301E-003  -2.0094763984456199E-003   6.4437817179183288E-002
   3.1033377419653618E-003  -2.5338405346674031E-003   6.3631205587347861E-002
   2.5720676144536658E-003  -3.2907236386332181E-003   6.2945192106260789E-002
   2.0407974869419976E-003  -4.2801257103431967E-003   6.2379776735920989E-002
   3.6083479361403437E-003  -6.9515824919065272E-003   5.3522645556446480E-002
   4.1588777302917768E-003  -9.5411429705286599E-003   5.1852958010864425E-002
   4.7094075244431821E-003  -1.2767589886602232E-002   5.0037370186497399E-002
   5.2599373185945458E-003  -1.6630923240127667E-002   4.8075882083344540E-002
   5.8104671127460206E-003  -2.1131143031105193E-002   4.5968493701407098E-002
   3.3565569242460513E-003  -6.2837182965157501E-003   5.5299882462197414E-002
   3.7788175936644686E-003  -8.5514570246409405E-003   5.2947999724030359E-002
   4.2010782630828442E-003  -1.1395166541381813E-002   5.0485479015182244E-002
   4.6233389325012544E-003  -1.4814846846737832E-002   4.7912320335653735E-002
   5.0455996019196370E-003  -1.8810497940709325E-002   4.5228523685444388E-002
   3.0113681787482111E-003  -5.6158541011248064E-003   5.7368483294026745E-002
   3.3406220315380375E-003  -7.5617710787533876E-003   5.4395321012111281E-002
   3.6698758843278292E-003  -1.0022743196161157E-002   5.1346783067619098E-002
   3.9991297371177216E-003  -1.2998770453347883E-002   4.8222869460550870E-002
   4.3283835899074752E-003  -1.6489852850313902E-002   4.5023580190906132E-002
   2.5727816996468610E-003  -4.9479899057339460E-003   5.9728448051934509E-002
   2.8442910439124905E-003  -6.5720851328659735E-003   5.6194921875106586E-002
   3.1158003881781044E-003  -8.6503198509406201E-003   5.2621282343806780E-002
   3.3873097324437018E-003  -1.1182694059958103E-002   4.9007529458035090E-002
   3.6588190767093201E-003  -1.4169207759918367E-002   4.5353663217791412E-002
   2.0407974869419976E-003  -4.2801257103431967E-003   6.2379776735920989E-002
   2.2898246307878345E-003  -5.5823991869780043E-003   5.8346802313017476E-002
   2.5388517746336992E-003  -7.2778965057198330E-003   5.4308976843745971E-002
   2.7878789184795361E-003  -9.3666176665680931E-003   5.0266300328106778E-002
   3.0369060623253730E-003  -1.1848562669522611E-002   4.6218772766100091E-002
   2.4426037581502053E-002  -7.3899915902177482E-003   9.4977536574536392E-002
   2.3842089599661276E-002  -7.1754915701501554E-003   8.5970437644187603E-002
   2.3258141617820513E-002  -6.9597405400691342E-003   7.9024938075810264E-002
   2.2674193635979722E-002  -6.7427384999745425E-003   7.4141037869404833E-002
   2.2090245654138946E-002  -6.5244854498668348E-003   7.1318737024971046E-002
   1.0967255060259098E-002  -5.5424938418044967E-003   7.9434521331318786E-002
   1.1966003348737778E-002  -5.3816187598411391E-003   7.4851129350567841E-002
   1.2964751637216450E-002  -5.2198054401790539E-003   7.1371530548483969E-002
   1.3963499925695119E-002  -5.0570538828180397E-003   6.8995724925067434E-002
   1.4962248214173787E-002  -4.8933640877584506E-003   6.7723712480317971E-002
   2.4099879564101270E-003  -3.6949960933912729E-003   6.3838037536154427E-002
   4.0336263319037807E-003  -3.5877459495321645E-003   6.3678039732686542E-002
   5.6572647073974310E-003  -3.4798703402889250E-003   6.3664028924581423E-002
   7.2809030828910864E-003  -3.3713692656615109E-003   6.3796005111839096E-002
   8.9045414583847418E-003  -3.2622427256500663E-003   6.4073968294459521E-002
  -1.2457637300449156E-003  -1.8474983449780352E-003   4.8188085189042981E-002
   4.4958549159267863E-005  -1.7938731392231552E-003   5.2451168790543755E-002
   1.3356808283634522E-003  -1.7399352403988481E-003   5.5902433204102590E-002
   2.6264031075676430E-003  -1.6856846485050229E-003   5.8541878429719793E-002
   3.9171253867718268E-003  -1.6311213635416821E-003   6.0369504467395453E-002
   8.9400709057940730E-013  -5.9656479756142744E-010   3.2484664289984699E-002
   5.0426329778474610E-013  -3.2891417367508780E-010   4.1170516524139222E-002
   1.1451950499008490E-013  -1.4050871577353519E-010   4.8086743387047659E-002
  -2.7522081835762435E-013  -3.1348437734557422E-011   5.3233344878709898E-002
  -6.6496808059923751E-013  -1.4333534359423084E-012   5.6610320999125885E-002
   2.2090245654138946E-002  -6.5244854498668348E-003   7.1318737024971046E-002
   2.1206809402201390E-002  -6.2973882757285105E-003   6.9099957364513104E-002
   2.0323373150263849E-002  -6.0538538635425965E-003   6.7483267317029083E-002
   1.9439936898326286E-002  -5.7938822133093357E-003   6.6468666882518984E-002
   1.8556500646388724E-002  -5.5174733250286101E-003   6.6056156060982585E-002
   1.4962248214173787E-002  -4.8933640877584506E-003   6.7723712480317971E-002
   1.4585593937982949E-002  -4.7230412090178003E-003   6.6494298450664388E-002
   1.4208939661792104E-002  -4.5403904006139154E-003   6.5676358759530401E-002
   1.3832285385601273E-002  -4.3454116625470333E-003   6.5269893406915955E-002
   1.3455631109410428E-002  -4.1381049948169268E-003   6.5274902392821077E-002
   8.9045414583847418E-003  -3.2622427256500663E-003   6.4073968294459521E-002
   8.8440538834863199E-003  -3.1486941423070902E-003   6.3829810587225949E-002
   8.7835663085879048E-003  -3.0269269376852898E-003   6.3806511944057523E-002
   8.7230787336894881E-003  -2.8969411117847309E-003   6.4004072364954423E-002
   8.6625911587910678E-003  -2.7587366646052436E-003   6.4422491849916552E-002
   3.9171253867718268E-003  -1.6311213635416821E-003   6.0369504467395453E-002
   3.9821892387115216E-003  -1.5743470755964356E-003   6.1106493774197475E-002
   4.0472530906512155E-003  -1.5134634747566919E-003   6.1873726870610421E-002
   4.1123169425909076E-003  -1.4484705610222619E-003   6.2671203756634458E-002
   4.1773807945306041E-003  -1.3793683343934771E-003   6.3498924432269205E-002
  -6.6496808059923751E-013  -1.4333534359423084E-012   5.6610320999125885E-002
   3.6585387497289901E-012  -8.8856699775874404E-012   5.8324348011579263E-002
   7.9820490495041696E-012  -1.1827983037449030E-011   5.9878003539189206E-002
   1.2305559349279349E-011  -1.0260015059770922E-011   6.1271287581955935E-002
   1.6629066179607577E-011  -4.1818770668555771E-012   6.2504200139879174E-002
   1.8556500646388724E-002  -5.5174733250286101E-003   6.6056156060982585E-002
   1.7769509493136160E-002  -5.2319965398214263E-003   6.5255860062457705E-002
   1.6982518339883554E-002  -4.9448211988090129E-003   6.4724587866464983E-002
   1.6195527186630969E-002  -4.6559473019915920E-003   6.4462339473004421E-002
   1.5408536033378384E-002  -4.3653748493688305E-003   6.4469114882075851E-002
   1.3455631109410428E-002  -4.1381049948169268E-003   6.5274902392821077E-002
   1.2919594754332228E-002  -3.9239974036254788E-003   6.4765853212829544E-002
   1.2383558399254025E-002  -3.7086158951747938E-003   6.4489689826654650E-002
   1.1847522044175834E-002  -3.4919604694648720E-003   6.4446412234296299E-002
   1.1311485689097622E-002  -3.2740311264953803E-003   6.4636020435754560E-002
   8.6625911587910678E-003  -2.7587366646052436E-003   6.4422491849916552E-002
   8.3413715931716856E-003  -2.6159982674295867E-003   6.4204264849912651E-002
   8.0201520275522929E-003  -2.4724105915404637E-003   6.4182785635009718E-002
   7.6989324619329089E-003  -2.3279736369379300E-003   6.4358054205207779E-002
   7.3777128963135249E-003  -2.1826874036218191E-003   6.4730070560506947E-002
   4.1773807945306041E-003  -1.3793683343934771E-003   6.3498924432269205E-002
   4.0348400096544747E-003  -1.3079991312336392E-003   6.3571094973707123E-002
   3.8922992247783445E-003  -1.2362052879062724E-003   6.3803875291530254E-002
   3.7497584399022147E-003  -1.1639868044110435E-003   6.4197265385738972E-002
   3.6072176550260848E-003  -1.0913436807483690E-003   6.4751265256333096E-002
   1.6629066179607577E-011  -4.1818770668555771E-012   6.2504200139879174E-002
   3.7806216490743338E-012   4.9622805864402153E-012   6.2866343584212780E-002
  -9.0678124731180532E-012   1.5728127134018166E-011   6.3352958796216219E-002
  -2.1916246595310440E-011   2.8115686862006939E-011   6.3964045775889586E-002
  -3.4764691125843683E-011   4.2125136712201083E-011   6.4699604523232923E-002
   1.5408536033378384E-002  -4.3653748493688305E-003   6.4469114882075851E-002
   1.4490307742049430E-002  -4.0677661289922895E-003   6.4004826265488757E-002
   1.3572079450720503E-002  -3.7577834289136414E-003   6.3758360145335757E-002
   1.2653851159391563E-002  -3.4354267491327473E-003   6.3729716521617130E-002
   1.1735622868062623E-002  -3.1006960896499125E-003   6.3918895394332598E-002
   1.1311485689097622E-002  -3.2740311264953803E-003   6.4636020435754560E-002
   1.0614013538713767E-002  -3.0508245836034231E-003   6.4348770246318826E-002
   9.9165413883299247E-003  -2.8183375581260217E-003   6.4285209842338958E-002
   9.2190692379460898E-003  -2.5765700500631553E-003   6.4445339223815040E-002
   8.5215970875622271E-003  -2.3255220594147197E-003   6.4829158390747210E-002
   7.3777128963135249E-003  -2.1826874036218191E-003   6.4730070560506947E-002
   6.9068641758965182E-003  -2.0338830382146122E-003   6.4616765301105827E-002
   6.4360154554795115E-003  -1.8788916873382910E-003   6.4733017116182581E-002
   5.9651667350625118E-003  -1.7177133509932302E-003   6.5078826005736945E-002
   5.4943180146454981E-003  -1.5503480291793603E-003   6.5654191969769127E-002
   3.6072176550260848E-003  -1.0913436807483690E-003   6.4751265256333096E-002
   3.3688596535976691E-003  -1.0169414928256626E-003   6.4808811429850011E-002
   3.1305016521692508E-003  -9.3944581655078241E-004   6.5101781966866681E-002
   2.8921436507408395E-003  -8.5885665192341615E-004   6.5630176867382622E-002
   2.6537856493124099E-003  -7.7517399894402872E-004   6.6393996131398264E-002
  -3.4764691125843683E-011   4.2125136712201083E-011   6.4699604523232923E-002
  -2.8182768618822962E-011   5.2563120522819418E-011   6.4924908632551404E-002
  -2.1600849581249193E-011   5.4237100921561421E-011   6.5391504394391203E-002
  -1.5018930543675424E-011   4.7146380549589750E-011   6.6099391808752281E-002
  -8.4370080366547029E-012   3.1291191859850187E-011   6.7048570875634317E-002
   1.1735622868062623E-002  -3.1006960896499125E-003   6.3918895394332598E-002
   1.0778531084744025E-002  -2.7695056174131816E-003   6.3569470954788265E-002
   9.8214393014254414E-003  -2.4577694993703769E-003   6.3521249486676923E-002
   8.8643475181068576E-003  -2.1654877355222757E-003   6.3774230989998071E-002
   7.9072557347882599E-003  -1.8926603258688779E-003   6.4328415464751987E-002
   8.5215970875622271E-003  -2.3255220594147197E-003   6.4829158390747210E-002
   7.8502257694957681E-003  -2.0771292095858596E-003   6.4633975593396398E-002
   7.1788544514293159E-003  -1.8433271239819415E-003   6.4709030755117330E-002
   6.5074831333628499E-003  -1.6241158026032987E-003   6.5054323875909842E-002
   5.8361118152964048E-003  -1.4194952454494869E-003   6.5669854955773876E-002
   5.4943180146454981E-003  -1.5503480291793603E-003   6.5654191969769127E-002
   5.0777021494700612E-003  -1.3847528017587041E-003   6.5618114404581235E-002
   4.6610862842946243E-003  -1.2288847485936172E-003   6.5821309786103677E-002
   4.2444704191191805E-003  -1.0827438696840441E-003   6.6263778114336799E-002
   3.8278545539437506E-003  -9.4633016503020695E-004   6.6945519389280145E-002
   2.6537856493124099E-003  -7.7517399894402872E-004   6.6393996131398264E-002
   2.4609602246669030E-003  -6.9237639393168737E-004   6.6521887388342513E-002
   2.2681348000213875E-003  -6.1444237320518180E-004   6.6858086579636183E-002
   2.0753093753758658E-003  -5.4137193676492834E-004   6.7402593705279346E-002
   1.8824839507303650E-003  -4.7316508461081597E-004   6.8155408765271597E-002
  -8.4370080366547029E-012   3.1291191859850187E-011   6.7048570875634317E-002
  -4.9137083291128647E-012   1.3895551376208459E-011   6.7345294544680356E-002
  -1.3904051521240746E-012   2.1831980667741391E-012   6.7819361135714629E-002
   2.1328962901412396E-012  -3.8456876572112719E-012   6.8470770648737134E-002
   5.6561977324065538E-012  -4.1916470294722785E-012   6.9299523083747872E-002
   7.9072557347882599E-003  -1.8926603258688779E-003   6.4328415464751987E-002
   6.9719113003383765E-003  -1.6843958329578190E-003   6.4197001421732014E-002
   6.0365668658884930E-003  -1.5858028193369844E-003   6.4325965310228050E-002
   5.1012224314386026E-003  -1.5968812850071304E-003   6.4715307130239624E-002
   4.1658779969887261E-003  -1.7176312299675978E-003   6.5365026881766708E-002
   5.8361118152964048E-003  -1.4194952454494869E-003   6.5669854955773876E-002
   5.1545098565208836E-003  -1.2632968752145923E-003   6.5498729570600323E-002
   4.4729078977453623E-003  -1.1893521145920627E-003   6.5574711205259789E-002
   3.7913059389698515E-003  -1.1976609635825433E-003   6.5897799859752734E-002
   3.1097039801943199E-003  -1.2882234221852640E-003   6.6467995534078228E-002
   3.8278545539437506E-003  -9.4633016503020695E-004   6.6945519389280145E-002
   3.3867241591600400E-003  -8.4219791747144890E-004   6.6762100531631230E-002
   2.9455937643763329E-003  -7.9290140984723811E-004   6.6812517782132499E-002
   2.5044633695926310E-003  -7.9844064215784175E-004   6.7096771140784300E-002
   2.0633329748089152E-003  -8.5881561440304122E-004   6.7614860607586785E-002
   1.8824839507303650E-003  -4.7316508461081597E-004   6.8155408765271597E-002
   1.6685542082558753E-003  -4.2109895972831934E-004   6.7987114304824819E-002
   1.4546244657814142E-003  -3.9645070510230945E-004   6.8039385040845793E-002
   1.2406947233069387E-003  -3.9922032073330845E-004   6.8312220973334975E-002
   1.0267649808324633E-003  -4.2940780662070743E-004   6.8805622102291741E-002
   5.6561977324065538E-012  -4.1916470294722785E-012   6.9299523083747872E-002
   3.8083980413716745E-012  -1.9851897903322424E-012   6.9173770890181174E-002
   1.9605879419959393E-012  -3.5754732508053166E-013   6.9255312981399975E-002
   1.1278131206715614E-013   6.9143302194873968E-013   6.9544149357403995E-002
  -1.7350218484146751E-012   1.1615153283628388E-012   7.0040280018193513E-002
   4.1658779969887261E-003  -1.7176312299675978E-003   6.5365026881766708E-002
   3.6346078694770301E-003  -2.0094763984456199E-003   6.4437817179183288E-002
   3.1033377419653618E-003  -2.5338405346674031E-003   6.3631205587347861E-002
   2.5720676144536658E-003  -3.2907236386332181E-003   6.2945192106260789E-002
   2.0407974869419976E-003  -4.2801257103431967E-003   6.2379776735920989E-002
   3.1097039801943199E-003  -1.2882234221852640E-003   6.6467995534078228E-002
   2.7020868187357522E-003  -1.5071072984970679E-003   6.5350189601434183E-002
   2.2944696572771706E-003  -1.9003804006144653E-003   6.4359091490148235E-002
   1.8868524958185820E-003  -2.4680427285372064E-003   6.3494701200220632E-002
   1.4792353343600073E-003  -3.2100942822653744E-003   6.2757018731650627E-002
   2.0633329748089152E-003  -8.5881561440304122E-004   6.7614860607586785E-002
   1.7854784900135298E-003  -1.0047381985489046E-003   6.6364588186820506E-002
   1.5076240052181375E-003  -1.2669202665617635E-003   6.5247133298022633E-002
   1.2297695204227486E-003  -1.6453618184413092E-003   6.4262495941192821E-002
   9.5191503562734592E-004  -2.1400628541877187E-003   6.3410676116331527E-002
   1.0267649808324633E-003  -4.2940780662070743E-004   6.8805622102291741E-002
   8.8478288331035777E-004  -5.0236909860071344E-004   6.7481012935341922E-002
   7.4280078578823835E-004  -6.3346013250877714E-004   6.6295331010970501E-002
   6.0081868826612934E-004  -8.2268090834546580E-004   6.5248576329177826E-002
   4.5883659074401340E-004  -1.0700314261100907E-003   6.4340748889962940E-002
  -1.7350218484146751E-012   1.1615153283628388E-012   7.0040280018193513E-002
  -1.3737691539894570E-012   1.3476997295924775E-012   6.8699463846998876E-002
  -1.0125129901172869E-012   1.5439038936193583E-012   6.7503684628992533E-002
  -6.5125856096859280E-013   1.7506621152740820E-012   6.6452942364174789E-002
  -2.9000413181989870E-013   1.9676482665431649E-012   6.5547237052545282E-002
   2.0407974869419976E-003  -4.2801257103431967E-003   6.2379776735920989E-002
   2.2898246307878345E-003  -5.5823991869780043E-003   5.8346802313017476E-002
   2.5388517746336992E-003  -7.2778965057198330E-003   5.4308976843745971E-002
   2.7878789184795361E-003  -9.3666176665680931E-003   5.0266300328106778E-002
   3.0369060623253730E-003  -1.1848562669522611E-002   4.6218772766100091E-002
   1.4792353343600073E-003  -3.2100942822653744E-003   6.2757018731650627E-002
   1.7090599969257075E-003  -4.1867993896753108E-003   5.8399863865851220E-002
   1.9388846594914008E-003  -5.4584223786431074E-003   5.4009155083859339E-002
   2.1687093220571149E-003  -7.0249632491684519E-003   4.9584892385674428E-002
   2.3985339846228082E-003  -8.8864220012521145E-003   4.5127075771297154E-002
   9.5191503562734592E-004  -2.1400628541877187E-003   6.3410676116331527E-002
   1.1338343470877338E-003  -2.7911995923721178E-003   5.8827646768184944E-002
   1.3157536585481217E-003  -3.6389482515658406E-003   5.4182360634020640E-002
   1.4976729700085095E-003  -4.6833088317690362E-003   4.9474817713838874E-002
   1.6795922814688835E-003  -5.9242813329813959E-003   4.4705018007638042E-002
   4.5883659074401340E-004  -1.0700314261100907E-003   6.4340748889962940E-002
   5.6414768127391324E-004  -1.3955997950689525E-003   5.9630151020018292E-002
   6.6945877180382002E-004  -1.8194741244892884E-003   5.4828593494230998E-002
   7.7476986233371639E-004  -2.3416544143695078E-003   4.9936076312599692E-002
   8.8008095286361276E-004  -2.9621406647108994E-003   4.4952599475126670E-002
  -2.9000413181989870E-013   1.9676482665431649E-012   6.5547237052545282E-002
  -5.1574022830180866E-013   2.2342128147556650E-012   6.0807376621351272E-002
  -7.4148673312457447E-013   2.5879576259768555E-012   5.5947853664488678E-002
  -9.6723323794734029E-013   3.0299165953984186E-012   5.0968668181957916E-002
  -1.1929762733231541E-012   3.5598191061581019E-012   4.5869820173758846E-002
   8.9400709057940730E-013  -5.9656479756142744E-010   3.2484664289984699E-002
   5.0426329778474610E-013  -3.2891417367508780E-010   4.1170516524139222E-002
   1.1451950499008490E-013  -1.4050871577353519E-010   4.8086743387047659E-002
  -2.7522081835762435E-013  -3.1348437734557422E-011   5.3233344878709898E-002
  -6.6496808059923751E-013  -1.4333534359423084E-012   5.6610320999125885E-002
   1.2457637357121062E-003   1.8474975178624509E-003   4.8188085618467824E-002
  -4.4958543187246375E-005   1.7938726910962655E-003   5.2451169092781164E-002
  -1.3356808220865851E-003   1.7399350576908917E-003   5.5902433381321420E-002
  -2.6264031009859291E-003   1.6856846176462915E-003   5.8541878484088566E-002
  -3.9171253798852834E-003   1.6311213709625516E-003   6.0369504401082769E-002
  -2.4099879391054173E-003   3.6949956322896993E-003   6.3838038216231269E-002
  -4.0336263110412451E-003   3.5877457111067601E-003   6.3678040203309208E-002
  -5.6572646829770815E-003   3.4798702558905270E-003   6.3664029190087318E-002
  -7.2809030549129206E-003   3.3713692666410763E-003   6.3796005176565432E-002
  -8.9045414268487458E-003   3.2622427433584844E-003   6.4073968162743689E-002
  -1.0967255023558570E-002   5.5424937467169477E-003   7.9434522083274756E-002
  -1.1966003303057780E-002   5.3816187311171992E-003   7.4851129855723661E-002
  -1.2964751582556970E-002   5.2198054540902039E-003   7.1371530813345407E-002
  -1.3963499862056167E-002   5.0570539156358611E-003   6.8995724956140550E-002
  -1.4962248141555374E-002   4.8933641157543478E-003   6.7723712284108853E-002
  -2.4426037517647339E-002   7.3899918611441962E-003   9.4977537219598673E-002
  -2.3842089519236796E-002   7.1754917511276939E-003   8.5970438050023967E-002
  -2.3258141520826253E-002   6.9597406522897698E-003   7.9024938251095689E-002
  -2.2674193522415696E-002   6.7427385646306459E-003   7.4141037822813616E-002
  -2.2090245524005153E-002   6.5244854881503223E-003   7.1318736765177915E-002
  -6.6496808059923751E-013  -1.4333534359423084E-012   5.6610320999125885E-002
   3.6585387497289901E-012  -8.8856699775874404E-012   5.8324348011579263E-002
   7.9820490495041696E-012  -1.1827983037449030E-011   5.9878003539189206E-002
   1.2305559349279349E-011  -1.0260015059770922E-011   6.1271287581955935E-002
   1.6629066179607577E-011  -4.1818770668555771E-012   6.2504200139879174E-002
  -3.9171253798852834E-003   1.6311213709625516E-003   6.0369504401082769E-002
  -3.9821892257300429E-003   1.5743470679124016E-003   6.1106493729676220E-002
  -4.0472530715748110E-003   1.5134634587683493E-003   6.1873726842776533E-002
  -4.1123169174195704E-003   1.4484705435306722E-003   6.2671203740383513E-002
  -4.1773807632643385E-003   1.3793683221993147E-003   6.3498924422497410E-002
  -8.9045414268487458E-003   3.2622427433584844E-003   6.4073968162743689E-002
  -8.8440538535116547E-003   3.1486941447103622E-003   6.3829810496873390E-002
  -8.7835662801745654E-003   3.0269269293646262E-003   6.3806511884860084E-002
  -8.7230787068374761E-003   2.8969410973213039E-003   6.4004072326703659E-002
  -8.6625911335003851E-003   2.7587366485803955E-003   6.4422491822404157E-002
  -1.4962248141555374E-002   4.8933641157543478E-003   6.7723712284108853E-002
  -1.4585593879686297E-002   4.7230412215084061E-003   6.6494298313170830E-002
  -1.4208939617817226E-002   4.5403903999610695E-003   6.5676358665439916E-002
  -1.3832285355948149E-002   4.3454116511118523E-003   6.5269893340916069E-002
  -1.3455631094079079E-002   4.1381049749614485E-003   6.5274902339599247E-002
  -2.2090245524005153E-002   6.5244854881503223E-003   7.1318736765177915E-002
  -2.1206809304253962E-002   6.2973882983064500E-003   6.9099957178568427E-002
  -2.0323373084502789E-002   6.0538538705572909E-003   6.7483267184516083E-002
  -1.9439936864751615E-002   5.7938822049026922E-003   6.6468666783020908E-002
  -1.8556500645000425E-002   5.5174733013426125E-003   6.6056155974082931E-002
   1.6629066179607577E-011  -4.1818770668555771E-012   6.2504200139879174E-002
   3.7806216490743338E-012   4.9622805864402153E-012   6.2866343584212780E-002
  -9.0678124731180532E-012   1.5728127134018166E-011   6.3352958796216219E-002
  -2.1916246595310440E-011   2.8115686862006939E-011   6.3964045775889586E-002
  -3.4764691125843683E-011   4.2125136712201083E-011   6.4699604523232923E-002
  -4.1773807632643385E-003   1.3793683221993147E-003   6.3498924422497410E-002
  -4.0348400028437578E-003   1.3079991292912763E-003   6.3571094964368607E-002
  -3.8922992424231685E-003   1.2362052993239725E-003   6.3803875285107906E-002
  -3.7497584820025860E-003   1.1639868322975352E-003   6.4197265384715457E-002
  -3.6072177215820053E-003   1.0913437282115690E-003   6.4751265263190971E-002
  -8.6625911335003851E-003   2.7587366485803955E-003   6.4422491822404157E-002
  -8.3413715886125565E-003   2.6159982536204246E-003   6.4204264823131962E-002
  -8.0201520437247209E-003   2.4724105829200468E-003   6.4182785613926041E-002
  -7.6989324988368801E-003   2.3279736364792743E-003   6.4358054194786546E-002
  -7.3777129539490411E-003   2.1826874142980290E-003   6.4730070565713407E-002
  -1.3455631094079079E-002   4.1381049749614485E-003   6.5274902339599247E-002
  -1.2919594753525767E-002   3.9239973779494966E-003   6.4765853160502540E-002
  -1.2383558412972447E-002   3.7086158665159512E-003   6.4489689782670362E-002
  -1.1847522072419125E-002   3.4919604406610126E-003   6.4446412206102838E-002
  -1.1311485731865818E-002   3.2740311003844752E-003   6.4636020430799926E-002
  -1.8556500645000425E-002   5.5174733013426125E-003   6.6056155974082931E-002
  -1.7769509497583408E-002   5.2319965022785686E-003   6.5255859976480646E-002
  -1.6982518350166374E-002   4.9448211501119110E-003   6.4724587791341104E-002
  -1.6195527202749346E-002   4.6559472448428479E-003   6.4462339418664610E-002
  -1.5408536055332316E-002   4.3653747864709769E-003   6.4469114858450693E-002
  -3.4764691125843683E-011   4.2125136712201083E-011   6.4699604523232923E-002
  -2.8182768618822962E-011   5.2563120522819418E-011   6.4924908632551404E-002
  -2.1600849581249193E-011   5.4237100921561421E-011   6.5391504394391203E-002
  -1.5018930543675424E-011   4.7146380549589750E-011   6.6099391808752281E-002
  -8.4370080366547029E-012   3.1291191859850187E-011   6.7048570875634317E-002
  -3.6072177215820053E-003   1.0913437282115690E-003   6.4751265263190971E-002
  -3.3688597072729053E-003   1.0169415555633943E-003   6.4808811427751217E-002
  -3.1305016929638052E-003   9.3944588285049813E-004   6.5101781955244575E-002
  -2.8921436786547095E-003   8.5885671007231157E-004   6.5630176845671032E-002
  -2.6537856643456190E-003   7.7517403722943135E-004   6.6393996099030683E-002
  -7.3777129539490411E-003   2.1826874142980290E-003   6.4730070565713407E-002
  -6.9068642215008302E-003   2.0338830585638068E-003   6.4616765294214645E-002
  -6.4360154890526263E-003   1.8788917114640688E-003   6.4733017096060858E-002
  -5.9651667566044120E-003   1.7177133729986884E-003   6.5078825971252155E-002
  -5.4943180241562115E-003   1.5503480431677819E-003   6.5654191919788524E-002
  -1.1311485731865818E-002   3.2740311003844752E-003   6.4636020430799926E-002
  -1.0614013570866570E-002   3.0508245615639834E-003   6.4348770231941618E-002
  -9.9165414098673112E-003   2.8183375400775527E-003   6.4285209816840092E-002
  -9.2190692488680458E-003   2.5765700359248979E-003   6.4445339185495804E-002
  -8.5215970878688031E-003   2.3255220491060213E-003   6.4829158337908296E-002
  -1.5408536055332316E-002   4.3653747864709769E-003   6.4469114858450693E-002
  -1.4490307755370073E-002   4.0677660645644376E-003   6.4004826240932011E-002
  -1.3572079455407851E-002   3.7577833686911338E-003   6.3758360117582374E-002
  -1.2653851155445612E-002   3.4354266988511871E-003   6.3729716488401547E-002
  -1.1735622855483380E-002   3.1006960550443718E-003   6.3918895353389793E-002
  -8.4370080366547029E-012   3.1291191859850187E-011   6.7048570875634317E-002
  -4.9137083291128647E-012   1.3895551376208459E-011   6.7345294544680356E-002
  -1.3904051521240746E-012   2.1831980667741391E-012   6.7819361135714629E-002
   2.1328962901412396E-012  -3.8456876572112719E-012   6.8470770648737134E-002
   5.6561977324065538E-012  -4.1916470294722785E-012   6.9299523083747872E-002
  -2.6537856643456190E-003   7.7517403722943135E-004   6.6393996099030683E-002
  -2.4609602334008419E-003   6.9237641018293772E-004   6.6521887368278299E-002
  -2.2681348024560857E-003   6.1444237479428565E-004   6.6858086570380615E-002
  -2.0753093715113182E-003   5.4137193106330514E-004   6.7402593705337410E-002
  -1.8824839405665525E-003   4.7316507899008986E-004   6.8155408773149351E-002
  -5.4943180241562115E-003   1.5503480431677819E-003   6.5654191919788524E-002
  -5.0777021549235947E-003   1.3847528064702130E-003   6.5618114375212575E-002
  -4.6610862856909900E-003   1.2288847474051512E-003   6.5821309774357434E-002
  -4.2444704164583784E-003   1.0827438659724645E-003   6.6263778117223435E-002
  -3.8278545472257685E-003   9.4633016217188226E-004   6.6945519403810633E-002
  -8.5215970878688031E-003   2.3255220491060213E-003   6.4829158337908296E-002
  -7.8502257694819666E-003   2.0771292027577659E-003   6.4633975565483046E-002
  -7.1788544510951032E-003   1.8433271200160722E-003   6.4709030747645141E-002
  -6.5074831327082538E-003   1.6241158008815405E-003   6.5054323884394832E-002
  -5.8361118143214034E-003   1.4194952453538134E-003   6.5669854975731690E-002
  -1.1735622855483380E-002   3.1006960550443718E-003   6.3918895353389793E-002
  -1.0778531077075909E-002   2.7695055990449302E-003   6.3569470939089823E-002
  -9.8214392986684558E-003   2.4577694926270766E-003   6.3521249490243847E-002
  -8.8643475202609939E-003   2.1654877357904986E-003   6.3774231006851506E-002
  -7.9072557418535319E-003   1.8926603285354116E-003   6.4328415488913215E-002
   5.6561977324065538E-012  -4.1916470294722785E-012   6.9299523083747872E-002
   3.8083980413716745E-012  -1.9851897903322424E-012   6.9173770890181174E-002
   1.9605879419959393E-012  -3.5754732508053166E-013   6.9255312981399975E-002
   1.1278131206715614E-013   6.9143302194873968E-013   6.9544149357403995E-002
  -1.7350218484146751E-012   1.1615153283628388E-012   7.0040280018193513E-002
  -1.8824839405665525E-003   4.7316507899008986E-004   6.8155408773149351E-002
  -1.6685542014757519E-003   4.2109895744324444E-004   6.7987114309707108E-002
  -1.4546244623849496E-003   3.9645070529042981E-004   6.8039385043356992E-002
  -1.2406947232941586E-003   3.9922032253224271E-004   6.8312220974098559E-002
  -1.0267649842033467E-003   4.2940780916844723E-004   6.8805622101932196E-002
  -3.8278545472257685E-003   9.4633016217188226E-004   6.6945519403810633E-002
  -3.3867241548899115E-003   8.4219791687151213E-004   6.6762100540466218E-002
  -2.9455937625540544E-003   7.9290141093843469E-004   6.6812517786520170E-002
  -2.5044633702181835E-003   7.9844064437317036E-004   6.7096771141972489E-002
  -2.0633329778823265E-003   8.5881561717526811E-004   6.7614860606823118E-002
  -5.8361118143214034E-003   1.4194952453538134E-003   6.5669854975731690E-002
  -5.1545098564340511E-003   1.2632968762998631E-003   6.5498729582458393E-002
  -4.4729078985466719E-003   1.1893521165865367E-003   6.5574711210889869E-002
  -3.7913059406593170E-003   1.1976609662139280E-003   6.5897799861026063E-002
  -3.1097039827719408E-003   1.2882234251820890E-003   6.6467995532866975E-002
  -7.9072557418535319E-003   1.8926603285354116E-003   6.4328415488913215E-002
  -6.9719113061082055E-003   1.6843958357282141E-003   6.4197001435683743E-002
  -6.0365668703628687E-003   1.5858028222345000E-003   6.4325965316465672E-002
  -5.1012224346175337E-003   1.5968812880552061E-003   6.4715307131258698E-002
  -4.1658779988722056E-003   1.7176312331890209E-003   6.5365026880063071E-002
  -1.7350218484146751E-012   1.1615153283628388E-012   7.0040280018193513E-002
  -1.3737691539894570E-012   1.3476997295924775E-012   6.8699463846998876E-002
  -1.0125129901172869E-012   1.5439038936193583E-012   6.7503684628992533E-002
  -6.5125856096859280E-013   1.7506621152740820E-012   6.6452942364174789E-002
  -2.9000413181989870E-013   1.9676482665431649E-012   6.5547237052545282E-002
  -1.0267649842033467E-003   4.2940780916844723E-004   6.8805622101932196E-002
  -8.8478288600763941E-004   5.0236910148049319E-004   6.7481012935156737E-002
  -7.4280078781192166E-004   6.3346013575024673E-004   6.6295331010861769E-002
  -6.0081868961620825E-004   8.2268091197695153E-004   6.5248576329047264E-002
  -4.5883659142049657E-004   1.0700314301613778E-003   6.4340748889713639E-002
  -2.0633329778823265E-003   8.5881561717526811E-004   6.7614860606823118E-002
  -1.7854784925600536E-003   1.0047382016135642E-003   6.6364588186414164E-002
  -1.5076240072377806E-003   1.2669202699562426E-003   6.5247133297777690E-002
  -1.2297695219155047E-003   1.6453618222032375E-003   6.4262495940913877E-002
  -9.5191503659322087E-004   2.1400628583549408E-003   6.3410676115822767E-002
  -3.1097039827719408E-003   1.2882234251820890E-003   6.6467995532866975E-002
  -2.7020868210310130E-003   1.5071073017464409E-003   6.5350189600771186E-002
  -2.2944696592900990E-003   1.9003804041624120E-003   6.4359091489740047E-002
  -1.8868524975491677E-003   2.4680427324295252E-003   6.3494701199773851E-002
  -1.4792353358082573E-003   3.2100942865482540E-003   6.2757018730872083E-002
  -4.1658779988722056E-003   1.7176312331890209E-003   6.5365026880063071E-002
  -3.6346078714205310E-003   2.0094764018793176E-003   6.4437817178227830E-002
  -3.1033377439688530E-003   2.5338405383685536E-003   6.3631205586749451E-002
  -2.5720676165171749E-003   3.2907236426557504E-003   6.2945192105627684E-002
  -2.0407974890655003E-003   4.2801257147421223E-003   6.2379776734862946E-002
  -2.9000413181989870E-013   1.9676482665431649E-012   6.5547237052545282E-002
  -5.1574022830180866E-013   2.2342128147556650E-012   6.0807376621351272E-002
  -7.4148673312457447E-013   2.5879576259768555E-012   5.5947853664488678E-002
  -9.6723323794734029E-013   3.0299165953984186E-012   5.0968668181957916E-002
  -1.1929762733231541E-012   3.5598191061581019E-012   4.5869820173758846E-002
  -4.5883659142049657E-004   1.0700314301613778E-003   6.4340748889713639E-002
  -5.6414768236612983E-004   1.3955997996290548E-003   5.9630151019773980E-002
  -6.6945877331176830E-004   1.8194741297060946E-003   5.4828593494062772E-002
  -7.7476986425741717E-004   2.3416544203917269E-003   4.9936076312579625E-002
  -8.8008095520304003E-004   2.9621406716868748E-003   4.4952599475325927E-002
  -9.5191503659322087E-004   2.1400628583549408E-003   6.3410676115822767E-002
  -1.1338343483621224E-003   2.7911995970240078E-003   5.8827646767658864E-002
  -1.3157536601310039E-003   3.6389482568234405E-003   5.4182360633619933E-002
  -1.4976729718998768E-003   4.6833088377533118E-003   4.9474817713706508E-002
  -1.6795922836687731E-003   5.9242813398137084E-003   4.4705018007917596E-002
  -1.4792353358082573E-003   3.2100942865482540E-003   6.2757018730872083E-002
  -1.7090599985037174E-003   4.1867993944190163E-003   5.8399863865005681E-002
  -1.9388846611991847E-003   5.4584223839411819E-003   5.4009155083160995E-002
  -2.1687093238946585E-003   7.0249632551148983E-003   4.9584892385337795E-002
  -2.3985339865901121E-003   8.8864220079406531E-003   4.5127075771536712E-002
  -2.0407974890655003E-003   4.2801257147421223E-003   6.2379776734862946E-002
  -2.2898246327909058E-003   5.5823991918139138E-003   5.8346802311814772E-002
  -2.5388517765163078E-003   7.2778965110588401E-003   5.4308976842684931E-002
  -2.7878789202417063E-003   9.3666176724766306E-003   5.0266300327473784E-002
  -3.0369060639671153E-003   1.1848562676067598E-002   4.6218772766180471E-002
  -2.4426037517647339E-002   7.3899918611441962E-003   9.4977537219598673E-002
  -2.3842089519236796E-002   7.1754917511276939E-003   8.5970438050023967E-002
  -2.3258141520826253E-002   6.9597406522897698E-003   7.9024938251095689E-002
  -2.2674193522415696E-002   6.7427385646306459E-003   7.4141037822813616E-002
  -2.2090245524005153E-002   6.5244854881503223E-003   7.1318736765177915E-002
  -3.7898920815223502E-002   9.2745301803748292E-003   7.5528150264524030E-002
  -3.5731703058227773E-002   9.0030510982945511E-003   7.0914612133605559E-002
  -3.3564485301232037E-002   8.7299767011485563E-003   6.7406014149211296E-002
  -3.1397267544236288E-002   8.4553069889368865E-003   6.5002356311341006E-002
  -2.9230049787240552E-002   8.1790419616595278E-003   6.3703638619994840E-002
  -4.6498490310138925E-002   1.1159068499605518E-002   5.6021956500508119E-002
  -4.3704662018680153E-002   1.0830610445461547E-002   5.5801635082001338E-002
  -4.0910833727221471E-002   1.0500212750007398E-002   5.5729594585896533E-002
  -3.8117005435762741E-002   1.0167875413243127E-002   5.5805835012193605E-002
  -3.5323177144303990E-002   9.8335984351687333E-003   5.6030356360892500E-002
  -5.0224746002393454E-002   1.3043606818836206E-002   3.6458955927550468E-002
  -4.7760966400594004E-002   1.2658169792628501E-002   4.0631506895211111E-002
  -4.5297186798794492E-002   1.2270448798866213E-002   4.3995679561151461E-002
  -4.2833407196995014E-002   1.1880443837549312E-002   4.6551473925371449E-002
  -4.0369627595195523E-002   1.1488154908677967E-002   4.8298889987871046E-002
  -4.9077687891987243E-002   1.4928145138066840E-002   1.6839148545651439E-002
  -4.7900616203969223E-002   1.4485729139795456E-002   2.5404227573234961E-002
  -4.6723544515951176E-002   1.4040684847724971E-002   3.2204269074975977E-002
  -4.5546472827933129E-002   1.3593012261855553E-002   3.7239273050874377E-002
  -4.4369401139915110E-002   1.3142711382187200E-002   4.0509239500930327E-002
  -2.2090245524005153E-002   6.5244854881503223E-003   7.1318736765177915E-002
  -2.1206809304253962E-002   6.2973882983064500E-003   6.9099957178568427E-002
  -2.0323373084502789E-002   6.0538538705572909E-003   6.7483267184516083E-002
  -1.9439936864751615E-002   5.7938822049026922E-003   6.6468666783020908E-002
  -1.8556500645000425E-002   5.5174733013426125E-003   6.6056155974082931E-002
  -2.9230049787240552E-002   8.1790419616595278E-003   6.3703638619994840E-002
  -2.7839396406325895E-002   7.8935343315320594E-003   6.2419999943893634E-002
  -2.6448743025411250E-002   7.5911368107703797E-003   6.1548705997562375E-002
  -2.5058089644496614E-002   7.2718493993745546E-003   6.1089756781000787E-002
  -2.3667436263581948E-002   6.9356720973444697E-003   6.1043152294208924E-002
  -3.5323177144303990E-002   9.8335984351687333E-003   5.6030356360892500E-002
  -3.3615051465013313E-002   9.4896803647577521E-003   5.5681405942570997E-002
  -3.1906925785722608E-002   9.1284197509836351E-003   5.5555055391231900E-002
  -3.0198800106431913E-002   8.7498165938465836E-003   5.5651304706875099E-002
  -2.8490674427141226E-002   8.3538708933465211E-003   5.5970153889500551E-002
  -4.0369627595195523E-002   1.1488154908677967E-002   4.8298889987871046E-002
  -3.8533774480316182E-002   1.1085826397983292E-002   4.8884175174600253E-002
  -3.6697921365436849E-002   1.0665702691196891E-002   4.9502315365524539E-002
  -3.4862068250557529E-002   1.0227783788318529E-002   5.0153310560643691E-002
  -3.3026215135678175E-002   9.7720696893483922E-003   5.0837160759957686E-002
  -4.4369401139915110E-002   1.3142711382187200E-002   4.0509239500930327E-002
  -4.2595565452234543E-002   1.2681972431209082E-002   4.2028307639981582E-002
  -4.0821729764553991E-002   1.2202985631410077E-002   4.3390485920440397E-002
  -3.9047894076873438E-002   1.1705750982790638E-002   4.4595774342306674E-002
  -3.7274058389192871E-002   1.1190268485350430E-002   4.5644172905580482E-002
  -1.8556500645000425E-002   5.5174733013426125E-003   6.6056155974082931E-002
  -1.7769509497583408E-002   5.2319965022785686E-003   6.5255859976480646E-002
  -1.6982518350166374E-002   4.9448211501119110E-003   6.4724587791341104E-002
  -1.6195527202749346E-002   4.6559472448428479E-003   6.4462339418664610E-002
  -1.5408536055332316E-002   4.3653747864709769E-003   6.4469114858450693E-002
  -2.3667436263581948E-002   6.9356720973444697E-003   6.1043152294208924E-002
  -2.2632365214685885E-002   6.5889633876782538E-003   6.0506674101774655E-002
  -2.1597294165789857E-002   6.2380817533734395E-003   6.0197331899835560E-002
  -2.0562223116893794E-002   5.8830271944303354E-003   6.0115125688391738E-002
  -1.9527152067997766E-002   5.5237997108486536E-003   6.0260055467443063E-002
  -2.8490674427141226E-002   8.3538708933465211E-003   5.5970153889500551E-002
  -2.7249411298733740E-002   7.9459302730778281E-003   5.5695019130698450E-002
  -2.6008148170326258E-002   7.5313423566349125E-003   5.5605132540423957E-002
  -2.4766885041918797E-002   7.1101071440178229E-003   5.5700494118677099E-002
  -2.3525621913511319E-002   6.6822246352264136E-003   5.5981103865457779E-002
  -3.3026215135678175E-002   9.7720696893483922E-003   5.0837160759957686E-002
  -3.1620647749726886E-002   9.3028971584774023E-003   5.0820895063251867E-002
  -3.0215080363775591E-002   8.8246029598961911E-003   5.0947989713106205E-002
  -2.8809512977824286E-002   8.3371870936054214E-003   5.1218444709520514E-002
  -2.7403945591873008E-002   7.8406495596041320E-003   5.1632260052494883E-002
  -3.7274058389192871E-002   1.1190268485350430E-002   4.5644172905580482E-002
  -3.5746074567665362E-002   1.0659864043877115E-002   4.5884301899435320E-002
  -3.4218090746137839E-002   1.0117863563157942E-002   4.6225903417882519E-002
  -3.2690106924610343E-002   9.5642670431928881E-003   4.6668977460922134E-002
  -3.1162123103082806E-002   8.9990744839819614E-003   4.7213524028554166E-002
  -1.5408536055332316E-002   4.3653747864709769E-003   6.4469114858450693E-002
  -1.4490307755370073E-002   4.0677660645644376E-003   6.4004826240932011E-002
  -1.3572079455407851E-002   3.7577833686911338E-003   6.3758360117582374E-002
  -1.2653851155445612E-002   3.4354266988511871E-003   6.3729716488401547E-002
  -1.1735622855483380E-002   3.1006960550443718E-003   6.3918895353389793E-002
  -1.9527152067997766E-002   5.5237997108486536E-003   6.0260055467443063E-002
  -1.8393570061314760E-002   5.1575750998315295E-003   5.9902346577528270E-002
  -1.7259988054631793E-002   4.7815291585815572E-003   5.9757522606886049E-002
  -1.6126406047948832E-002   4.3956618870987264E-003   5.9825583555516329E-002
  -1.4992824041265822E-002   3.9999732853831516E-003   6.0106529423419153E-002
  -2.3525621913511319E-002   6.6822246352264136E-003   5.5981103865457779E-002
  -2.2181623775003996E-002   6.2473841350984827E-003   5.5732527346880847E-002
  -2.0837625636496680E-002   5.8052749484717656E-003   5.5691898172679992E-002
  -1.9493627497989371E-002   5.3558970753464340E-003   5.5859216342855400E-002
  -1.8149629359482042E-002   4.8992505157220423E-003   5.6234481857406732E-002
  -2.7403945591873008E-002   7.8406495596041320E-003   5.1632260052494883E-002
  -2.5854468896437759E-002   7.3371931703656162E-003   5.1495368548989687E-002
  -2.4304992201002511E-002   6.8290207383620814E-003   5.1561486814964405E-002
  -2.2755515505567259E-002   6.3161322635939465E-003   5.1830614850418719E-002
  -2.1206038810132010E-002   5.7985277460608220E-003   5.2302752655352745E-002
  -3.1162123103082806E-002   8.9990744839819614E-003   4.7213524028554166E-002
  -2.9412105425616050E-002   8.4270022056325833E-003   4.7190870183854816E-002
  -2.7662087748149281E-002   7.8527665282524528E-003   4.7366288533738810E-002
  -2.5912070070682532E-002   7.2763674518416394E-003   4.7739779078206090E-002
  -2.4162052393215755E-002   6.6978049763997127E-003   4.8311341817256714E-002
  -1.1735622855483380E-002   3.1006960550443718E-003   6.3918895353389793E-002
  -1.0778531077075909E-002   2.7695055990449302E-003   6.3569470939089823E-002
  -9.8214392986684558E-003   2.4577694926270766E-003   6.3521249490243847E-002
  -8.8643475202609939E-003   2.1654877357904986E-003   6.3774231006851506E-002
  -7.9072557418535319E-003   1.8926603285354116E-003   6.4328415488913215E-002
  -1.4992824041265822E-002   3.9999732853831516E-003   6.0106529423419153E-002
  -1.3759685235459760E-002   3.6053731194857774E-003   5.9848071214355647E-002
  -1.2526546429653661E-002   3.2227711554570770E-003   5.9840504094635566E-002
  -1.1293407623847566E-002   2.8521673932981814E-003   6.0083828064258923E-002
  -1.0060268818041528E-002   2.4935618330078624E-003   6.0578043123225456E-002
  -1.8149629359482042E-002   4.8992505157220423E-003   5.6234481857406732E-002
  -1.6690755402387701E-002   4.4412406399264859E-003   5.6059533705867137E-002
  -1.5231881445293367E-002   3.9877728182877575E-003   5.6085164767560633E-002
  -1.3773007488199035E-002   3.5388470508057011E-003   5.6311375042487184E-002
  -1.2314133531104695E-002   3.0944633374802022E-003   5.6738164530646562E-002
  -2.1206038810132010E-002   5.7985277460608220E-003   5.2302752655352745E-002
  -1.9571741577859791E-002   5.2771081603673192E-003   5.2203858413624703E-002
  -1.7937444345587583E-002   4.7527744811180980E-003   5.2255231509019132E-002
  -1.6303147113315354E-002   4.2255267083131914E-003   5.2456871941536518E-002
  -1.4668849881043155E-002   3.6953648419524310E-003   5.2808779711176208E-002
  -2.4162052393215755E-002   6.6978049763997127E-003   4.8311341817256714E-002
  -2.2402643761876020E-002   6.1129756808078195E-003   4.8281045337627670E-002
  -2.0643235130536300E-002   5.5177761439485218E-003   4.8350704319011062E-002
  -1.8883826499196586E-002   4.9122063658207579E-003   4.8520318761406583E-002
  -1.7124417867856845E-002   4.2962663464248818E-003   4.8789888664814707E-002
  -7.9072557418535319E-003   1.8926603285354116E-003   6.4328415488913215E-002
  -6.9719113061082055E-003   1.6843958357282141E-003   6.4197001435683743E-002
  -6.0365668703628687E-003   1.5858028222345000E-003   6.4325965316465672E-002
  -5.1012224346175337E-003   1.5968812880552061E-003   6.4715307131258698E-002
  -4.1658779988722056E-003   1.7176312331890209E-003   6.5365026880063071E-002
  -1.0060268818041528E-002   2.4935618330078624E-003   6.0578043123225456E-002
  -8.8658539117519308E-003   2.1964558695704572E-003   6.0454806205229361E-002
  -7.6714390054623792E-003   2.0103508979696372E-003   6.0589332294310405E-002
  -6.4770240991728397E-003   1.9352469182057352E-003   6.0981621390468560E-002
  -5.2826091928832586E-003   1.9711439302786404E-003   6.1631673493704353E-002
  -1.2314133531104695E-002   3.0944633374802022E-003   5.6738164530646562E-002
  -1.0863263081204829E-002   2.7085159034128115E-003   5.6624434260406226E-002
  -9.4123926313049930E-003   2.4348989737048993E-003   5.6765852070309250E-002
  -7.9615221814051274E-003   2.2736125483567120E-003   5.7162417960355739E-002
  -6.5106517315052896E-003   2.2246566273678159E-003   5.7814131930545271E-002
  -1.4668849881043155E-002   3.6953648419524310E-003   5.2808779711176208E-002
  -1.2964138814466930E-002   3.2205759372549991E-003   5.2705885601214864E-002
  -1.1259427747890708E-002   2.8594470494400434E-003   5.2855524644462554E-002
  -9.5547166813144992E-003   2.6119781785075760E-003   5.3257696840919695E-002
  -7.8500056147382622E-003   2.4781693244568803E-003   5.3912402190586621E-002
  -1.7124417867856845E-002   4.2962663464248818E-003   4.8789888664814707E-002
  -1.5168481111538179E-002   3.7326359710974644E-003   4.8699160227654636E-002
  -1.3212544355219527E-002   3.2839951251753263E-003   4.8858350016770025E-002
  -1.1256607598900861E-002   2.9503438086582248E-003   4.9267458032160955E-002
  -9.3006708425822093E-003   2.7316820215464999E-003   4.9926484273827176E-002
  -4.1658779988722056E-003   1.7176312331890209E-003   6.5365026880063071E-002
  -3.6346078714205310E-003   2.0094764018793176E-003   6.4437817178227830E-002
  -3.1033377439688530E-003   2.5338405383685536E-003   6.3631205586749451E-002
  -2.5720676165171749E-003   3.2907236426557504E-003   6.2945192105627684E-002
  -2.0407974890655003E-003   4.2801257147421223E-003   6.2379776734862946E-002
  -5.2826091928832586E-003   1.9711439302786404E-003   6.1631673493704353E-002
  -4.6051523202504697E-003   2.2257449350087111E-003   6.0898204062720784E-002
  -3.9276954476176532E-003   2.8067529332172214E-003   6.0336510011742894E-002
  -3.2502385749848504E-003   3.7141679249043727E-003   5.9946591340770572E-002
  -2.5727817023520477E-003   4.9479899100697278E-003   5.9728448049803484E-002
  -6.5106517315052896E-003   2.2246566273678159E-003   5.7814131930545271E-002
  -5.6358308440427017E-003   2.4420134681377159E-003   5.7368290796093568E-002
  -4.7610099565801138E-003   3.0796653280662362E-003   5.7145402311296098E-002
  -3.8861890691175311E-003   4.1376122071525544E-003   5.7145466476152533E-002
  -3.0113681816549658E-003   5.6158541053973887E-003   5.7368483290663380E-002
  -7.8500056147382622E-003   2.4781693244568803E-003   5.3912402190586621E-002
  -6.7266434427972338E-003   2.6582820012669151E-003   5.3848077378346189E-002
  -5.6032812708562028E-003   3.3525777229150219E-003   5.4057882485408770E-002
  -4.4799190989151857E-003   4.5610564894010674E-003   5.4541817511774268E-002
  -3.3565569269741425E-003   6.2837183007252440E-003   5.5299882457442197E-002
  -9.3006708425822093E-003   2.7316820215464999E-003   4.9926484273827176E-002
  -7.8775901165140522E-003   2.8745505343960587E-003   5.0337563809478514E-002
  -6.4545093904459505E-003   3.6254901177639742E-003   5.1073950534081147E-002
  -5.0314286643778350E-003   4.9845007716492057E-003   5.2135644447635188E-002
  -3.6083479383096917E-003   6.9515824960527661E-003   5.3522645550140635E-002
  -2.0407974890655003E-003   4.2801257147421223E-003   6.2379776734862946E-002
  -2.2898246327909058E-003   5.5823991918139138E-003   5.8346802311814772E-002
  -2.5388517765163078E-003   7.2778965110588401E-003   5.4308976842684931E-002
  -2.7878789202417063E-003   9.3666176724766306E-003   5.0266300327473784E-002
  -3.0369060639671153E-003   1.1848562676067598E-002   4.6218772766180471E-002
  -2.5727817023520477E-003   4.9479899100697278E-003   5.9728448049803484E-002
  -2.8442910462706909E-003   6.5720851374910239E-003   5.6194921873230497E-002
  -3.1158003901893619E-003   8.6503198559463312E-003   5.2621282342352527E-002
  -3.3873097341080398E-003   1.1182694065434234E-002   4.9007529457170018E-002
  -3.6588190780266691E-003   1.4169207765956315E-002   4.5353663217682305E-002
  -3.0113681816549658E-003   5.6158541053973887E-003   5.7368483290663380E-002
  -3.3406220339901385E-003   7.5617710831684115E-003   5.4395321009426123E-002
  -3.6698758863253269E-003   1.0022743200833031E-002   5.1346783065660942E-002
  -3.9991297386605144E-003   1.2998770458392001E-002   4.8222869459367053E-002
  -4.3283835909956603E-003   1.6489852855844811E-002   4.5023580190545642E-002
  -3.3565569269741425E-003   6.2837183007252440E-003   5.5299882457442197E-002
  -3.7788175959491636E-003   8.5514570288456604E-003   5.2947999720401595E-002
  -4.2010782649241855E-003   1.1395166545720460E-002   5.0485479012608775E-002
  -4.6233389338991935E-003   1.4814846851349575E-002   4.7912320334065041E-002
  -5.0455996028742007E-003   1.8810497945733418E-002   4.5228523684769761E-002
  -3.6083479383096917E-003   6.9515824960527661E-003   5.3522645550140635E-002
  -4.1588777321478060E-003   9.5411429745227982E-003   5.1852958006156524E-002
  -4.7094075259859342E-003   1.2767589890607361E-002   5.0037370183197705E-002
  -5.2599373198240554E-003   1.6630923244307406E-002   4.8075882081263926E-002
  -5.8104671136621766E-003   2.1131143035622024E-002   4.5968493700355495E-002
  -4.9077687891987243E-002   1.4928145138066840E-002   1.6839148545651439E-002
  -4.7900616203969223E-002   1.4485729139795456E-002   2.5404227573234961E-002
  -4.6723544515951176E-002   1.4040684847724971E-002   3.2204269074975977E-002
  -4.5546472827933129E-002   1.3593012261855553E-002   3.7239273050874377E-002
  -4.4369401139915110E-002   1.3142711382187200E-002   4.0509239500930327E-002
  -4.8078898862563516E-002   1.6754108254095679E-002   2.8940284080299805E-002
  -4.8150922882790367E-002   1.6314161682657896E-002   3.2834264219953890E-002
  -4.8222946903017296E-002   1.5842465923216253E-002   3.5995090468960628E-002
  -4.8294970923244154E-002   1.5339020975770931E-002   3.8422762827320073E-002
  -4.8366994943471076E-002   1.4803826840321888E-002   4.0117281295032364E-002
  -5.2249961797765518E-002   1.8580071370124490E-002   4.1058449488884041E-002
  -5.2539197891042069E-002   1.8142594225520253E-002   4.0252209846403791E-002
  -5.2828433984318572E-002   1.7644246998707508E-002   3.9744699948471601E-002
  -5.3117670077595117E-002   1.7085029689686254E-002   3.9535919795087471E-002
  -5.3406906170871626E-002   1.6464942298456547E-002   3.9625869386251192E-002
  -6.1590876697593319E-002   2.0406034486153302E-002   5.3193644771404425E-002
  -6.1065441228724239E-002   1.9971026768382708E-002   4.7658064452585205E-002
  -6.0540005759855180E-002   1.9446028074198832E-002   4.3453097513509287E-002
  -6.0014570290986023E-002   1.8831038403601577E-002   4.0578743954176488E-002
  -5.9489134822116929E-002   1.8126057756591166E-002   3.9035003774587171E-002
  -7.6101643562046906E-002   2.2231997602182141E-002   6.5345869927860734E-002
  -7.3729652895836911E-002   2.1799459311245106E-002   5.5051828038497674E-002
  -7.1357662229626889E-002   2.1247809149690017E-002   4.7120283164073185E-002
  -6.8985671563416867E-002   2.0577047117516921E-002   4.1551235304587208E-002
  -6.6613680897206845E-002   1.9787173214725895E-002   3.8344684460039968E-002
  -4.4369401139915110E-002   1.3142711382187200E-002   4.0509239500930327E-002
  -4.2595565452234543E-002   1.2681972431209082E-002   4.2028307639981582E-002
  -4.0821729764553991E-002   1.2202985631410077E-002   4.3390485920440397E-002
  -3.9047894076873438E-002   1.1705750982790638E-002   4.4595774342306674E-002
  -3.7274058389192871E-002   1.1190268485350430E-002   4.5644172905580482E-002
  -4.8366994943471076E-002   1.4803826840321888E-002   4.0117281295032364E-002
  -4.6656527678548193E-002   1.4253245428603553E-002   4.0678916839396131E-002
  -4.4946060413625283E-002   1.3703638652350567E-002   4.1270705396836999E-002
  -4.3235593148702373E-002   1.3155006511563049E-002   4.1892646967354945E-002
  -4.1525125883779490E-002   1.2607349006240776E-002   4.2544741550950255E-002
  -5.3406906170871626E-002   1.6464942298456547E-002   3.9625869386251192E-002
  -5.1572764457036804E-002   1.5824518425998149E-002   3.9249294820213471E-002
  -4.9738622743201989E-002   1.5204291673291064E-002   3.9089916138922452E-002
  -4.7904481029367188E-002   1.4604262040335351E-002   3.9147733342378241E-002
  -4.6070339315532352E-002   1.4024429527131010E-002   3.9422746430580885E-002
  -5.9489134822116929E-002   1.8126057756591166E-002   3.9035003774587171E-002
  -5.7344275787700509E-002   1.7395791423392822E-002   3.7739441582433864E-002
  -5.5199416753284082E-002   1.6704944694231613E-002   3.6848118146696904E-002
  -5.3054557718867662E-002   1.6053517569107820E-002   3.6361033467376354E-002
  -5.0909698684451235E-002   1.5441510048021329E-002   3.6278187544472276E-002
  -6.6613680897206845E-002   1.9787173214725895E-002   3.8344684460039968E-002
  -6.3971061670539203E-002   1.8967064420787244E-002   3.6149357126057130E-002
  -6.1328442443871589E-002   1.8205597715172134E-002   3.4545311420160207E-002
  -5.8685823217203975E-002   1.7502773097880141E-002   3.3532547342349478E-002
  -5.6043203990536361E-002   1.6858590568911591E-002   3.3111064892624664E-002
  -3.7274058389192871E-002   1.1190268485350430E-002   4.5644172905580482E-002
  -3.5746074567665362E-002   1.0659864043877115E-002   4.5884301899435320E-002
  -3.4218090746137839E-002   1.0117863563157942E-002   4.6225903417882519E-002
  -3.2690106924610343E-002   9.5642670431928881E-003   4.6668977460922134E-002
  -3.1162123103082806E-002   8.9990744839819614E-003   4.7213524028554166E-002
  -4.1525125883779490E-002   1.2607349006240776E-002   4.2544741550950255E-002
  -3.9880034311873327E-002   1.2050778140684643E-002   4.2491161135835703E-002
  -3.8234942739967151E-002   1.1475405919195325E-002   4.2570323696885945E-002
  -3.6589851168060988E-002   1.0881232341772948E-002   4.2782229234101112E-002
  -3.4944759596154867E-002   1.0268257408417580E-002   4.3126877747481307E-002
  -4.6070339315532352E-002   1.4024429527131010E-002   3.9422746430580885E-002
  -4.4276869541675007E-002   1.3441692237492156E-002   3.9068251289809536E-002
  -4.2483399767817724E-002   1.2832948275232861E-002   3.8877769576775814E-002
  -4.0689929993960455E-002   1.2198197640353171E-002   3.8851301291479269E-002
  -3.8896460220103089E-002   1.1537440332853255E-002   3.8988846433920143E-002
  -5.0909698684451235E-002   1.5441510048021329E-002   3.6278187544472276E-002
  -4.8936580257070345E-002   1.4832606334299621E-002   3.5615572361357269E-002
  -4.6963461829689433E-002   1.4190490631270404E-002   3.5148241057551932E-002
  -4.4990343402308570E-002   1.3515162938933479E-002   3.4876193633056468E-002
  -4.3017224974927624E-002   1.2806623257288902E-002   3.4799430087870883E-002
  -5.6043203990536361E-002   1.6858590568911591E-002   3.3111064892624664E-002
  -5.3859166458059382E-002   1.6223520431107197E-002   3.2133124350478381E-002
  -5.1675128925582403E-002   1.5548032987307808E-002   3.1381738139214466E-002
  -4.9491091393105438E-002   1.4832128237513516E-002   3.0856906258832806E-002
  -4.7307053860628445E-002   1.4075806181724548E-002   3.0558628709333568E-002
  -3.1162123103082806E-002   8.9990744839819614E-003   4.7213524028554166E-002
  -2.9412105425616050E-002   8.4270022056325833E-003   4.7190870183854816E-002
  -2.7662087748149281E-002   7.8527665282524528E-003   4.7366288533738810E-002
  -2.5912070070682532E-002   7.2763674518416394E-003   4.7739779078206090E-002
  -2.4162052393215755E-002   6.6978049763997127E-003   4.8311341817256714E-002
  -3.4944759596154867E-002   1.0268257408417580E-002   4.3126877747481307E-002
  -3.3004034251228845E-002   9.6451753211503621E-003   4.2926007069320732E-002
  -3.1063308906302850E-002   9.0206802819918636E-003   4.2908479531495181E-002
  -2.9122583561376841E-002   8.3947722909427612E-003   4.3074295134004834E-002
  -2.7181858216450888E-002   7.7674513480026075E-003   4.3423453876849649E-002
  -3.8896460220103089E-002   1.1537440332853255E-002   3.8988846433920143E-002
  -3.6779756261966105E-002   1.0863348436667725E-002   3.8610509369438398E-002
  -3.4663052303829087E-002   1.0188594035731274E-002   3.8400786391043412E-002
  -3.2546348345692047E-002   9.5131771300439386E-003   3.8359677498735506E-002
  -3.0429644387555070E-002   8.8370977196057243E-003   3.8487182692514471E-002
  -4.3017224974927624E-002   1.2806623257288902E-002   3.4799430087870883E-002
  -4.0739271457827769E-002   1.2081521552185184E-002   3.4244377084207855E-002
  -3.8461317940727942E-002   1.1356507789470463E-002   3.3843209112383539E-002
  -3.6183364423628087E-002   1.0631581969145144E-002   3.3595926172397941E-002
  -3.3905410906528252E-002   9.9067440912088411E-003   3.3502528264251007E-002
  -4.7307053860628445E-002   1.4075806181724548E-002   3.0558628709333568E-002
  -4.4882579838813969E-002   1.3299694667702644E-002   2.9827610213629119E-002
  -4.2458105816999464E-002   1.2524421543209929E-002   2.9235747695515402E-002
  -4.0033631795184987E-002   1.1749986808246335E-002   2.8783041154992306E-002
  -3.7609157773370483E-002   1.0976390462811847E-002   2.8469490592059610E-002
  -2.4162052393215755E-002   6.6978049763997127E-003   4.8311341817256714E-002
  -2.2402643761876020E-002   6.1129756808078195E-003   4.8281045337627670E-002
  -2.0643235130536300E-002   5.5177761439485218E-003   4.8350704319011062E-002
  -1.8883826499196586E-002   4.9122063658207579E-003   4.8520318761406583E-002
  -1.7124417867856845E-002   4.2962663464248818E-003   4.8789888664814707E-002
  -2.7181858216450888E-002   7.7674513480026075E-003   4.3423453876849649E-002
  -2.5308713553422679E-002   7.1381111288240651E-003   4.3172459699100663E-002
  -2.3435568890394450E-002   6.5061453090595744E-003   4.3048982123716412E-002
  -2.1562424227366254E-002   5.8715538887093299E-003   4.3053021150696758E-002
  -1.9689279564338011E-002   5.2343368677728597E-003   4.3184576780041783E-002
  -3.0429644387555070E-002   8.8370977196057243E-003   3.8487182692514471E-002
  -2.8415202551486024E-002   8.1632465768400886E-003   3.8023235457327664E-002
  -2.6400760715416988E-002   7.4945144741708630E-003   3.7714365965857893E-002
  -2.4386318879347953E-002   6.8309014115978499E-003   3.7560574218105248E-002
  -2.2371877043278962E-002   6.1724073891208930E-003   3.7561860214069320E-002
  -3.3905410906528252E-002   9.9067440912088411E-003   3.3502528264251007E-002
  -3.1722110756066048E-002   9.1883820248563897E-003   3.2833372612308738E-002
  -2.9538810605603903E-002   8.4828836392822557E-003   3.2346855845435771E-002
  -2.7355510455141729E-002   7.7902489344864514E-003   3.2042977963632209E-002
  -2.5172210304679553E-002   7.1104779104690652E-003   3.1921738966897741E-002
  -3.7609157773370483E-002   1.0976390462811847E-002   2.8469490592059610E-002
  -3.5229438167162841E-002   1.0213517472872136E-002   2.7602871164043863E-002
  -3.2849718560955227E-002   9.4712528043931488E-003   2.6946451762449974E-002
  -3.0469998954747626E-002   8.7495964573750390E-003   2.6500232387277445E-002
  -2.8090279348539970E-002   8.0485484318170153E-003   2.6264213038526552E-002
  -1.7124417867856845E-002   4.2962663464248818E-003   4.8789888664814707E-002
  -1.5168481111538179E-002   3.7326359710974644E-003   4.8699160227654636E-002
  -1.3212544355219527E-002   3.2839951251753263E-003   4.8858350016770025E-002
  -1.1256607598900861E-002   2.9503438086582248E-003   4.9267458032160955E-002
  -9.3006708425822093E-003   2.7316820215464999E-003   4.9926484273827176E-002
  -1.9689279564338011E-002   5.2343368677728597E-003   4.3184576780041783E-002
  -1.7520800392948281E-002   4.6315749547315432E-003   4.3031999422108280E-002
  -1.5352321221558503E-002   4.1003488580667879E-003   4.3054588668041655E-002
  -1.3183842050168725E-002   3.6406585777780179E-003   4.3252344517841809E-002
  -1.1015362878778995E-002   3.2525041138655730E-003   4.3625266971508647E-002
  -2.2371877043278962E-002   6.1724073891208930E-003   3.7561860214069320E-002
  -2.0065607079226812E-002   5.5305139383658164E-003   3.7303980222333805E-002
  -1.7759337115174689E-002   4.9167025909582357E-003   3.7146515212056100E-002
  -1.5453067151122560E-002   4.3309733468976964E-003   3.7089465183236588E-002
  -1.3146797187070410E-002   3.7733262061849238E-003   3.7132830135874928E-002
  -2.5172210304679553E-002   7.1104779104690652E-003   3.1921738966897741E-002
  -2.2802901170373847E-002   6.4294529220001589E-003   3.1515102628330967E-002
  -2.0433592036068114E-002   5.7330563238495794E-003   3.1134129648813357E-002
  -1.8064282901762416E-002   5.0212881160174323E-003   3.0778820028344915E-002
  -1.5694973767456672E-002   4.2941482985040247E-003   3.0449173766925922E-002
  -2.8090279348539970E-002   8.0485484318170153E-003   2.6264213038526552E-002
  -2.5732682666389367E-002   7.3283919056341684E-003   2.5665366640099885E-002
  -2.3375085984238736E-002   6.5494100567412283E-003   2.5017431978313354E-002
  -2.1017489302088091E-002   5.7116028851372444E-003   2.4320409053167458E-002
  -1.8659892619937501E-002   4.8149703908234587E-003   2.3574297864662030E-002
  -9.3006708425822093E-003   2.7316820215464999E-003   4.9926484273827176E-002
  -7.8775901165140522E-003   2.8745505343960587E-003   5.0337563809478514E-002
  -6.4545093904459505E-003   3.6254901177639742E-003   5.1073950534081147E-002
  -5.0314286643778350E-003   4.9845007716492057E-003   5.2135644447635188E-002
  -3.6083479383096917E-003   6.9515824960527661E-003   5.3522645550140635E-002
  -1.1015362878778995E-002   3.2525041138655730E-003   4.3625266971508647E-002
  -9.2486167662752528E-003   3.1758131322800476E-003   4.4217693541946379E-002
  -7.4818706537715107E-003   3.6505132989703704E-003   4.5172143696304151E-002
  -5.7151245412678069E-003   4.6766046139377071E-003   4.6488617434581866E-002
  -3.9483784287640267E-003   6.2540870771814472E-003   4.8167114756778928E-002
  -1.3146797187070410E-002   3.7733262061849238E-003   3.7132830135874928E-002
  -1.0999669293162730E-002   3.4770757301632871E-003   3.7849923818858072E-002
  -8.8525413992550511E-003   3.6755364801769608E-003   3.8965757480729585E-002
  -6.7054135053473407E-003   4.3687084562259795E-003   4.0480331121489035E-002
  -4.5582856114396927E-003   5.5565916583100727E-003   4.2393644741136854E-002
  -1.5694973767456672E-002   4.2941482985040247E-003   3.0449173766925922E-002
  -1.3130747697176599E-002   3.7783383280469568E-003   3.1234254640213344E-002
  -1.0566521626896610E-002   3.7005596613830655E-003   3.2454791887357400E-002
  -8.0022955566166065E-003   4.0608122985140334E-003   3.4110785508357680E-002
  -5.4380694863365494E-003   4.8590962394387260E-003   3.6202235503214809E-002
  -1.8659892619937501E-002   4.8149703908234587E-003   2.3574297864662030E-002
  -1.5641851978316745E-002   4.0796009259304600E-003   2.4370686006012332E-002
  -1.2623811336696156E-002   3.7255828425900028E-003   2.5639246916187353E-002
  -9.6057706950754967E-003   3.7529161408026007E-003   2.7379980595187203E-002
  -6.5877300534548100E-003   4.1616008205672683E-003   2.9592887043011884E-002
  -3.6083479383096917E-003   6.9515824960527661E-003   5.3522645550140635E-002
  -4.1588777321478060E-003   9.5411429745227982E-003   5.1852958006156524E-002
  -4.7094075259859342E-003   1.2767589890607361E-002   5.0037370183197705E-002
  -5.2599373198240554E-003   1.6630923244307406E-002   4.8075882081263926E-002
  -5.8104671136621766E-003   2.1131143035622024E-002   4.5968493700355495E-002
  -3.9483784287640267E-003   6.2540870771814472E-003   4.8167114756778928E-002
  -4.5408405204338254E-003   8.6921451851491582E-003   4.7234841791109317E-002
  -5.1333026121036518E-003   1.2299963434286521E-002   4.6364604508751239E-002
  -5.7257647037734193E-003   1.7077541824595227E-002   4.5556402909704280E-002
  -6.3182267954432214E-003   2.3024880356073973E-002   4.4810236993968466E-002
  -4.5582856114396927E-003   5.5565916583100727E-003   4.2393644741136854E-002
  -4.9847440386549674E-003   7.8431473957751296E-003   4.2731660057337251E-002
  -5.4112024658702455E-003   1.1832336977965666E-002   4.3339647019135188E-002
  -5.8376608930855115E-003   1.7524160404883044E-002   4.4217605626530453E-002
  -6.2641193203007983E-003   2.4918617676525923E-002   4.5365535879523966E-002
  -5.4380694863365494E-003   4.8590962394387260E-003   3.6202235503214809E-002
  -5.4905882868111940E-003   6.9941496064009623E-003   3.8343412804840549E-002
  -5.5431070872858671E-003   1.1364710521645151E-002   4.0962497714350329E-002
  -5.5956258877605369E-003   1.7970778985170306E-002   4.4059490231744089E-002
  -5.6481446882352404E-003   2.6812354996977872E-002   4.7634390357021134E-002
  -6.5877300534548100E-003   4.1616008205672683E-003   2.9592887043011884E-002
  -6.0583732649026056E-003   6.1451518170272390E-003   3.4070100033618989E-002
  -5.5290164763503735E-003   1.0897084065323720E-002   3.9233156594396357E-002
  -4.9996596877981969E-003   1.8417397565458786E-002   4.5082056725343239E-002
  -4.4703028992459926E-003   2.8706092317429821E-002   5.1616800426460330E-002
  -7.6101643562046906E-002   2.2231997602182141E-002   6.5345869927860734E-002
  -7.3729652895836911E-002   2.1799459311245106E-002   5.5051828038497674E-002
  -7.1357662229626889E-002   2.1247809149690017E-002   4.7120283164073185E-002
  -6.8985671563416867E-002   2.0577047117516921E-002   4.1551235304587208E-002
  -6.6613680897206845E-002   1.9787173214725895E-002   3.8344684460039968E-002
  -8.8128687436389352E-002   2.3496449629082594E-002   2.7515440691625315E-002
  -8.4448784816872707E-002   2.3364310102046565E-002   2.6116623351573887E-002
  -8.0768882197356034E-002   2.2976305777819395E-002   2.4971132903197302E-002
  -7.7088979577839320E-002   2.2332436656401042E-002   2.4078969346495449E-002
  -7.3409076958322661E-002   2.1432702737791548E-002   2.3440132681468356E-002
  -9.0018433365883693E-002   2.4760901655983047E-002  -9.9462133174223200E-003
  -8.7139788916324068E-002   2.4929160892848162E-002  -2.5865590347352307E-003
  -8.4261144466764540E-002   2.4704802405948786E-002   2.9172520163627258E-003
  -8.1382500017204956E-002   2.4087826195285194E-002   6.5652198358717787E-003
  -7.8503855567645373E-002   2.3078232260857257E-002   8.3573444237917960E-003
  -8.1770881350529900E-002   2.6025353682883584E-002  -4.7039092099282580E-002
  -8.1802665194191243E-002   2.6494011683649468E-002  -3.1057719120430038E-002
  -8.1834449037852600E-002   2.6433299034078143E-002  -1.9041359496430606E-002
  -8.1866232881513915E-002   2.5843215734169277E-002  -1.0990013227283683E-002
  -8.1898016725175271E-002   2.4723761783922715E-002  -6.9036803129897129E-003
  -6.3386031390328057E-002   2.7289805709784010E-002  -8.3763195653955069E-002
  -6.8437413650474066E-002   2.8058862474451107E-002  -5.9296856905510509E-002
  -7.3488795910620075E-002   2.8161795662207473E-002  -4.0904701635182450E-002
  -7.8540178170766084E-002   2.7598605273053363E-002  -2.8586729842971004E-002
  -8.3591560430912093E-002   2.6369291306988729E-002  -2.2342941528876115E-002
  -6.6613680897206845E-002   1.9787173214725895E-002   3.8344684460039968E-002
  -6.3971061670539203E-002   1.8967064420787244E-002   3.6149357126057130E-002
  -6.1328442443871589E-002   1.8205597715172134E-002   3.4545311420160207E-002
  -5.8685823217203975E-002   1.7502773097880141E-002   3.3532547342349478E-002
  -5.6043203990536361E-002   1.6858590568911591E-002   3.3111064892624664E-002
  -7.3409076958322661E-002   2.1432702737791548E-002   2.3440132681468356E-002
  -7.0323468048190660E-002   2.0460700545550395E-002   2.2882116023782276E-002
  -6.7237859138058659E-002   1.9600026603236516E-002   2.2618797104938873E-002
  -6.4152250227926685E-002   1.8850680910850515E-002   2.2650175924938169E-002
  -6.1066641317794712E-002   1.8212663468392176E-002   2.2976252483780130E-002
  -7.8503855567645373E-002   2.3078232260857257E-002   8.3573444237917960E-003
  -7.5271840863292416E-002   2.1954336670313282E-002   9.4893246040068865E-003
  -7.2039826158939405E-002   2.0994455491301009E-002   1.0619418633821279E-002
  -6.8807811454586365E-002   2.0198588723821059E-002   1.1747626513234959E-002
  -6.5575796750233437E-002   1.9566736367872706E-002   1.2873948242248023E-002
  -8.1898016725175271E-002   2.4723761783922715E-002  -6.9036803129897129E-003
  -7.8816180115844570E-002   2.3447972795076023E-002  -4.0290171332691017E-003
  -7.5734343506513854E-002   2.2388884379365336E-002  -1.4528239931927873E-003
  -7.2652506897183139E-002   2.1546496536791020E-002   8.2489910723988237E-004
  -6.9570670287852437E-002   2.0920809267353319E-002   2.8041521680284634E-003
  -8.3591560430912093E-002   2.6369291306988729E-002  -2.2342941528876115E-002
  -8.0956485805846967E-002   2.4941608919839320E-002  -1.7672909188046038E-002
  -7.8321411180781952E-002   2.3783313267429995E-002  -1.3597930776102815E-002
  -7.5686336555716827E-002   2.2894404349761838E-002  -1.0118006293047457E-002
  -7.3051261930651812E-002   2.2274882166833931E-002  -7.2331357388788486E-003
  -5.6043203990536361E-002   1.6858590568911591E-002   3.3111064892624664E-002
  -5.3859166458059382E-002   1.6223520431107197E-002   3.2133124350478381E-002
  -5.1675128925582403E-002   1.5548032987307808E-002   3.1381738139214466E-002
  -4.9491091393105438E-002   1.4832128237513516E-002   3.0856906258832806E-002
  -4.7307053860628445E-002   1.4075806181724548E-002   3.0558628709333568E-002
  -6.1066641317794712E-002   1.8212663468392176E-002   2.2976252483780130E-002
  -5.8680621249596387E-002   1.7592259707912977E-002   2.2429762945310433E-002
  -5.6294601181398021E-002   1.6895755061464207E-002   2.2060684147401199E-002
  -5.3908581113199627E-002   1.6123149529045859E-002   2.1869016090052304E-002
  -5.1522561045001330E-002   1.5274443110658176E-002   2.1854758773263927E-002
  -6.5575796750233437E-002   1.9566736367872706E-002   1.2873948242248023E-002
  -6.3036937736635559E-002   1.8960998984718536E-002   1.2723226127480419E-002
  -6.0498078723037731E-002   1.8243477135620426E-002   1.2700771162951187E-002
  -5.7959219709439860E-002   1.7414170820578088E-002   1.2806583348660590E-002
  -5.5420360695842039E-002   1.6473080039591692E-002   1.3040662684608434E-002
  -6.9570670287852437E-002   2.0920809267353319E-002   2.8041521680284634E-003
  -6.6928115919177023E-002   2.0329738261524177E-002   3.0135138969880071E-003
  -6.4285561550501510E-002   1.9591199209776457E-002   3.3019991858643377E-003
  -6.1643007181826075E-002   1.8705192112110039E-002   3.6696080346573668E-003
  -5.9000452813150576E-002   1.7671716968525431E-002   4.1163404433670475E-003
  -7.3051261930651812E-002   2.2274882166833931E-002  -7.2331357388788486E-003
  -7.0354155797220652E-002   2.1698477538330041E-002  -6.6993737461663594E-003
  -6.7657049663789437E-002   2.0938921283932849E-002  -6.1356317838593133E-003
  -6.4959943530358222E-002   1.9996213403642445E-002  -5.5419098519569818E-003
  -6.2262837396927062E-002   1.8870353897458947E-002  -4.9182079504603848E-003
  -4.7307053860628445E-002   1.4075806181724548E-002   3.0558628709333568E-002
  -4.4882579838813969E-002   1.3299694667702644E-002   2.9827610213629119E-002
  -4.2458105816999464E-002   1.2524421543209929E-002   2.9235747695515402E-002
  -4.0033631795184987E-002   1.1749986808246335E-002   2.8783041154992306E-002
  -3.7609157773370483E-002   1.0976390462811847E-002   2.8469490592059610E-002
  -5.1522561045001330E-002   1.5274443110658176E-002   2.1854758773263927E-002
  -4.8954320108955937E-002   1.4406878403471240E-002   2.1465670096682293E-002
  -4.6386079172910516E-002   1.3577698004655650E-002   2.1224959270971927E-002
  -4.3817838236865081E-002   1.2786901914211158E-002   2.1132626296132745E-002
  -4.1249597300819757E-002   1.2034490132137698E-002   2.1188671172164997E-002
  -5.5420360695842039E-002   1.6473080039591692E-002   1.3040662684608434E-002
  -5.2699130972285090E-002   1.5514062139239893E-002   1.3031049745991438E-002
  -4.9977901248728043E-002   1.4630974466101537E-002   1.3179036531526370E-002
  -4.7256671525171060E-002   1.3823817020175926E-002   1.3484623041213326E-002
  -4.4535441801614117E-002   1.3092589801463606E-002   1.3947809275052264E-002
  -5.9000452813150576E-002   1.7671716968525431E-002   4.1163404433670475E-003
  -5.6117012428801329E-002   1.6621245875008239E-002   4.5237491615564250E-003
  -5.3233572044452018E-002   1.5684250927546731E-002   5.0979794771789655E-003
  -5.0350131660102763E-002   1.4860732126140277E-002   5.8390313902337860E-003
  -4.7466691275753453E-002   1.4150689470789041E-002   6.7469049007216550E-003
  -6.2262837396927062E-002   1.8870353897458947E-002  -4.9182079504603848E-003
  -5.9207964478504849E-002   1.7728429610777363E-002  -4.0562316566223333E-003
  -5.6153091560082413E-002   1.6737527388993062E-002  -3.0182118920703271E-003
  -5.3098218641660089E-002   1.5897647232105440E-002  -1.8041486568053447E-003
  -5.0043345723237764E-002   1.5208789140115142E-002  -4.1404195082694883E-004
  -3.7609157773370483E-002   1.0976390462811847E-002   2.8469490592059610E-002
  -3.5229438167162841E-002   1.0213517472872136E-002   2.7602871164043863E-002
  -3.2849718560955227E-002   9.4712528043931488E-003   2.6946451762449974E-002
  -3.0469998954747626E-002   8.7495964573750390E-003   2.6500232387277445E-002
  -2.8090279348539970E-002   8.0485484318170153E-003   2.6264213038526552E-002
  -4.1249597300819757E-002   1.2034490132137698E-002   2.1188671172164997E-002
  -3.8701543298975294E-002   1.1297691131958110E-002   2.0641505928457871E-002
  -3.6153489297130775E-002   1.0553733387194522E-002   2.0220809449602972E-002
  -3.3605435295286291E-002   9.8026168978473278E-003   1.9926581735599885E-002
  -3.1057381293441849E-002   9.0443416639167662E-003   1.9758822786449248E-002
  -4.4535441801614117E-002   1.3092589801463606E-002   1.3947809275052264E-002
  -4.1902784665702297E-002   1.2381864791043973E-002   1.3692331149609369E-002
  -3.9270127529790470E-002   1.1636213969995785E-002   1.3479590527449320E-002
  -3.6637470393878685E-002   1.0855637338320227E-002   1.3309587408571431E-002
  -3.4004813257966837E-002   1.0040134896016351E-002   1.3182321792976487E-002
  -4.7466691275753453E-002   1.4150689470789041E-002   6.7469049007216550E-003
  -4.4833162267343851E-002   1.3466038450129114E-002   6.7553468274989016E-003
  -4.2199633258934312E-002   1.2718694552797102E-002   6.7227949959892223E-003
  -3.9566104250524696E-002   1.1908657778792599E-002   6.6492494061926345E-003
  -3.6932575242115170E-002   1.1035928128115741E-002   6.5347100581089404E-003
  -5.0043345723237764E-002   1.5208789140115142E-002  -4.1404195082694883E-004
  -4.7492676103900067E-002   1.4550212109215699E-002  -1.6944703787380444E-004
  -4.4942006484562202E-002   1.3801175135598254E-002  -4.9577144777462889E-005
  -4.2391336865224366E-002   1.2961678219265596E-002  -5.4432271537389887E-005
  -3.9840667245886641E-002   1.2031721360215686E-002  -1.8401241815368952E-004
  -2.8090279348539970E-002   8.0485484318170153E-003   2.6264213038526552E-002
  -2.5732682666389367E-002   7.3283919056341684E-003   2.5665366640099885E-002
  -2.3375085984238736E-002   6.5494100567412283E-003   2.5017431978313354E-002
  -2.1017489302088091E-002   5.7116028851372444E-003   2.4320409053167458E-002
  -1.8659892619937501E-002   4.8149703908234587E-003   2.3574297864662030E-002
  -3.1057381293441849E-002   9.0443416639167662E-003   1.9758822786449248E-002
  -2.8733367274319632E-002   8.2831589865498545E-003   1.9166411236230529E-002
  -2.6409353255197388E-002   7.5233201668937211E-003   1.8555922623314514E-002
  -2.4085339236075143E-002   6.7648252049491431E-003   1.7927356947701242E-002
  -2.1761325216952926E-002   6.0076741007154544E-003   1.7280714209390702E-002
  -3.4004813257966837E-002   1.0040134896016351E-002   1.3182321792976487E-002
  -3.1683370701210800E-002   9.2379260674650965E-003   1.2656514271387836E-002
  -2.9361928144454867E-002   8.4972302770464497E-003   1.2143640887763860E-002
  -2.7040485587698799E-002   7.8180475247603791E-003   1.1643701642104876E-002
  -2.4719043030942842E-002   7.2003778106073946E-003   1.1156696534410870E-002
  -3.6932575242115170E-002   1.1035928128115741E-002   6.5347100581089404E-003
  -3.4582692947063079E-002   1.0192693148380449E-002   6.1356757455713548E-003
  -3.2232810652011078E-002   9.4711403871991715E-003   5.7805867716611281E-003
  -2.9882928356959101E-002   8.8712698445721130E-003   5.4694431363778110E-003
  -2.7533046061906982E-002   8.3930815204993625E-003   5.2022448397218493E-003
  -3.9840667245886641E-002   1.2031721360215686E-002  -1.8401241815368952E-004
  -3.7431334011876372E-002   1.1147460229296358E-002  -3.9610434121817306E-004
  -3.5022000777866213E-002   1.0445050497352004E-002  -5.3323972499311201E-004
  -3.2612667543855944E-002   9.9244921643836526E-003  -5.9541856947892963E-004
  -3.0203334309845786E-002   9.5857852303915525E-003  -5.8264087467574388E-004
  -1.8659892619937501E-002   4.8149703908234587E-003   2.3574297864662030E-002
  -1.5641851978316745E-002   4.0796009259304600E-003   2.4370686006012332E-002
  -1.2623811336696156E-002   3.7255828425900028E-003   2.5639246916187353E-002
  -9.6057706950754967E-003   3.7529161408026007E-003   2.7379980595187203E-002
  -6.5877300534548100E-003   4.1616008205672683E-003   2.9592887043011884E-002
  -2.1761325216952926E-002   6.0076741007154544E-003   1.7280714209390702E-002
  -1.8539948744254908E-002   5.3425741406685212E-003   1.8234035102126622E-002
  -1.5318572271556863E-002   4.8602326112840988E-003   1.9121854888192430E-002
  -1.2097195798858866E-002   4.5606495125627977E-003   1.9944173567588111E-002
  -8.8758193261607998E-003   4.4438248445038964E-003   2.0700991140313540E-002
  -2.4719043030942842E-002   7.2003778106073946E-003   1.1156696534410870E-002
  -2.1832004602662422E-002   6.6055473554067212E-003   1.2068357227642129E-002
  -1.8944966174382072E-002   5.9948823799786111E-003   1.2376842938708693E-002
  -1.6057927746101690E-002   5.3683828843230988E-003   1.2082153667609952E-002
  -1.3170889317821302E-002   4.7260488684405799E-003   1.1184289414346099E-002
  -2.7533046061906982E-002   8.3930815204993625E-003   5.2022448397218493E-003
  -2.5518019553539297E-002   7.8685205701446298E-003   5.8736523825589915E-003
  -2.3502993045171561E-002   7.1295321486730262E-003   5.4042110677361768E-003
  -2.1487966536803779E-002   6.1761162560839029E-003   3.7939208952532111E-003
  -1.9472940028436136E-002   5.0082728923770137E-003   1.0427818651099277E-003
  -3.0203334309845786E-002   9.5857852303915525E-003  -5.8264087467574388E-004
  -2.9597993596885752E-002   9.1314937848826494E-003  -3.5007943312304057E-004
  -2.8992652883925496E-002   8.2641819173674969E-003  -1.7960407247254451E-003
  -2.8387312170965406E-002   6.9838496278438328E-003  -4.9205247494831100E-003
  -2.7781971458005206E-002   5.2904969163138915E-003  -9.7235315073954665E-003
  -6.5877300534548100E-003   4.1616008205672683E-003   2.9592887043011884E-002
  -6.0583732649026056E-003   6.1451518170272390E-003   3.4070100033618989E-002
  -5.5290164763503735E-003   1.0897084065323720E-002   3.9233156594396357E-002
  -4.9996596877981969E-003   1.8417397565458786E-002   4.5082056725343239E-002
  -4.4703028992459926E-003   2.8706092317429821E-002   5.1616800426460330E-002
  -8.8758193261607998E-003   4.4438248445038964E-003   2.0700991140313540E-002
  -7.5884826899832170E-003   5.6601818230801459E-003   2.5869352746644703E-002
  -6.3011460538056202E-003   9.3601436642648250E-003   3.1867830478056747E-002
  -5.0138094176279402E-003   1.5543710368058260E-002   3.8696424334549756E-002
  -3.7264727814504406E-003   2.4210881934459305E-002   4.6355134316124147E-002
  -1.3170889317821302E-002   4.7260488684405799E-003   1.1184289414346099E-002
  -1.0981300279107098E-002   5.1752118291336080E-003   1.6759023247172267E-002
  -8.7917112403930117E-003   7.8232032632060550E-003   2.3308145759990170E-002
  -6.6021222016787590E-003   1.2670023170657182E-002   3.0831656952800206E-002
  -4.4125331629646103E-003   1.9715671551488789E-002   3.9329556825602463E-002
  -1.9472940028436136E-002   5.0082728923770137E-003   1.0427818651099277E-003
  -1.6236826032274373E-002   4.6902418351867925E-003   6.7391115352019790E-003
  -1.3000712036112722E-002   6.2862628621463343E-003   1.3554102440197207E-002
  -9.7645980399509828E-003   9.7963359732572679E-003   2.1487754580095469E-002
  -6.5284840437892996E-003   1.5220461168518273E-002   3.0540067954896721E-002
  -2.7781971458005206E-002   5.2904969163138915E-003  -9.7235315073954665E-003
  -2.3355059949484946E-002   4.2052718412395329E-003  -4.1903823892662229E-003
  -1.8928148440964576E-002   4.7493224610875018E-003   2.6057005186770066E-003
  -1.4501236932444261E-002   6.9226487758559108E-003   1.0664717216435048E-002
  -1.0074325423923947E-002   1.0725250785547757E-002   1.9986667704006145E-002
 </DataArray>
 </PointData>
 </Piece>
 </UnstructuredGrid>
 </VTKFile>
