 <VTKFile type="UnstructuredGrid"  version="0.1"   >
 <UnstructuredGrid>
 <Piece  NumberOfPoints="          1600 "  NumberOfCells="         1024 ">
 <Points>
 <DataArray  type="Float64" NumberOfComponents="3"  format="ascii" >
   0.0000000000000000        0.0000000000000000        0.0000000000000000     
   3.1250000000000000E-002   0.0000000000000000        0.0000000000000000     
   6.2500000000000000E-002   0.0000000000000000        0.0000000000000000     
   9.3750000000000000E-002   0.0000000000000000        0.0000000000000000     
  0.12500000000000000        0.0000000000000000        0.0000000000000000     
   0.0000000000000000        3.1250000000000000E-002   0.0000000000000000     
   3.1250000000000000E-002   3.1250000000000000E-002   0.0000000000000000     
   6.2500000000000000E-002   3.1250000000000000E-002   0.0000000000000000     
   9.3750000000000000E-002   3.1250000000000000E-002   0.0000000000000000     
  0.12500000000000000        3.1250000000000000E-002   0.0000000000000000     
   0.0000000000000000        6.2500000000000000E-002   0.0000000000000000     
   3.1250000000000000E-002   6.2500000000000000E-002   0.0000000000000000     
   6.2500000000000000E-002   6.2500000000000000E-002   0.0000000000000000     
   9.3750000000000000E-002   6.2500000000000000E-002   0.0000000000000000     
  0.12500000000000000        6.2500000000000000E-002   0.0000000000000000     
   0.0000000000000000        9.3750000000000000E-002   0.0000000000000000     
   3.1250000000000000E-002   9.3750000000000000E-002   0.0000000000000000     
   6.2500000000000000E-002   9.3750000000000000E-002   0.0000000000000000     
   9.3750000000000000E-002   9.3750000000000000E-002   0.0000000000000000     
  0.12500000000000000        9.3750000000000000E-002   0.0000000000000000     
   0.0000000000000000       0.12500000000000000        0.0000000000000000     
   3.1250000000000000E-002  0.12500000000000000        0.0000000000000000     
   6.2500000000000000E-002  0.12500000000000000        0.0000000000000000     
   9.3750000000000000E-002  0.12500000000000000        0.0000000000000000     
  0.12500000000000000       0.12500000000000000        0.0000000000000000     
  0.12500000000000000        0.0000000000000000        0.0000000000000000     
  0.15625000000000000        0.0000000000000000        0.0000000000000000     
  0.18750000000000000        0.0000000000000000        0.0000000000000000     
  0.21875000000000000        0.0000000000000000        0.0000000000000000     
  0.25000000000000000        0.0000000000000000        0.0000000000000000     
  0.12500000000000000        3.1250000000000000E-002   0.0000000000000000     
  0.15625000000000000        3.1250000000000000E-002   0.0000000000000000     
  0.18750000000000000        3.1250000000000000E-002   0.0000000000000000     
  0.21875000000000000        3.1250000000000000E-002   0.0000000000000000     
  0.25000000000000000        3.1250000000000000E-002   0.0000000000000000     
  0.12500000000000000        6.2500000000000000E-002   0.0000000000000000     
  0.15625000000000000        6.2500000000000000E-002   0.0000000000000000     
  0.18750000000000000        6.2500000000000000E-002   0.0000000000000000     
  0.21875000000000000        6.2500000000000000E-002   0.0000000000000000     
  0.25000000000000000        6.2500000000000000E-002   0.0000000000000000     
  0.12500000000000000        9.3750000000000000E-002   0.0000000000000000     
  0.15625000000000000        9.3750000000000000E-002   0.0000000000000000     
  0.18750000000000000        9.3750000000000000E-002   0.0000000000000000     
  0.21875000000000000        9.3750000000000000E-002   0.0000000000000000     
  0.25000000000000000        9.3750000000000000E-002   0.0000000000000000     
  0.12500000000000000       0.12500000000000000        0.0000000000000000     
  0.15625000000000000       0.12500000000000000        0.0000000000000000     
  0.18750000000000000       0.12500000000000000        0.0000000000000000     
  0.21875000000000000       0.12500000000000000        0.0000000000000000     
  0.25000000000000000       0.12500000000000000        0.0000000000000000     
  0.25000000000000000        0.0000000000000000        0.0000000000000000     
  0.28125000000000000        0.0000000000000000        0.0000000000000000     
  0.31250000000000000        0.0000000000000000        0.0000000000000000     
  0.34375000000000000        0.0000000000000000        0.0000000000000000     
  0.37500000000000000        0.0000000000000000        0.0000000000000000     
  0.25000000000000000        3.1250000000000000E-002   0.0000000000000000     
  0.28125000000000000        3.1250000000000000E-002   0.0000000000000000     
  0.31250000000000000        3.1250000000000000E-002   0.0000000000000000     
  0.34375000000000000        3.1250000000000000E-002   0.0000000000000000     
  0.37500000000000000        3.1250000000000000E-002   0.0000000000000000     
  0.25000000000000000        6.2500000000000000E-002   0.0000000000000000     
  0.28125000000000000        6.2500000000000000E-002   0.0000000000000000     
  0.31250000000000000        6.2500000000000000E-002   0.0000000000000000     
  0.34375000000000000        6.2500000000000000E-002   0.0000000000000000     
  0.37500000000000000        6.2500000000000000E-002   0.0000000000000000     
  0.25000000000000000        9.3750000000000000E-002   0.0000000000000000     
  0.28125000000000000        9.3750000000000000E-002   0.0000000000000000     
  0.31250000000000000        9.3750000000000000E-002   0.0000000000000000     
  0.34375000000000000        9.3750000000000000E-002   0.0000000000000000     
  0.37500000000000000        9.3750000000000000E-002   0.0000000000000000     
  0.25000000000000000       0.12500000000000000        0.0000000000000000     
  0.28125000000000000       0.12500000000000000        0.0000000000000000     
  0.31250000000000000       0.12500000000000000        0.0000000000000000     
  0.34375000000000000       0.12500000000000000        0.0000000000000000     
  0.37500000000000000       0.12500000000000000        0.0000000000000000     
  0.37500000000000000        0.0000000000000000        0.0000000000000000     
  0.40625000000000000        0.0000000000000000        0.0000000000000000     
  0.43750000000000000        0.0000000000000000        0.0000000000000000     
  0.46875000000000000        0.0000000000000000        0.0000000000000000     
  0.50000000000000000        0.0000000000000000        0.0000000000000000     
  0.37500000000000000        3.1250000000000000E-002   0.0000000000000000     
  0.40625000000000000        3.1250000000000000E-002   0.0000000000000000     
  0.43750000000000000        3.1250000000000000E-002   0.0000000000000000     
  0.46875000000000000        3.1250000000000000E-002   0.0000000000000000     
  0.50000000000000000        3.1250000000000000E-002   0.0000000000000000     
  0.37500000000000000        6.2500000000000000E-002   0.0000000000000000     
  0.40625000000000000        6.2500000000000000E-002   0.0000000000000000     
  0.43750000000000000        6.2500000000000000E-002   0.0000000000000000     
  0.46875000000000000        6.2500000000000000E-002   0.0000000000000000     
  0.50000000000000000        6.2500000000000000E-002   0.0000000000000000     
  0.37500000000000000        9.3750000000000000E-002   0.0000000000000000     
  0.40625000000000000        9.3750000000000000E-002   0.0000000000000000     
  0.43750000000000000        9.3750000000000000E-002   0.0000000000000000     
  0.46875000000000000        9.3750000000000000E-002   0.0000000000000000     
  0.50000000000000000        9.3750000000000000E-002   0.0000000000000000     
  0.37500000000000000       0.12500000000000000        0.0000000000000000     
  0.40625000000000000       0.12500000000000000        0.0000000000000000     
  0.43750000000000000       0.12500000000000000        0.0000000000000000     
  0.46875000000000000       0.12500000000000000        0.0000000000000000     
  0.50000000000000000       0.12500000000000000        0.0000000000000000     
  0.50000000000000000        0.0000000000000000        0.0000000000000000     
  0.53125000000000000        0.0000000000000000        0.0000000000000000     
  0.56250000000000000        0.0000000000000000        0.0000000000000000     
  0.59375000000000000        0.0000000000000000        0.0000000000000000     
  0.62500000000000000        0.0000000000000000        0.0000000000000000     
  0.50000000000000000        3.1250000000000000E-002   0.0000000000000000     
  0.53125000000000000        3.1250000000000000E-002   0.0000000000000000     
  0.56250000000000000        3.1250000000000000E-002   0.0000000000000000     
  0.59375000000000000        3.1250000000000000E-002   0.0000000000000000     
  0.62500000000000000        3.1250000000000000E-002   0.0000000000000000     
  0.50000000000000000        6.2500000000000000E-002   0.0000000000000000     
  0.53125000000000000        6.2500000000000000E-002   0.0000000000000000     
  0.56250000000000000        6.2500000000000000E-002   0.0000000000000000     
  0.59375000000000000        6.2500000000000000E-002   0.0000000000000000     
  0.62500000000000000        6.2500000000000000E-002   0.0000000000000000     
  0.50000000000000000        9.3750000000000000E-002   0.0000000000000000     
  0.53125000000000000        9.3750000000000000E-002   0.0000000000000000     
  0.56250000000000000        9.3750000000000000E-002   0.0000000000000000     
  0.59375000000000000        9.3750000000000000E-002   0.0000000000000000     
  0.62500000000000000        9.3750000000000000E-002   0.0000000000000000     
  0.50000000000000000       0.12500000000000000        0.0000000000000000     
  0.53125000000000000       0.12500000000000000        0.0000000000000000     
  0.56250000000000000       0.12500000000000000        0.0000000000000000     
  0.59375000000000000       0.12500000000000000        0.0000000000000000     
  0.62500000000000000       0.12500000000000000        0.0000000000000000     
  0.62500000000000000        0.0000000000000000        0.0000000000000000     
  0.65625000000000000        0.0000000000000000        0.0000000000000000     
  0.68750000000000000        0.0000000000000000        0.0000000000000000     
  0.71875000000000000        0.0000000000000000        0.0000000000000000     
  0.75000000000000000        0.0000000000000000        0.0000000000000000     
  0.62500000000000000        3.1250000000000000E-002   0.0000000000000000     
  0.65625000000000000        3.1250000000000000E-002   0.0000000000000000     
  0.68750000000000000        3.1250000000000000E-002   0.0000000000000000     
  0.71875000000000000        3.1250000000000000E-002   0.0000000000000000     
  0.75000000000000000        3.1250000000000000E-002   0.0000000000000000     
  0.62500000000000000        6.2500000000000000E-002   0.0000000000000000     
  0.65625000000000000        6.2500000000000000E-002   0.0000000000000000     
  0.68750000000000000        6.2500000000000000E-002   0.0000000000000000     
  0.71875000000000000        6.2500000000000000E-002   0.0000000000000000     
  0.75000000000000000        6.2500000000000000E-002   0.0000000000000000     
  0.62500000000000000        9.3750000000000000E-002   0.0000000000000000     
  0.65625000000000000        9.3750000000000000E-002   0.0000000000000000     
  0.68750000000000000        9.3750000000000000E-002   0.0000000000000000     
  0.71875000000000000        9.3750000000000000E-002   0.0000000000000000     
  0.75000000000000000        9.3750000000000000E-002   0.0000000000000000     
  0.62500000000000000       0.12500000000000000        0.0000000000000000     
  0.65625000000000000       0.12500000000000000        0.0000000000000000     
  0.68750000000000000       0.12500000000000000        0.0000000000000000     
  0.71875000000000000       0.12500000000000000        0.0000000000000000     
  0.75000000000000000       0.12500000000000000        0.0000000000000000     
  0.75000000000000000        0.0000000000000000        0.0000000000000000     
  0.78125000000000000        0.0000000000000000        0.0000000000000000     
  0.81250000000000000        0.0000000000000000        0.0000000000000000     
  0.84375000000000000        0.0000000000000000        0.0000000000000000     
  0.87500000000000000        0.0000000000000000        0.0000000000000000     
  0.75000000000000000        3.1250000000000000E-002   0.0000000000000000     
  0.78125000000000000        3.1250000000000000E-002   0.0000000000000000     
  0.81250000000000000        3.1250000000000000E-002   0.0000000000000000     
  0.84375000000000000        3.1250000000000000E-002   0.0000000000000000     
  0.87500000000000000        3.1250000000000000E-002   0.0000000000000000     
  0.75000000000000000        6.2500000000000000E-002   0.0000000000000000     
  0.78125000000000000        6.2500000000000000E-002   0.0000000000000000     
  0.81250000000000000        6.2500000000000000E-002   0.0000000000000000     
  0.84375000000000000        6.2500000000000000E-002   0.0000000000000000     
  0.87500000000000000        6.2500000000000000E-002   0.0000000000000000     
  0.75000000000000000        9.3750000000000000E-002   0.0000000000000000     
  0.78125000000000000        9.3750000000000000E-002   0.0000000000000000     
  0.81250000000000000        9.3750000000000000E-002   0.0000000000000000     
  0.84375000000000000        9.3750000000000000E-002   0.0000000000000000     
  0.87500000000000000        9.3750000000000000E-002   0.0000000000000000     
  0.75000000000000000       0.12500000000000000        0.0000000000000000     
  0.78125000000000000       0.12500000000000000        0.0000000000000000     
  0.81250000000000000       0.12500000000000000        0.0000000000000000     
  0.84375000000000000       0.12500000000000000        0.0000000000000000     
  0.87500000000000000       0.12500000000000000        0.0000000000000000     
  0.87500000000000000        0.0000000000000000        0.0000000000000000     
  0.90625000000000000        0.0000000000000000        0.0000000000000000     
  0.93750000000000000        0.0000000000000000        0.0000000000000000     
  0.96875000000000000        0.0000000000000000        0.0000000000000000     
   1.0000000000000000        0.0000000000000000        0.0000000000000000     
  0.87500000000000000        3.1250000000000000E-002   0.0000000000000000     
  0.90625000000000000        3.1250000000000000E-002   0.0000000000000000     
  0.93750000000000000        3.1250000000000000E-002   0.0000000000000000     
  0.96875000000000000        3.1250000000000000E-002   0.0000000000000000     
   1.0000000000000000        3.1250000000000000E-002   0.0000000000000000     
  0.87500000000000000        6.2500000000000000E-002   0.0000000000000000     
  0.90625000000000000        6.2500000000000000E-002   0.0000000000000000     
  0.93750000000000000        6.2500000000000000E-002   0.0000000000000000     
  0.96875000000000000        6.2500000000000000E-002   0.0000000000000000     
   1.0000000000000000        6.2500000000000000E-002   0.0000000000000000     
  0.87500000000000000        9.3750000000000000E-002   0.0000000000000000     
  0.90625000000000000        9.3750000000000000E-002   0.0000000000000000     
  0.93750000000000000        9.3750000000000000E-002   0.0000000000000000     
  0.96875000000000000        9.3750000000000000E-002   0.0000000000000000     
   1.0000000000000000        9.3750000000000000E-002   0.0000000000000000     
  0.87500000000000000       0.12500000000000000        0.0000000000000000     
  0.90625000000000000       0.12500000000000000        0.0000000000000000     
  0.93750000000000000       0.12500000000000000        0.0000000000000000     
  0.96875000000000000       0.12500000000000000        0.0000000000000000     
   1.0000000000000000       0.12500000000000000        0.0000000000000000     
   0.0000000000000000       0.12500000000000000        0.0000000000000000     
   3.1250000000000000E-002  0.12500000000000000        0.0000000000000000     
   6.2500000000000000E-002  0.12500000000000000        0.0000000000000000     
   9.3750000000000000E-002  0.12500000000000000        0.0000000000000000     
  0.12500000000000000       0.12500000000000000        0.0000000000000000     
   0.0000000000000000       0.15625000000000000        0.0000000000000000     
   3.1250000000000000E-002  0.15625000000000000        0.0000000000000000     
   6.2500000000000000E-002  0.15625000000000000        0.0000000000000000     
   9.3750000000000000E-002  0.15625000000000000        0.0000000000000000     
  0.12500000000000000       0.15625000000000000        0.0000000000000000     
   0.0000000000000000       0.18750000000000000        0.0000000000000000     
   3.1250000000000000E-002  0.18750000000000000        0.0000000000000000     
   6.2500000000000000E-002  0.18750000000000000        0.0000000000000000     
   9.3750000000000000E-002  0.18750000000000000        0.0000000000000000     
  0.12500000000000000       0.18750000000000000        0.0000000000000000     
   0.0000000000000000       0.21875000000000000        0.0000000000000000     
   3.1250000000000000E-002  0.21875000000000000        0.0000000000000000     
   6.2500000000000000E-002  0.21875000000000000        0.0000000000000000     
   9.3750000000000000E-002  0.21875000000000000        0.0000000000000000     
  0.12500000000000000       0.21875000000000000        0.0000000000000000     
   0.0000000000000000       0.25000000000000000        0.0000000000000000     
   3.1250000000000000E-002  0.25000000000000000        0.0000000000000000     
   6.2500000000000000E-002  0.25000000000000000        0.0000000000000000     
   9.3750000000000000E-002  0.25000000000000000        0.0000000000000000     
  0.12500000000000000       0.25000000000000000        0.0000000000000000     
  0.12500000000000000       0.12500000000000000        0.0000000000000000     
  0.15625000000000000       0.12500000000000000        0.0000000000000000     
  0.18750000000000000       0.12500000000000000        0.0000000000000000     
  0.21875000000000000       0.12500000000000000        0.0000000000000000     
  0.25000000000000000       0.12500000000000000        0.0000000000000000     
  0.12500000000000000       0.15625000000000000        0.0000000000000000     
  0.15625000000000000       0.15625000000000000        0.0000000000000000     
  0.18750000000000000       0.15625000000000000        0.0000000000000000     
  0.21875000000000000       0.15625000000000000        0.0000000000000000     
  0.25000000000000000       0.15625000000000000        0.0000000000000000     
  0.12500000000000000       0.18750000000000000        0.0000000000000000     
  0.15625000000000000       0.18750000000000000        0.0000000000000000     
  0.18750000000000000       0.18750000000000000        0.0000000000000000     
  0.21875000000000000       0.18750000000000000        0.0000000000000000     
  0.25000000000000000       0.18750000000000000        0.0000000000000000     
  0.12500000000000000       0.21875000000000000        0.0000000000000000     
  0.15625000000000000       0.21875000000000000        0.0000000000000000     
  0.18750000000000000       0.21875000000000000        0.0000000000000000     
  0.21875000000000000       0.21875000000000000        0.0000000000000000     
  0.25000000000000000       0.21875000000000000        0.0000000000000000     
  0.12500000000000000       0.25000000000000000        0.0000000000000000     
  0.15625000000000000       0.25000000000000000        0.0000000000000000     
  0.18750000000000000       0.25000000000000000        0.0000000000000000     
  0.21875000000000000       0.25000000000000000        0.0000000000000000     
  0.25000000000000000       0.25000000000000000        0.0000000000000000     
  0.25000000000000000       0.12500000000000000        0.0000000000000000     
  0.28125000000000000       0.12500000000000000        0.0000000000000000     
  0.31250000000000000       0.12500000000000000        0.0000000000000000     
  0.34375000000000000       0.12500000000000000        0.0000000000000000     
  0.37500000000000000       0.12500000000000000        0.0000000000000000     
  0.25000000000000000       0.15625000000000000        0.0000000000000000     
  0.28125000000000000       0.15625000000000000        0.0000000000000000     
  0.31250000000000000       0.15625000000000000        0.0000000000000000     
  0.34375000000000000       0.15625000000000000        0.0000000000000000     
  0.37500000000000000       0.15625000000000000        0.0000000000000000     
  0.25000000000000000       0.18750000000000000        0.0000000000000000     
  0.28125000000000000       0.18750000000000000        0.0000000000000000     
  0.31250000000000000       0.18750000000000000        0.0000000000000000     
  0.34375000000000000       0.18750000000000000        0.0000000000000000     
  0.37500000000000000       0.18750000000000000        0.0000000000000000     
  0.25000000000000000       0.21875000000000000        0.0000000000000000     
  0.28125000000000000       0.21875000000000000        0.0000000000000000     
  0.31250000000000000       0.21875000000000000        0.0000000000000000     
  0.34375000000000000       0.21875000000000000        0.0000000000000000     
  0.37500000000000000       0.21875000000000000        0.0000000000000000     
  0.25000000000000000       0.25000000000000000        0.0000000000000000     
  0.28125000000000000       0.25000000000000000        0.0000000000000000     
  0.31250000000000000       0.25000000000000000        0.0000000000000000     
  0.34375000000000000       0.25000000000000000        0.0000000000000000     
  0.37500000000000000       0.25000000000000000        0.0000000000000000     
  0.37500000000000000       0.12500000000000000        0.0000000000000000     
  0.40625000000000000       0.12500000000000000        0.0000000000000000     
  0.43750000000000000       0.12500000000000000        0.0000000000000000     
  0.46875000000000000       0.12500000000000000        0.0000000000000000     
  0.50000000000000000       0.12500000000000000        0.0000000000000000     
  0.37500000000000000       0.15625000000000000        0.0000000000000000     
  0.40625000000000000       0.15625000000000000        0.0000000000000000     
  0.43750000000000000       0.15625000000000000        0.0000000000000000     
  0.46875000000000000       0.15625000000000000        0.0000000000000000     
  0.50000000000000000       0.15625000000000000        0.0000000000000000     
  0.37500000000000000       0.18750000000000000        0.0000000000000000     
  0.40625000000000000       0.18750000000000000        0.0000000000000000     
  0.43750000000000000       0.18750000000000000        0.0000000000000000     
  0.46875000000000000       0.18750000000000000        0.0000000000000000     
  0.50000000000000000       0.18750000000000000        0.0000000000000000     
  0.37500000000000000       0.21875000000000000        0.0000000000000000     
  0.40625000000000000       0.21875000000000000        0.0000000000000000     
  0.43750000000000000       0.21875000000000000        0.0000000000000000     
  0.46875000000000000       0.21875000000000000        0.0000000000000000     
  0.50000000000000000       0.21875000000000000        0.0000000000000000     
  0.37500000000000000       0.25000000000000000        0.0000000000000000     
  0.40625000000000000       0.25000000000000000        0.0000000000000000     
  0.43750000000000000       0.25000000000000000        0.0000000000000000     
  0.46875000000000000       0.25000000000000000        0.0000000000000000     
  0.50000000000000000       0.25000000000000000        0.0000000000000000     
  0.50000000000000000       0.12500000000000000        0.0000000000000000     
  0.53125000000000000       0.12500000000000000        0.0000000000000000     
  0.56250000000000000       0.12500000000000000        0.0000000000000000     
  0.59375000000000000       0.12500000000000000        0.0000000000000000     
  0.62500000000000000       0.12500000000000000        0.0000000000000000     
  0.50000000000000000       0.15625000000000000        0.0000000000000000     
  0.53125000000000000       0.15625000000000000        0.0000000000000000     
  0.56250000000000000       0.15625000000000000        0.0000000000000000     
  0.59375000000000000       0.15625000000000000        0.0000000000000000     
  0.62500000000000000       0.15625000000000000        0.0000000000000000     
  0.50000000000000000       0.18750000000000000        0.0000000000000000     
  0.53125000000000000       0.18750000000000000        0.0000000000000000     
  0.56250000000000000       0.18750000000000000        0.0000000000000000     
  0.59375000000000000       0.18750000000000000        0.0000000000000000     
  0.62500000000000000       0.18750000000000000        0.0000000000000000     
  0.50000000000000000       0.21875000000000000        0.0000000000000000     
  0.53125000000000000       0.21875000000000000        0.0000000000000000     
  0.56250000000000000       0.21875000000000000        0.0000000000000000     
  0.59375000000000000       0.21875000000000000        0.0000000000000000     
  0.62500000000000000       0.21875000000000000        0.0000000000000000     
  0.50000000000000000       0.25000000000000000        0.0000000000000000     
  0.53125000000000000       0.25000000000000000        0.0000000000000000     
  0.56250000000000000       0.25000000000000000        0.0000000000000000     
  0.59375000000000000       0.25000000000000000        0.0000000000000000     
  0.62500000000000000       0.25000000000000000        0.0000000000000000     
  0.62500000000000000       0.12500000000000000        0.0000000000000000     
  0.65625000000000000       0.12500000000000000        0.0000000000000000     
  0.68750000000000000       0.12500000000000000        0.0000000000000000     
  0.71875000000000000       0.12500000000000000        0.0000000000000000     
  0.75000000000000000       0.12500000000000000        0.0000000000000000     
  0.62500000000000000       0.15625000000000000        0.0000000000000000     
  0.65625000000000000       0.15625000000000000        0.0000000000000000     
  0.68750000000000000       0.15625000000000000        0.0000000000000000     
  0.71875000000000000       0.15625000000000000        0.0000000000000000     
  0.75000000000000000       0.15625000000000000        0.0000000000000000     
  0.62500000000000000       0.18750000000000000        0.0000000000000000     
  0.65625000000000000       0.18750000000000000        0.0000000000000000     
  0.68750000000000000       0.18750000000000000        0.0000000000000000     
  0.71875000000000000       0.18750000000000000        0.0000000000000000     
  0.75000000000000000       0.18750000000000000        0.0000000000000000     
  0.62500000000000000       0.21875000000000000        0.0000000000000000     
  0.65625000000000000       0.21875000000000000        0.0000000000000000     
  0.68750000000000000       0.21875000000000000        0.0000000000000000     
  0.71875000000000000       0.21875000000000000        0.0000000000000000     
  0.75000000000000000       0.21875000000000000        0.0000000000000000     
  0.62500000000000000       0.25000000000000000        0.0000000000000000     
  0.65625000000000000       0.25000000000000000        0.0000000000000000     
  0.68750000000000000       0.25000000000000000        0.0000000000000000     
  0.71875000000000000       0.25000000000000000        0.0000000000000000     
  0.75000000000000000       0.25000000000000000        0.0000000000000000     
  0.75000000000000000       0.12500000000000000        0.0000000000000000     
  0.78125000000000000       0.12500000000000000        0.0000000000000000     
  0.81250000000000000       0.12500000000000000        0.0000000000000000     
  0.84375000000000000       0.12500000000000000        0.0000000000000000     
  0.87500000000000000       0.12500000000000000        0.0000000000000000     
  0.75000000000000000       0.15625000000000000        0.0000000000000000     
  0.78125000000000000       0.15625000000000000        0.0000000000000000     
  0.81250000000000000       0.15625000000000000        0.0000000000000000     
  0.84375000000000000       0.15625000000000000        0.0000000000000000     
  0.87500000000000000       0.15625000000000000        0.0000000000000000     
  0.75000000000000000       0.18750000000000000        0.0000000000000000     
  0.78125000000000000       0.18750000000000000        0.0000000000000000     
  0.81250000000000000       0.18750000000000000        0.0000000000000000     
  0.84375000000000000       0.18750000000000000        0.0000000000000000     
  0.87500000000000000       0.18750000000000000        0.0000000000000000     
  0.75000000000000000       0.21875000000000000        0.0000000000000000     
  0.78125000000000000       0.21875000000000000        0.0000000000000000     
  0.81250000000000000       0.21875000000000000        0.0000000000000000     
  0.84375000000000000       0.21875000000000000        0.0000000000000000     
  0.87500000000000000       0.21875000000000000        0.0000000000000000     
  0.75000000000000000       0.25000000000000000        0.0000000000000000     
  0.78125000000000000       0.25000000000000000        0.0000000000000000     
  0.81250000000000000       0.25000000000000000        0.0000000000000000     
  0.84375000000000000       0.25000000000000000        0.0000000000000000     
  0.87500000000000000       0.25000000000000000        0.0000000000000000     
  0.87500000000000000       0.12500000000000000        0.0000000000000000     
  0.90625000000000000       0.12500000000000000        0.0000000000000000     
  0.93750000000000000       0.12500000000000000        0.0000000000000000     
  0.96875000000000000       0.12500000000000000        0.0000000000000000     
   1.0000000000000000       0.12500000000000000        0.0000000000000000     
  0.87500000000000000       0.15625000000000000        0.0000000000000000     
  0.90625000000000000       0.15625000000000000        0.0000000000000000     
  0.93750000000000000       0.15625000000000000        0.0000000000000000     
  0.96875000000000000       0.15625000000000000        0.0000000000000000     
   1.0000000000000000       0.15625000000000000        0.0000000000000000     
  0.87500000000000000       0.18750000000000000        0.0000000000000000     
  0.90625000000000000       0.18750000000000000        0.0000000000000000     
  0.93750000000000000       0.18750000000000000        0.0000000000000000     
  0.96875000000000000       0.18750000000000000        0.0000000000000000     
   1.0000000000000000       0.18750000000000000        0.0000000000000000     
  0.87500000000000000       0.21875000000000000        0.0000000000000000     
  0.90625000000000000       0.21875000000000000        0.0000000000000000     
  0.93750000000000000       0.21875000000000000        0.0000000000000000     
  0.96875000000000000       0.21875000000000000        0.0000000000000000     
   1.0000000000000000       0.21875000000000000        0.0000000000000000     
  0.87500000000000000       0.25000000000000000        0.0000000000000000     
  0.90625000000000000       0.25000000000000000        0.0000000000000000     
  0.93750000000000000       0.25000000000000000        0.0000000000000000     
  0.96875000000000000       0.25000000000000000        0.0000000000000000     
   1.0000000000000000       0.25000000000000000        0.0000000000000000     
   0.0000000000000000       0.25000000000000000        0.0000000000000000     
   3.1250000000000000E-002  0.25000000000000000        0.0000000000000000     
   6.2500000000000000E-002  0.25000000000000000        0.0000000000000000     
   9.3750000000000000E-002  0.25000000000000000        0.0000000000000000     
  0.12500000000000000       0.25000000000000000        0.0000000000000000     
   0.0000000000000000       0.28125000000000000        0.0000000000000000     
   3.1250000000000000E-002  0.28125000000000000        0.0000000000000000     
   6.2500000000000000E-002  0.28125000000000000        0.0000000000000000     
   9.3750000000000000E-002  0.28125000000000000        0.0000000000000000     
  0.12500000000000000       0.28125000000000000        0.0000000000000000     
   0.0000000000000000       0.31250000000000000        0.0000000000000000     
   3.1250000000000000E-002  0.31250000000000000        0.0000000000000000     
   6.2500000000000000E-002  0.31250000000000000        0.0000000000000000     
   9.3750000000000000E-002  0.31250000000000000        0.0000000000000000     
  0.12500000000000000       0.31250000000000000        0.0000000000000000     
   0.0000000000000000       0.34375000000000000        0.0000000000000000     
   3.1250000000000000E-002  0.34375000000000000        0.0000000000000000     
   6.2500000000000000E-002  0.34375000000000000        0.0000000000000000     
   9.3750000000000000E-002  0.34375000000000000        0.0000000000000000     
  0.12500000000000000       0.34375000000000000        0.0000000000000000     
   0.0000000000000000       0.37500000000000000        0.0000000000000000     
   3.1250000000000000E-002  0.37500000000000000        0.0000000000000000     
   6.2500000000000000E-002  0.37500000000000000        0.0000000000000000     
   9.3750000000000000E-002  0.37500000000000000        0.0000000000000000     
  0.12500000000000000       0.37500000000000000        0.0000000000000000     
  0.12500000000000000       0.25000000000000000        0.0000000000000000     
  0.15625000000000000       0.25000000000000000        0.0000000000000000     
  0.18750000000000000       0.25000000000000000        0.0000000000000000     
  0.21875000000000000       0.25000000000000000        0.0000000000000000     
  0.25000000000000000       0.25000000000000000        0.0000000000000000     
  0.12500000000000000       0.28125000000000000        0.0000000000000000     
  0.15625000000000000       0.28125000000000000        0.0000000000000000     
  0.18750000000000000       0.28125000000000000        0.0000000000000000     
  0.21875000000000000       0.28125000000000000        0.0000000000000000     
  0.25000000000000000       0.28125000000000000        0.0000000000000000     
  0.12500000000000000       0.31250000000000000        0.0000000000000000     
  0.15625000000000000       0.31250000000000000        0.0000000000000000     
  0.18750000000000000       0.31250000000000000        0.0000000000000000     
  0.21875000000000000       0.31250000000000000        0.0000000000000000     
  0.25000000000000000       0.31250000000000000        0.0000000000000000     
  0.12500000000000000       0.34375000000000000        0.0000000000000000     
  0.15625000000000000       0.34375000000000000        0.0000000000000000     
  0.18750000000000000       0.34375000000000000        0.0000000000000000     
  0.21875000000000000       0.34375000000000000        0.0000000000000000     
  0.25000000000000000       0.34375000000000000        0.0000000000000000     
  0.12500000000000000       0.37500000000000000        0.0000000000000000     
  0.15625000000000000       0.37500000000000000        0.0000000000000000     
  0.18750000000000000       0.37500000000000000        0.0000000000000000     
  0.21875000000000000       0.37500000000000000        0.0000000000000000     
  0.25000000000000000       0.37500000000000000        0.0000000000000000     
  0.25000000000000000       0.25000000000000000        0.0000000000000000     
  0.28125000000000000       0.25000000000000000        0.0000000000000000     
  0.31250000000000000       0.25000000000000000        0.0000000000000000     
  0.34375000000000000       0.25000000000000000        0.0000000000000000     
  0.37500000000000000       0.25000000000000000        0.0000000000000000     
  0.25000000000000000       0.28125000000000000        0.0000000000000000     
  0.28125000000000000       0.28125000000000000        0.0000000000000000     
  0.31250000000000000       0.28125000000000000        0.0000000000000000     
  0.34375000000000000       0.28125000000000000        0.0000000000000000     
  0.37500000000000000       0.28125000000000000        0.0000000000000000     
  0.25000000000000000       0.31250000000000000        0.0000000000000000     
  0.28125000000000000       0.31250000000000000        0.0000000000000000     
  0.31250000000000000       0.31250000000000000        0.0000000000000000     
  0.34375000000000000       0.31250000000000000        0.0000000000000000     
  0.37500000000000000       0.31250000000000000        0.0000000000000000     
  0.25000000000000000       0.34375000000000000        0.0000000000000000     
  0.28125000000000000       0.34375000000000000        0.0000000000000000     
  0.31250000000000000       0.34375000000000000        0.0000000000000000     
  0.34375000000000000       0.34375000000000000        0.0000000000000000     
  0.37500000000000000       0.34375000000000000        0.0000000000000000     
  0.25000000000000000       0.37500000000000000        0.0000000000000000     
  0.28125000000000000       0.37500000000000000        0.0000000000000000     
  0.31250000000000000       0.37500000000000000        0.0000000000000000     
  0.34375000000000000       0.37500000000000000        0.0000000000000000     
  0.37500000000000000       0.37500000000000000        0.0000000000000000     
  0.37500000000000000       0.25000000000000000        0.0000000000000000     
  0.40625000000000000       0.25000000000000000        0.0000000000000000     
  0.43750000000000000       0.25000000000000000        0.0000000000000000     
  0.46875000000000000       0.25000000000000000        0.0000000000000000     
  0.50000000000000000       0.25000000000000000        0.0000000000000000     
  0.37500000000000000       0.28125000000000000        0.0000000000000000     
  0.40625000000000000       0.28125000000000000        0.0000000000000000     
  0.43750000000000000       0.28125000000000000        0.0000000000000000     
  0.46875000000000000       0.28125000000000000        0.0000000000000000     
  0.50000000000000000       0.28125000000000000        0.0000000000000000     
  0.37500000000000000       0.31250000000000000        0.0000000000000000     
  0.40625000000000000       0.31250000000000000        0.0000000000000000     
  0.43750000000000000       0.31250000000000000        0.0000000000000000     
  0.46875000000000000       0.31250000000000000        0.0000000000000000     
  0.50000000000000000       0.31250000000000000        0.0000000000000000     
  0.37500000000000000       0.34375000000000000        0.0000000000000000     
  0.40625000000000000       0.34375000000000000        0.0000000000000000     
  0.43750000000000000       0.34375000000000000        0.0000000000000000     
  0.46875000000000000       0.34375000000000000        0.0000000000000000     
  0.50000000000000000       0.34375000000000000        0.0000000000000000     
  0.37500000000000000       0.37500000000000000        0.0000000000000000     
  0.40625000000000000       0.37500000000000000        0.0000000000000000     
  0.43750000000000000       0.37500000000000000        0.0000000000000000     
  0.46875000000000000       0.37500000000000000        0.0000000000000000     
  0.50000000000000000       0.37500000000000000        0.0000000000000000     
  0.50000000000000000       0.25000000000000000        0.0000000000000000     
  0.53125000000000000       0.25000000000000000        0.0000000000000000     
  0.56250000000000000       0.25000000000000000        0.0000000000000000     
  0.59375000000000000       0.25000000000000000        0.0000000000000000     
  0.62500000000000000       0.25000000000000000        0.0000000000000000     
  0.50000000000000000       0.28125000000000000        0.0000000000000000     
  0.53125000000000000       0.28125000000000000        0.0000000000000000     
  0.56250000000000000       0.28125000000000000        0.0000000000000000     
  0.59375000000000000       0.28125000000000000        0.0000000000000000     
  0.62500000000000000       0.28125000000000000        0.0000000000000000     
  0.50000000000000000       0.31250000000000000        0.0000000000000000     
  0.53125000000000000       0.31250000000000000        0.0000000000000000     
  0.56250000000000000       0.31250000000000000        0.0000000000000000     
  0.59375000000000000       0.31250000000000000        0.0000000000000000     
  0.62500000000000000       0.31250000000000000        0.0000000000000000     
  0.50000000000000000       0.34375000000000000        0.0000000000000000     
  0.53125000000000000       0.34375000000000000        0.0000000000000000     
  0.56250000000000000       0.34375000000000000        0.0000000000000000     
  0.59375000000000000       0.34375000000000000        0.0000000000000000     
  0.62500000000000000       0.34375000000000000        0.0000000000000000     
  0.50000000000000000       0.37500000000000000        0.0000000000000000     
  0.53125000000000000       0.37500000000000000        0.0000000000000000     
  0.56250000000000000       0.37500000000000000        0.0000000000000000     
  0.59375000000000000       0.37500000000000000        0.0000000000000000     
  0.62500000000000000       0.37500000000000000        0.0000000000000000     
  0.62500000000000000       0.25000000000000000        0.0000000000000000     
  0.65625000000000000       0.25000000000000000        0.0000000000000000     
  0.68750000000000000       0.25000000000000000        0.0000000000000000     
  0.71875000000000000       0.25000000000000000        0.0000000000000000     
  0.75000000000000000       0.25000000000000000        0.0000000000000000     
  0.62500000000000000       0.28125000000000000        0.0000000000000000     
  0.65625000000000000       0.28125000000000000        0.0000000000000000     
  0.68750000000000000       0.28125000000000000        0.0000000000000000     
  0.71875000000000000       0.28125000000000000        0.0000000000000000     
  0.75000000000000000       0.28125000000000000        0.0000000000000000     
  0.62500000000000000       0.31250000000000000        0.0000000000000000     
  0.65625000000000000       0.31250000000000000        0.0000000000000000     
  0.68750000000000000       0.31250000000000000        0.0000000000000000     
  0.71875000000000000       0.31250000000000000        0.0000000000000000     
  0.75000000000000000       0.31250000000000000        0.0000000000000000     
  0.62500000000000000       0.34375000000000000        0.0000000000000000     
  0.65625000000000000       0.34375000000000000        0.0000000000000000     
  0.68750000000000000       0.34375000000000000        0.0000000000000000     
  0.71875000000000000       0.34375000000000000        0.0000000000000000     
  0.75000000000000000       0.34375000000000000        0.0000000000000000     
  0.62500000000000000       0.37500000000000000        0.0000000000000000     
  0.65625000000000000       0.37500000000000000        0.0000000000000000     
  0.68750000000000000       0.37500000000000000        0.0000000000000000     
  0.71875000000000000       0.37500000000000000        0.0000000000000000     
  0.75000000000000000       0.37500000000000000        0.0000000000000000     
  0.75000000000000000       0.25000000000000000        0.0000000000000000     
  0.78125000000000000       0.25000000000000000        0.0000000000000000     
  0.81250000000000000       0.25000000000000000        0.0000000000000000     
  0.84375000000000000       0.25000000000000000        0.0000000000000000     
  0.87500000000000000       0.25000000000000000        0.0000000000000000     
  0.75000000000000000       0.28125000000000000        0.0000000000000000     
  0.78125000000000000       0.28125000000000000        0.0000000000000000     
  0.81250000000000000       0.28125000000000000        0.0000000000000000     
  0.84375000000000000       0.28125000000000000        0.0000000000000000     
  0.87500000000000000       0.28125000000000000        0.0000000000000000     
  0.75000000000000000       0.31250000000000000        0.0000000000000000     
  0.78125000000000000       0.31250000000000000        0.0000000000000000     
  0.81250000000000000       0.31250000000000000        0.0000000000000000     
  0.84375000000000000       0.31250000000000000        0.0000000000000000     
  0.87500000000000000       0.31250000000000000        0.0000000000000000     
  0.75000000000000000       0.34375000000000000        0.0000000000000000     
  0.78125000000000000       0.34375000000000000        0.0000000000000000     
  0.81250000000000000       0.34375000000000000        0.0000000000000000     
  0.84375000000000000       0.34375000000000000        0.0000000000000000     
  0.87500000000000000       0.34375000000000000        0.0000000000000000     
  0.75000000000000000       0.37500000000000000        0.0000000000000000     
  0.78125000000000000       0.37500000000000000        0.0000000000000000     
  0.81250000000000000       0.37500000000000000        0.0000000000000000     
  0.84375000000000000       0.37500000000000000        0.0000000000000000     
  0.87500000000000000       0.37500000000000000        0.0000000000000000     
  0.87500000000000000       0.25000000000000000        0.0000000000000000     
  0.90625000000000000       0.25000000000000000        0.0000000000000000     
  0.93750000000000000       0.25000000000000000        0.0000000000000000     
  0.96875000000000000       0.25000000000000000        0.0000000000000000     
   1.0000000000000000       0.25000000000000000        0.0000000000000000     
  0.87500000000000000       0.28125000000000000        0.0000000000000000     
  0.90625000000000000       0.28125000000000000        0.0000000000000000     
  0.93750000000000000       0.28125000000000000        0.0000000000000000     
  0.96875000000000000       0.28125000000000000        0.0000000000000000     
   1.0000000000000000       0.28125000000000000        0.0000000000000000     
  0.87500000000000000       0.31250000000000000        0.0000000000000000     
  0.90625000000000000       0.31250000000000000        0.0000000000000000     
  0.93750000000000000       0.31250000000000000        0.0000000000000000     
  0.96875000000000000       0.31250000000000000        0.0000000000000000     
   1.0000000000000000       0.31250000000000000        0.0000000000000000     
  0.87500000000000000       0.34375000000000000        0.0000000000000000     
  0.90625000000000000       0.34375000000000000        0.0000000000000000     
  0.93750000000000000       0.34375000000000000        0.0000000000000000     
  0.96875000000000000       0.34375000000000000        0.0000000000000000     
   1.0000000000000000       0.34375000000000000        0.0000000000000000     
  0.87500000000000000       0.37500000000000000        0.0000000000000000     
  0.90625000000000000       0.37500000000000000        0.0000000000000000     
  0.93750000000000000       0.37500000000000000        0.0000000000000000     
  0.96875000000000000       0.37500000000000000        0.0000000000000000     
   1.0000000000000000       0.37500000000000000        0.0000000000000000     
   0.0000000000000000       0.37500000000000000        0.0000000000000000     
   3.1250000000000000E-002  0.37500000000000000        0.0000000000000000     
   6.2500000000000000E-002  0.37500000000000000        0.0000000000000000     
   9.3750000000000000E-002  0.37500000000000000        0.0000000000000000     
  0.12500000000000000       0.37500000000000000        0.0000000000000000     
   0.0000000000000000       0.40625000000000000        0.0000000000000000     
   3.1250000000000000E-002  0.40625000000000000        0.0000000000000000     
   6.2500000000000000E-002  0.40625000000000000        0.0000000000000000     
   9.3750000000000000E-002  0.40625000000000000        0.0000000000000000     
  0.12500000000000000       0.40625000000000000        0.0000000000000000     
   0.0000000000000000       0.43750000000000000        0.0000000000000000     
   3.1250000000000000E-002  0.43750000000000000        0.0000000000000000     
   6.2500000000000000E-002  0.43750000000000000        0.0000000000000000     
   9.3750000000000000E-002  0.43750000000000000        0.0000000000000000     
  0.12500000000000000       0.43750000000000000        0.0000000000000000     
   0.0000000000000000       0.46875000000000000        0.0000000000000000     
   3.1250000000000000E-002  0.46875000000000000        0.0000000000000000     
   6.2500000000000000E-002  0.46875000000000000        0.0000000000000000     
   9.3750000000000000E-002  0.46875000000000000        0.0000000000000000     
  0.12500000000000000       0.46875000000000000        0.0000000000000000     
   0.0000000000000000       0.50000000000000000        0.0000000000000000     
   3.1250000000000000E-002  0.50000000000000000        0.0000000000000000     
   6.2500000000000000E-002  0.50000000000000000        0.0000000000000000     
   9.3750000000000000E-002  0.50000000000000000        0.0000000000000000     
  0.12500000000000000       0.50000000000000000        0.0000000000000000     
  0.12500000000000000       0.37500000000000000        0.0000000000000000     
  0.15625000000000000       0.37500000000000000        0.0000000000000000     
  0.18750000000000000       0.37500000000000000        0.0000000000000000     
  0.21875000000000000       0.37500000000000000        0.0000000000000000     
  0.25000000000000000       0.37500000000000000        0.0000000000000000     
  0.12500000000000000       0.40625000000000000        0.0000000000000000     
  0.15625000000000000       0.40625000000000000        0.0000000000000000     
  0.18750000000000000       0.40625000000000000        0.0000000000000000     
  0.21875000000000000       0.40625000000000000        0.0000000000000000     
  0.25000000000000000       0.40625000000000000        0.0000000000000000     
  0.12500000000000000       0.43750000000000000        0.0000000000000000     
  0.15625000000000000       0.43750000000000000        0.0000000000000000     
  0.18750000000000000       0.43750000000000000        0.0000000000000000     
  0.21875000000000000       0.43750000000000000        0.0000000000000000     
  0.25000000000000000       0.43750000000000000        0.0000000000000000     
  0.12500000000000000       0.46875000000000000        0.0000000000000000     
  0.15625000000000000       0.46875000000000000        0.0000000000000000     
  0.18750000000000000       0.46875000000000000        0.0000000000000000     
  0.21875000000000000       0.46875000000000000        0.0000000000000000     
  0.25000000000000000       0.46875000000000000        0.0000000000000000     
  0.12500000000000000       0.50000000000000000        0.0000000000000000     
  0.15625000000000000       0.50000000000000000        0.0000000000000000     
  0.18750000000000000       0.50000000000000000        0.0000000000000000     
  0.21875000000000000       0.50000000000000000        0.0000000000000000     
  0.25000000000000000       0.50000000000000000        0.0000000000000000     
  0.25000000000000000       0.37500000000000000        0.0000000000000000     
  0.28125000000000000       0.37500000000000000        0.0000000000000000     
  0.31250000000000000       0.37500000000000000        0.0000000000000000     
  0.34375000000000000       0.37500000000000000        0.0000000000000000     
  0.37500000000000000       0.37500000000000000        0.0000000000000000     
  0.25000000000000000       0.40625000000000000        0.0000000000000000     
  0.28125000000000000       0.40625000000000000        0.0000000000000000     
  0.31250000000000000       0.40625000000000000        0.0000000000000000     
  0.34375000000000000       0.40625000000000000        0.0000000000000000     
  0.37500000000000000       0.40625000000000000        0.0000000000000000     
  0.25000000000000000       0.43750000000000000        0.0000000000000000     
  0.28125000000000000       0.43750000000000000        0.0000000000000000     
  0.31250000000000000       0.43750000000000000        0.0000000000000000     
  0.34375000000000000       0.43750000000000000        0.0000000000000000     
  0.37500000000000000       0.43750000000000000        0.0000000000000000     
  0.25000000000000000       0.46875000000000000        0.0000000000000000     
  0.28125000000000000       0.46875000000000000        0.0000000000000000     
  0.31250000000000000       0.46875000000000000        0.0000000000000000     
  0.34375000000000000       0.46875000000000000        0.0000000000000000     
  0.37500000000000000       0.46875000000000000        0.0000000000000000     
  0.25000000000000000       0.50000000000000000        0.0000000000000000     
  0.28125000000000000       0.50000000000000000        0.0000000000000000     
  0.31250000000000000       0.50000000000000000        0.0000000000000000     
  0.34375000000000000       0.50000000000000000        0.0000000000000000     
  0.37500000000000000       0.50000000000000000        0.0000000000000000     
  0.37500000000000000       0.37500000000000000        0.0000000000000000     
  0.40625000000000000       0.37500000000000000        0.0000000000000000     
  0.43750000000000000       0.37500000000000000        0.0000000000000000     
  0.46875000000000000       0.37500000000000000        0.0000000000000000     
  0.50000000000000000       0.37500000000000000        0.0000000000000000     
  0.37500000000000000       0.40625000000000000        0.0000000000000000     
  0.40625000000000000       0.40625000000000000        0.0000000000000000     
  0.43750000000000000       0.40625000000000000        0.0000000000000000     
  0.46875000000000000       0.40625000000000000        0.0000000000000000     
  0.50000000000000000       0.40625000000000000        0.0000000000000000     
  0.37500000000000000       0.43750000000000000        0.0000000000000000     
  0.40625000000000000       0.43750000000000000        0.0000000000000000     
  0.43750000000000000       0.43750000000000000        0.0000000000000000     
  0.46875000000000000       0.43750000000000000        0.0000000000000000     
  0.50000000000000000       0.43750000000000000        0.0000000000000000     
  0.37500000000000000       0.46875000000000000        0.0000000000000000     
  0.40625000000000000       0.46875000000000000        0.0000000000000000     
  0.43750000000000000       0.46875000000000000        0.0000000000000000     
  0.46875000000000000       0.46875000000000000        0.0000000000000000     
  0.50000000000000000       0.46875000000000000        0.0000000000000000     
  0.37500000000000000       0.50000000000000000        0.0000000000000000     
  0.40625000000000000       0.50000000000000000        0.0000000000000000     
  0.43750000000000000       0.50000000000000000        0.0000000000000000     
  0.46875000000000000       0.50000000000000000        0.0000000000000000     
  0.50000000000000000       0.50000000000000000        0.0000000000000000     
  0.50000000000000000       0.37500000000000000        0.0000000000000000     
  0.53125000000000000       0.37500000000000000        0.0000000000000000     
  0.56250000000000000       0.37500000000000000        0.0000000000000000     
  0.59375000000000000       0.37500000000000000        0.0000000000000000     
  0.62500000000000000       0.37500000000000000        0.0000000000000000     
  0.50000000000000000       0.40625000000000000        0.0000000000000000     
  0.53125000000000000       0.40625000000000000        0.0000000000000000     
  0.56250000000000000       0.40625000000000000        0.0000000000000000     
  0.59375000000000000       0.40625000000000000        0.0000000000000000     
  0.62500000000000000       0.40625000000000000        0.0000000000000000     
  0.50000000000000000       0.43750000000000000        0.0000000000000000     
  0.53125000000000000       0.43750000000000000        0.0000000000000000     
  0.56250000000000000       0.43750000000000000        0.0000000000000000     
  0.59375000000000000       0.43750000000000000        0.0000000000000000     
  0.62500000000000000       0.43750000000000000        0.0000000000000000     
  0.50000000000000000       0.46875000000000000        0.0000000000000000     
  0.53125000000000000       0.46875000000000000        0.0000000000000000     
  0.56250000000000000       0.46875000000000000        0.0000000000000000     
  0.59375000000000000       0.46875000000000000        0.0000000000000000     
  0.62500000000000000       0.46875000000000000        0.0000000000000000     
  0.50000000000000000       0.50000000000000000        0.0000000000000000     
  0.53125000000000000       0.50000000000000000        0.0000000000000000     
  0.56250000000000000       0.50000000000000000        0.0000000000000000     
  0.59375000000000000       0.50000000000000000        0.0000000000000000     
  0.62500000000000000       0.50000000000000000        0.0000000000000000     
  0.62500000000000000       0.37500000000000000        0.0000000000000000     
  0.65625000000000000       0.37500000000000000        0.0000000000000000     
  0.68750000000000000       0.37500000000000000        0.0000000000000000     
  0.71875000000000000       0.37500000000000000        0.0000000000000000     
  0.75000000000000000       0.37500000000000000        0.0000000000000000     
  0.62500000000000000       0.40625000000000000        0.0000000000000000     
  0.65625000000000000       0.40625000000000000        0.0000000000000000     
  0.68750000000000000       0.40625000000000000        0.0000000000000000     
  0.71875000000000000       0.40625000000000000        0.0000000000000000     
  0.75000000000000000       0.40625000000000000        0.0000000000000000     
  0.62500000000000000       0.43750000000000000        0.0000000000000000     
  0.65625000000000000       0.43750000000000000        0.0000000000000000     
  0.68750000000000000       0.43750000000000000        0.0000000000000000     
  0.71875000000000000       0.43750000000000000        0.0000000000000000     
  0.75000000000000000       0.43750000000000000        0.0000000000000000     
  0.62500000000000000       0.46875000000000000        0.0000000000000000     
  0.65625000000000000       0.46875000000000000        0.0000000000000000     
  0.68750000000000000       0.46875000000000000        0.0000000000000000     
  0.71875000000000000       0.46875000000000000        0.0000000000000000     
  0.75000000000000000       0.46875000000000000        0.0000000000000000     
  0.62500000000000000       0.50000000000000000        0.0000000000000000     
  0.65625000000000000       0.50000000000000000        0.0000000000000000     
  0.68750000000000000       0.50000000000000000        0.0000000000000000     
  0.71875000000000000       0.50000000000000000        0.0000000000000000     
  0.75000000000000000       0.50000000000000000        0.0000000000000000     
  0.75000000000000000       0.37500000000000000        0.0000000000000000     
  0.78125000000000000       0.37500000000000000        0.0000000000000000     
  0.81250000000000000       0.37500000000000000        0.0000000000000000     
  0.84375000000000000       0.37500000000000000        0.0000000000000000     
  0.87500000000000000       0.37500000000000000        0.0000000000000000     
  0.75000000000000000       0.40625000000000000        0.0000000000000000     
  0.78125000000000000       0.40625000000000000        0.0000000000000000     
  0.81250000000000000       0.40625000000000000        0.0000000000000000     
  0.84375000000000000       0.40625000000000000        0.0000000000000000     
  0.87500000000000000       0.40625000000000000        0.0000000000000000     
  0.75000000000000000       0.43750000000000000        0.0000000000000000     
  0.78125000000000000       0.43750000000000000        0.0000000000000000     
  0.81250000000000000       0.43750000000000000        0.0000000000000000     
  0.84375000000000000       0.43750000000000000        0.0000000000000000     
  0.87500000000000000       0.43750000000000000        0.0000000000000000     
  0.75000000000000000       0.46875000000000000        0.0000000000000000     
  0.78125000000000000       0.46875000000000000        0.0000000000000000     
  0.81250000000000000       0.46875000000000000        0.0000000000000000     
  0.84375000000000000       0.46875000000000000        0.0000000000000000     
  0.87500000000000000       0.46875000000000000        0.0000000000000000     
  0.75000000000000000       0.50000000000000000        0.0000000000000000     
  0.78125000000000000       0.50000000000000000        0.0000000000000000     
  0.81250000000000000       0.50000000000000000        0.0000000000000000     
  0.84375000000000000       0.50000000000000000        0.0000000000000000     
  0.87500000000000000       0.50000000000000000        0.0000000000000000     
  0.87500000000000000       0.37500000000000000        0.0000000000000000     
  0.90625000000000000       0.37500000000000000        0.0000000000000000     
  0.93750000000000000       0.37500000000000000        0.0000000000000000     
  0.96875000000000000       0.37500000000000000        0.0000000000000000     
   1.0000000000000000       0.37500000000000000        0.0000000000000000     
  0.87500000000000000       0.40625000000000000        0.0000000000000000     
  0.90625000000000000       0.40625000000000000        0.0000000000000000     
  0.93750000000000000       0.40625000000000000        0.0000000000000000     
  0.96875000000000000       0.40625000000000000        0.0000000000000000     
   1.0000000000000000       0.40625000000000000        0.0000000000000000     
  0.87500000000000000       0.43750000000000000        0.0000000000000000     
  0.90625000000000000       0.43750000000000000        0.0000000000000000     
  0.93750000000000000       0.43750000000000000        0.0000000000000000     
  0.96875000000000000       0.43750000000000000        0.0000000000000000     
   1.0000000000000000       0.43750000000000000        0.0000000000000000     
  0.87500000000000000       0.46875000000000000        0.0000000000000000     
  0.90625000000000000       0.46875000000000000        0.0000000000000000     
  0.93750000000000000       0.46875000000000000        0.0000000000000000     
  0.96875000000000000       0.46875000000000000        0.0000000000000000     
   1.0000000000000000       0.46875000000000000        0.0000000000000000     
  0.87500000000000000       0.50000000000000000        0.0000000000000000     
  0.90625000000000000       0.50000000000000000        0.0000000000000000     
  0.93750000000000000       0.50000000000000000        0.0000000000000000     
  0.96875000000000000       0.50000000000000000        0.0000000000000000     
   1.0000000000000000       0.50000000000000000        0.0000000000000000     
   0.0000000000000000       0.50000000000000000        0.0000000000000000     
   3.1250000000000000E-002  0.50000000000000000        0.0000000000000000     
   6.2500000000000000E-002  0.50000000000000000        0.0000000000000000     
   9.3750000000000000E-002  0.50000000000000000        0.0000000000000000     
  0.12500000000000000       0.50000000000000000        0.0000000000000000     
   0.0000000000000000       0.53125000000000000        0.0000000000000000     
   3.1250000000000000E-002  0.53125000000000000        0.0000000000000000     
   6.2500000000000000E-002  0.53125000000000000        0.0000000000000000     
   9.3750000000000000E-002  0.53125000000000000        0.0000000000000000     
  0.12500000000000000       0.53125000000000000        0.0000000000000000     
   0.0000000000000000       0.56250000000000000        0.0000000000000000     
   3.1250000000000000E-002  0.56250000000000000        0.0000000000000000     
   6.2500000000000000E-002  0.56250000000000000        0.0000000000000000     
   9.3750000000000000E-002  0.56250000000000000        0.0000000000000000     
  0.12500000000000000       0.56250000000000000        0.0000000000000000     
   0.0000000000000000       0.59375000000000000        0.0000000000000000     
   3.1250000000000000E-002  0.59375000000000000        0.0000000000000000     
   6.2500000000000000E-002  0.59375000000000000        0.0000000000000000     
   9.3750000000000000E-002  0.59375000000000000        0.0000000000000000     
  0.12500000000000000       0.59375000000000000        0.0000000000000000     
   0.0000000000000000       0.62500000000000000        0.0000000000000000     
   3.1250000000000000E-002  0.62500000000000000        0.0000000000000000     
   6.2500000000000000E-002  0.62500000000000000        0.0000000000000000     
   9.3750000000000000E-002  0.62500000000000000        0.0000000000000000     
  0.12500000000000000       0.62500000000000000        0.0000000000000000     
  0.12500000000000000       0.50000000000000000        0.0000000000000000     
  0.15625000000000000       0.50000000000000000        0.0000000000000000     
  0.18750000000000000       0.50000000000000000        0.0000000000000000     
  0.21875000000000000       0.50000000000000000        0.0000000000000000     
  0.25000000000000000       0.50000000000000000        0.0000000000000000     
  0.12500000000000000       0.53125000000000000        0.0000000000000000     
  0.15625000000000000       0.53125000000000000        0.0000000000000000     
  0.18750000000000000       0.53125000000000000        0.0000000000000000     
  0.21875000000000000       0.53125000000000000        0.0000000000000000     
  0.25000000000000000       0.53125000000000000        0.0000000000000000     
  0.12500000000000000       0.56250000000000000        0.0000000000000000     
  0.15625000000000000       0.56250000000000000        0.0000000000000000     
  0.18750000000000000       0.56250000000000000        0.0000000000000000     
  0.21875000000000000       0.56250000000000000        0.0000000000000000     
  0.25000000000000000       0.56250000000000000        0.0000000000000000     
  0.12500000000000000       0.59375000000000000        0.0000000000000000     
  0.15625000000000000       0.59375000000000000        0.0000000000000000     
  0.18750000000000000       0.59375000000000000        0.0000000000000000     
  0.21875000000000000       0.59375000000000000        0.0000000000000000     
  0.25000000000000000       0.59375000000000000        0.0000000000000000     
  0.12500000000000000       0.62500000000000000        0.0000000000000000     
  0.15625000000000000       0.62500000000000000        0.0000000000000000     
  0.18750000000000000       0.62500000000000000        0.0000000000000000     
  0.21875000000000000       0.62500000000000000        0.0000000000000000     
  0.25000000000000000       0.62500000000000000        0.0000000000000000     
  0.25000000000000000       0.50000000000000000        0.0000000000000000     
  0.28125000000000000       0.50000000000000000        0.0000000000000000     
  0.31250000000000000       0.50000000000000000        0.0000000000000000     
  0.34375000000000000       0.50000000000000000        0.0000000000000000     
  0.37500000000000000       0.50000000000000000        0.0000000000000000     
  0.25000000000000000       0.53125000000000000        0.0000000000000000     
  0.28125000000000000       0.53125000000000000        0.0000000000000000     
  0.31250000000000000       0.53125000000000000        0.0000000000000000     
  0.34375000000000000       0.53125000000000000        0.0000000000000000     
  0.37500000000000000       0.53125000000000000        0.0000000000000000     
  0.25000000000000000       0.56250000000000000        0.0000000000000000     
  0.28125000000000000       0.56250000000000000        0.0000000000000000     
  0.31250000000000000       0.56250000000000000        0.0000000000000000     
  0.34375000000000000       0.56250000000000000        0.0000000000000000     
  0.37500000000000000       0.56250000000000000        0.0000000000000000     
  0.25000000000000000       0.59375000000000000        0.0000000000000000     
  0.28125000000000000       0.59375000000000000        0.0000000000000000     
  0.31250000000000000       0.59375000000000000        0.0000000000000000     
  0.34375000000000000       0.59375000000000000        0.0000000000000000     
  0.37500000000000000       0.59375000000000000        0.0000000000000000     
  0.25000000000000000       0.62500000000000000        0.0000000000000000     
  0.28125000000000000       0.62500000000000000        0.0000000000000000     
  0.31250000000000000       0.62500000000000000        0.0000000000000000     
  0.34375000000000000       0.62500000000000000        0.0000000000000000     
  0.37500000000000000       0.62500000000000000        0.0000000000000000     
  0.37500000000000000       0.50000000000000000        0.0000000000000000     
  0.40625000000000000       0.50000000000000000        0.0000000000000000     
  0.43750000000000000       0.50000000000000000        0.0000000000000000     
  0.46875000000000000       0.50000000000000000        0.0000000000000000     
  0.50000000000000000       0.50000000000000000        0.0000000000000000     
  0.37500000000000000       0.53125000000000000        0.0000000000000000     
  0.40625000000000000       0.53125000000000000        0.0000000000000000     
  0.43750000000000000       0.53125000000000000        0.0000000000000000     
  0.46875000000000000       0.53125000000000000        0.0000000000000000     
  0.50000000000000000       0.53125000000000000        0.0000000000000000     
  0.37500000000000000       0.56250000000000000        0.0000000000000000     
  0.40625000000000000       0.56250000000000000        0.0000000000000000     
  0.43750000000000000       0.56250000000000000        0.0000000000000000     
  0.46875000000000000       0.56250000000000000        0.0000000000000000     
  0.50000000000000000       0.56250000000000000        0.0000000000000000     
  0.37500000000000000       0.59375000000000000        0.0000000000000000     
  0.40625000000000000       0.59375000000000000        0.0000000000000000     
  0.43750000000000000       0.59375000000000000        0.0000000000000000     
  0.46875000000000000       0.59375000000000000        0.0000000000000000     
  0.50000000000000000       0.59375000000000000        0.0000000000000000     
  0.37500000000000000       0.62500000000000000        0.0000000000000000     
  0.40625000000000000       0.62500000000000000        0.0000000000000000     
  0.43750000000000000       0.62500000000000000        0.0000000000000000     
  0.46875000000000000       0.62500000000000000        0.0000000000000000     
  0.50000000000000000       0.62500000000000000        0.0000000000000000     
  0.50000000000000000       0.50000000000000000        0.0000000000000000     
  0.53125000000000000       0.50000000000000000        0.0000000000000000     
  0.56250000000000000       0.50000000000000000        0.0000000000000000     
  0.59375000000000000       0.50000000000000000        0.0000000000000000     
  0.62500000000000000       0.50000000000000000        0.0000000000000000     
  0.50000000000000000       0.53125000000000000        0.0000000000000000     
  0.53125000000000000       0.53125000000000000        0.0000000000000000     
  0.56250000000000000       0.53125000000000000        0.0000000000000000     
  0.59375000000000000       0.53125000000000000        0.0000000000000000     
  0.62500000000000000       0.53125000000000000        0.0000000000000000     
  0.50000000000000000       0.56250000000000000        0.0000000000000000     
  0.53125000000000000       0.56250000000000000        0.0000000000000000     
  0.56250000000000000       0.56250000000000000        0.0000000000000000     
  0.59375000000000000       0.56250000000000000        0.0000000000000000     
  0.62500000000000000       0.56250000000000000        0.0000000000000000     
  0.50000000000000000       0.59375000000000000        0.0000000000000000     
  0.53125000000000000       0.59375000000000000        0.0000000000000000     
  0.56250000000000000       0.59375000000000000        0.0000000000000000     
  0.59375000000000000       0.59375000000000000        0.0000000000000000     
  0.62500000000000000       0.59375000000000000        0.0000000000000000     
  0.50000000000000000       0.62500000000000000        0.0000000000000000     
  0.53125000000000000       0.62500000000000000        0.0000000000000000     
  0.56250000000000000       0.62500000000000000        0.0000000000000000     
  0.59375000000000000       0.62500000000000000        0.0000000000000000     
  0.62500000000000000       0.62500000000000000        0.0000000000000000     
  0.62500000000000000       0.50000000000000000        0.0000000000000000     
  0.65625000000000000       0.50000000000000000        0.0000000000000000     
  0.68750000000000000       0.50000000000000000        0.0000000000000000     
  0.71875000000000000       0.50000000000000000        0.0000000000000000     
  0.75000000000000000       0.50000000000000000        0.0000000000000000     
  0.62500000000000000       0.53125000000000000        0.0000000000000000     
  0.65625000000000000       0.53125000000000000        0.0000000000000000     
  0.68750000000000000       0.53125000000000000        0.0000000000000000     
  0.71875000000000000       0.53125000000000000        0.0000000000000000     
  0.75000000000000000       0.53125000000000000        0.0000000000000000     
  0.62500000000000000       0.56250000000000000        0.0000000000000000     
  0.65625000000000000       0.56250000000000000        0.0000000000000000     
  0.68750000000000000       0.56250000000000000        0.0000000000000000     
  0.71875000000000000       0.56250000000000000        0.0000000000000000     
  0.75000000000000000       0.56250000000000000        0.0000000000000000     
  0.62500000000000000       0.59375000000000000        0.0000000000000000     
  0.65625000000000000       0.59375000000000000        0.0000000000000000     
  0.68750000000000000       0.59375000000000000        0.0000000000000000     
  0.71875000000000000       0.59375000000000000        0.0000000000000000     
  0.75000000000000000       0.59375000000000000        0.0000000000000000     
  0.62500000000000000       0.62500000000000000        0.0000000000000000     
  0.65625000000000000       0.62500000000000000        0.0000000000000000     
  0.68750000000000000       0.62500000000000000        0.0000000000000000     
  0.71875000000000000       0.62500000000000000        0.0000000000000000     
  0.75000000000000000       0.62500000000000000        0.0000000000000000     
  0.75000000000000000       0.50000000000000000        0.0000000000000000     
  0.78125000000000000       0.50000000000000000        0.0000000000000000     
  0.81250000000000000       0.50000000000000000        0.0000000000000000     
  0.84375000000000000       0.50000000000000000        0.0000000000000000     
  0.87500000000000000       0.50000000000000000        0.0000000000000000     
  0.75000000000000000       0.53125000000000000        0.0000000000000000     
  0.78125000000000000       0.53125000000000000        0.0000000000000000     
  0.81250000000000000       0.53125000000000000        0.0000000000000000     
  0.84375000000000000       0.53125000000000000        0.0000000000000000     
  0.87500000000000000       0.53125000000000000        0.0000000000000000     
  0.75000000000000000       0.56250000000000000        0.0000000000000000     
  0.78125000000000000       0.56250000000000000        0.0000000000000000     
  0.81250000000000000       0.56250000000000000        0.0000000000000000     
  0.84375000000000000       0.56250000000000000        0.0000000000000000     
  0.87500000000000000       0.56250000000000000        0.0000000000000000     
  0.75000000000000000       0.59375000000000000        0.0000000000000000     
  0.78125000000000000       0.59375000000000000        0.0000000000000000     
  0.81250000000000000       0.59375000000000000        0.0000000000000000     
  0.84375000000000000       0.59375000000000000        0.0000000000000000     
  0.87500000000000000       0.59375000000000000        0.0000000000000000     
  0.75000000000000000       0.62500000000000000        0.0000000000000000     
  0.78125000000000000       0.62500000000000000        0.0000000000000000     
  0.81250000000000000       0.62500000000000000        0.0000000000000000     
  0.84375000000000000       0.62500000000000000        0.0000000000000000     
  0.87500000000000000       0.62500000000000000        0.0000000000000000     
  0.87500000000000000       0.50000000000000000        0.0000000000000000     
  0.90625000000000000       0.50000000000000000        0.0000000000000000     
  0.93750000000000000       0.50000000000000000        0.0000000000000000     
  0.96875000000000000       0.50000000000000000        0.0000000000000000     
   1.0000000000000000       0.50000000000000000        0.0000000000000000     
  0.87500000000000000       0.53125000000000000        0.0000000000000000     
  0.90625000000000000       0.53125000000000000        0.0000000000000000     
  0.93750000000000000       0.53125000000000000        0.0000000000000000     
  0.96875000000000000       0.53125000000000000        0.0000000000000000     
   1.0000000000000000       0.53125000000000000        0.0000000000000000     
  0.87500000000000000       0.56250000000000000        0.0000000000000000     
  0.90625000000000000       0.56250000000000000        0.0000000000000000     
  0.93750000000000000       0.56250000000000000        0.0000000000000000     
  0.96875000000000000       0.56250000000000000        0.0000000000000000     
   1.0000000000000000       0.56250000000000000        0.0000000000000000     
  0.87500000000000000       0.59375000000000000        0.0000000000000000     
  0.90625000000000000       0.59375000000000000        0.0000000000000000     
  0.93750000000000000       0.59375000000000000        0.0000000000000000     
  0.96875000000000000       0.59375000000000000        0.0000000000000000     
   1.0000000000000000       0.59375000000000000        0.0000000000000000     
  0.87500000000000000       0.62500000000000000        0.0000000000000000     
  0.90625000000000000       0.62500000000000000        0.0000000000000000     
  0.93750000000000000       0.62500000000000000        0.0000000000000000     
  0.96875000000000000       0.62500000000000000        0.0000000000000000     
   1.0000000000000000       0.62500000000000000        0.0000000000000000     
   0.0000000000000000       0.62500000000000000        0.0000000000000000     
   3.1250000000000000E-002  0.62500000000000000        0.0000000000000000     
   6.2500000000000000E-002  0.62500000000000000        0.0000000000000000     
   9.3750000000000000E-002  0.62500000000000000        0.0000000000000000     
  0.12500000000000000       0.62500000000000000        0.0000000000000000     
   0.0000000000000000       0.65625000000000000        0.0000000000000000     
   3.1250000000000000E-002  0.65625000000000000        0.0000000000000000     
   6.2500000000000000E-002  0.65625000000000000        0.0000000000000000     
   9.3750000000000000E-002  0.65625000000000000        0.0000000000000000     
  0.12500000000000000       0.65625000000000000        0.0000000000000000     
   0.0000000000000000       0.68750000000000000        0.0000000000000000     
   3.1250000000000000E-002  0.68750000000000000        0.0000000000000000     
   6.2500000000000000E-002  0.68750000000000000        0.0000000000000000     
   9.3750000000000000E-002  0.68750000000000000        0.0000000000000000     
  0.12500000000000000       0.68750000000000000        0.0000000000000000     
   0.0000000000000000       0.71875000000000000        0.0000000000000000     
   3.1250000000000000E-002  0.71875000000000000        0.0000000000000000     
   6.2500000000000000E-002  0.71875000000000000        0.0000000000000000     
   9.3750000000000000E-002  0.71875000000000000        0.0000000000000000     
  0.12500000000000000       0.71875000000000000        0.0000000000000000     
   0.0000000000000000       0.75000000000000000        0.0000000000000000     
   3.1250000000000000E-002  0.75000000000000000        0.0000000000000000     
   6.2500000000000000E-002  0.75000000000000000        0.0000000000000000     
   9.3750000000000000E-002  0.75000000000000000        0.0000000000000000     
  0.12500000000000000       0.75000000000000000        0.0000000000000000     
  0.12500000000000000       0.62500000000000000        0.0000000000000000     
  0.15625000000000000       0.62500000000000000        0.0000000000000000     
  0.18750000000000000       0.62500000000000000        0.0000000000000000     
  0.21875000000000000       0.62500000000000000        0.0000000000000000     
  0.25000000000000000       0.62500000000000000        0.0000000000000000     
  0.12500000000000000       0.65625000000000000        0.0000000000000000     
  0.15625000000000000       0.65625000000000000        0.0000000000000000     
  0.18750000000000000       0.65625000000000000        0.0000000000000000     
  0.21875000000000000       0.65625000000000000        0.0000000000000000     
  0.25000000000000000       0.65625000000000000        0.0000000000000000     
  0.12500000000000000       0.68750000000000000        0.0000000000000000     
  0.15625000000000000       0.68750000000000000        0.0000000000000000     
  0.18750000000000000       0.68750000000000000        0.0000000000000000     
  0.21875000000000000       0.68750000000000000        0.0000000000000000     
  0.25000000000000000       0.68750000000000000        0.0000000000000000     
  0.12500000000000000       0.71875000000000000        0.0000000000000000     
  0.15625000000000000       0.71875000000000000        0.0000000000000000     
  0.18750000000000000       0.71875000000000000        0.0000000000000000     
  0.21875000000000000       0.71875000000000000        0.0000000000000000     
  0.25000000000000000       0.71875000000000000        0.0000000000000000     
  0.12500000000000000       0.75000000000000000        0.0000000000000000     
  0.15625000000000000       0.75000000000000000        0.0000000000000000     
  0.18750000000000000       0.75000000000000000        0.0000000000000000     
  0.21875000000000000       0.75000000000000000        0.0000000000000000     
  0.25000000000000000       0.75000000000000000        0.0000000000000000     
  0.25000000000000000       0.62500000000000000        0.0000000000000000     
  0.28125000000000000       0.62500000000000000        0.0000000000000000     
  0.31250000000000000       0.62500000000000000        0.0000000000000000     
  0.34375000000000000       0.62500000000000000        0.0000000000000000     
  0.37500000000000000       0.62500000000000000        0.0000000000000000     
  0.25000000000000000       0.65625000000000000        0.0000000000000000     
  0.28125000000000000       0.65625000000000000        0.0000000000000000     
  0.31250000000000000       0.65625000000000000        0.0000000000000000     
  0.34375000000000000       0.65625000000000000        0.0000000000000000     
  0.37500000000000000       0.65625000000000000        0.0000000000000000     
  0.25000000000000000       0.68750000000000000        0.0000000000000000     
  0.28125000000000000       0.68750000000000000        0.0000000000000000     
  0.31250000000000000       0.68750000000000000        0.0000000000000000     
  0.34375000000000000       0.68750000000000000        0.0000000000000000     
  0.37500000000000000       0.68750000000000000        0.0000000000000000     
  0.25000000000000000       0.71875000000000000        0.0000000000000000     
  0.28125000000000000       0.71875000000000000        0.0000000000000000     
  0.31250000000000000       0.71875000000000000        0.0000000000000000     
  0.34375000000000000       0.71875000000000000        0.0000000000000000     
  0.37500000000000000       0.71875000000000000        0.0000000000000000     
  0.25000000000000000       0.75000000000000000        0.0000000000000000     
  0.28125000000000000       0.75000000000000000        0.0000000000000000     
  0.31250000000000000       0.75000000000000000        0.0000000000000000     
  0.34375000000000000       0.75000000000000000        0.0000000000000000     
  0.37500000000000000       0.75000000000000000        0.0000000000000000     
  0.37500000000000000       0.62500000000000000        0.0000000000000000     
  0.40625000000000000       0.62500000000000000        0.0000000000000000     
  0.43750000000000000       0.62500000000000000        0.0000000000000000     
  0.46875000000000000       0.62500000000000000        0.0000000000000000     
  0.50000000000000000       0.62500000000000000        0.0000000000000000     
  0.37500000000000000       0.65625000000000000        0.0000000000000000     
  0.40625000000000000       0.65625000000000000        0.0000000000000000     
  0.43750000000000000       0.65625000000000000        0.0000000000000000     
  0.46875000000000000       0.65625000000000000        0.0000000000000000     
  0.50000000000000000       0.65625000000000000        0.0000000000000000     
  0.37500000000000000       0.68750000000000000        0.0000000000000000     
  0.40625000000000000       0.68750000000000000        0.0000000000000000     
  0.43750000000000000       0.68750000000000000        0.0000000000000000     
  0.46875000000000000       0.68750000000000000        0.0000000000000000     
  0.50000000000000000       0.68750000000000000        0.0000000000000000     
  0.37500000000000000       0.71875000000000000        0.0000000000000000     
  0.40625000000000000       0.71875000000000000        0.0000000000000000     
  0.43750000000000000       0.71875000000000000        0.0000000000000000     
  0.46875000000000000       0.71875000000000000        0.0000000000000000     
  0.50000000000000000       0.71875000000000000        0.0000000000000000     
  0.37500000000000000       0.75000000000000000        0.0000000000000000     
  0.40625000000000000       0.75000000000000000        0.0000000000000000     
  0.43750000000000000       0.75000000000000000        0.0000000000000000     
  0.46875000000000000       0.75000000000000000        0.0000000000000000     
  0.50000000000000000       0.75000000000000000        0.0000000000000000     
  0.50000000000000000       0.62500000000000000        0.0000000000000000     
  0.53125000000000000       0.62500000000000000        0.0000000000000000     
  0.56250000000000000       0.62500000000000000        0.0000000000000000     
  0.59375000000000000       0.62500000000000000        0.0000000000000000     
  0.62500000000000000       0.62500000000000000        0.0000000000000000     
  0.50000000000000000       0.65625000000000000        0.0000000000000000     
  0.53125000000000000       0.65625000000000000        0.0000000000000000     
  0.56250000000000000       0.65625000000000000        0.0000000000000000     
  0.59375000000000000       0.65625000000000000        0.0000000000000000     
  0.62500000000000000       0.65625000000000000        0.0000000000000000     
  0.50000000000000000       0.68750000000000000        0.0000000000000000     
  0.53125000000000000       0.68750000000000000        0.0000000000000000     
  0.56250000000000000       0.68750000000000000        0.0000000000000000     
  0.59375000000000000       0.68750000000000000        0.0000000000000000     
  0.62500000000000000       0.68750000000000000        0.0000000000000000     
  0.50000000000000000       0.71875000000000000        0.0000000000000000     
  0.53125000000000000       0.71875000000000000        0.0000000000000000     
  0.56250000000000000       0.71875000000000000        0.0000000000000000     
  0.59375000000000000       0.71875000000000000        0.0000000000000000     
  0.62500000000000000       0.71875000000000000        0.0000000000000000     
  0.50000000000000000       0.75000000000000000        0.0000000000000000     
  0.53125000000000000       0.75000000000000000        0.0000000000000000     
  0.56250000000000000       0.75000000000000000        0.0000000000000000     
  0.59375000000000000       0.75000000000000000        0.0000000000000000     
  0.62500000000000000       0.75000000000000000        0.0000000000000000     
  0.62500000000000000       0.62500000000000000        0.0000000000000000     
  0.65625000000000000       0.62500000000000000        0.0000000000000000     
  0.68750000000000000       0.62500000000000000        0.0000000000000000     
  0.71875000000000000       0.62500000000000000        0.0000000000000000     
  0.75000000000000000       0.62500000000000000        0.0000000000000000     
  0.62500000000000000       0.65625000000000000        0.0000000000000000     
  0.65625000000000000       0.65625000000000000        0.0000000000000000     
  0.68750000000000000       0.65625000000000000        0.0000000000000000     
  0.71875000000000000       0.65625000000000000        0.0000000000000000     
  0.75000000000000000       0.65625000000000000        0.0000000000000000     
  0.62500000000000000       0.68750000000000000        0.0000000000000000     
  0.65625000000000000       0.68750000000000000        0.0000000000000000     
  0.68750000000000000       0.68750000000000000        0.0000000000000000     
  0.71875000000000000       0.68750000000000000        0.0000000000000000     
  0.75000000000000000       0.68750000000000000        0.0000000000000000     
  0.62500000000000000       0.71875000000000000        0.0000000000000000     
  0.65625000000000000       0.71875000000000000        0.0000000000000000     
  0.68750000000000000       0.71875000000000000        0.0000000000000000     
  0.71875000000000000       0.71875000000000000        0.0000000000000000     
  0.75000000000000000       0.71875000000000000        0.0000000000000000     
  0.62500000000000000       0.75000000000000000        0.0000000000000000     
  0.65625000000000000       0.75000000000000000        0.0000000000000000     
  0.68750000000000000       0.75000000000000000        0.0000000000000000     
  0.71875000000000000       0.75000000000000000        0.0000000000000000     
  0.75000000000000000       0.75000000000000000        0.0000000000000000     
  0.75000000000000000       0.62500000000000000        0.0000000000000000     
  0.78125000000000000       0.62500000000000000        0.0000000000000000     
  0.81250000000000000       0.62500000000000000        0.0000000000000000     
  0.84375000000000000       0.62500000000000000        0.0000000000000000     
  0.87500000000000000       0.62500000000000000        0.0000000000000000     
  0.75000000000000000       0.65625000000000000        0.0000000000000000     
  0.78125000000000000       0.65625000000000000        0.0000000000000000     
  0.81250000000000000       0.65625000000000000        0.0000000000000000     
  0.84375000000000000       0.65625000000000000        0.0000000000000000     
  0.87500000000000000       0.65625000000000000        0.0000000000000000     
  0.75000000000000000       0.68750000000000000        0.0000000000000000     
  0.78125000000000000       0.68750000000000000        0.0000000000000000     
  0.81250000000000000       0.68750000000000000        0.0000000000000000     
  0.84375000000000000       0.68750000000000000        0.0000000000000000     
  0.87500000000000000       0.68750000000000000        0.0000000000000000     
  0.75000000000000000       0.71875000000000000        0.0000000000000000     
  0.78125000000000000       0.71875000000000000        0.0000000000000000     
  0.81250000000000000       0.71875000000000000        0.0000000000000000     
  0.84375000000000000       0.71875000000000000        0.0000000000000000     
  0.87500000000000000       0.71875000000000000        0.0000000000000000     
  0.75000000000000000       0.75000000000000000        0.0000000000000000     
  0.78125000000000000       0.75000000000000000        0.0000000000000000     
  0.81250000000000000       0.75000000000000000        0.0000000000000000     
  0.84375000000000000       0.75000000000000000        0.0000000000000000     
  0.87500000000000000       0.75000000000000000        0.0000000000000000     
  0.87500000000000000       0.62500000000000000        0.0000000000000000     
  0.90625000000000000       0.62500000000000000        0.0000000000000000     
  0.93750000000000000       0.62500000000000000        0.0000000000000000     
  0.96875000000000000       0.62500000000000000        0.0000000000000000     
   1.0000000000000000       0.62500000000000000        0.0000000000000000     
  0.87500000000000000       0.65625000000000000        0.0000000000000000     
  0.90625000000000000       0.65625000000000000        0.0000000000000000     
  0.93750000000000000       0.65625000000000000        0.0000000000000000     
  0.96875000000000000       0.65625000000000000        0.0000000000000000     
   1.0000000000000000       0.65625000000000000        0.0000000000000000     
  0.87500000000000000       0.68750000000000000        0.0000000000000000     
  0.90625000000000000       0.68750000000000000        0.0000000000000000     
  0.93750000000000000       0.68750000000000000        0.0000000000000000     
  0.96875000000000000       0.68750000000000000        0.0000000000000000     
   1.0000000000000000       0.68750000000000000        0.0000000000000000     
  0.87500000000000000       0.71875000000000000        0.0000000000000000     
  0.90625000000000000       0.71875000000000000        0.0000000000000000     
  0.93750000000000000       0.71875000000000000        0.0000000000000000     
  0.96875000000000000       0.71875000000000000        0.0000000000000000     
   1.0000000000000000       0.71875000000000000        0.0000000000000000     
  0.87500000000000000       0.75000000000000000        0.0000000000000000     
  0.90625000000000000       0.75000000000000000        0.0000000000000000     
  0.93750000000000000       0.75000000000000000        0.0000000000000000     
  0.96875000000000000       0.75000000000000000        0.0000000000000000     
   1.0000000000000000       0.75000000000000000        0.0000000000000000     
   0.0000000000000000       0.75000000000000000        0.0000000000000000     
   3.1250000000000000E-002  0.75000000000000000        0.0000000000000000     
   6.2500000000000000E-002  0.75000000000000000        0.0000000000000000     
   9.3750000000000000E-002  0.75000000000000000        0.0000000000000000     
  0.12500000000000000       0.75000000000000000        0.0000000000000000     
   0.0000000000000000       0.78125000000000000        0.0000000000000000     
   3.1250000000000000E-002  0.78125000000000000        0.0000000000000000     
   6.2500000000000000E-002  0.78125000000000000        0.0000000000000000     
   9.3750000000000000E-002  0.78125000000000000        0.0000000000000000     
  0.12500000000000000       0.78125000000000000        0.0000000000000000     
   0.0000000000000000       0.81250000000000000        0.0000000000000000     
   3.1250000000000000E-002  0.81250000000000000        0.0000000000000000     
   6.2500000000000000E-002  0.81250000000000000        0.0000000000000000     
   9.3750000000000000E-002  0.81250000000000000        0.0000000000000000     
  0.12500000000000000       0.81250000000000000        0.0000000000000000     
   0.0000000000000000       0.84375000000000000        0.0000000000000000     
   3.1250000000000000E-002  0.84375000000000000        0.0000000000000000     
   6.2500000000000000E-002  0.84375000000000000        0.0000000000000000     
   9.3750000000000000E-002  0.84375000000000000        0.0000000000000000     
  0.12500000000000000       0.84375000000000000        0.0000000000000000     
   0.0000000000000000       0.87500000000000000        0.0000000000000000     
   3.1250000000000000E-002  0.87500000000000000        0.0000000000000000     
   6.2500000000000000E-002  0.87500000000000000        0.0000000000000000     
   9.3750000000000000E-002  0.87500000000000000        0.0000000000000000     
  0.12500000000000000       0.87500000000000000        0.0000000000000000     
  0.12500000000000000       0.75000000000000000        0.0000000000000000     
  0.15625000000000000       0.75000000000000000        0.0000000000000000     
  0.18750000000000000       0.75000000000000000        0.0000000000000000     
  0.21875000000000000       0.75000000000000000        0.0000000000000000     
  0.25000000000000000       0.75000000000000000        0.0000000000000000     
  0.12500000000000000       0.78125000000000000        0.0000000000000000     
  0.15625000000000000       0.78125000000000000        0.0000000000000000     
  0.18750000000000000       0.78125000000000000        0.0000000000000000     
  0.21875000000000000       0.78125000000000000        0.0000000000000000     
  0.25000000000000000       0.78125000000000000        0.0000000000000000     
  0.12500000000000000       0.81250000000000000        0.0000000000000000     
  0.15625000000000000       0.81250000000000000        0.0000000000000000     
  0.18750000000000000       0.81250000000000000        0.0000000000000000     
  0.21875000000000000       0.81250000000000000        0.0000000000000000     
  0.25000000000000000       0.81250000000000000        0.0000000000000000     
  0.12500000000000000       0.84375000000000000        0.0000000000000000     
  0.15625000000000000       0.84375000000000000        0.0000000000000000     
  0.18750000000000000       0.84375000000000000        0.0000000000000000     
  0.21875000000000000       0.84375000000000000        0.0000000000000000     
  0.25000000000000000       0.84375000000000000        0.0000000000000000     
  0.12500000000000000       0.87500000000000000        0.0000000000000000     
  0.15625000000000000       0.87500000000000000        0.0000000000000000     
  0.18750000000000000       0.87500000000000000        0.0000000000000000     
  0.21875000000000000       0.87500000000000000        0.0000000000000000     
  0.25000000000000000       0.87500000000000000        0.0000000000000000     
  0.25000000000000000       0.75000000000000000        0.0000000000000000     
  0.28125000000000000       0.75000000000000000        0.0000000000000000     
  0.31250000000000000       0.75000000000000000        0.0000000000000000     
  0.34375000000000000       0.75000000000000000        0.0000000000000000     
  0.37500000000000000       0.75000000000000000        0.0000000000000000     
  0.25000000000000000       0.78125000000000000        0.0000000000000000     
  0.28125000000000000       0.78125000000000000        0.0000000000000000     
  0.31250000000000000       0.78125000000000000        0.0000000000000000     
  0.34375000000000000       0.78125000000000000        0.0000000000000000     
  0.37500000000000000       0.78125000000000000        0.0000000000000000     
  0.25000000000000000       0.81250000000000000        0.0000000000000000     
  0.28125000000000000       0.81250000000000000        0.0000000000000000     
  0.31250000000000000       0.81250000000000000        0.0000000000000000     
  0.34375000000000000       0.81250000000000000        0.0000000000000000     
  0.37500000000000000       0.81250000000000000        0.0000000000000000     
  0.25000000000000000       0.84375000000000000        0.0000000000000000     
  0.28125000000000000       0.84375000000000000        0.0000000000000000     
  0.31250000000000000       0.84375000000000000        0.0000000000000000     
  0.34375000000000000       0.84375000000000000        0.0000000000000000     
  0.37500000000000000       0.84375000000000000        0.0000000000000000     
  0.25000000000000000       0.87500000000000000        0.0000000000000000     
  0.28125000000000000       0.87500000000000000        0.0000000000000000     
  0.31250000000000000       0.87500000000000000        0.0000000000000000     
  0.34375000000000000       0.87500000000000000        0.0000000000000000     
  0.37500000000000000       0.87500000000000000        0.0000000000000000     
  0.37500000000000000       0.75000000000000000        0.0000000000000000     
  0.40625000000000000       0.75000000000000000        0.0000000000000000     
  0.43750000000000000       0.75000000000000000        0.0000000000000000     
  0.46875000000000000       0.75000000000000000        0.0000000000000000     
  0.50000000000000000       0.75000000000000000        0.0000000000000000     
  0.37500000000000000       0.78125000000000000        0.0000000000000000     
  0.40625000000000000       0.78125000000000000        0.0000000000000000     
  0.43750000000000000       0.78125000000000000        0.0000000000000000     
  0.46875000000000000       0.78125000000000000        0.0000000000000000     
  0.50000000000000000       0.78125000000000000        0.0000000000000000     
  0.37500000000000000       0.81250000000000000        0.0000000000000000     
  0.40625000000000000       0.81250000000000000        0.0000000000000000     
  0.43750000000000000       0.81250000000000000        0.0000000000000000     
  0.46875000000000000       0.81250000000000000        0.0000000000000000     
  0.50000000000000000       0.81250000000000000        0.0000000000000000     
  0.37500000000000000       0.84375000000000000        0.0000000000000000     
  0.40625000000000000       0.84375000000000000        0.0000000000000000     
  0.43750000000000000       0.84375000000000000        0.0000000000000000     
  0.46875000000000000       0.84375000000000000        0.0000000000000000     
  0.50000000000000000       0.84375000000000000        0.0000000000000000     
  0.37500000000000000       0.87500000000000000        0.0000000000000000     
  0.40625000000000000       0.87500000000000000        0.0000000000000000     
  0.43750000000000000       0.87500000000000000        0.0000000000000000     
  0.46875000000000000       0.87500000000000000        0.0000000000000000     
  0.50000000000000000       0.87500000000000000        0.0000000000000000     
  0.50000000000000000       0.75000000000000000        0.0000000000000000     
  0.53125000000000000       0.75000000000000000        0.0000000000000000     
  0.56250000000000000       0.75000000000000000        0.0000000000000000     
  0.59375000000000000       0.75000000000000000        0.0000000000000000     
  0.62500000000000000       0.75000000000000000        0.0000000000000000     
  0.50000000000000000       0.78125000000000000        0.0000000000000000     
  0.53125000000000000       0.78125000000000000        0.0000000000000000     
  0.56250000000000000       0.78125000000000000        0.0000000000000000     
  0.59375000000000000       0.78125000000000000        0.0000000000000000     
  0.62500000000000000       0.78125000000000000        0.0000000000000000     
  0.50000000000000000       0.81250000000000000        0.0000000000000000     
  0.53125000000000000       0.81250000000000000        0.0000000000000000     
  0.56250000000000000       0.81250000000000000        0.0000000000000000     
  0.59375000000000000       0.81250000000000000        0.0000000000000000     
  0.62500000000000000       0.81250000000000000        0.0000000000000000     
  0.50000000000000000       0.84375000000000000        0.0000000000000000     
  0.53125000000000000       0.84375000000000000        0.0000000000000000     
  0.56250000000000000       0.84375000000000000        0.0000000000000000     
  0.59375000000000000       0.84375000000000000        0.0000000000000000     
  0.62500000000000000       0.84375000000000000        0.0000000000000000     
  0.50000000000000000       0.87500000000000000        0.0000000000000000     
  0.53125000000000000       0.87500000000000000        0.0000000000000000     
  0.56250000000000000       0.87500000000000000        0.0000000000000000     
  0.59375000000000000       0.87500000000000000        0.0000000000000000     
  0.62500000000000000       0.87500000000000000        0.0000000000000000     
  0.62500000000000000       0.75000000000000000        0.0000000000000000     
  0.65625000000000000       0.75000000000000000        0.0000000000000000     
  0.68750000000000000       0.75000000000000000        0.0000000000000000     
  0.71875000000000000       0.75000000000000000        0.0000000000000000     
  0.75000000000000000       0.75000000000000000        0.0000000000000000     
  0.62500000000000000       0.78125000000000000        0.0000000000000000     
  0.65625000000000000       0.78125000000000000        0.0000000000000000     
  0.68750000000000000       0.78125000000000000        0.0000000000000000     
  0.71875000000000000       0.78125000000000000        0.0000000000000000     
  0.75000000000000000       0.78125000000000000        0.0000000000000000     
  0.62500000000000000       0.81250000000000000        0.0000000000000000     
  0.65625000000000000       0.81250000000000000        0.0000000000000000     
  0.68750000000000000       0.81250000000000000        0.0000000000000000     
  0.71875000000000000       0.81250000000000000        0.0000000000000000     
  0.75000000000000000       0.81250000000000000        0.0000000000000000     
  0.62500000000000000       0.84375000000000000        0.0000000000000000     
  0.65625000000000000       0.84375000000000000        0.0000000000000000     
  0.68750000000000000       0.84375000000000000        0.0000000000000000     
  0.71875000000000000       0.84375000000000000        0.0000000000000000     
  0.75000000000000000       0.84375000000000000        0.0000000000000000     
  0.62500000000000000       0.87500000000000000        0.0000000000000000     
  0.65625000000000000       0.87500000000000000        0.0000000000000000     
  0.68750000000000000       0.87500000000000000        0.0000000000000000     
  0.71875000000000000       0.87500000000000000        0.0000000000000000     
  0.75000000000000000       0.87500000000000000        0.0000000000000000     
  0.75000000000000000       0.75000000000000000        0.0000000000000000     
  0.78125000000000000       0.75000000000000000        0.0000000000000000     
  0.81250000000000000       0.75000000000000000        0.0000000000000000     
  0.84375000000000000       0.75000000000000000        0.0000000000000000     
  0.87500000000000000       0.75000000000000000        0.0000000000000000     
  0.75000000000000000       0.78125000000000000        0.0000000000000000     
  0.78125000000000000       0.78125000000000000        0.0000000000000000     
  0.81250000000000000       0.78125000000000000        0.0000000000000000     
  0.84375000000000000       0.78125000000000000        0.0000000000000000     
  0.87500000000000000       0.78125000000000000        0.0000000000000000     
  0.75000000000000000       0.81250000000000000        0.0000000000000000     
  0.78125000000000000       0.81250000000000000        0.0000000000000000     
  0.81250000000000000       0.81250000000000000        0.0000000000000000     
  0.84375000000000000       0.81250000000000000        0.0000000000000000     
  0.87500000000000000       0.81250000000000000        0.0000000000000000     
  0.75000000000000000       0.84375000000000000        0.0000000000000000     
  0.78125000000000000       0.84375000000000000        0.0000000000000000     
  0.81250000000000000       0.84375000000000000        0.0000000000000000     
  0.84375000000000000       0.84375000000000000        0.0000000000000000     
  0.87500000000000000       0.84375000000000000        0.0000000000000000     
  0.75000000000000000       0.87500000000000000        0.0000000000000000     
  0.78125000000000000       0.87500000000000000        0.0000000000000000     
  0.81250000000000000       0.87500000000000000        0.0000000000000000     
  0.84375000000000000       0.87500000000000000        0.0000000000000000     
  0.87500000000000000       0.87500000000000000        0.0000000000000000     
  0.87500000000000000       0.75000000000000000        0.0000000000000000     
  0.90625000000000000       0.75000000000000000        0.0000000000000000     
  0.93750000000000000       0.75000000000000000        0.0000000000000000     
  0.96875000000000000       0.75000000000000000        0.0000000000000000     
   1.0000000000000000       0.75000000000000000        0.0000000000000000     
  0.87500000000000000       0.78125000000000000        0.0000000000000000     
  0.90625000000000000       0.78125000000000000        0.0000000000000000     
  0.93750000000000000       0.78125000000000000        0.0000000000000000     
  0.96875000000000000       0.78125000000000000        0.0000000000000000     
   1.0000000000000000       0.78125000000000000        0.0000000000000000     
  0.87500000000000000       0.81250000000000000        0.0000000000000000     
  0.90625000000000000       0.81250000000000000        0.0000000000000000     
  0.93750000000000000       0.81250000000000000        0.0000000000000000     
  0.96875000000000000       0.81250000000000000        0.0000000000000000     
   1.0000000000000000       0.81250000000000000        0.0000000000000000     
  0.87500000000000000       0.84375000000000000        0.0000000000000000     
  0.90625000000000000       0.84375000000000000        0.0000000000000000     
  0.93750000000000000       0.84375000000000000        0.0000000000000000     
  0.96875000000000000       0.84375000000000000        0.0000000000000000     
   1.0000000000000000       0.84375000000000000        0.0000000000000000     
  0.87500000000000000       0.87500000000000000        0.0000000000000000     
  0.90625000000000000       0.87500000000000000        0.0000000000000000     
  0.93750000000000000       0.87500000000000000        0.0000000000000000     
  0.96875000000000000       0.87500000000000000        0.0000000000000000     
   1.0000000000000000       0.87500000000000000        0.0000000000000000     
   0.0000000000000000       0.87500000000000000        0.0000000000000000     
   3.1250000000000000E-002  0.87500000000000000        0.0000000000000000     
   6.2500000000000000E-002  0.87500000000000000        0.0000000000000000     
   9.3750000000000000E-002  0.87500000000000000        0.0000000000000000     
  0.12500000000000000       0.87500000000000000        0.0000000000000000     
   0.0000000000000000       0.90625000000000000        0.0000000000000000     
   3.1250000000000000E-002  0.90625000000000000        0.0000000000000000     
   6.2500000000000000E-002  0.90625000000000000        0.0000000000000000     
   9.3750000000000000E-002  0.90625000000000000        0.0000000000000000     
  0.12500000000000000       0.90625000000000000        0.0000000000000000     
   0.0000000000000000       0.93750000000000000        0.0000000000000000     
   3.1250000000000000E-002  0.93750000000000000        0.0000000000000000     
   6.2500000000000000E-002  0.93750000000000000        0.0000000000000000     
   9.3750000000000000E-002  0.93750000000000000        0.0000000000000000     
  0.12500000000000000       0.93750000000000000        0.0000000000000000     
   0.0000000000000000       0.96875000000000000        0.0000000000000000     
   3.1250000000000000E-002  0.96875000000000000        0.0000000000000000     
   6.2500000000000000E-002  0.96875000000000000        0.0000000000000000     
   9.3750000000000000E-002  0.96875000000000000        0.0000000000000000     
  0.12500000000000000       0.96875000000000000        0.0000000000000000     
   0.0000000000000000        1.0000000000000000        0.0000000000000000     
   3.1250000000000000E-002   1.0000000000000000        0.0000000000000000     
   6.2500000000000000E-002   1.0000000000000000        0.0000000000000000     
   9.3750000000000000E-002   1.0000000000000000        0.0000000000000000     
  0.12500000000000000        1.0000000000000000        0.0000000000000000     
  0.12500000000000000       0.87500000000000000        0.0000000000000000     
  0.15625000000000000       0.87500000000000000        0.0000000000000000     
  0.18750000000000000       0.87500000000000000        0.0000000000000000     
  0.21875000000000000       0.87500000000000000        0.0000000000000000     
  0.25000000000000000       0.87500000000000000        0.0000000000000000     
  0.12500000000000000       0.90625000000000000        0.0000000000000000     
  0.15625000000000000       0.90625000000000000        0.0000000000000000     
  0.18750000000000000       0.90625000000000000        0.0000000000000000     
  0.21875000000000000       0.90625000000000000        0.0000000000000000     
  0.25000000000000000       0.90625000000000000        0.0000000000000000     
  0.12500000000000000       0.93750000000000000        0.0000000000000000     
  0.15625000000000000       0.93750000000000000        0.0000000000000000     
  0.18750000000000000       0.93750000000000000        0.0000000000000000     
  0.21875000000000000       0.93750000000000000        0.0000000000000000     
  0.25000000000000000       0.93750000000000000        0.0000000000000000     
  0.12500000000000000       0.96875000000000000        0.0000000000000000     
  0.15625000000000000       0.96875000000000000        0.0000000000000000     
  0.18750000000000000       0.96875000000000000        0.0000000000000000     
  0.21875000000000000       0.96875000000000000        0.0000000000000000     
  0.25000000000000000       0.96875000000000000        0.0000000000000000     
  0.12500000000000000        1.0000000000000000        0.0000000000000000     
  0.15625000000000000        1.0000000000000000        0.0000000000000000     
  0.18750000000000000        1.0000000000000000        0.0000000000000000     
  0.21875000000000000        1.0000000000000000        0.0000000000000000     
  0.25000000000000000        1.0000000000000000        0.0000000000000000     
  0.25000000000000000       0.87500000000000000        0.0000000000000000     
  0.28125000000000000       0.87500000000000000        0.0000000000000000     
  0.31250000000000000       0.87500000000000000        0.0000000000000000     
  0.34375000000000000       0.87500000000000000        0.0000000000000000     
  0.37500000000000000       0.87500000000000000        0.0000000000000000     
  0.25000000000000000       0.90625000000000000        0.0000000000000000     
  0.28125000000000000       0.90625000000000000        0.0000000000000000     
  0.31250000000000000       0.90625000000000000        0.0000000000000000     
  0.34375000000000000       0.90625000000000000        0.0000000000000000     
  0.37500000000000000       0.90625000000000000        0.0000000000000000     
  0.25000000000000000       0.93750000000000000        0.0000000000000000     
  0.28125000000000000       0.93750000000000000        0.0000000000000000     
  0.31250000000000000       0.93750000000000000        0.0000000000000000     
  0.34375000000000000       0.93750000000000000        0.0000000000000000     
  0.37500000000000000       0.93750000000000000        0.0000000000000000     
  0.25000000000000000       0.96875000000000000        0.0000000000000000     
  0.28125000000000000       0.96875000000000000        0.0000000000000000     
  0.31250000000000000       0.96875000000000000        0.0000000000000000     
  0.34375000000000000       0.96875000000000000        0.0000000000000000     
  0.37500000000000000       0.96875000000000000        0.0000000000000000     
  0.25000000000000000        1.0000000000000000        0.0000000000000000     
  0.28125000000000000        1.0000000000000000        0.0000000000000000     
  0.31250000000000000        1.0000000000000000        0.0000000000000000     
  0.34375000000000000        1.0000000000000000        0.0000000000000000     
  0.37500000000000000        1.0000000000000000        0.0000000000000000     
  0.37500000000000000       0.87500000000000000        0.0000000000000000     
  0.40625000000000000       0.87500000000000000        0.0000000000000000     
  0.43750000000000000       0.87500000000000000        0.0000000000000000     
  0.46875000000000000       0.87500000000000000        0.0000000000000000     
  0.50000000000000000       0.87500000000000000        0.0000000000000000     
  0.37500000000000000       0.90625000000000000        0.0000000000000000     
  0.40625000000000000       0.90625000000000000        0.0000000000000000     
  0.43750000000000000       0.90625000000000000        0.0000000000000000     
  0.46875000000000000       0.90625000000000000        0.0000000000000000     
  0.50000000000000000       0.90625000000000000        0.0000000000000000     
  0.37500000000000000       0.93750000000000000        0.0000000000000000     
  0.40625000000000000       0.93750000000000000        0.0000000000000000     
  0.43750000000000000       0.93750000000000000        0.0000000000000000     
  0.46875000000000000       0.93750000000000000        0.0000000000000000     
  0.50000000000000000       0.93750000000000000        0.0000000000000000     
  0.37500000000000000       0.96875000000000000        0.0000000000000000     
  0.40625000000000000       0.96875000000000000        0.0000000000000000     
  0.43750000000000000       0.96875000000000000        0.0000000000000000     
  0.46875000000000000       0.96875000000000000        0.0000000000000000     
  0.50000000000000000       0.96875000000000000        0.0000000000000000     
  0.37500000000000000        1.0000000000000000        0.0000000000000000     
  0.40625000000000000        1.0000000000000000        0.0000000000000000     
  0.43750000000000000        1.0000000000000000        0.0000000000000000     
  0.46875000000000000        1.0000000000000000        0.0000000000000000     
  0.50000000000000000        1.0000000000000000        0.0000000000000000     
  0.50000000000000000       0.87500000000000000        0.0000000000000000     
  0.53125000000000000       0.87500000000000000        0.0000000000000000     
  0.56250000000000000       0.87500000000000000        0.0000000000000000     
  0.59375000000000000       0.87500000000000000        0.0000000000000000     
  0.62500000000000000       0.87500000000000000        0.0000000000000000     
  0.50000000000000000       0.90625000000000000        0.0000000000000000     
  0.53125000000000000       0.90625000000000000        0.0000000000000000     
  0.56250000000000000       0.90625000000000000        0.0000000000000000     
  0.59375000000000000       0.90625000000000000        0.0000000000000000     
  0.62500000000000000       0.90625000000000000        0.0000000000000000     
  0.50000000000000000       0.93750000000000000        0.0000000000000000     
  0.53125000000000000       0.93750000000000000        0.0000000000000000     
  0.56250000000000000       0.93750000000000000        0.0000000000000000     
  0.59375000000000000       0.93750000000000000        0.0000000000000000     
  0.62500000000000000       0.93750000000000000        0.0000000000000000     
  0.50000000000000000       0.96875000000000000        0.0000000000000000     
  0.53125000000000000       0.96875000000000000        0.0000000000000000     
  0.56250000000000000       0.96875000000000000        0.0000000000000000     
  0.59375000000000000       0.96875000000000000        0.0000000000000000     
  0.62500000000000000       0.96875000000000000        0.0000000000000000     
  0.50000000000000000        1.0000000000000000        0.0000000000000000     
  0.53125000000000000        1.0000000000000000        0.0000000000000000     
  0.56250000000000000        1.0000000000000000        0.0000000000000000     
  0.59375000000000000        1.0000000000000000        0.0000000000000000     
  0.62500000000000000        1.0000000000000000        0.0000000000000000     
  0.62500000000000000       0.87500000000000000        0.0000000000000000     
  0.65625000000000000       0.87500000000000000        0.0000000000000000     
  0.68750000000000000       0.87500000000000000        0.0000000000000000     
  0.71875000000000000       0.87500000000000000        0.0000000000000000     
  0.75000000000000000       0.87500000000000000        0.0000000000000000     
  0.62500000000000000       0.90625000000000000        0.0000000000000000     
  0.65625000000000000       0.90625000000000000        0.0000000000000000     
  0.68750000000000000       0.90625000000000000        0.0000000000000000     
  0.71875000000000000       0.90625000000000000        0.0000000000000000     
  0.75000000000000000       0.90625000000000000        0.0000000000000000     
  0.62500000000000000       0.93750000000000000        0.0000000000000000     
  0.65625000000000000       0.93750000000000000        0.0000000000000000     
  0.68750000000000000       0.93750000000000000        0.0000000000000000     
  0.71875000000000000       0.93750000000000000        0.0000000000000000     
  0.75000000000000000       0.93750000000000000        0.0000000000000000     
  0.62500000000000000       0.96875000000000000        0.0000000000000000     
  0.65625000000000000       0.96875000000000000        0.0000000000000000     
  0.68750000000000000       0.96875000000000000        0.0000000000000000     
  0.71875000000000000       0.96875000000000000        0.0000000000000000     
  0.75000000000000000       0.96875000000000000        0.0000000000000000     
  0.62500000000000000        1.0000000000000000        0.0000000000000000     
  0.65625000000000000        1.0000000000000000        0.0000000000000000     
  0.68750000000000000        1.0000000000000000        0.0000000000000000     
  0.71875000000000000        1.0000000000000000        0.0000000000000000     
  0.75000000000000000        1.0000000000000000        0.0000000000000000     
  0.75000000000000000       0.87500000000000000        0.0000000000000000     
  0.78125000000000000       0.87500000000000000        0.0000000000000000     
  0.81250000000000000       0.87500000000000000        0.0000000000000000     
  0.84375000000000000       0.87500000000000000        0.0000000000000000     
  0.87500000000000000       0.87500000000000000        0.0000000000000000     
  0.75000000000000000       0.90625000000000000        0.0000000000000000     
  0.78125000000000000       0.90625000000000000        0.0000000000000000     
  0.81250000000000000       0.90625000000000000        0.0000000000000000     
  0.84375000000000000       0.90625000000000000        0.0000000000000000     
  0.87500000000000000       0.90625000000000000        0.0000000000000000     
  0.75000000000000000       0.93750000000000000        0.0000000000000000     
  0.78125000000000000       0.93750000000000000        0.0000000000000000     
  0.81250000000000000       0.93750000000000000        0.0000000000000000     
  0.84375000000000000       0.93750000000000000        0.0000000000000000     
  0.87500000000000000       0.93750000000000000        0.0000000000000000     
  0.75000000000000000       0.96875000000000000        0.0000000000000000     
  0.78125000000000000       0.96875000000000000        0.0000000000000000     
  0.81250000000000000       0.96875000000000000        0.0000000000000000     
  0.84375000000000000       0.96875000000000000        0.0000000000000000     
  0.87500000000000000       0.96875000000000000        0.0000000000000000     
  0.75000000000000000        1.0000000000000000        0.0000000000000000     
  0.78125000000000000        1.0000000000000000        0.0000000000000000     
  0.81250000000000000        1.0000000000000000        0.0000000000000000     
  0.84375000000000000        1.0000000000000000        0.0000000000000000     
  0.87500000000000000        1.0000000000000000        0.0000000000000000     
  0.87500000000000000       0.87500000000000000        0.0000000000000000     
  0.90625000000000000       0.87500000000000000        0.0000000000000000     
  0.93750000000000000       0.87500000000000000        0.0000000000000000     
  0.96875000000000000       0.87500000000000000        0.0000000000000000     
   1.0000000000000000       0.87500000000000000        0.0000000000000000     
  0.87500000000000000       0.90625000000000000        0.0000000000000000     
  0.90625000000000000       0.90625000000000000        0.0000000000000000     
  0.93750000000000000       0.90625000000000000        0.0000000000000000     
  0.96875000000000000       0.90625000000000000        0.0000000000000000     
   1.0000000000000000       0.90625000000000000        0.0000000000000000     
  0.87500000000000000       0.93750000000000000        0.0000000000000000     
  0.90625000000000000       0.93750000000000000        0.0000000000000000     
  0.93750000000000000       0.93750000000000000        0.0000000000000000     
  0.96875000000000000       0.93750000000000000        0.0000000000000000     
   1.0000000000000000       0.93750000000000000        0.0000000000000000     
  0.87500000000000000       0.96875000000000000        0.0000000000000000     
  0.90625000000000000       0.96875000000000000        0.0000000000000000     
  0.93750000000000000       0.96875000000000000        0.0000000000000000     
  0.96875000000000000       0.96875000000000000        0.0000000000000000     
   1.0000000000000000       0.96875000000000000        0.0000000000000000     
  0.87500000000000000        1.0000000000000000        0.0000000000000000     
  0.90625000000000000        1.0000000000000000        0.0000000000000000     
  0.93750000000000000        1.0000000000000000        0.0000000000000000     
  0.96875000000000000        1.0000000000000000        0.0000000000000000     
   1.0000000000000000        1.0000000000000000        0.0000000000000000     
 </DataArray>
 </Points>
 <Cells>
 <DataArray  type="Int32"  Name="connectivity"  format="ascii">
           0           1           6           5
           1           2           7           6
           2           3           8           7
           3           4           9           8
           5           6          11          10
           6           7          12          11
           7           8          13          12
           8           9          14          13
          10          11          16          15
          11          12          17          16
          12          13          18          17
          13          14          19          18
          15          16          21          20
          16          17          22          21
          17          18          23          22
          18          19          24          23
          25          26          31          30
          26          27          32          31
          27          28          33          32
          28          29          34          33
          30          31          36          35
          31          32          37          36
          32          33          38          37
          33          34          39          38
          35          36          41          40
          36          37          42          41
          37          38          43          42
          38          39          44          43
          40          41          46          45
          41          42          47          46
          42          43          48          47
          43          44          49          48
          50          51          56          55
          51          52          57          56
          52          53          58          57
          53          54          59          58
          55          56          61          60
          56          57          62          61
          57          58          63          62
          58          59          64          63
          60          61          66          65
          61          62          67          66
          62          63          68          67
          63          64          69          68
          65          66          71          70
          66          67          72          71
          67          68          73          72
          68          69          74          73
          75          76          81          80
          76          77          82          81
          77          78          83          82
          78          79          84          83
          80          81          86          85
          81          82          87          86
          82          83          88          87
          83          84          89          88
          85          86          91          90
          86          87          92          91
          87          88          93          92
          88          89          94          93
          90          91          96          95
          91          92          97          96
          92          93          98          97
          93          94          99          98
         100         101         106         105
         101         102         107         106
         102         103         108         107
         103         104         109         108
         105         106         111         110
         106         107         112         111
         107         108         113         112
         108         109         114         113
         110         111         116         115
         111         112         117         116
         112         113         118         117
         113         114         119         118
         115         116         121         120
         116         117         122         121
         117         118         123         122
         118         119         124         123
         125         126         131         130
         126         127         132         131
         127         128         133         132
         128         129         134         133
         130         131         136         135
         131         132         137         136
         132         133         138         137
         133         134         139         138
         135         136         141         140
         136         137         142         141
         137         138         143         142
         138         139         144         143
         140         141         146         145
         141         142         147         146
         142         143         148         147
         143         144         149         148
         150         151         156         155
         151         152         157         156
         152         153         158         157
         153         154         159         158
         155         156         161         160
         156         157         162         161
         157         158         163         162
         158         159         164         163
         160         161         166         165
         161         162         167         166
         162         163         168         167
         163         164         169         168
         165         166         171         170
         166         167         172         171
         167         168         173         172
         168         169         174         173
         175         176         181         180
         176         177         182         181
         177         178         183         182
         178         179         184         183
         180         181         186         185
         181         182         187         186
         182         183         188         187
         183         184         189         188
         185         186         191         190
         186         187         192         191
         187         188         193         192
         188         189         194         193
         190         191         196         195
         191         192         197         196
         192         193         198         197
         193         194         199         198
         200         201         206         205
         201         202         207         206
         202         203         208         207
         203         204         209         208
         205         206         211         210
         206         207         212         211
         207         208         213         212
         208         209         214         213
         210         211         216         215
         211         212         217         216
         212         213         218         217
         213         214         219         218
         215         216         221         220
         216         217         222         221
         217         218         223         222
         218         219         224         223
         225         226         231         230
         226         227         232         231
         227         228         233         232
         228         229         234         233
         230         231         236         235
         231         232         237         236
         232         233         238         237
         233         234         239         238
         235         236         241         240
         236         237         242         241
         237         238         243         242
         238         239         244         243
         240         241         246         245
         241         242         247         246
         242         243         248         247
         243         244         249         248
         250         251         256         255
         251         252         257         256
         252         253         258         257
         253         254         259         258
         255         256         261         260
         256         257         262         261
         257         258         263         262
         258         259         264         263
         260         261         266         265
         261         262         267         266
         262         263         268         267
         263         264         269         268
         265         266         271         270
         266         267         272         271
         267         268         273         272
         268         269         274         273
         275         276         281         280
         276         277         282         281
         277         278         283         282
         278         279         284         283
         280         281         286         285
         281         282         287         286
         282         283         288         287
         283         284         289         288
         285         286         291         290
         286         287         292         291
         287         288         293         292
         288         289         294         293
         290         291         296         295
         291         292         297         296
         292         293         298         297
         293         294         299         298
         300         301         306         305
         301         302         307         306
         302         303         308         307
         303         304         309         308
         305         306         311         310
         306         307         312         311
         307         308         313         312
         308         309         314         313
         310         311         316         315
         311         312         317         316
         312         313         318         317
         313         314         319         318
         315         316         321         320
         316         317         322         321
         317         318         323         322
         318         319         324         323
         325         326         331         330
         326         327         332         331
         327         328         333         332
         328         329         334         333
         330         331         336         335
         331         332         337         336
         332         333         338         337
         333         334         339         338
         335         336         341         340
         336         337         342         341
         337         338         343         342
         338         339         344         343
         340         341         346         345
         341         342         347         346
         342         343         348         347
         343         344         349         348
         350         351         356         355
         351         352         357         356
         352         353         358         357
         353         354         359         358
         355         356         361         360
         356         357         362         361
         357         358         363         362
         358         359         364         363
         360         361         366         365
         361         362         367         366
         362         363         368         367
         363         364         369         368
         365         366         371         370
         366         367         372         371
         367         368         373         372
         368         369         374         373
         375         376         381         380
         376         377         382         381
         377         378         383         382
         378         379         384         383
         380         381         386         385
         381         382         387         386
         382         383         388         387
         383         384         389         388
         385         386         391         390
         386         387         392         391
         387         388         393         392
         388         389         394         393
         390         391         396         395
         391         392         397         396
         392         393         398         397
         393         394         399         398
         400         401         406         405
         401         402         407         406
         402         403         408         407
         403         404         409         408
         405         406         411         410
         406         407         412         411
         407         408         413         412
         408         409         414         413
         410         411         416         415
         411         412         417         416
         412         413         418         417
         413         414         419         418
         415         416         421         420
         416         417         422         421
         417         418         423         422
         418         419         424         423
         425         426         431         430
         426         427         432         431
         427         428         433         432
         428         429         434         433
         430         431         436         435
         431         432         437         436
         432         433         438         437
         433         434         439         438
         435         436         441         440
         436         437         442         441
         437         438         443         442
         438         439         444         443
         440         441         446         445
         441         442         447         446
         442         443         448         447
         443         444         449         448
         450         451         456         455
         451         452         457         456
         452         453         458         457
         453         454         459         458
         455         456         461         460
         456         457         462         461
         457         458         463         462
         458         459         464         463
         460         461         466         465
         461         462         467         466
         462         463         468         467
         463         464         469         468
         465         466         471         470
         466         467         472         471
         467         468         473         472
         468         469         474         473
         475         476         481         480
         476         477         482         481
         477         478         483         482
         478         479         484         483
         480         481         486         485
         481         482         487         486
         482         483         488         487
         483         484         489         488
         485         486         491         490
         486         487         492         491
         487         488         493         492
         488         489         494         493
         490         491         496         495
         491         492         497         496
         492         493         498         497
         493         494         499         498
         500         501         506         505
         501         502         507         506
         502         503         508         507
         503         504         509         508
         505         506         511         510
         506         507         512         511
         507         508         513         512
         508         509         514         513
         510         511         516         515
         511         512         517         516
         512         513         518         517
         513         514         519         518
         515         516         521         520
         516         517         522         521
         517         518         523         522
         518         519         524         523
         525         526         531         530
         526         527         532         531
         527         528         533         532
         528         529         534         533
         530         531         536         535
         531         532         537         536
         532         533         538         537
         533         534         539         538
         535         536         541         540
         536         537         542         541
         537         538         543         542
         538         539         544         543
         540         541         546         545
         541         542         547         546
         542         543         548         547
         543         544         549         548
         550         551         556         555
         551         552         557         556
         552         553         558         557
         553         554         559         558
         555         556         561         560
         556         557         562         561
         557         558         563         562
         558         559         564         563
         560         561         566         565
         561         562         567         566
         562         563         568         567
         563         564         569         568
         565         566         571         570
         566         567         572         571
         567         568         573         572
         568         569         574         573
         575         576         581         580
         576         577         582         581
         577         578         583         582
         578         579         584         583
         580         581         586         585
         581         582         587         586
         582         583         588         587
         583         584         589         588
         585         586         591         590
         586         587         592         591
         587         588         593         592
         588         589         594         593
         590         591         596         595
         591         592         597         596
         592         593         598         597
         593         594         599         598
         600         601         606         605
         601         602         607         606
         602         603         608         607
         603         604         609         608
         605         606         611         610
         606         607         612         611
         607         608         613         612
         608         609         614         613
         610         611         616         615
         611         612         617         616
         612         613         618         617
         613         614         619         618
         615         616         621         620
         616         617         622         621
         617         618         623         622
         618         619         624         623
         625         626         631         630
         626         627         632         631
         627         628         633         632
         628         629         634         633
         630         631         636         635
         631         632         637         636
         632         633         638         637
         633         634         639         638
         635         636         641         640
         636         637         642         641
         637         638         643         642
         638         639         644         643
         640         641         646         645
         641         642         647         646
         642         643         648         647
         643         644         649         648
         650         651         656         655
         651         652         657         656
         652         653         658         657
         653         654         659         658
         655         656         661         660
         656         657         662         661
         657         658         663         662
         658         659         664         663
         660         661         666         665
         661         662         667         666
         662         663         668         667
         663         664         669         668
         665         666         671         670
         666         667         672         671
         667         668         673         672
         668         669         674         673
         675         676         681         680
         676         677         682         681
         677         678         683         682
         678         679         684         683
         680         681         686         685
         681         682         687         686
         682         683         688         687
         683         684         689         688
         685         686         691         690
         686         687         692         691
         687         688         693         692
         688         689         694         693
         690         691         696         695
         691         692         697         696
         692         693         698         697
         693         694         699         698
         700         701         706         705
         701         702         707         706
         702         703         708         707
         703         704         709         708
         705         706         711         710
         706         707         712         711
         707         708         713         712
         708         709         714         713
         710         711         716         715
         711         712         717         716
         712         713         718         717
         713         714         719         718
         715         716         721         720
         716         717         722         721
         717         718         723         722
         718         719         724         723
         725         726         731         730
         726         727         732         731
         727         728         733         732
         728         729         734         733
         730         731         736         735
         731         732         737         736
         732         733         738         737
         733         734         739         738
         735         736         741         740
         736         737         742         741
         737         738         743         742
         738         739         744         743
         740         741         746         745
         741         742         747         746
         742         743         748         747
         743         744         749         748
         750         751         756         755
         751         752         757         756
         752         753         758         757
         753         754         759         758
         755         756         761         760
         756         757         762         761
         757         758         763         762
         758         759         764         763
         760         761         766         765
         761         762         767         766
         762         763         768         767
         763         764         769         768
         765         766         771         770
         766         767         772         771
         767         768         773         772
         768         769         774         773
         775         776         781         780
         776         777         782         781
         777         778         783         782
         778         779         784         783
         780         781         786         785
         781         782         787         786
         782         783         788         787
         783         784         789         788
         785         786         791         790
         786         787         792         791
         787         788         793         792
         788         789         794         793
         790         791         796         795
         791         792         797         796
         792         793         798         797
         793         794         799         798
         800         801         806         805
         801         802         807         806
         802         803         808         807
         803         804         809         808
         805         806         811         810
         806         807         812         811
         807         808         813         812
         808         809         814         813
         810         811         816         815
         811         812         817         816
         812         813         818         817
         813         814         819         818
         815         816         821         820
         816         817         822         821
         817         818         823         822
         818         819         824         823
         825         826         831         830
         826         827         832         831
         827         828         833         832
         828         829         834         833
         830         831         836         835
         831         832         837         836
         832         833         838         837
         833         834         839         838
         835         836         841         840
         836         837         842         841
         837         838         843         842
         838         839         844         843
         840         841         846         845
         841         842         847         846
         842         843         848         847
         843         844         849         848
         850         851         856         855
         851         852         857         856
         852         853         858         857
         853         854         859         858
         855         856         861         860
         856         857         862         861
         857         858         863         862
         858         859         864         863
         860         861         866         865
         861         862         867         866
         862         863         868         867
         863         864         869         868
         865         866         871         870
         866         867         872         871
         867         868         873         872
         868         869         874         873
         875         876         881         880
         876         877         882         881
         877         878         883         882
         878         879         884         883
         880         881         886         885
         881         882         887         886
         882         883         888         887
         883         884         889         888
         885         886         891         890
         886         887         892         891
         887         888         893         892
         888         889         894         893
         890         891         896         895
         891         892         897         896
         892         893         898         897
         893         894         899         898
         900         901         906         905
         901         902         907         906
         902         903         908         907
         903         904         909         908
         905         906         911         910
         906         907         912         911
         907         908         913         912
         908         909         914         913
         910         911         916         915
         911         912         917         916
         912         913         918         917
         913         914         919         918
         915         916         921         920
         916         917         922         921
         917         918         923         922
         918         919         924         923
         925         926         931         930
         926         927         932         931
         927         928         933         932
         928         929         934         933
         930         931         936         935
         931         932         937         936
         932         933         938         937
         933         934         939         938
         935         936         941         940
         936         937         942         941
         937         938         943         942
         938         939         944         943
         940         941         946         945
         941         942         947         946
         942         943         948         947
         943         944         949         948
         950         951         956         955
         951         952         957         956
         952         953         958         957
         953         954         959         958
         955         956         961         960
         956         957         962         961
         957         958         963         962
         958         959         964         963
         960         961         966         965
         961         962         967         966
         962         963         968         967
         963         964         969         968
         965         966         971         970
         966         967         972         971
         967         968         973         972
         968         969         974         973
         975         976         981         980
         976         977         982         981
         977         978         983         982
         978         979         984         983
         980         981         986         985
         981         982         987         986
         982         983         988         987
         983         984         989         988
         985         986         991         990
         986         987         992         991
         987         988         993         992
         988         989         994         993
         990         991         996         995
         991         992         997         996
         992         993         998         997
         993         994         999         998
        1000        1001        1006        1005
        1001        1002        1007        1006
        1002        1003        1008        1007
        1003        1004        1009        1008
        1005        1006        1011        1010
        1006        1007        1012        1011
        1007        1008        1013        1012
        1008        1009        1014        1013
        1010        1011        1016        1015
        1011        1012        1017        1016
        1012        1013        1018        1017
        1013        1014        1019        1018
        1015        1016        1021        1020
        1016        1017        1022        1021
        1017        1018        1023        1022
        1018        1019        1024        1023
        1025        1026        1031        1030
        1026        1027        1032        1031
        1027        1028        1033        1032
        1028        1029        1034        1033
        1030        1031        1036        1035
        1031        1032        1037        1036
        1032        1033        1038        1037
        1033        1034        1039        1038
        1035        1036        1041        1040
        1036        1037        1042        1041
        1037        1038        1043        1042
        1038        1039        1044        1043
        1040        1041        1046        1045
        1041        1042        1047        1046
        1042        1043        1048        1047
        1043        1044        1049        1048
        1050        1051        1056        1055
        1051        1052        1057        1056
        1052        1053        1058        1057
        1053        1054        1059        1058
        1055        1056        1061        1060
        1056        1057        1062        1061
        1057        1058        1063        1062
        1058        1059        1064        1063
        1060        1061        1066        1065
        1061        1062        1067        1066
        1062        1063        1068        1067
        1063        1064        1069        1068
        1065        1066        1071        1070
        1066        1067        1072        1071
        1067        1068        1073        1072
        1068        1069        1074        1073
        1075        1076        1081        1080
        1076        1077        1082        1081
        1077        1078        1083        1082
        1078        1079        1084        1083
        1080        1081        1086        1085
        1081        1082        1087        1086
        1082        1083        1088        1087
        1083        1084        1089        1088
        1085        1086        1091        1090
        1086        1087        1092        1091
        1087        1088        1093        1092
        1088        1089        1094        1093
        1090        1091        1096        1095
        1091        1092        1097        1096
        1092        1093        1098        1097
        1093        1094        1099        1098
        1100        1101        1106        1105
        1101        1102        1107        1106
        1102        1103        1108        1107
        1103        1104        1109        1108
        1105        1106        1111        1110
        1106        1107        1112        1111
        1107        1108        1113        1112
        1108        1109        1114        1113
        1110        1111        1116        1115
        1111        1112        1117        1116
        1112        1113        1118        1117
        1113        1114        1119        1118
        1115        1116        1121        1120
        1116        1117        1122        1121
        1117        1118        1123        1122
        1118        1119        1124        1123
        1125        1126        1131        1130
        1126        1127        1132        1131
        1127        1128        1133        1132
        1128        1129        1134        1133
        1130        1131        1136        1135
        1131        1132        1137        1136
        1132        1133        1138        1137
        1133        1134        1139        1138
        1135        1136        1141        1140
        1136        1137        1142        1141
        1137        1138        1143        1142
        1138        1139        1144        1143
        1140        1141        1146        1145
        1141        1142        1147        1146
        1142        1143        1148        1147
        1143        1144        1149        1148
        1150        1151        1156        1155
        1151        1152        1157        1156
        1152        1153        1158        1157
        1153        1154        1159        1158
        1155        1156        1161        1160
        1156        1157        1162        1161
        1157        1158        1163        1162
        1158        1159        1164        1163
        1160        1161        1166        1165
        1161        1162        1167        1166
        1162        1163        1168        1167
        1163        1164        1169        1168
        1165        1166        1171        1170
        1166        1167        1172        1171
        1167        1168        1173        1172
        1168        1169        1174        1173
        1175        1176        1181        1180
        1176        1177        1182        1181
        1177        1178        1183        1182
        1178        1179        1184        1183
        1180        1181        1186        1185
        1181        1182        1187        1186
        1182        1183        1188        1187
        1183        1184        1189        1188
        1185        1186        1191        1190
        1186        1187        1192        1191
        1187        1188        1193        1192
        1188        1189        1194        1193
        1190        1191        1196        1195
        1191        1192        1197        1196
        1192        1193        1198        1197
        1193        1194        1199        1198
        1200        1201        1206        1205
        1201        1202        1207        1206
        1202        1203        1208        1207
        1203        1204        1209        1208
        1205        1206        1211        1210
        1206        1207        1212        1211
        1207        1208        1213        1212
        1208        1209        1214        1213
        1210        1211        1216        1215
        1211        1212        1217        1216
        1212        1213        1218        1217
        1213        1214        1219        1218
        1215        1216        1221        1220
        1216        1217        1222        1221
        1217        1218        1223        1222
        1218        1219        1224        1223
        1225        1226        1231        1230
        1226        1227        1232        1231
        1227        1228        1233        1232
        1228        1229        1234        1233
        1230        1231        1236        1235
        1231        1232        1237        1236
        1232        1233        1238        1237
        1233        1234        1239        1238
        1235        1236        1241        1240
        1236        1237        1242        1241
        1237        1238        1243        1242
        1238        1239        1244        1243
        1240        1241        1246        1245
        1241        1242        1247        1246
        1242        1243        1248        1247
        1243        1244        1249        1248
        1250        1251        1256        1255
        1251        1252        1257        1256
        1252        1253        1258        1257
        1253        1254        1259        1258
        1255        1256        1261        1260
        1256        1257        1262        1261
        1257        1258        1263        1262
        1258        1259        1264        1263
        1260        1261        1266        1265
        1261        1262        1267        1266
        1262        1263        1268        1267
        1263        1264        1269        1268
        1265        1266        1271        1270
        1266        1267        1272        1271
        1267        1268        1273        1272
        1268        1269        1274        1273
        1275        1276        1281        1280
        1276        1277        1282        1281
        1277        1278        1283        1282
        1278        1279        1284        1283
        1280        1281        1286        1285
        1281        1282        1287        1286
        1282        1283        1288        1287
        1283        1284        1289        1288
        1285        1286        1291        1290
        1286        1287        1292        1291
        1287        1288        1293        1292
        1288        1289        1294        1293
        1290        1291        1296        1295
        1291        1292        1297        1296
        1292        1293        1298        1297
        1293        1294        1299        1298
        1300        1301        1306        1305
        1301        1302        1307        1306
        1302        1303        1308        1307
        1303        1304        1309        1308
        1305        1306        1311        1310
        1306        1307        1312        1311
        1307        1308        1313        1312
        1308        1309        1314        1313
        1310        1311        1316        1315
        1311        1312        1317        1316
        1312        1313        1318        1317
        1313        1314        1319        1318
        1315        1316        1321        1320
        1316        1317        1322        1321
        1317        1318        1323        1322
        1318        1319        1324        1323
        1325        1326        1331        1330
        1326        1327        1332        1331
        1327        1328        1333        1332
        1328        1329        1334        1333
        1330        1331        1336        1335
        1331        1332        1337        1336
        1332        1333        1338        1337
        1333        1334        1339        1338
        1335        1336        1341        1340
        1336        1337        1342        1341
        1337        1338        1343        1342
        1338        1339        1344        1343
        1340        1341        1346        1345
        1341        1342        1347        1346
        1342        1343        1348        1347
        1343        1344        1349        1348
        1350        1351        1356        1355
        1351        1352        1357        1356
        1352        1353        1358        1357
        1353        1354        1359        1358
        1355        1356        1361        1360
        1356        1357        1362        1361
        1357        1358        1363        1362
        1358        1359        1364        1363
        1360        1361        1366        1365
        1361        1362        1367        1366
        1362        1363        1368        1367
        1363        1364        1369        1368
        1365        1366        1371        1370
        1366        1367        1372        1371
        1367        1368        1373        1372
        1368        1369        1374        1373
        1375        1376        1381        1380
        1376        1377        1382        1381
        1377        1378        1383        1382
        1378        1379        1384        1383
        1380        1381        1386        1385
        1381        1382        1387        1386
        1382        1383        1388        1387
        1383        1384        1389        1388
        1385        1386        1391        1390
        1386        1387        1392        1391
        1387        1388        1393        1392
        1388        1389        1394        1393
        1390        1391        1396        1395
        1391        1392        1397        1396
        1392        1393        1398        1397
        1393        1394        1399        1398
        1400        1401        1406        1405
        1401        1402        1407        1406
        1402        1403        1408        1407
        1403        1404        1409        1408
        1405        1406        1411        1410
        1406        1407        1412        1411
        1407        1408        1413        1412
        1408        1409        1414        1413
        1410        1411        1416        1415
        1411        1412        1417        1416
        1412        1413        1418        1417
        1413        1414        1419        1418
        1415        1416        1421        1420
        1416        1417        1422        1421
        1417        1418        1423        1422
        1418        1419        1424        1423
        1425        1426        1431        1430
        1426        1427        1432        1431
        1427        1428        1433        1432
        1428        1429        1434        1433
        1430        1431        1436        1435
        1431        1432        1437        1436
        1432        1433        1438        1437
        1433        1434        1439        1438
        1435        1436        1441        1440
        1436        1437        1442        1441
        1437        1438        1443        1442
        1438        1439        1444        1443
        1440        1441        1446        1445
        1441        1442        1447        1446
        1442        1443        1448        1447
        1443        1444        1449        1448
        1450        1451        1456        1455
        1451        1452        1457        1456
        1452        1453        1458        1457
        1453        1454        1459        1458
        1455        1456        1461        1460
        1456        1457        1462        1461
        1457        1458        1463        1462
        1458        1459        1464        1463
        1460        1461        1466        1465
        1461        1462        1467        1466
        1462        1463        1468        1467
        1463        1464        1469        1468
        1465        1466        1471        1470
        1466        1467        1472        1471
        1467        1468        1473        1472
        1468        1469        1474        1473
        1475        1476        1481        1480
        1476        1477        1482        1481
        1477        1478        1483        1482
        1478        1479        1484        1483
        1480        1481        1486        1485
        1481        1482        1487        1486
        1482        1483        1488        1487
        1483        1484        1489        1488
        1485        1486        1491        1490
        1486        1487        1492        1491
        1487        1488        1493        1492
        1488        1489        1494        1493
        1490        1491        1496        1495
        1491        1492        1497        1496
        1492        1493        1498        1497
        1493        1494        1499        1498
        1500        1501        1506        1505
        1501        1502        1507        1506
        1502        1503        1508        1507
        1503        1504        1509        1508
        1505        1506        1511        1510
        1506        1507        1512        1511
        1507        1508        1513        1512
        1508        1509        1514        1513
        1510        1511        1516        1515
        1511        1512        1517        1516
        1512        1513        1518        1517
        1513        1514        1519        1518
        1515        1516        1521        1520
        1516        1517        1522        1521
        1517        1518        1523        1522
        1518        1519        1524        1523
        1525        1526        1531        1530
        1526        1527        1532        1531
        1527        1528        1533        1532
        1528        1529        1534        1533
        1530        1531        1536        1535
        1531        1532        1537        1536
        1532        1533        1538        1537
        1533        1534        1539        1538
        1535        1536        1541        1540
        1536        1537        1542        1541
        1537        1538        1543        1542
        1538        1539        1544        1543
        1540        1541        1546        1545
        1541        1542        1547        1546
        1542        1543        1548        1547
        1543        1544        1549        1548
        1550        1551        1556        1555
        1551        1552        1557        1556
        1552        1553        1558        1557
        1553        1554        1559        1558
        1555        1556        1561        1560
        1556        1557        1562        1561
        1557        1558        1563        1562
        1558        1559        1564        1563
        1560        1561        1566        1565
        1561        1562        1567        1566
        1562        1563        1568        1567
        1563        1564        1569        1568
        1565        1566        1571        1570
        1566        1567        1572        1571
        1567        1568        1573        1572
        1568        1569        1574        1573
        1575        1576        1581        1580
        1576        1577        1582        1581
        1577        1578        1583        1582
        1578        1579        1584        1583
        1580        1581        1586        1585
        1581        1582        1587        1586
        1582        1583        1588        1587
        1583        1584        1589        1588
        1585        1586        1591        1590
        1586        1587        1592        1591
        1587        1588        1593        1592
        1588        1589        1594        1593
        1590        1591        1596        1595
        1591        1592        1597        1596
        1592        1593        1598        1597
        1593        1594        1599        1598
 </DataArray>
 <DataArray  type="Int32"  Name="offsets"  format="ascii"> 
           4
           8
          12
          16
          20
          24
          28
          32
          36
          40
          44
          48
          52
          56
          60
          64
          68
          72
          76
          80
          84
          88
          92
          96
         100
         104
         108
         112
         116
         120
         124
         128
         132
         136
         140
         144
         148
         152
         156
         160
         164
         168
         172
         176
         180
         184
         188
         192
         196
         200
         204
         208
         212
         216
         220
         224
         228
         232
         236
         240
         244
         248
         252
         256
         260
         264
         268
         272
         276
         280
         284
         288
         292
         296
         300
         304
         308
         312
         316
         320
         324
         328
         332
         336
         340
         344
         348
         352
         356
         360
         364
         368
         372
         376
         380
         384
         388
         392
         396
         400
         404
         408
         412
         416
         420
         424
         428
         432
         436
         440
         444
         448
         452
         456
         460
         464
         468
         472
         476
         480
         484
         488
         492
         496
         500
         504
         508
         512
         516
         520
         524
         528
         532
         536
         540
         544
         548
         552
         556
         560
         564
         568
         572
         576
         580
         584
         588
         592
         596
         600
         604
         608
         612
         616
         620
         624
         628
         632
         636
         640
         644
         648
         652
         656
         660
         664
         668
         672
         676
         680
         684
         688
         692
         696
         700
         704
         708
         712
         716
         720
         724
         728
         732
         736
         740
         744
         748
         752
         756
         760
         764
         768
         772
         776
         780
         784
         788
         792
         796
         800
         804
         808
         812
         816
         820
         824
         828
         832
         836
         840
         844
         848
         852
         856
         860
         864
         868
         872
         876
         880
         884
         888
         892
         896
         900
         904
         908
         912
         916
         920
         924
         928
         932
         936
         940
         944
         948
         952
         956
         960
         964
         968
         972
         976
         980
         984
         988
         992
         996
        1000
        1004
        1008
        1012
        1016
        1020
        1024
        1028
        1032
        1036
        1040
        1044
        1048
        1052
        1056
        1060
        1064
        1068
        1072
        1076
        1080
        1084
        1088
        1092
        1096
        1100
        1104
        1108
        1112
        1116
        1120
        1124
        1128
        1132
        1136
        1140
        1144
        1148
        1152
        1156
        1160
        1164
        1168
        1172
        1176
        1180
        1184
        1188
        1192
        1196
        1200
        1204
        1208
        1212
        1216
        1220
        1224
        1228
        1232
        1236
        1240
        1244
        1248
        1252
        1256
        1260
        1264
        1268
        1272
        1276
        1280
        1284
        1288
        1292
        1296
        1300
        1304
        1308
        1312
        1316
        1320
        1324
        1328
        1332
        1336
        1340
        1344
        1348
        1352
        1356
        1360
        1364
        1368
        1372
        1376
        1380
        1384
        1388
        1392
        1396
        1400
        1404
        1408
        1412
        1416
        1420
        1424
        1428
        1432
        1436
        1440
        1444
        1448
        1452
        1456
        1460
        1464
        1468
        1472
        1476
        1480
        1484
        1488
        1492
        1496
        1500
        1504
        1508
        1512
        1516
        1520
        1524
        1528
        1532
        1536
        1540
        1544
        1548
        1552
        1556
        1560
        1564
        1568
        1572
        1576
        1580
        1584
        1588
        1592
        1596
        1600
        1604
        1608
        1612
        1616
        1620
        1624
        1628
        1632
        1636
        1640
        1644
        1648
        1652
        1656
        1660
        1664
        1668
        1672
        1676
        1680
        1684
        1688
        1692
        1696
        1700
        1704
        1708
        1712
        1716
        1720
        1724
        1728
        1732
        1736
        1740
        1744
        1748
        1752
        1756
        1760
        1764
        1768
        1772
        1776
        1780
        1784
        1788
        1792
        1796
        1800
        1804
        1808
        1812
        1816
        1820
        1824
        1828
        1832
        1836
        1840
        1844
        1848
        1852
        1856
        1860
        1864
        1868
        1872
        1876
        1880
        1884
        1888
        1892
        1896
        1900
        1904
        1908
        1912
        1916
        1920
        1924
        1928
        1932
        1936
        1940
        1944
        1948
        1952
        1956
        1960
        1964
        1968
        1972
        1976
        1980
        1984
        1988
        1992
        1996
        2000
        2004
        2008
        2012
        2016
        2020
        2024
        2028
        2032
        2036
        2040
        2044
        2048
        2052
        2056
        2060
        2064
        2068
        2072
        2076
        2080
        2084
        2088
        2092
        2096
        2100
        2104
        2108
        2112
        2116
        2120
        2124
        2128
        2132
        2136
        2140
        2144
        2148
        2152
        2156
        2160
        2164
        2168
        2172
        2176
        2180
        2184
        2188
        2192
        2196
        2200
        2204
        2208
        2212
        2216
        2220
        2224
        2228
        2232
        2236
        2240
        2244
        2248
        2252
        2256
        2260
        2264
        2268
        2272
        2276
        2280
        2284
        2288
        2292
        2296
        2300
        2304
        2308
        2312
        2316
        2320
        2324
        2328
        2332
        2336
        2340
        2344
        2348
        2352
        2356
        2360
        2364
        2368
        2372
        2376
        2380
        2384
        2388
        2392
        2396
        2400
        2404
        2408
        2412
        2416
        2420
        2424
        2428
        2432
        2436
        2440
        2444
        2448
        2452
        2456
        2460
        2464
        2468
        2472
        2476
        2480
        2484
        2488
        2492
        2496
        2500
        2504
        2508
        2512
        2516
        2520
        2524
        2528
        2532
        2536
        2540
        2544
        2548
        2552
        2556
        2560
        2564
        2568
        2572
        2576
        2580
        2584
        2588
        2592
        2596
        2600
        2604
        2608
        2612
        2616
        2620
        2624
        2628
        2632
        2636
        2640
        2644
        2648
        2652
        2656
        2660
        2664
        2668
        2672
        2676
        2680
        2684
        2688
        2692
        2696
        2700
        2704
        2708
        2712
        2716
        2720
        2724
        2728
        2732
        2736
        2740
        2744
        2748
        2752
        2756
        2760
        2764
        2768
        2772
        2776
        2780
        2784
        2788
        2792
        2796
        2800
        2804
        2808
        2812
        2816
        2820
        2824
        2828
        2832
        2836
        2840
        2844
        2848
        2852
        2856
        2860
        2864
        2868
        2872
        2876
        2880
        2884
        2888
        2892
        2896
        2900
        2904
        2908
        2912
        2916
        2920
        2924
        2928
        2932
        2936
        2940
        2944
        2948
        2952
        2956
        2960
        2964
        2968
        2972
        2976
        2980
        2984
        2988
        2992
        2996
        3000
        3004
        3008
        3012
        3016
        3020
        3024
        3028
        3032
        3036
        3040
        3044
        3048
        3052
        3056
        3060
        3064
        3068
        3072
        3076
        3080
        3084
        3088
        3092
        3096
        3100
        3104
        3108
        3112
        3116
        3120
        3124
        3128
        3132
        3136
        3140
        3144
        3148
        3152
        3156
        3160
        3164
        3168
        3172
        3176
        3180
        3184
        3188
        3192
        3196
        3200
        3204
        3208
        3212
        3216
        3220
        3224
        3228
        3232
        3236
        3240
        3244
        3248
        3252
        3256
        3260
        3264
        3268
        3272
        3276
        3280
        3284
        3288
        3292
        3296
        3300
        3304
        3308
        3312
        3316
        3320
        3324
        3328
        3332
        3336
        3340
        3344
        3348
        3352
        3356
        3360
        3364
        3368
        3372
        3376
        3380
        3384
        3388
        3392
        3396
        3400
        3404
        3408
        3412
        3416
        3420
        3424
        3428
        3432
        3436
        3440
        3444
        3448
        3452
        3456
        3460
        3464
        3468
        3472
        3476
        3480
        3484
        3488
        3492
        3496
        3500
        3504
        3508
        3512
        3516
        3520
        3524
        3528
        3532
        3536
        3540
        3544
        3548
        3552
        3556
        3560
        3564
        3568
        3572
        3576
        3580
        3584
        3588
        3592
        3596
        3600
        3604
        3608
        3612
        3616
        3620
        3624
        3628
        3632
        3636
        3640
        3644
        3648
        3652
        3656
        3660
        3664
        3668
        3672
        3676
        3680
        3684
        3688
        3692
        3696
        3700
        3704
        3708
        3712
        3716
        3720
        3724
        3728
        3732
        3736
        3740
        3744
        3748
        3752
        3756
        3760
        3764
        3768
        3772
        3776
        3780
        3784
        3788
        3792
        3796
        3800
        3804
        3808
        3812
        3816
        3820
        3824
        3828
        3832
        3836
        3840
        3844
        3848
        3852
        3856
        3860
        3864
        3868
        3872
        3876
        3880
        3884
        3888
        3892
        3896
        3900
        3904
        3908
        3912
        3916
        3920
        3924
        3928
        3932
        3936
        3940
        3944
        3948
        3952
        3956
        3960
        3964
        3968
        3972
        3976
        3980
        3984
        3988
        3992
        3996
        4000
        4004
        4008
        4012
        4016
        4020
        4024
        4028
        4032
        4036
        4040
        4044
        4048
        4052
        4056
        4060
        4064
        4068
        4072
        4076
        4080
        4084
        4088
        4092
        4096
 </DataArray>
 <DataArray  type="UInt8"  Name="types"  format="ascii">
 9
 9
 9
 9
 9
 9
 9
 9
 9
 9
 9
 9
 9
 9
 9
 9
 9
 9
 9
 9
 9
 9
 9
 9
 9
 9
 9
 9
 9
 9
 9
 9
 9
 9
 9
 9
 9
 9
 9
 9
 9
 9
 9
 9
 9
 9
 9
 9
 9
 9
 9
 9
 9
 9
 9
 9
 9
 9
 9
 9
 9
 9
 9
 9
 9
 9
 9
 9
 9
 9
 9
 9
 9
 9
 9
 9
 9
 9
 9
 9
 9
 9
 9
 9
 9
 9
 9
 9
 9
 9
 9
 9
 9
 9
 9
 9
 9
 9
 9
 9
 9
 9
 9
 9
 9
 9
 9
 9
 9
 9
 9
 9
 9
 9
 9
 9
 9
 9
 9
 9
 9
 9
 9
 9
 9
 9
 9
 9
 9
 9
 9
 9
 9
 9
 9
 9
 9
 9
 9
 9
 9
 9
 9
 9
 9
 9
 9
 9
 9
 9
 9
 9
 9
 9
 9
 9
 9
 9
 9
 9
 9
 9
 9
 9
 9
 9
 9
 9
 9
 9
 9
 9
 9
 9
 9
 9
 9
 9
 9
 9
 9
 9
 9
 9
 9
 9
 9
 9
 9
 9
 9
 9
 9
 9
 9
 9
 9
 9
 9
 9
 9
 9
 9
 9
 9
 9
 9
 9
 9
 9
 9
 9
 9
 9
 9
 9
 9
 9
 9
 9
 9
 9
 9
 9
 9
 9
 9
 9
 9
 9
 9
 9
 9
 9
 9
 9
 9
 9
 9
 9
 9
 9
 9
 9
 9
 9
 9
 9
 9
 9
 9
 9
 9
 9
 9
 9
 9
 9
 9
 9
 9
 9
 9
 9
 9
 9
 9
 9
 9
 9
 9
 9
 9
 9
 9
 9
 9
 9
 9
 9
 9
 9
 9
 9
 9
 9
 9
 9
 9
 9
 9
 9
 9
 9
 9
 9
 9
 9
 9
 9
 9
 9
 9
 9
 9
 9
 9
 9
 9
 9
 9
 9
 9
 9
 9
 9
 9
 9
 9
 9
 9
 9
 9
 9
 9
 9
 9
 9
 9
 9
 9
 9
 9
 9
 9
 9
 9
 9
 9
 9
 9
 9
 9
 9
 9
 9
 9
 9
 9
 9
 9
 9
 9
 9
 9
 9
 9
 9
 9
 9
 9
 9
 9
 9
 9
 9
 9
 9
 9
 9
 9
 9
 9
 9
 9
 9
 9
 9
 9
 9
 9
 9
 9
 9
 9
 9
 9
 9
 9
 9
 9
 9
 9
 9
 9
 9
 9
 9
 9
 9
 9
 9
 9
 9
 9
 9
 9
 9
 9
 9
 9
 9
 9
 9
 9
 9
 9
 9
 9
 9
 9
 9
 9
 9
 9
 9
 9
 9
 9
 9
 9
 9
 9
 9
 9
 9
 9
 9
 9
 9
 9
 9
 9
 9
 9
 9
 9
 9
 9
 9
 9
 9
 9
 9
 9
 9
 9
 9
 9
 9
 9
 9
 9
 9
 9
 9
 9
 9
 9
 9
 9
 9
 9
 9
 9
 9
 9
 9
 9
 9
 9
 9
 9
 9
 9
 9
 9
 9
 9
 9
 9
 9
 9
 9
 9
 9
 9
 9
 9
 9
 9
 9
 9
 9
 9
 9
 9
 9
 9
 9
 9
 9
 9
 9
 9
 9
 9
 9
 9
 9
 9
 9
 9
 9
 9
 9
 9
 9
 9
 9
 9
 9
 9
 9
 9
 9
 9
 9
 9
 9
 9
 9
 9
 9
 9
 9
 9
 9
 9
 9
 9
 9
 9
 9
 9
 9
 9
 9
 9
 9
 9
 9
 9
 9
 9
 9
 9
 9
 9
 9
 9
 9
 9
 9
 9
 9
 9
 9
 9
 9
 9
 9
 9
 9
 9
 9
 9
 9
 9
 9
 9
 9
 9
 9
 9
 9
 9
 9
 9
 9
 9
 9
 9
 9
 9
 9
 9
 9
 9
 9
 9
 9
 9
 9
 9
 9
 9
 9
 9
 9
 9
 9
 9
 9
 9
 9
 9
 9
 9
 9
 9
 9
 9
 9
 9
 9
 9
 9
 9
 9
 9
 9
 9
 9
 9
 9
 9
 9
 9
 9
 9
 9
 9
 9
 9
 9
 9
 9
 9
 9
 9
 9
 9
 9
 9
 9
 9
 9
 9
 9
 9
 9
 9
 9
 9
 9
 9
 9
 9
 9
 9
 9
 9
 9
 9
 9
 9
 9
 9
 9
 9
 9
 9
 9
 9
 9
 9
 9
 9
 9
 9
 9
 9
 9
 9
 9
 9
 9
 9
 9
 9
 9
 9
 9
 9
 9
 9
 9
 9
 9
 9
 9
 9
 9
 9
 9
 9
 9
 9
 9
 9
 9
 9
 9
 9
 9
 9
 9
 9
 9
 9
 9
 9
 9
 9
 9
 9
 9
 9
 9
 9
 9
 9
 9
 9
 9
 9
 9
 9
 9
 9
 9
 9
 9
 9
 9
 9
 9
 9
 9
 9
 9
 9
 9
 9
 9
 9
 9
 9
 9
 9
 9
 9
 9
 9
 9
 9
 9
 9
 9
 9
 9
 9
 9
 9
 9
 9
 9
 9
 9
 9
 9
 9
 9
 9
 9
 9
 9
 9
 9
 9
 9
 9
 9
 9
 9
 9
 9
 9
 9
 9
 9
 9
 9
 9
 9
 9
 9
 9
 9
 9
 9
 9
 9
 9
 9
 9
 9
 9
 9
 9
 9
 9
 9
 9
 9
 9
 9
 9
 9
 9
 9
 9
 9
 9
 9
 9
 9
 9
 9
 9
 9
 9
 9
 9
 9
 9
 9
 9
 9
 9
 9
 9
 9
 9
 9
 9
 9
 9
 9
 9
 9
 9
 9
 9
 9
 9
 9
 9
 9
 9
 9
 9
 9
 9
 9
 9
 9
 9
 9
 9
 9
 9
 9
 9
 9
 9
 9
 9
 9
 9
 9
 9
 9
 9
 9
 9
 9
 9
 9
 9
 9
 9
 9
 9
 9
 9
 9
 9
 9
 9
 9
 9
 9
 9
 9
 9
 9
 9
 9
 9
 9
 9
 9
 9
 9
 9
 9
 9
 9
 9
 9
 9
 9
 9
 9
 9
 9
 9
 9
 9
 9
 9
 9
 9
 9
 9
 9
 9
 9
 9
 9
 9
 9
 9
 9
 9
 9
 9
 9
 9
 9
 9
 9
 9
 9
 9
 9
 9
 9
 9
 9
 9
 9
 9
 9
 9
 9
 9
 9
 9
 9
 9
 9
 9
 9
 9
 9
 9
 9
 9
 9
 9
 9
 9
 9
 9
 9
 9
 9
 9
 9
 9
 9
 </DataArray>
 </Cells> 
 <PointData>
 <DataArray  type="Float64" Name="disp" NumberOfComponents="3" format="ascii">
   0.0000000000000000        0.0000000000000000        0.0000000000000000     
   6.0960779385106998E-003   3.7901357290373427E-003   0.0000000000000000     
   1.1666237800561516E-002   7.3236273956651223E-003   0.0000000000000000     
   1.6710479586152446E-002   1.0600474999883338E-002   0.0000000000000000     
   2.1228803295283486E-002   1.3620678541691989E-002   0.0000000000000000     
   0.0000000000000000        0.0000000000000000        0.0000000000000000     
   4.8911638645463317E-003   3.0218905751324527E-003   0.0000000000000000     
   9.5736852454160071E-003   6.0603587909602158E-003   0.0000000000000000     
   1.4047564142609027E-002   9.1154046474832880E-003   0.0000000000000000     
   1.8312800556125393E-002   1.2187028144701670E-002   0.0000000000000000     
   0.0000000000000000        0.0000000000000000        0.0000000000000000     
   3.9535124717545497E-003   2.4249295444124480E-003   0.0000000000000000     
   7.9105560460599102E-003   5.0627837311853687E-003   0.0000000000000000     
   1.1871130722916082E-002   7.9135625603187626E-003   0.0000000000000000     
   1.5835236502323061E-002   1.0977266031812630E-002   0.0000000000000000     
   0.0000000000000000        0.0000000000000000        0.0000000000000000     
   3.2831237601353563E-003   1.9992526368773286E-003   0.0000000000000000     
   6.6768502024932234E-003   4.3309022163405828E-003   0.0000000000000000     
   1.0181179327073603E-002   6.9949487383897634E-003   0.0000000000000000     
   1.3796111133876493E-002   9.9913922030248677E-003   0.0000000000000000     
   0.0000000000000000        0.0000000000000000        0.0000000000000000     
   2.8799977296887483E-003   1.7448598525270941E-003   0.0000000000000000     
   5.8725677147159466E-003   3.8647142464258567E-003   0.0000000000000000     
   8.9777099550815941E-003   6.3595631816962869E-003   0.0000000000000000     
   1.2195424450785692E-002   9.2294066583383846E-003   0.0000000000000000     
   2.1228803295283486E-002   1.3620678541691989E-002   0.0000000000000000     
   2.5433875951574439E-002   1.6614215290924515E-002   0.0000000000000000     
   2.9538364578645102E-002   1.9811062517414345E-002   0.0000000000000000     
   3.3542269176495478E-002   2.3211220221161490E-002   0.0000000000000000     
   3.7445589745125560E-002   2.6814688402165943E-002   0.0000000000000000     
   1.8312800556125393E-002   1.2187028144701670E-002   0.0000000000000000     
   2.2407511005594304E-002   1.5343016883863353E-002   0.0000000000000000     
   2.6369812010644974E-002   1.8651158466216327E-002   0.0000000000000000     
   3.0199703571277402E-002   2.2111452891760593E-002   0.0000000000000000     
   3.3897185687491581E-002   2.5723900160496152E-002   0.0000000000000000     
   1.5835236502323061E-002   1.0977266031812630E-002   0.0000000000000000     
   1.9731065764824265E-002   1.4212259286287209E-002   0.0000000000000000     
   2.3486810890963109E-002   1.7576907464362745E-002   0.0000000000000000     
   2.7102471880739592E-002   2.1071210566039233E-002   0.0000000000000000     
   3.0578048734153720E-002   2.4695168591316669E-002   0.0000000000000000     
   1.3796111133876493E-002   9.9913922030248677E-003   0.0000000000000000     
   1.7404540229264322E-002   1.3221942498196085E-002   0.0000000000000000     
   2.0889361219599511E-002   1.6588309511853590E-002   0.0000000000000000     
   2.4250574104882062E-002   2.0090493243997393E-002   0.0000000000000000     
   2.7488178885111972E-002   2.3728493694627494E-002   0.0000000000000000     
   1.2195424450785692E-002   9.2294066583383846E-003   0.0000000000000000     
   1.5427934398914473E-002   1.2372066519589974E-002   0.0000000000000000     
   1.8577462996554172E-002   1.5685364608688877E-002   0.0000000000000000     
   2.1644010243704798E-002   1.9169300925635093E-002   0.0000000000000000     
   2.4627576140366342E-002   2.2823875470428620E-002   0.0000000000000000     
   3.7445589745125560E-002   2.6814688402165943E-002   0.0000000000000000     
   4.1253863984333318E-002   3.0618426918345435E-002   0.0000000000000000     
   4.4972629593916728E-002   3.4619395627617698E-002   0.0000000000000000     
   4.8601886573875777E-002   3.8817594529982735E-002   0.0000000000000000     
   5.2141634924210478E-002   4.3213023625440536E-002   0.0000000000000000     
   3.3897185687491581E-002   2.5723900160496152E-002   0.0000000000000000     
   3.7485770539418692E-002   2.9518818897976706E-002   0.0000000000000000     
   4.0988970307189940E-002   3.3526527729755951E-002   0.0000000000000000     
   4.4406784990805290E-002   3.7747026655833883E-002   0.0000000000000000     
   4.7739214590264756E-002   4.2180315676210521E-002   0.0000000000000000     
   3.0578048734153720E-002   2.4695168591316669E-002   0.0000000000000000     
   3.3942799796820064E-002   2.8494588694412407E-002   0.0000000000000000     
   3.7225983414353209E-002   3.2515278029543772E-002   0.0000000000000000     
   4.0427599586753141E-002   3.6757236596710763E-002   0.0000000000000000     
   4.3547648314019881E-002   4.1220464395913391E-002   0.0000000000000000     
   2.7488178885111972E-002   2.3728493694627494E-002   0.0000000000000000     
   3.0624951756537410E-002   2.7545736307652526E-002   0.0000000000000000     
   3.3683668915406528E-002   3.1585646526981155E-002   0.0000000000000000     
   3.6664330361719344E-002   3.5848224352613360E-002   0.0000000000000000     
   3.9566936095475833E-002   4.0333469784549165E-002   0.0000000000000000     
   2.4627576140366342E-002   2.2823875470428620E-002   0.0000000000000000     
   2.7532226418570737E-002   2.6672261737697083E-002   0.0000000000000000     
   3.0362026810349919E-002   3.0737633222068107E-002   0.0000000000000000     
   3.3116977315703885E-002   3.5019989923541696E-002   0.0000000000000000     
   3.5797077934632632E-002   3.9519331842117825E-002   0.0000000000000000     
   5.2141634924210478E-002   4.3213023625440536E-002   0.0000000000000000     
   5.5583730949922958E-002   4.7806688065950655E-002   0.0000000000000000     
   5.8920030956015342E-002   5.2599593003472653E-002   0.0000000000000000     
   6.2150534942487651E-002   5.7591738438006516E-002   0.0000000000000000     
   6.5275242909339865E-002   6.2783124369552260E-002   0.0000000000000000     
   4.7739214590264756E-002   4.2180315676210521E-002   0.0000000000000000     
   5.0980530876804521E-002   4.6816624009308923E-002   0.0000000000000000     
   5.4125005621660734E-002   5.1646180873552182E-002   0.0000000000000000     
   5.7172638824833401E-002   5.6668986268940291E-002   0.0000000000000000     
   6.0123430486322536E-002   6.1885040195473237E-002   0.0000000000000000     
   4.3547648314019881E-002   4.1220464395913391E-002   0.0000000000000000     
   4.6582711550170790E-002   4.5889634895867455E-002   0.0000000000000000     
   4.9529371249223270E-002   5.0749421565288728E-002   0.0000000000000000     
   5.2387627411177286E-002   5.5799824404177210E-002   0.0000000000000000     
   5.5157480036032859E-002   6.1040843412532922E-002   0.0000000000000000     
   3.9566936095475833E-002   4.0333469784549165E-002   0.0000000000000000     
   4.2390272970021785E-002   4.5025720725626245E-002   0.0000000000000000     
   4.5133127838702922E-002   4.9909315078682286E-002   0.0000000000000000     
   4.7795500701519285E-002   5.4984252843717302E-002   0.0000000000000000     
   5.0377391558470833E-002   6.0250534020731300E-002   0.0000000000000000     
   3.5797077934632632E-002   3.9519331842117825E-002   0.0000000000000000     
   3.8403215136357485E-002   4.4224881498585306E-002   0.0000000000000000     
   4.0936275390099731E-002   4.9125861413732881E-002   0.0000000000000000     
   4.3396258695859384E-002   5.4222271587560565E-002   0.0000000000000000     
   4.5783165053636450E-002   5.9514112020068358E-002   0.0000000000000000     
   6.5275242909339865E-002   6.2783124369552260E-002   0.0000000000000000     
   6.8306612852711363E-002   6.8164864716007426E-002   0.0000000000000000     
   7.1257102768741531E-002   7.3728073395269544E-002   0.0000000000000000     
   7.4126712657430385E-002   7.9472750407338658E-002   0.0000000000000000     
   7.6915442518777910E-002   8.5398895752214737E-002   0.0000000000000000     
   6.0123430486322536E-002   6.1885040195473237E-002   0.0000000000000000     
   6.2985363158180582E-002   6.7289850835672779E-002   0.0000000000000000     
   6.5766419392460015E-002   7.2878926372060643E-002   0.0000000000000000     
   6.8466599189160857E-002   7.8652266804636800E-002   0.0000000000000000     
   7.1085902548283078E-002   8.4609872133401279E-002   0.0000000000000000     
   5.5157480036032859E-002   6.1040843412532922E-002   0.0000000000000000     
   5.7843445125388901E-002   6.6470016085857619E-002   0.0000000000000000     
   6.0450038680844302E-002   7.2084879919653122E-002   0.0000000000000000     
   6.2977260702399104E-002   7.7885434913919402E-002   0.0000000000000000     
   6.5425111190053259E-002   8.3871681068656459E-002   0.0000000000000000     
   5.0377391558470833E-002   6.0250534020731300E-002   0.0000000000000000     
   5.2880858754336305E-002   6.5705360466561946E-002   0.0000000000000000     
   5.5307960633894392E-002   7.1345934038047024E-002   0.0000000000000000     
   5.7658697197145108E-002   7.7172254735186421E-002   0.0000000000000000     
   5.9933068444088453E-002   8.3184322557980250E-002   0.0000000000000000     
   4.5783165053636450E-002   5.9514112020068358E-002   0.0000000000000000     
   4.8097604045022786E-002   6.4995883977785759E-002   0.0000000000000000     
   5.0340185251610270E-002   7.0662088727242264E-002   0.0000000000000000     
   5.2510908673398887E-002   7.6512726268437900E-002   0.0000000000000000     
   5.4609774310388638E-002   8.2547796601372625E-002   0.0000000000000000     
   7.6915442518777910E-002   8.5398895752214737E-002   0.0000000000000000     
   7.9607921892231037E-002   9.1494297842609110E-002   0.0000000000000000     
   8.2188780317236698E-002   9.7746745091233128E-002   0.0000000000000000     
   8.4658017793794907E-002  0.10415623749808681        0.0000000000000000     
   8.7015634321905649E-002  0.11072277506317010        0.0000000000000000     
   7.1085902548283078E-002   8.4609872133401279E-002   0.0000000000000000     
   7.3607554843233183E-002   9.0736493547960886E-002   0.0000000000000000     
   7.6014781447417690E-002   9.7016882237922375E-002   0.0000000000000000     
   7.8307582360836542E-002  0.10345103820328579        0.0000000000000000     
   8.0485957583489767E-002  0.11003896144405112        0.0000000000000000     
   6.5425111190053259E-002   8.3871681068656459E-002   0.0000000000000000     
   6.7776812986050872E-002   9.0026332268356907E-002   0.0000000000000000     
   7.0015588932636000E-002   9.6332102397513344E-002   0.0000000000000000     
   7.2141439029808657E-002  0.10278899145612579        0.0000000000000000     
   7.4154363277568802E-002  0.10939699944419418        0.0000000000000000     
   5.9933068444088453E-002   8.3184322557980250E-002   0.0000000000000000     
   6.2115696320684095E-002   8.9363814003797198E-002   0.0000000000000000     
   6.4191202772891698E-002   9.5692405570006037E-002   0.0000000000000000     
   6.6159587800711253E-002  0.10217009725660675        0.0000000000000000     
   6.8020851404142810E-002  0.10879688906359938        0.0000000000000000     
   5.4609774310388638E-002   8.2547796601372625E-002   0.0000000000000000     
   5.6624204847132827E-002   8.8748938754281734E-002   0.0000000000000000     
   5.8541622968184742E-002   9.5097791755400438E-002   0.0000000000000000     
   6.0362028673544378E-002  0.10159435560472874        0.0000000000000000     
   6.2085421963211734E-002  0.10823863030226664        0.0000000000000000     
   8.7015634321905649E-002  0.11072277506317010        0.0000000000000000     
   8.9274624853792159E-002  0.11743766162557751        0.0000000000000000     
   9.1447984341677641E-002  0.12429220102440339        0.0000000000000000     
   9.3535712785562108E-002  0.13128639325964778        0.0000000000000000     
   9.5537810185445549E-002  0.13842023833131067        0.0000000000000000     
   8.0485957583489767E-002  0.11003896144405112        0.0000000000000000     
   8.2588514011602970E-002  0.11677628313451659        0.0000000000000000     
   8.4653858541401755E-002  0.12365863444898050        0.0000000000000000     
   8.6681991172886122E-002  0.13068601538744284        0.0000000000000000     
   8.8672911906056084E-002  0.13785842594990361        0.0000000000000000     
   7.4154363277568802E-002  0.10939699944419418        0.0000000000000000     
   7.6107347166144479E-002  0.11615567743741775        0.0000000000000000     
   7.8053376185763620E-002  0.12306457651149570        0.0000000000000000     
   7.9992450336426241E-002  0.13012369666642798        0.0000000000000000     
   8.1924569618132340E-002  0.13733303790221454        0.0000000000000000     
   6.8020851404142810E-002  0.10879688906359938        0.0000000000000000     
   6.9831124317416657E-002  0.11557584453428106        0.0000000000000000     
   7.1646537274763222E-002  0.12251002721194895        0.0000000000000000     
   7.3467090276182423E-002  0.12959943709660310        0.0000000000000000     
   7.5292783321674328E-002  0.13684407418824349        0.0000000000000000     
   6.2085421963211734E-002  0.10823863030226664        0.0000000000000000     
   6.3759845465419546E-002  0.11503678442510641        0.0000000000000000     
   6.5433341808400533E-002  0.12199498655034030        0.0000000000000000     
   6.7105910992154710E-002  0.12911323667796828        0.0000000000000000     
   6.8777553016682050E-002  0.13639153480799038        0.0000000000000000     
   9.5537810185445549E-002  0.13842023833131067        0.0000000000000000     
   9.7493818228232595E-002  0.14567574348353143        0.0000000000000000     
   9.9443278600827856E-002  0.15303491596044944        0.0000000000000000     
  0.10138619130323132       0.16049775576206463        0.0000000000000000     
  0.10332255633544299       0.16806426288837703        0.0000000000000000     
   8.8672911906056084E-002  0.13785842594990361        0.0000000000000000     
   9.0578714063081503E-002  0.14515005393210495        0.0000000000000000     
   9.2351490966132307E-002  0.15253508712978903        0.0000000000000000     
   9.3991242615208498E-002  0.16001352554295575        0.0000000000000000     
   9.5497969010310046E-002  0.16758536917160521        0.0000000000000000     
   8.1924569618132340E-002  0.13733303790221454        0.0000000000000000     
   8.3749625139003622E-002  0.14465979277093483        0.0000000000000000     
   8.5367508007161808E-002  0.15207115382466796        0.0000000000000000     
   8.6778218222606895E-002  0.15956712106341403        0.0000000000000000     
   8.7981755785338900E-002  0.16714769448717304        0.0000000000000000     
   7.5292783321674328E-002  0.13684407418824349        0.0000000000000000     
   7.7006551455998953E-002  0.14420496000002092        0.0000000000000000     
   7.8491329723916356E-002  0.15164311604508621        0.0000000000000000     
   7.9747118125426550E-002  0.15915854232343943        0.0000000000000000     
   8.0773916660529493E-002  0.16675123883508050        0.0000000000000000     
   6.8777553016682050E-002  0.13639153480799038        0.0000000000000000     
   7.0349493014067496E-002  0.14378555561936335        0.0000000000000000     
   7.1722956116395953E-002  0.15125097379104385        0.0000000000000000     
   7.2897942323667406E-002  0.15878778932303195        0.0000000000000000     
   7.3874451635881883E-002  0.16639600221532763        0.0000000000000000     
   0.0000000000000000        0.0000000000000000        0.0000000000000000     
   2.8799977296887483E-003   1.7448598525270941E-003   0.0000000000000000     
   5.8725677147159466E-003   3.8647142464258567E-003   0.0000000000000000     
   8.9777099550815941E-003   6.3595631816962869E-003   0.0000000000000000     
   1.2195424450785692E-002   9.2294066583383846E-003   0.0000000000000000     
   0.0000000000000000        0.0000000000000000        0.0000000000000000     
   2.6102738814501847E-003   1.5890453601039422E-003   0.0000000000000000     
   5.2896919482132605E-003   3.5568601548753480E-003   0.0000000000000000     
   8.0382542002892278E-003   5.9034443843142183E-003   0.0000000000000000     
   1.0855960637678085E-002   8.6287980484205523E-003   0.0000000000000000     
   0.0000000000000000        0.0000000000000000        0.0000000000000000     
   2.3400917164551208E-003   1.4591033283500694E-003   0.0000000000000000     
   4.7202062684703469E-003   3.2999802751232160E-003   0.0000000000000000     
   7.1403436560456774E-003   5.5226308403194396E-003   0.0000000000000000     
   9.6005038791811114E-003   8.1270550239387392E-003   0.0000000000000000     
   0.0000000000000000        0.0000000000000000        0.0000000000000000     
   2.0694512347035577E-003   1.3550337572654759E-003   0.0000000000000000     
   4.1641106754872047E-003   3.0940746071694589E-003   0.0000000000000000     
   6.2839783223509419E-003   5.2171225497119490E-003   0.0000000000000000     
   8.4290541752947683E-003   7.7241775848929470E-003   0.0000000000000000     
   0.0000000000000000        0.0000000000000000        0.0000000000000000     
   1.7983524361954938E-003   1.2768366468501615E-003   0.0000000000000000     
   3.6214051692638350E-003   2.9391431510140779E-003   0.0000000000000000     
   5.4691581992050231E-003   4.9869195124917498E-003   0.0000000000000000     
   7.3416115260190587E-003   7.4201657312831766E-003   0.0000000000000000     
   1.2195424450785692E-002   9.2294066583383846E-003   0.0000000000000000     
   1.5427934398914473E-002   1.2372066519589974E-002   0.0000000000000000     
   1.8577462996554172E-002   1.5685364608688877E-002   0.0000000000000000     
   2.1644010243704798E-002   1.9169300925635093E-002   0.0000000000000000     
   2.4627576140366342E-002   2.2823875470428620E-002   0.0000000000000000     
   1.0855960637678085E-002   8.6287980484205523E-003   0.0000000000000000     
   1.3689395525513588E-002   1.1650725974464189E-002   0.0000000000000000     
   1.6485143128929489E-002   1.4887032989714964E-002   0.0000000000000000     
   1.9243203447925784E-002   1.8337719094172884E-002   0.0000000000000000     
   2.1963576482502477E-002   2.2002784287837942E-002   0.0000000000000000     
   9.6005038791811114E-003   8.1270550239387392E-003   0.0000000000000000     
   1.2077070860800532E-002   1.1046015486814031E-002   0.0000000000000000     
   1.4546428523827828E-002   1.4212274889778232E-002   0.0000000000000000     
   1.7008576868262997E-002   1.7625833232831338E-002   0.0000000000000000     
   1.9463515894106036E-002   2.1286690515973348E-002   0.0000000000000000     
   8.4290541752947683E-003   7.7241775848929470E-003   0.0000000000000000     
   1.0590960404775312E-002   1.0557935056639503E-002   0.0000000000000000     
   1.2761319181249200E-002   1.3661090308878670E-002   0.0000000000000000     
   1.4940130504716435E-002   1.7033643341610446E-002   0.0000000000000000     
   1.7127394375177012E-002   2.0675594154834838E-002   0.0000000000000000     
   7.3416115260190587E-003   7.4201657312831766E-003   0.0000000000000000     
   9.2310641574379244E-003   1.0186484683940606E-002   0.0000000000000000     
   1.1129815101193605E-002   1.3233479247016290E-002   0.0000000000000000     
   1.3037864357286096E-002   1.6561149420510228E-002   0.0000000000000000     
   1.4955211925715407E-002   2.0169495204422416E-002   0.0000000000000000     
   2.4627576140366342E-002   2.2823875470428620E-002   0.0000000000000000     
   2.7532226418570737E-002   2.6672261737697083E-002   0.0000000000000000     
   3.0362026810349919E-002   3.0737633222068107E-002   0.0000000000000000     
   3.3116977315703885E-002   3.5019989923541696E-002   0.0000000000000000     
   3.5797077934632632E-002   3.9519331842117825E-002   0.0000000000000000     
   2.1963576482502477E-002   2.2002784287837942E-002   0.0000000000000000     
   2.4629885173558849E-002   2.5880278264084317E-002   0.0000000000000000     
   2.7225752461994174E-002   2.9968250716286164E-002   0.0000000000000000     
   2.9751178347808462E-002   3.4266701644443488E-002   0.0000000000000000     
   3.2206162831001708E-002   3.8775631048556303E-002   0.0000000000000000     
   1.9463515894106036E-002   2.1286690515973348E-002   0.0000000000000000     
   2.1883189412140541E-002   2.5175899166352461E-002   0.0000000000000000     
   2.4239541233150117E-002   2.9274511611116858E-002   0.0000000000000000     
   2.6532571357134764E-002   3.3582527850266546E-002   0.0000000000000000     
   2.8762279784094472E-002   3.8099947883801520E-002   0.0000000000000000     
   1.7127394375177012E-002   2.0675594154834838E-002   0.0000000000000000     
   1.9292139134315819E-002   2.4559124444501524E-002   0.0000000000000000     
   2.1403393123817741E-002   2.8656415906560186E-002   0.0000000000000000     
   2.3461156343682784E-002   3.2967468541010833E-002   0.0000000000000000     
   2.5465428793910946E-002   3.7492282347853456E-002   0.0000000000000000     
   1.4955211925715407E-002   2.0169495204422416E-002   0.0000000000000000     
   1.6856734340084674E-002   2.4029954098531509E-002   0.0000000000000000     
   1.8717308133997048E-002   2.8113963602616161E-002   0.0000000000000000     
   2.0536933307452526E-002   3.2421523716676365E-002   0.0000000000000000     
   2.2315609860451113E-002   3.6952634440712138E-002   0.0000000000000000     
   3.5797077934632632E-002   3.9519331842117825E-002   0.0000000000000000     
   3.8403215136357485E-002   4.4224881498585306E-002   0.0000000000000000     
   4.0936275390099731E-002   4.9125861413732881E-002   0.0000000000000000     
   4.3396258695859384E-002   5.4222271587560565E-002   0.0000000000000000     
   4.5783165053636450E-002   5.9514112020068358E-002   0.0000000000000000     
   3.2206162831001708E-002   3.8775631048556303E-002   0.0000000000000000     
   3.4592853159552774E-002   4.3489986990003920E-002   0.0000000000000000     
   3.6913396581440557E-002   4.8404717530165661E-002   0.0000000000000000     
   3.9167793096665036E-002   5.3519822669041525E-002   0.0000000000000000     
   4.1356042705226213E-002   5.8835302406631526E-002   0.0000000000000000     
   2.8762279784094472E-002   3.8099947883801520E-002   0.0000000000000000     
   3.0930502149982539E-002   4.2823906975141393E-002   0.0000000000000000     
   3.3039074090752241E-002   4.7751540387705793E-002   0.0000000000000000     
   3.5087995606403598E-002   5.2882848121494734E-002   0.0000000000000000     
   3.7077266696936596E-002   5.8217830176508202E-002   0.0000000000000000     
   2.5465428793910946E-002   3.7492282347853456E-002   0.0000000000000000     
   2.7416162107646771E-002   4.2226641453997724E-002   0.0000000000000000     
   2.9313307918034829E-002   4.7166329986353298E-002   0.0000000000000000     
   3.1156866225075103E-002   5.2311347944920178E-002   0.0000000000000000     
   3.2946837028767613E-002   5.7661695329698379E-002   0.0000000000000000     
   2.2315609860451113E-002   3.6952634440712138E-002   0.0000000000000000     
   2.4049833032545480E-002   4.1698190426572919E-002   0.0000000000000000     
   2.5736098063288287E-002   4.6649086326108161E-002   0.0000000000000000     
   2.7374404952679544E-002   5.1805322139317878E-002   0.0000000000000000     
   2.8964753700719249E-002   5.7166897866202063E-002   0.0000000000000000     
   4.5783165053636450E-002   5.9514112020068358E-002   0.0000000000000000     
   4.8097604045022786E-002   6.4995883977785759E-002   0.0000000000000000     
   5.0340185251610270E-002   7.0662088727242264E-002   0.0000000000000000     
   5.2510908673398887E-002   7.6512726268437900E-002   0.0000000000000000     
   5.4609774310388638E-002   8.2547796601372625E-002   0.0000000000000000     
   4.1356042705226213E-002   5.8835302406631526E-002   0.0000000000000000     
   4.3478048816754870E-002   6.4342444264537085E-002   0.0000000000000000     
   4.5533714840881742E-002   7.0032535764359638E-002   0.0000000000000000     
   4.7523040777606856E-002   7.5905576906099184E-002   0.0000000000000000     
   4.9446026626930206E-002   8.1961567689755724E-002   0.0000000000000000     
   3.7077266696936596E-002   5.8217830176508202E-002   0.0000000000000000     
   3.9006560888839019E-002   6.3745898971823964E-002   0.0000000000000000     
   4.0875551708598648E-002   6.9456466926519758E-002   0.0000000000000000     
   4.2684239156215477E-002   7.5349534040595662E-002   0.0000000000000000     
   4.4432623231689505E-002   8.1425100314051563E-002   0.0000000000000000     
   3.2946837028767613E-002   5.7661695329698379E-002   0.0000000000000000     
   3.4683140261275253E-002   6.3206248099646381E-002   0.0000000000000000     
   3.6365695854760967E-002   6.8933882213722680E-002   0.0000000000000000     
   3.7994503809224742E-002   7.4844597671927277E-002   0.0000000000000000     
   3.9569564124666584E-002   8.0938394474260184E-002   0.0000000000000000     
   2.8964753700719249E-002   5.7166897866202063E-002   0.0000000000000000     
   3.0507786934063578E-002   6.2723491648004351E-002   0.0000000000000000     
   3.2004147279368712E-002   6.8464781625968363E-002   0.0000000000000000     
   3.3453834736634658E-002   7.4390767800094112E-002   0.0000000000000000     
   3.4856849305861401E-002   8.0501450170381600E-002   0.0000000000000000     
   5.4609774310388638E-002   8.2547796601372625E-002   0.0000000000000000     
   5.6624204847132827E-002   8.8748938754281734E-002   0.0000000000000000     
   5.8541622968184742E-002   9.5097791755400438E-002   0.0000000000000000     
   6.0362028673544378E-002  0.10159435560472874        0.0000000000000000     
   6.2085421963211734E-002  0.10823863030226664        0.0000000000000000     
   4.9446026626930206E-002   8.1961567689755724E-002   0.0000000000000000     
   5.1292942240669208E-002   8.8182347729891350E-002   0.0000000000000000     
   5.3054057470641298E-002   9.4549756641068156E-002   0.0000000000000000     
   5.4729372316846464E-002  0.10106379442328617        0.0000000000000000     
   5.6318886779284712E-002  0.10772446107654533        0.0000000000000000     
   4.4432623231689505E-002   8.1425100314051563E-002   0.0000000000000000     
   4.6112512176565340E-002   8.7664682140706870E-002   0.0000000000000000     
   4.7715714232387491E-002   9.4049795914380827E-002   0.0000000000000000     
   4.9242229399156005E-002  0.10058044163507347        0.0000000000000000     
   5.0692057676870836E-002  0.10725661930278478        0.0000000000000000     
   3.9569564124666584E-002   8.0938394474260184E-002   0.0000000000000000     
   4.1082914654821216E-002   8.7195941986728295E-002   0.0000000000000000     
   4.2526593253423353E-002   9.3597909575338450E-002   0.0000000000000000     
   4.3900599920472988E-002  0.10014429724009068        0.0000000000000000     
   4.5204934655970121E-002  0.10683510498098495        0.0000000000000000     
   3.4856849305861401E-002   8.0501450170381600E-002   0.0000000000000000     
   3.6204149675436836E-002   8.6776127267955624E-002   0.0000000000000000     
   3.7486694533748845E-002   9.3194097623941013E-002   0.0000000000000000     
   3.8704483880797412E-002   9.9755361238337767E-002   0.0000000000000000     
   3.9857517716582552E-002  0.10645991811114588        0.0000000000000000     
   6.2085421963211734E-002  0.10823863030226664        0.0000000000000000     
   6.3759845465419546E-002  0.11503678442510641        0.0000000000000000     
   6.5433341808400533E-002  0.12199498655034030        0.0000000000000000     
   6.7105910992154710E-002  0.12911323667796828        0.0000000000000000     
   6.8777553016682050E-002  0.13639153480799038        0.0000000000000000     
   5.6318886779284712E-002  0.10772446107654533        0.0000000000000000     
   5.7859010549073497E-002  0.11454067216840147        0.0000000000000000     
   5.9386153317330270E-002  0.12152134326641027        0.0000000000000000     
   6.0900315084055037E-002  0.12866647437057177        0.0000000000000000     
   6.2401495849247764E-002  0.13597606548088595        0.0000000000000000     
   5.0692057676870836E-002  0.10725661930278478        0.0000000000000000     
   5.2094119507298919E-002  0.11408968282267377        0.0000000000000000     
   5.3477335332207089E-002  0.12109098609989945        0.0000000000000000     
   5.4841705151595373E-002  0.12826052913446179        0.0000000000000000     
   5.6187228965463736E-002  0.13559831192636085        0.0000000000000000     
   4.5204934655970121E-002  0.10683510498098495        0.0000000000000000     
   4.6465172340095784E-002  0.11368381638792333        0.0000000000000000     
   4.7706887853030983E-002  0.12070391505080783        0.0000000000000000     
   4.8930081194775696E-002  0.12789540096963836        0.0000000000000000     
   5.0134752365329945E-002  0.13525827414441507        0.0000000000000000     
   3.9857517716582552E-002  0.10645991811114588        0.0000000000000000     
   4.0972169047464119E-002  0.11332307286415017        0.0000000000000000     
   4.2074810879801944E-002  0.12036013011913538        0.0000000000000000     
   4.3165443213596048E-002  0.12757108987610152        0.0000000000000000     
   4.4244066048846412E-002  0.13495595213504860        0.0000000000000000     
   6.8777553016682050E-002  0.13639153480799038        0.0000000000000000     
   7.0349493014067496E-002  0.14378555561936335        0.0000000000000000     
   7.1722956116395953E-002  0.15125097379104385        0.0000000000000000     
   7.2897942323667406E-002  0.15878778932303195        0.0000000000000000     
   7.3874451635881883E-002  0.16639600221532763        0.0000000000000000     
   6.2401495849247764E-002  0.13597606548088595        0.0000000000000000     
   6.3821201117818360E-002  0.14340117500472313        0.0000000000000000     
   6.5090936394676682E-002  0.15089286134945376        0.0000000000000000     
   6.6210701679822723E-002  0.15845112451507773        0.0000000000000000     
   6.7180496973256482E-002  0.16607596450159509        0.0000000000000000     
   5.6187228965463736E-002  0.13559831192636085        0.0000000000000000     
   5.7464427071860683E-002  0.14305141353186154        0.0000000000000000     
   5.8623819768834649E-002  0.15056691300722894        0.0000000000000000     
   5.9665407056385657E-002  0.15814481035246297        0.0000000000000000     
   6.0589188934513677E-002  0.16578510556756365        0.0000000000000000     
   5.0134752365329945E-002  0.13525827414441507        0.0000000000000000     
   5.1279170876194435E-002  0.14273627120077848        0.0000000000000000     
   5.2321606238869861E-002  0.15027312876436935        0.0000000000000000     
   5.3262058453356215E-002  0.15786884683518762        0.0000000000000000     
   5.4100527519653510E-002  0.16552342541323331        0.0000000000000000     
   4.4244066048846412E-002  0.13495595213504860        0.0000000000000000     
   4.5265432530819633E-002  0.14245574801147398        0.0000000000000000     
   4.6184295804782304E-002  0.15001150862087501        0.0000000000000000     
   4.7000655870734410E-002  0.15762323396325170        0.0000000000000000     
   4.7714512728675954E-002  0.16529092403860407        0.0000000000000000     
   0.0000000000000000        0.0000000000000000        0.0000000000000000     
   1.7983524361954938E-003   1.2768366468501615E-003   0.0000000000000000     
   3.6214051692638350E-003   2.9391431510140779E-003   0.0000000000000000     
   5.4691581992050231E-003   4.9869195124917498E-003   0.0000000000000000     
   7.3416115260190587E-003   7.4201657312831766E-003   0.0000000000000000     
   0.0000000000000000        0.0000000000000000        0.0000000000000000     
   1.5350631144053955E-003   1.2174564394367294E-003   0.0000000000000000     
   3.0994404308812952E-003   2.8207371873322441E-003   0.0000000000000000     
   4.6931319494276993E-003   4.8098422436865440E-003   0.0000000000000000     
   6.3161376700446087E-003   7.1847716084996287E-003   0.0000000000000000     
   0.0000000000000000        0.0000000000000000        0.0000000000000000     
   1.2878510628077278E-003   1.1698375773577833E-003   0.0000000000000000     
   2.6055671414206443E-003   2.7244079967991292E-003   0.0000000000000000     
   3.9531482358387514E-003   4.6637112583240358E-003   0.0000000000000000     
   5.3305943460620472E-003   6.9877473619325073E-003   0.0000000000000000     
   0.0000000000000000        0.0000000000000000        0.0000000000000000     
   1.0567162814024901E-003   1.1339800606133231E-003   0.0000000000000000     
   2.1397853008818827E-003   2.6501555794147327E-003   0.0000000000000000     
   3.2492070584381775E-003   4.5485265564042289E-003   0.0000000000000000     
   4.3849815540713752E-003   6.8290929915818107E-003   0.0000000000000000     
   0.0000000000000000        0.0000000000000000        0.0000000000000000     
   8.4165877018968320E-004   1.1098838892033486E-003   0.0000000000000000     
   1.7020949092650096E-003   2.5979799351790547E-003   0.0000000000000000     
   2.5813084172259786E-003   4.4642881379271188E-003   0.0000000000000000     
   3.4792992940725917E-003   6.7088084974475416E-003   0.0000000000000000     
   7.3416115260190587E-003   7.4201657312831766E-003   0.0000000000000000     
   9.2310641574379244E-003   1.0186484683940606E-002   0.0000000000000000     
   1.1129815101193605E-002   1.3233479247016290E-002   0.0000000000000000     
   1.3037864357286096E-002   1.6561149420510228E-002   0.0000000000000000     
   1.4955211925715407E-002   2.0169495204422416E-002   0.0000000000000000     
   6.3161376700446087E-003   7.1847716084996287E-003   0.0000000000000000     
   7.9557705544723179E-003   9.8958602389601844E-003   0.0000000000000000     
   9.5993435644511228E-003   1.2893443092256892E-002   0.0000000000000000     
   1.1246856699981021E-002   1.6177520168389758E-002   0.0000000000000000     
   1.2898309961062017E-002   1.9748091467358776E-002   0.0000000000000000     
   5.3305943460620472E-003   6.9877473619325073E-003   0.0000000000000000     
   6.7234680315624408E-003   9.6502575919410784E-003   0.0000000000000000     
   8.1173318518118348E-003   1.2604983232666287E-002   0.0000000000000000     
   9.5121858068102378E-003   1.5851924284108136E-002   0.0000000000000000     
   1.0908029896557640E-002   1.9391080746266626E-002   0.0000000000000000     
   4.3849815540713752E-003   6.8290929915818107E-003   0.0000000000000000     
   5.5341565887082932E-003   9.4496767428832902E-003   0.0000000000000000     
   6.6837799632757499E-003   1.2368099668244478E-002   0.0000000000000000     
   7.8338516777737479E-003   1.5584361767665370E-002   0.0000000000000000     
   8.9843717322022811E-003   1.9098463041145972E-002   0.0000000000000000     
   3.4792992940725917E-003   6.7088084974475416E-003   0.0000000000000000     
   4.3878362259098767E-003   9.2941176917868216E-003   0.0000000000000000     
   5.2986878988428620E-003   1.2182792398991458E-002   0.0000000000000000     
   6.2118543128715491E-003   1.5374832619061453E-002   0.0000000000000000     
   7.1273354679959357E-003   1.8870238351996801E-002   0.0000000000000000     
   1.4955211925715407E-002   2.0169495204422416E-002   0.0000000000000000     
   1.6856734340084674E-002   2.4029954098531509E-002   0.0000000000000000     
   1.8717308133997048E-002   2.8113963602616161E-002   0.0000000000000000     
   2.0536933307452526E-002   3.2421523716676365E-002   0.0000000000000000     
   2.2315609860451113E-002   3.6952634440712138E-002   0.0000000000000000     
   1.2898309961062017E-002   1.9748091467358776E-002   0.0000000000000000     
   1.4537409560676704E-002   2.3579262928414106E-002   0.0000000000000000     
   1.6147861711807682E-002   2.7645140490805898E-002   0.0000000000000000     
   1.7729666414454948E-002   3.1945724154534158E-002   0.0000000000000000     
   1.9282823668618505E-002   3.6481013919598890E-002   0.0000000000000000     
   1.0908029896557640E-002   1.9391080746266626E-002   0.0000000000000000     
   1.2294599327321510E-002   2.3197925734121012E-002   0.0000000000000000     
   1.3661629305369296E-002   2.7247932362650541E-002   0.0000000000000000     
   1.5009119830701002E-002   3.1541100631855216E-002   0.0000000000000000     
   1.6337070903316632E-002   3.6077430541735039E-002   0.0000000000000000     
   8.9843717322022811E-003   1.9098463041145972E-002   0.0000000000000000     
   1.0128303640019088E-002   2.2885942515652225E-002   0.0000000000000000     
   1.1258610914681891E-002   2.6922339218150081E-002   0.0000000000000000     
   1.2375293556190693E-002   3.1207653148639537E-002   0.0000000000000000     
   1.3478351564545495E-002   3.5741884307120601E-002   0.0000000000000000     
   7.1273354679959357E-003   1.8870238351996801E-002   0.0000000000000000     
   8.0385224987694365E-003   2.2643313273007747E-002   0.0000000000000000     
   8.9388065397454641E-003   2.6668361057304520E-002   0.0000000000000000     
   9.8281875909240184E-003   3.0945381704887129E-002   0.0000000000000000     
   1.0706665652305099E-002   3.5474375215755562E-002   0.0000000000000000     
   2.2315609860451113E-002   3.6952634440712138E-002   0.0000000000000000     
   2.4049833032545480E-002   4.1698190426572919E-002   0.0000000000000000     
   2.5736098063288287E-002   4.6649086326108161E-002   0.0000000000000000     
   2.7374404952679544E-002   5.1805322139317878E-002   0.0000000000000000     
   2.8964753700719249E-002   5.7166897866202063E-002   0.0000000000000000     
   1.9282823668618505E-002   3.6481013919598890E-002   0.0000000000000000     
   2.0800517169908616E-002   4.1236187209782060E-002   0.0000000000000000     
   2.2275930613935575E-002   4.6196421448865654E-002   0.0000000000000000     
   2.3709064000699366E-002   5.1361716636849686E-002   0.0000000000000000     
   2.5099917330199992E-002   5.6732072773734162E-002   0.0000000000000000     
   1.6337070903316632E-002   3.6077430541735039E-002   0.0000000000000000     
   1.7637216764966178E-002   4.0838265120540243E-002   0.0000000000000000     
   1.8901291657399639E-002   4.5804947396521072E-002   0.0000000000000000     
   2.0129295580617029E-002   5.0977477369677504E-002   0.0000000000000000     
   2.1321228534618330E-002   5.6355855040009568E-002   0.0000000000000000     
   1.3478351564545495E-002   3.5741884307120601E-002   0.0000000000000000     
   1.4559931817718145E-002   4.0504424158847467E-002   0.0000000000000000     
   1.5612181193680484E-002   4.5474664169074377E-002   0.0000000000000000     
   1.6635099692432521E-002   5.0652604337801312E-002   0.0000000000000000     
   1.7628687313974246E-002   5.6038244665028290E-002   0.0000000000000000     
   1.0706665652305099E-002   3.5474375215755562E-002   0.0000000000000000     
   1.1568662328164524E-002   4.0234664324703753E-002   0.0000000000000000     
   1.2408599222778108E-002   4.5205571766525607E-002   0.0000000000000000     
   1.3226476336145853E-002   5.0387097541221143E-002   0.0000000000000000     
   1.4022293668267757E-002   5.5779241648790327E-002   0.0000000000000000     
   2.8964753700719249E-002   5.7166897866202063E-002   0.0000000000000000     
   3.0507786934063578E-002   6.2723491648004351E-002   0.0000000000000000     
   3.2004147279368712E-002   6.8464781625968363E-002   0.0000000000000000     
   3.3453834736634658E-002   7.4390767800094112E-002   0.0000000000000000     
   3.4856849305861401E-002   8.0501450170381600E-002   0.0000000000000000     
   2.5099917330199992E-002   5.6732072773734162E-002   0.0000000000000000     
   2.6449774732316234E-002   6.2298215801835574E-002   0.0000000000000000     
   2.7759920336926865E-002   6.8050871663470472E-002   0.0000000000000000     
   2.9030354144031892E-002   7.3990040358638834E-002   0.0000000000000000     
   3.0261076153631303E-002   8.0115721887340716E-002   0.0000000000000000     
   2.1321228534618330E-002   5.6355855040009568E-002   0.0000000000000000     
   2.2478377481145478E-002   6.1931006746077766E-002   0.0000000000000000     
   2.3602029381940417E-002   6.7693858826442674E-002   0.0000000000000000     
   2.4692184237003131E-002   7.3644411281104244E-002   0.0000000000000000     
   2.5748842046333636E-002   7.9782664110062504E-002   0.0000000000000000     
   1.7628687313974246E-002   5.6038244665028290E-002   0.0000000000000000     
   1.8593595180551311E-002   6.1621864480730947E-002   0.0000000000000000     
   1.9530474414409357E-002   6.7393743114884955E-002   0.0000000000000000     
   2.0439325015548380E-002   7.3353880567490287E-002   0.0000000000000000     
   2.1320146983968384E-002   7.9502276838547006E-002   0.0000000000000000     
   1.4022293668267757E-002   5.5779241648790327E-002   0.0000000000000000     
   1.4795427830533732E-002   6.1370789005795096E-002   0.0000000000000000     
   1.5545255434333695E-002   6.7150524528797315E-002   0.0000000000000000     
   1.6271776479667637E-002   7.3118448217797019E-002   0.0000000000000000     
   1.6974990966535562E-002   7.9274560072794181E-002   0.0000000000000000     
   3.4856849305861401E-002   8.0501450170381600E-002   0.0000000000000000     
   3.6204149675436836E-002   8.6776127267955624E-002   0.0000000000000000     
   3.7486694533748845E-002   9.3194097623941013E-002   0.0000000000000000     
   3.8704483880797412E-002   9.9755361238337767E-002   0.0000000000000000     
   3.9857517716582552E-002  0.10645991811114588        0.0000000000000000     
   3.0261076153631303E-002   8.0115721887340716E-002   0.0000000000000000     
   3.1441971389916057E-002   8.6405826075046835E-002   0.0000000000000000     
   3.2562924877077092E-002   9.2838262747228048E-002   0.0000000000000000     
   3.3623936615114397E-002   9.9413031903884314E-002   0.0000000000000000     
   3.4625006604028001E-002  0.10613013354501566        0.0000000000000000     
   2.5748842046333636E-002   7.9782664110062504E-002   0.0000000000000000     
   2.6762133949762724E-002   8.6085626498659959E-002   0.0000000000000000     
   2.7722191087121192E-002   9.2530307632239073E-002   0.0000000000000000     
   2.8629013458409059E-002   9.9116707510799887E-002   0.0000000000000000     
   2.9482601063626317E-002  0.10584482613434233        0.0000000000000000     
   2.1320146983968384E-002   7.9502276838547006E-002   0.0000000000000000     
   2.2164637354976827E-002   8.5815528538794955E-002   0.0000000000000000     
   2.2964493163881161E-002   9.2270232278974115E-002   0.0000000000000000     
   2.3719714410681381E-002   9.8866388059084445E-002   0.0000000000000000     
   2.4430301095377499E-002  0.10560399587912596        0.0000000000000000     
   1.6974990966535562E-002   7.9274560072794181E-002   0.0000000000000000     
   1.7649481605558376E-002   8.5595532195451865E-002   0.0000000000000000     
   1.8289831107356977E-002   9.2058036687433148E-002   0.0000000000000000     
   1.8896039471931372E-002   9.8662073548738030E-002   0.0000000000000000     
   1.9468106699281555E-002  0.10540764277936651        0.0000000000000000     
   3.9857517716582552E-002  0.10645991811114588        0.0000000000000000     
   4.0972169047464119E-002  0.11332307286415017        0.0000000000000000     
   4.2074810879801944E-002  0.12036013011913538        0.0000000000000000     
   4.3165443213596048E-002  0.12757108987610152        0.0000000000000000     
   4.4244066048846412E-002  0.13495595213504860        0.0000000000000000     
   3.4625006604028001E-002  0.10613013354501566        0.0000000000000000     
   3.5594028388928362E-002  0.11300646788601069        0.0000000000000000     
   3.6558895514925992E-002  0.12005893514225807        0.0000000000000000     
   3.7519607982020885E-002  0.12728753531375780        0.0000000000000000     
   3.8476165790213041E-002  0.13469226840050988        0.0000000000000000     
   2.9482601063626317E-002  0.10584482613434233        0.0000000000000000     
   3.0309669124012988E-002  0.11273301708816137        0.0000000000000000     
   3.1136932860809121E-002  0.11979963395755190        0.0000000000000000     
   3.1964392274014694E-002  0.12704467674251388        0.0000000000000000     
   3.2792047363629742E-002  0.13446814544304728        0.0000000000000000     
   2.4430301095377499E-002  0.10560399587912596        0.0000000000000000     
   2.5119091252717982E-002  0.11250272047060221        0.0000000000000000     
   2.5808922917451318E-002  0.11958222656501678        0.0000000000000000     
   2.6499796089577501E-002  0.12684251416236966        0.0000000000000000     
   2.7191710769096534E-002  0.13428358326266088        0.0000000000000000     
   1.9468106699281555E-002  0.10540764277936651        0.0000000000000000     
   2.0022294775043355E-002  0.11231557803333322        0.0000000000000000     
   2.0574865684852593E-002  0.11940671296465281        0.0000000000000000     
   2.1125819428709277E-002  0.12668104757332524        0.0000000000000000     
   2.1675156006613398E-002  0.13413858185935054        0.0000000000000000     
   4.4244066048846412E-002  0.13495595213504860        0.0000000000000000     
   4.5265432530819633E-002  0.14245574801147398        0.0000000000000000     
   4.6184295804782304E-002  0.15001150862087501        0.0000000000000000     
   4.7000655870734410E-002  0.15762323396325170        0.0000000000000000     
   4.7714512728675954E-002  0.16529092403860407        0.0000000000000000     
   3.8476165790213041E-002  0.13469226840050988        0.0000000000000000     
   3.9377311464008913E-002  0.14221178900750367        0.0000000000000000     
   4.0171787527914948E-002  0.14978475173972858        0.0000000000000000     
   4.0859593981931147E-002  0.15741115659718458        0.0000000000000000     
   4.1440730826057523E-002  0.16509100357987169        0.0000000000000000     
   3.2792047363629742E-002  0.13446814544304728        0.0000000000000000     
   3.3568907104034880E-002  0.14200633923242323        0.0000000000000000     
   3.4243980469610746E-002  0.14959555728391263        0.0000000000000000     
   3.4817267460357362E-002  0.15723579959751555        0.0000000000000000     
   3.5288768076274707E-002  0.16492706617323200        0.0000000000000000     
   2.7191710769096534E-002  0.13428358326266088        0.0000000000000000     
   2.7840219450897558E-002  0.14183939868623260        0.0000000000000000     
   2.8400874629869732E-002  0.14944392525342723        0.0000000000000000     
   2.8873676306013032E-002  0.15709716296424467        0.0000000000000000     
   2.9258624479327488E-002  0.16479911181868495        0.0000000000000000     
   2.1675156006613398E-002  0.13413858185935054        0.0000000000000000     
   2.2191248504596941E-002  0.14171096736893185        0.0000000000000000     
   2.2642470008691868E-002  0.14932985564827228        0.0000000000000000     
   2.3028820518898180E-002  0.15699524669737189        0.0000000000000000     
   2.3350300035215887E-002  0.16470714051623062        0.0000000000000000     
   0.0000000000000000        0.0000000000000000        0.0000000000000000     
   8.4165877018968320E-004   1.1098838892033486E-003   0.0000000000000000     
   1.7020949092650096E-003   2.5979799351790547E-003   0.0000000000000000     
   2.5813084172259786E-003   4.4642881379271188E-003   0.0000000000000000     
   3.4792992940725917E-003   6.7088084974475416E-003   0.0000000000000000     
   0.0000000000000000        0.0000000000000000        0.0000000000000000     
   6.3378966563953909E-004   1.0939406252671894E-003   0.0000000000000000     
   1.2779766109657187E-003   2.5619814633694262E-003   0.0000000000000000     
   1.9325608359785388E-003   4.4041225143067100E-003   0.0000000000000000     
   2.5975423406779988E-003   6.6203637780790411E-003   0.0000000000000000     
   0.0000000000000000        0.0000000000000000        0.0000000000000000     
   4.2422010422229041E-004   1.0825418309441748E-003   0.0000000000000000     
   8.5291105037970359E-004   2.5362605632631751E-003   0.0000000000000000     
   1.2860728384722394E-003   4.3611561969570008E-003   0.0000000000000000     
   1.7237054684998978E-003   6.5572287320256510E-003   0.0000000000000000     
   0.0000000000000000        0.0000000000000000        0.0000000000000000     
   2.1295008593793702E-004   1.0756875062343048E-003   0.0000000000000000     
   4.2689822750696411E-004   2.5208172348603016E-003   0.0000000000000000     
   6.4184442470708117E-004   4.3353891858779903E-003   0.0000000000000000     
   8.5778867753828845E-004   6.5194033592873716E-003   0.0000000000000000     
   0.0000000000000000        0.0000000000000000        0.0000000000000000     
  -2.0389213521075601E-008   1.0733776511375800E-003   0.0000000000000000     
  -6.1857652499622707E-008   2.5156514781608068E-003   0.0000000000000000     
  -1.2440531693572263E-007   4.3268214810696813E-003   0.0000000000000000     
  -2.0803220682929406E-007   6.5068876598642026E-003   0.0000000000000000     
   3.4792992940725917E-003   6.7088084974475416E-003   0.0000000000000000     
   4.3878362259098767E-003   9.2941176917868216E-003   0.0000000000000000     
   5.2986878988428620E-003   1.2182792398991458E-002   0.0000000000000000     
   6.2118543128715491E-003   1.5374832619061453E-002   0.0000000000000000     
   7.1273354679959357E-003   1.8870238351996801E-002   0.0000000000000000     
   2.5975423406779988E-003   6.6203637780790411E-003   0.0000000000000000     
   3.2699589643726576E-003   9.1777280092526902E-003   0.0000000000000000     
   3.9468485463710718E-003   1.2043237962393932E-002   0.0000000000000000     
   4.6282110866732434E-003   1.5216893637502763E-002   0.0000000000000000     
   5.3140465852791717E-003   1.8698695034579185E-002   0.0000000000000000     
   1.7237054684998978E-003   6.5572287320256510E-003   0.0000000000000000     
   2.1659768253021036E-003   9.0946552658819190E-003   0.0000000000000000     
   2.6130547937182821E-003   1.1943612895938595E-002   0.0000000000000000     
   3.0649393737484328E-003   1.5104101622195680E-002   0.0000000000000000     
   3.5216305653925565E-003   1.8576121444653180E-002   0.0000000000000000     
   8.5778867753828845E-004   6.5194033592873716E-003   0.0000000000000000     
   1.0758898086982154E-003   9.0448994616745045E-003   0.0000000000000000     
   1.2973066408844911E-003   1.1883917199625451E-002   0.0000000000000000     
   1.5220391740971163E-003   1.5036456573140211E-002   0.0000000000000000     
   1.7500874083360906E-003   1.8502517582218783E-002   0.0000000000000000     
  -2.0803220682929406E-007   6.5068876598642026E-003   0.0000000000000000     
  -3.0208543900836471E-007   9.0284605966304485E-003   0.0000000000000000     
  -3.9591213030056927E-007   1.1864150873454497E-002   0.0000000000000000     
  -4.8951228070635158E-007   1.5013958490336347E-002   0.0000000000000000     
  -5.8288589022570825E-007   1.8477883447276001E-002   0.0000000000000000     
   7.1273354679959357E-003   1.8870238351996801E-002   0.0000000000000000     
   8.0385224987694365E-003   2.2643313273007747E-002   0.0000000000000000     
   8.9388065397454641E-003   2.6668361057304520E-002   0.0000000000000000     
   9.8281875909240184E-003   3.0945381704887129E-002   0.0000000000000000     
   1.0706665652305099E-002   3.5474375215755562E-002   0.0000000000000000     
   5.3140465852791717E-003   1.8698695034579185E-002   0.0000000000000000     
   5.9974273357222378E-003   2.2461320162142431E-002   0.0000000000000000     
   6.6714256315358253E-003   2.6477447028711732E-002   0.0000000000000000     
   7.3360414727199333E-003   3.0747075634287097E-002   0.0000000000000000     
   7.9912748592745626E-003   3.5270205978868513E-002   0.0000000000000000     
   3.5216305653925565E-003   1.8576121444653180E-002   0.0000000000000000     
   3.9771895830271672E-003   2.2331245339011128E-002   0.0000000000000000     
   4.4256776410287798E-003   2.6341046280969595E-002   0.0000000000000000     
   4.8670947393973938E-003   3.0605524270528549E-002   0.0000000000000000     
   5.3014408781330109E-003   3.5124679307688020E-002   0.0000000000000000     
   1.7500874083360906E-003   1.8502517582218783E-002   0.0000000000000000     
   1.9778092406842248E-003   2.2253088803613857E-002   0.0000000000000000     
   2.2015625682243276E-003   2.6259158814078098E-002   0.0000000000000000     
   2.4213473909563991E-003   3.0520727613611510E-002   0.0000000000000000     
   2.6371637088804401E-003   3.5037795202214096E-002   0.0000000000000000     
  -5.8288589022570825E-007   1.8477883447276001E-002   0.0000000000000000     
  -7.1369130658988566E-007   2.2226850555950591E-002   0.0000000000000000     
  -9.1958687753167516E-007   2.6231784628037241E-002   0.0000000000000000     
  -1.2005726030506227E-006   3.0492685663535950E-002   0.0000000000000000     
  -1.5566484831460847E-006   3.5009553662446735E-002   0.0000000000000000     
   1.0706665652305099E-002   3.5474375215755562E-002   0.0000000000000000     
   1.1568662328164524E-002   4.0234664324703753E-002   0.0000000000000000     
   1.2408599222778108E-002   4.5205571766525607E-002   0.0000000000000000     
   1.3226476336145853E-002   5.0387097541221143E-002   0.0000000000000000     
   1.4022293668267757E-002   5.5779241648790327E-002   0.0000000000000000     
   7.9912748592745626E-003   3.5270205978868513E-002   0.0000000000000000     
   8.6342950159790741E-003   4.0026849083523511E-002   0.0000000000000000     
   9.2622711676128289E-003   4.4997015969319619E-002   0.0000000000000000     
   9.8752033141758268E-003   5.0180706636256824E-002   0.0000000000000000     
   1.0473091455668066E-002   5.5577921084335138E-002   0.0000000000000000     
   5.3014408781330109E-003   3.5124679307688020E-002   0.0000000000000000     
   5.7277166008355600E-003   3.9878841900721197E-002   0.0000000000000000     
   6.1449224511049708E-003   4.4848342557901273E-002   0.0000000000000000     
   6.5530584289412450E-003   5.0033181279228262E-002   0.0000000000000000     
   6.9521245343443826E-003   5.5433358064702135E-002   0.0000000000000000     
   2.6371637088804401E-003   3.5037795202214096E-002   0.0000000000000000     
   2.8489270827339770E-003   3.9790642776296806E-002   0.0000000000000000     
   3.0565530732545344E-003   4.4759551532270590E-002   0.0000000000000000     
   3.2600416804421115E-003   4.9944521470135443E-002   0.0000000000000000     
   3.4593929042967099E-003   5.5345552589891371E-002   0.0000000000000000     
  -1.5566484831460847E-006   3.5009553662446735E-002   0.0000000000000000     
  -2.0735383256721305E-006   3.9762251710250343E-002   0.0000000000000000     
  -2.8369659384820710E-006   4.4730642892427556E-002   0.0000000000000000     
  -3.8469313215760417E-006   4.9914727208978382E-002   0.0000000000000000     
  -5.1034344749534191E-006   5.5314504659902800E-002   0.0000000000000000     
   1.4022293668267757E-002   5.5779241648790327E-002   0.0000000000000000     
   1.4795427830533732E-002   6.1370789005795096E-002   0.0000000000000000     
   1.5545255434333695E-002   6.7150524528797315E-002   0.0000000000000000     
   1.6271776479667637E-002   7.3118448217797019E-002   0.0000000000000000     
   1.6974990966535562E-002   7.9274560072794181E-002   0.0000000000000000     
   1.0473091455668066E-002   5.5577921084335138E-002   0.0000000000000000     
   1.1054188351793975E-002   6.1175895564361205E-002   0.0000000000000000     
   1.1616746762257987E-002   6.6961866327141684E-002   0.0000000000000000     
   1.2160766687060100E-002   7.2935833372676576E-002   0.0000000000000000     
   1.2686248126200313E-002   7.9097796700965881E-002   0.0000000000000000     
   6.9521245343443826E-003   5.5433358064702135E-002   0.0000000000000000     
   7.3401896650332719E-003   6.1035299399520251E-002   0.0000000000000000     
   7.7153227187268022E-003   6.6825431768879950E-002   0.0000000000000000     
   8.0775236954249725E-003   7.2803755172781176E-002   0.0000000000000000     
   8.4267925951277845E-003   7.8970269611223956E-002   0.0000000000000000     
   3.4593929042967099E-003   5.5345552589891371E-002   0.0000000000000000     
   3.6534317702516207E-003   6.0949000511272278E-002   0.0000000000000000     
   3.8409833037401355E-003   6.6741220854012101E-002   0.0000000000000000     
   4.0220475047622545E-003   7.2722213618110820E-002   0.0000000000000000     
   4.1966243733179776E-003   7.8891978803568436E-002   0.0000000000000000     
  -5.1034344749534191E-006   5.5314504659902800E-002   0.0000000000000000     
  -6.0853325509778238E-006   6.0916998899617256E-002   0.0000000000000000     
  -6.2714827020108710E-006   6.6709233582538163E-002   0.0000000000000000     
  -5.6618849280541732E-006   7.2691208708665495E-002   0.0000000000000000     
  -4.2565392291056027E-006   7.8862924277999305E-002   0.0000000000000000     
   1.6974990966535562E-002   7.9274560072794181E-002   0.0000000000000000     
   1.7649481605558376E-002   8.5595532195451865E-002   0.0000000000000000     
   1.8289831107356977E-002   9.2058036687433148E-002   0.0000000000000000     
   1.8896039471931372E-002   9.8662073548738030E-002   0.0000000000000000     
   1.9468106699281555E-002  0.10540764277936651        0.0000000000000000     
   1.2686248126200313E-002   7.9097796700965881E-002   0.0000000000000000     
   1.3190714078921724E-002   8.5424557363262155E-002   0.0000000000000000     
   1.3671687544467436E-002   9.1892916410817982E-002   0.0000000000000000     
   1.4129168522837450E-002   9.8502873843633321E-002   0.0000000000000000     
   1.4563157014031760E-002  0.10525442966170820        0.0000000000000000     
   8.4267925951277845E-003   7.8970269611223956E-002   0.0000000000000000     
   8.7623821524812334E-003   8.5301523936857346E-002   0.0000000000000000     
   9.0835451021313192E-003   9.1774067002330345E-002   0.0000000000000000     
   9.3902814440780368E-003   9.8387898807642982E-002   0.0000000000000000     
   9.6825911783213897E-003  0.10514301935279520        0.0000000000000000     
   4.1966243733179776E-003   7.8891978803568436E-002   0.0000000000000000     
   4.3644858262369014E-003   8.5226431916237452E-002   0.0000000000000000     
   4.5254037803486207E-003   9.1701488461970307E-002   0.0000000000000000     
   4.6793782356531347E-003   9.8317148440766985E-002   0.0000000000000000     
   4.8264091921504451E-003  0.10507341185262756        0.0000000000000000     
  -4.2565392291056027E-006   7.8862924277999305E-002   0.0000000000000000     
  -2.9748998112721393E-006   8.5199281301402446E-002   0.0000000000000000     
  -2.7364208806551250E-006   9.1675180789737812E-002   0.0000000000000000     
  -3.5411024372572703E-006   9.8290622743005401E-002   0.0000000000000000     
  -5.3889444810756477E-006  0.10504560716120523        0.0000000000000000     
   1.9468106699281555E-002  0.10540764277936651        0.0000000000000000     
   2.0022294775043355E-002  0.11231557803333322        0.0000000000000000     
   2.0574865684852593E-002  0.11940671296465281        0.0000000000000000     
   2.1125819428709277E-002  0.12668104757332524        0.0000000000000000     
   2.1675156006613398E-002  0.13413858185935054        0.0000000000000000     
   1.4563157014031760E-002  0.10525442966170820        0.0000000000000000     
   1.4982971376283710E-002  0.11216944010318582        0.0000000000000000     
   1.5397929967826643E-002  0.11926976140620937        0.0000000000000000     
   1.5808032788660553E-002  0.12655539357077888        0.0000000000000000     
   1.6213279838785444E-002  0.13402633659689434        0.0000000000000000     
   9.6825911783213897E-003  0.10514301935279520        0.0000000000000000     
   9.9648127417336640E-003  0.11206215700699143        0.0000000000000000     
   1.0241284571187155E-002  0.11916804013943597        0.0000000000000000     
   1.0512006666681853E-002  0.12646066875012885        0.0000000000000000     
   1.0776979028217762E-002  0.13394004283907010        0.0000000000000000     
   4.8264091921504451E-003  0.10507341185262756        0.0000000000000000     
   4.9678188713932194E-003  0.11199372874475008        0.0000000000000000     
   5.1049294949341304E-003  0.11910154916433263        0.0000000000000000     
   5.2377410627731744E-003  0.12639687311137524        0.0000000000000000     
   5.3662535749103551E-003  0.13387970058587792        0.0000000000000000     
  -5.3889444810756477E-006  0.10504560716120523        0.0000000000000000     
  -8.0102347376283418E-006  0.11196415531646173        0.0000000000000000     
  -1.1135260932430076E-005  0.11907028848089930        0.0000000000000000     
  -1.4764023065480769E-005  0.12636400665451797        0.0000000000000000     
  -1.8896521136780014E-005  0.13384530983731771        0.0000000000000000     
   2.1675156006613398E-002  0.13413858185935054        0.0000000000000000     
   2.2191248504596941E-002  0.14171096736893185        0.0000000000000000     
   2.2642470008691868E-002  0.14932985564827228        0.0000000000000000     
   2.3028820518898180E-002  0.15699524669737189        0.0000000000000000     
   2.3350300035215887E-002  0.16470714051623062        0.0000000000000000     
   1.6213279838785444E-002  0.13402633659689434        0.0000000000000000     
   1.6596008576042126E-002  0.14161219194393468        0.0000000000000000     
   1.6938556458271407E-002  0.14924256107127901        0.0000000000000000     
   1.7240923485473288E-002  0.15691744397892726        0.0000000000000000     
   1.7503109657647769E-002  0.16463684066687945        0.0000000000000000     
   1.0776979028217762E-002  0.13394004283907010        0.0000000000000000     
   1.1028513976142228E-002  0.14153421907465488        0.0000000000000000     
   1.1258923830802594E-002  0.14917125412527846        0.0000000000000000     
   1.1468208592198856E-002  0.15685114799094077        0.0000000000000000     
   1.1656368260331017E-002  0.16457390067164188        0.0000000000000000     
   5.3662535749103551E-003  0.13387970058587792        0.0000000000000000     
   5.4887647048972458E-003  0.14147704876109243        0.0000000000000000     
   5.6035721262854199E-003  0.14911593481027063        0.0000000000000000     
   5.7106758390748809E-003  0.15679635873341247        0.0000000000000000     
   5.8100758432656279E-003  0.16451832053051799        0.0000000000000000     
  -1.8896521136780014E-005  0.13384530983731771        0.0000000000000000     
  -2.3239237692824610E-005  0.14144068100324730        0.0000000000000000     
  -2.7498655280107885E-005  0.14907660312625556        0.0000000000000000     
  -3.1674773898632876E-005  0.15675307620634235        0.0000000000000000     
  -3.5767593548396981E-005  0.16447010024350778        0.0000000000000000     
   0.0000000000000000        0.0000000000000000        0.0000000000000000     
  -2.0389213521075601E-008   1.0733776511375800E-003   0.0000000000000000     
  -6.1857652499622707E-008   2.5156514781608068E-003   0.0000000000000000     
  -1.2440531693572263E-007   4.3268214810696813E-003   0.0000000000000000     
  -2.0803220682929406E-007   6.5068876598642026E-003   0.0000000000000000     
   0.0000000000000000        0.0000000000000000        0.0000000000000000     
  -2.1299206187497041E-004   1.0756335877875919E-003   0.0000000000000000     
  -4.2702088664672356E-004   2.5207833968200030E-003   0.0000000000000000     
  -6.4208647431525932E-004   4.3354494270972325E-003   0.0000000000000000     
  -8.5818882488057765E-004   6.5196316786192803E-003   0.0000000000000000     
   0.0000000000000000        0.0000000000000000        0.0000000000000000     
  -4.2426567268929750E-004   1.0824766383179341E-003   0.0000000000000000     
  -8.5303054102374312E-004   2.5362330944932029E-003   0.0000000000000000     
  -1.2862946050033368E-003   4.3612693685258054E-003   0.0000000000000000     
  -1.7240578646280790E-003   6.5575854604157440E-003   0.0000000000000000     
   0.0000000000000000        0.0000000000000000        0.0000000000000000     
  -6.3384122165650229E-004   1.0939068027286062E-003   0.0000000000000000     
  -1.2780908207835585E-003   2.5620005711804068E-003   0.0000000000000000     
  -1.9327487973811687E-003   4.4042813053554010E-003   0.0000000000000000     
  -2.5978151514493338E-003   6.6207490052535905E-003   0.0000000000000000     
   0.0000000000000000        0.0000000000000000        0.0000000000000000     
  -8.4171870877658471E-004   1.1099240810196083E-003   0.0000000000000000     
  -1.7022017259261698E-003   2.5980858268816144E-003   0.0000000000000000     
  -2.5814490514487554E-003   4.4644852375860201E-003   0.0000000000000000     
  -3.4794606853443414E-003   6.7091223131328223E-003   0.0000000000000000     
  -2.0803220682929406E-007   6.5068876598642026E-003   0.0000000000000000     
  -3.0208543900836471E-007   9.0284605966304485E-003   0.0000000000000000     
  -3.9591213030056927E-007   1.1864150873454497E-002   0.0000000000000000     
  -4.8951228070635158E-007   1.5013958490336347E-002   0.0000000000000000     
  -5.8288589022570825E-007   1.8477883447276001E-002   0.0000000000000000     
  -8.5818882488057765E-004   6.5196316786192803E-003   0.0000000000000000     
  -1.0764680816582389E-003   9.0452544426825755E-003   0.0000000000000000     
  -1.2980643879638046E-003   1.1884242010583544E-002   0.0000000000000000     
  -1.5229777437972738E-003   1.5036594382322188E-002   0.0000000000000000     
  -1.7512081491586470E-003   1.8502311557898506E-002   0.0000000000000000     
  -1.7240578646280790E-003   6.5575854604157440E-003   0.0000000000000000     
  -2.1664774045081501E-003   9.0951967717637101E-003   0.0000000000000000     
  -2.6137103092537324E-003   1.1944118704170404E-002   0.0000000000000000     
  -3.0657565788648248E-003   1.5104351257635826E-002   0.0000000000000000     
  -3.5226162133414271E-003   1.8575894432159974E-002   0.0000000000000000     
  -2.5978151514493338E-003   6.6207490052535905E-003   0.0000000000000000     
  -3.2703300539887415E-003   9.1782875838738558E-003   0.0000000000000000     
  -3.9473336760000840E-003   1.2043780954215079E-002   0.0000000000000000     
  -4.6288260174833585E-003   1.5217229116277259E-002   0.0000000000000000     
  -5.3148070784385677E-003   1.8698632070060402E-002   0.0000000000000000     
  -3.4794606853443414E-003   6.7091223131328223E-003   0.0000000000000000     
  -4.3880260301000134E-003   9.2945268790130108E-003   0.0000000000000000     
  -5.2989344882028583E-003   1.2183228760717568E-002   0.0000000000000000     
  -6.2121860596528770E-003   1.5375227958246496E-002   0.0000000000000000     
  -7.1277807444500687E-003   1.8870524471599794E-002   0.0000000000000000     
  -5.8288589022570825E-007   1.8477883447276001E-002   0.0000000000000000     
  -7.1369130658988566E-007   2.2226850555950591E-002   0.0000000000000000     
  -9.1958687753167516E-007   2.6231784628037241E-002   0.0000000000000000     
  -1.2005726030506227E-006   3.0492685663535950E-002   0.0000000000000000     
  -1.5566484831460847E-006   3.5009553662446735E-002   0.0000000000000000     
  -1.7512081491586470E-003   1.8502311557898506E-002   0.0000000000000000     
  -1.9791812609056569E-003   2.2252686371904844E-002   0.0000000000000000     
  -2.2033227358960361E-003   2.6259011658933535E-002   0.0000000000000000     
  -2.4236325741297847E-003   3.0521287418984591E-002   0.0000000000000000     
  -2.6401107756069040E-003   3.5039513652058006E-002   0.0000000000000000     
  -3.5226162133414271E-003   1.8575894432159974E-002   0.0000000000000000     
  -3.9783955160733559E-003   2.2330752027360103E-002   0.0000000000000000     
  -4.4272007904504265E-003   2.6340927842853488E-002   0.0000000000000000     
  -4.8690320364726362E-003   3.0606421878640117E-002   0.0000000000000000     
  -5.3038892541399877E-003   3.5127234134719992E-002   0.0000000000000000     
  -5.3148070784385677E-003   1.8698632070060402E-002   0.0000000000000000     
  -5.9983564568096889E-003   2.2461047522316386E-002   0.0000000000000000     
  -6.6725537505407002E-003   2.6477533179797098E-002   0.0000000000000000     
  -7.3373989596316035E-003   3.0748089042502539E-002   0.0000000000000000     
  -7.9928920840823987E-003   3.5272715110432708E-002   0.0000000000000000     
  -7.1277807444500687E-003   1.8870524471599794E-002   0.0000000000000000     
  -8.0390640831146543E-003   2.2643572856773677E-002   0.0000000000000000     
  -8.9393816161668620E-003   2.6668827669764358E-002   0.0000000000000000     
  -9.8287333436066857E-003   3.0946288910571849E-002   0.0000000000000000     
  -1.0707119265434132E-002   3.5475956579196138E-002   0.0000000000000000     
  -1.5566484831460847E-006   3.5009553662446735E-002   0.0000000000000000     
  -2.0735383256721305E-006   3.9762251710250343E-002   0.0000000000000000     
  -2.8369659384820710E-006   4.4730642892427556E-002   0.0000000000000000     
  -3.8469313215760417E-006   4.9914727208978382E-002   0.0000000000000000     
  -5.1034344749534191E-006   5.5314504659902800E-002   0.0000000000000000     
  -2.6401107756069040E-003   3.5039513652058006E-002   0.0000000000000000     
  -2.8528305326979853E-003   3.9793034617238064E-002   0.0000000000000000     
  -3.0618650377736215E-003   4.4761194573609081E-002   0.0000000000000000     
  -3.2672142908338133E-003   4.9943993521171043E-002   0.0000000000000000     
  -3.4688782918785594E-003   5.5341431459923950E-002   0.0000000000000000     
  -5.3038892541399877E-003   3.5127234134719992E-002   0.0000000000000000     
  -5.7308891707375589E-003   3.9882357411916272E-002   0.0000000000000000     
  -6.1491485135504263E-003   4.4850784511052080E-002   0.0000000000000000     
  -6.5586672825785914E-003   5.0032515432127438E-002   0.0000000000000000     
  -6.9594454778220544E-003   5.5427550175142330E-002   0.0000000000000000     
  -7.9928920840823987E-003   3.5272715110432708E-002   0.0000000000000000     
  -8.6362494524443913E-003   4.0030220094284932E-002   0.0000000000000000     
  -9.2646873932688972E-003   4.4999412704756547E-002   0.0000000000000000     
  -9.8782059065559147E-003   5.0180292941847553E-002   0.0000000000000000     
  -1.0476804992305444E-002   5.5572860805557935E-002   0.0000000000000000     
  -1.0707119265434132E-002   3.5475956579196138E-002   0.0000000000000000     
  -1.1568911377818486E-002   4.0236622664344072E-002   0.0000000000000000     
  -1.2408481676929036E-002   4.5207079154722489E-002   0.0000000000000000     
  -1.3225830162765781E-002   5.0387326050331381E-002   0.0000000000000000     
  -1.4020956835328726E-002   5.5777363351170776E-002   0.0000000000000000     
  -5.1034344749534191E-006   5.5314504659902800E-002   0.0000000000000000     
  -6.0853325509778238E-006   6.0916998899617256E-002   0.0000000000000000     
  -6.2714827020108710E-006   6.6709233582538163E-002   0.0000000000000000     
  -5.6618849280541732E-006   7.2691208708665495E-002   0.0000000000000000     
  -4.2565392291056027E-006   7.8862924277999305E-002   0.0000000000000000     
  -3.4688782918785594E-003   5.5341431459923950E-002   0.0000000000000000     
  -3.6647224212105608E-003   6.0941479748997940E-002   0.0000000000000000     
  -3.8526120591325240E-003   6.6732109747523194E-002   0.0000000000000000     
  -4.0325472056444468E-003   7.2713321455499663E-002   0.0000000000000000     
  -4.2045278607463279E-003   7.8885114872927389E-002   0.0000000000000000     
  -6.9594454778220544E-003   5.5427550175142330E-002   0.0000000000000000     
  -7.3488402735631675E-003   6.1024628243857147E-002   0.0000000000000000     
  -7.7242088440842901E-003   6.6812489142032291E-002   0.0000000000000000     
  -8.0855511893854169E-003   7.2791132869667749E-002   0.0000000000000000     
  -8.4328673094665480E-003   7.8960559426763527E-002   0.0000000000000000     
  -1.0476804992305444E-002   5.5572860805557935E-002   0.0000000000000000     
  -1.1058438889608802E-002   6.1166444384194864E-002   0.0000000000000000     
  -1.1621061837557308E-002   6.6950371766065470E-002   0.0000000000000000     
  -1.2164673836150964E-002   7.2924642951169780E-002   0.0000000000000000     
  -1.2689274885389765E-002   7.9089257939507746E-002   0.0000000000000000     
  -1.4020956835328726E-002   5.5777363351170776E-002   0.0000000000000000     
  -1.4793518269347458E-002   6.1366928170011069E-002   0.0000000000000000     
  -1.5543171039551580E-002   6.7145757619622715E-002   0.0000000000000000     
  -1.6269915145941085E-002   7.3113851700005700E-002   0.0000000000000000     
  -1.6973750588515982E-002   7.9271210411160017E-002   0.0000000000000000     
  -4.2565392291056027E-006   7.8862924277999305E-002   0.0000000000000000     
  -2.9748998112721393E-006   8.5199281301402446E-002   0.0000000000000000     
  -2.7364208806551250E-006   9.1675180789737812E-002   0.0000000000000000     
  -3.5411024372572703E-006   9.8290622743005401E-002   0.0000000000000000     
  -5.3889444810756477E-006  0.10504560716120523        0.0000000000000000     
  -4.2045278607463279E-003   7.8885114872927389E-002   0.0000000000000000     
  -4.3700212339216182E-003   8.5221525930015876E-002   0.0000000000000000     
  -4.5304945346537652E-003   9.1696590556974669E-002   0.0000000000000000     
  -4.6859477629427682E-003   9.8310308753803782E-002   0.0000000000000000     
  -4.8363809187886280E-003  0.10506268052050322        0.0000000000000000     
  -8.4328673094665480E-003   7.8960559426763527E-002   0.0000000000000000     
  -8.7666743843524686E-003   8.5294619639741276E-002   0.0000000000000000     
  -9.0874895940679622E-003   9.1767164335022688E-002   0.0000000000000000     
  -9.3953129386130270E-003   9.8378193512607792E-002   0.0000000000000000     
  -9.6901444179876648E-003  0.10512770717249649        0.0000000000000000     
  -1.2689274885389765E-002   7.9089257939507746E-002   0.0000000000000000     
  -1.3192934351103823E-002   8.5418562430578701E-002   0.0000000000000000     
  -1.3673721599123247E-002   9.1886902123881883E-002   0.0000000000000000     
  -1.4131636629448035E-002   9.8494277019417348E-002   0.0000000000000000     
  -1.4566679442078187E-002  0.10524068711718507        0.0000000000000000     
  -1.6973750588515982E-002   7.9271210411160017E-002   0.0000000000000000     
  -1.7648801134175683E-002   8.5593354302528069E-002   0.0000000000000000     
  -1.8289190549819621E-002   9.2055803923552240E-002   0.0000000000000000     
  -1.8894918835447791E-002   9.8658559274232532E-002   0.0000000000000000     
  -1.9465985991060194E-002  0.10540162035456893        0.0000000000000000     
  -5.3889444810756477E-006  0.10504560716120523        0.0000000000000000     
  -8.0102347376283418E-006  0.11196415531646173        0.0000000000000000     
  -1.1135260932430076E-005  0.11907028848089930        0.0000000000000000     
  -1.4764023065480769E-005  0.12636400665451797        0.0000000000000000     
  -1.8896521136780014E-005  0.13384530983731771        0.0000000000000000     
  -4.8363809187886280E-003  0.10506268052050322        0.0000000000000000     
  -4.9826196150792017E-003  0.11197794959164867        0.0000000000000000     
  -5.1254894647023508E-003  0.11908035970181581        0.0000000000000000     
  -5.2649904676580778E-003  0.12636991085100469        0.0000000000000000     
  -5.4011226239463750E-003  0.13384660303921533        0.0000000000000000     
  -9.6901444179876648E-003  0.10512770717249649        0.0000000000000000     
  -9.9759543080518241E-003  0.11203962443983313        0.0000000000000000     
  -1.0256712884665462E-002  0.11913786443976204        0.0000000000000000     
  -1.0532420147828571E-002  0.12642242717228314        0.0000000000000000     
  -1.0803076097541159E-002  0.13389331263739651        0.0000000000000000     
  -1.4566679442078187E-002  0.10524068711718507        0.0000000000000000     
  -1.4988014313655497E-002  0.11214917986101521        0.0000000000000000     
  -1.5404805520821754E-002  0.11924280269473796        0.0000000000000000     
  -1.5817053063576968E-002  0.12652155561835332        0.0000000000000000     
  -1.6224756941921135E-002  0.13398543863186130        0.0000000000000000     
  -1.9465985991060194E-002  0.10540162035456893        0.0000000000000000     
  -2.0018799631890214E-002  0.11230661585519482        0.0000000000000000     
  -2.0569767373171240E-002  0.11939517446674357        0.0000000000000000     
  -2.1118889214903271E-002  0.12666729618921518        0.0000000000000000     
  -2.1666165157086300E-002  0.13412298102260964        0.0000000000000000     
  -1.8896521136780014E-005  0.13384530983731771        0.0000000000000000     
  -2.3239237692824610E-005  0.14144068100324730        0.0000000000000000     
  -2.7498655280107885E-005  0.14907660312625556        0.0000000000000000     
  -3.1674773898632876E-005  0.15675307620634235        0.0000000000000000     
  -3.5767593548396981E-005  0.16447010024350778        0.0000000000000000     
  -5.4011226239463750E-003  0.13384660303921533        0.0000000000000000     
  -5.5316369324943746E-003  0.14143699777205790        0.0000000000000000     
  -5.6542843922292082E-003  0.14906765655514267        0.0000000000000000     
  -5.7690650031508714E-003  0.15673857938846963        0.0000000000000000     
  -5.8759787652593659E-003  0.16444976627203878        0.0000000000000000     
  -1.0803076097541159E-002  0.13389331263739651        0.0000000000000000     
  -1.1060567460373805E-002  0.14147788103846251        0.0000000000000000     
  -1.1296780962897091E-002  0.14910349257884153        0.0000000000000000     
  -1.1511716605111019E-002  0.15677014725853361        0.0000000000000000     
  -1.1705374387015586E-002  0.16447784507753871        0.0000000000000000     
  -1.6224756941921135E-002  0.13398543863186130        0.0000000000000000     
  -1.6610030821331112E-002  0.14156333080246111        0.0000000000000000     
  -1.6954988367283760E-002  0.14918411119735214        0.0000000000000000     
  -1.7259629579779074E-002  0.15684777981653422        0.0000000000000000     
  -1.7523954458817059E-002  0.16455433666000754        0.0000000000000000     
  -2.1666165157086300E-002  0.13412298102260964        0.0000000000000000     
  -2.2180027015366293E-002  0.14169334706405379        0.0000000000000000     
  -2.2628906605389208E-002  0.14930951241067442        0.0000000000000000     
  -2.3012803927155035E-002  0.15697147706247158        0.0000000000000000     
  -2.3331718980663777E-002  0.16467924101944525        0.0000000000000000     
   0.0000000000000000        0.0000000000000000        0.0000000000000000     
  -8.4171870877658471E-004   1.1099240810196083E-003   0.0000000000000000     
  -1.7022017259261698E-003   2.5980858268816144E-003   0.0000000000000000     
  -2.5814490514487554E-003   4.4644852375860201E-003   0.0000000000000000     
  -3.4794606853443414E-003   6.7091223131328223E-003   0.0000000000000000     
   0.0000000000000000        0.0000000000000000        0.0000000000000000     
  -1.0567784274823759E-003   1.1340957151844133E-003   0.0000000000000000     
  -2.1398765731741008E-003   2.6503453478910932E-003   0.0000000000000000     
  -3.2492944370751745E-003   4.5487488981200402E-003   0.0000000000000000     
  -4.3850320191855972E-003   6.8293063658712537E-003   0.0000000000000000     
   0.0000000000000000        0.0000000000000000        0.0000000000000000     
  -1.2879006712067063E-003   1.1699889472164943E-003   0.0000000000000000     
  -2.6056286792498751E-003   2.7246356205031090E-003   0.0000000000000000     
  -3.9531840241295059E-003   4.6639400198598430E-003   0.0000000000000000     
  -5.3305667058455982E-003   6.9879021452866992E-003   0.0000000000000000     
   0.0000000000000000        0.0000000000000000        0.0000000000000000     
  -1.5350854399495762E-003   1.2176037771158509E-003   0.0000000000000000     
  -3.0994580441534923E-003   2.8209566447176615E-003   0.0000000000000000     
  -4.6931178126117488E-003   4.8100586028054304E-003   0.0000000000000000     
  -6.3160647453243436E-003   7.1849096513791587E-003   0.0000000000000000     
   0.0000000000000000        0.0000000000000000        0.0000000000000000     
  -1.7983327337109858E-003   1.2769402048824834E-003   0.0000000000000000     
  -3.6213646678849537E-003   2.9393084205347505E-003   0.0000000000000000     
  -5.4690958025219024E-003   4.9871046469567998E-003   0.0000000000000000     
  -7.3415261376218333E-003   7.4203288841486349E-003   0.0000000000000000     
  -3.4794606853443414E-003   6.7091223131328223E-003   0.0000000000000000     
  -4.3880260301000134E-003   9.2945268790130108E-003   0.0000000000000000     
  -5.2989344882028583E-003   1.2183228760717568E-002   0.0000000000000000     
  -6.2121860596528770E-003   1.5375227958246496E-002   0.0000000000000000     
  -7.1277807444500687E-003   1.8870524471599794E-002   0.0000000000000000     
  -4.3850320191855972E-003   6.8293063658712537E-003   0.0000000000000000     
  -5.5341715740525963E-003   9.4498937796844897E-003   0.0000000000000000     
  -6.6837953562233973E-003   1.2368387168099505E-002   0.0000000000000000     
  -7.8339033656980028E-003   1.5584786531116300E-002   0.0000000000000000     
  -8.9844956024764076E-003   1.9099091868734871E-002   0.0000000000000000     
  -5.3305667058455982E-003   6.9879021452866992E-003   0.0000000000000000     
  -6.7233729270571203E-003   9.6503674083916122E-003   0.0000000000000000     
  -8.1171988904230399E-003   1.2605181220782526E-002   0.0000000000000000     
  -9.5120445959433579E-003   1.5852343582459443E-002   0.0000000000000000     
  -1.0907910043618071E-002   1.9391854493422359E-002   0.0000000000000000     
  -6.3160647453243436E-003   7.1849096513791587E-003   0.0000000000000000     
  -7.9556300891135863E-003   9.8959477651343834E-003   0.0000000000000000     
  -9.5991450908017879E-003   1.2893610918766644E-002   0.0000000000000000     
  -1.1246609750388943E-002   1.6177899112275931E-002   0.0000000000000000     
  -1.2898024067875054E-002   1.9748812345662264E-002   0.0000000000000000     
  -7.3415261376218333E-003   7.4203288841486349E-003   0.0000000000000000     
  -9.2309430602219959E-003   1.0186634849912800E-002   0.0000000000000000     
  -1.1129633957359638E-002   1.3233676262051845E-002   0.0000000000000000     
  -1.3037598829034760E-002   1.6561453120565769E-002   0.0000000000000000     
  -1.4954837675247364E-002   2.0169965425454576E-002   0.0000000000000000     
  -7.1277807444500687E-003   1.8870524471599794E-002   0.0000000000000000     
  -8.0390640831146543E-003   2.2643572856773677E-002   0.0000000000000000     
  -8.9393816161668620E-003   2.6668827669764358E-002   0.0000000000000000     
  -9.8287333436066857E-003   3.0946288910571849E-002   0.0000000000000000     
  -1.0707119265434132E-002   3.5475956579196138E-002   0.0000000000000000     
  -8.9844956024764076E-003   1.9099091868734871E-002   0.0000000000000000     
  -1.0128446802968750E-002   2.2886736796954497E-002   0.0000000000000000     
  -1.1258631703585152E-002   2.6923154931774447E-002   0.0000000000000000     
  -1.2375050304325619E-002   3.1208346273194725E-002   0.0000000000000000     
  -1.3477702605190147E-002   3.5742310821215324E-002   0.0000000000000000     
  -1.0907910043618071E-002   1.9391854493422359E-002   0.0000000000000000     
  -1.2294433024352463E-002   2.3198948109081356E-002   0.0000000000000000     
  -1.3661251329051816E-002   2.7248858584846509E-002   0.0000000000000000     
  -1.5008364957716127E-002   3.1541585920717825E-002   0.0000000000000000     
  -1.6335773910345398E-002   3.6077130116695298E-002   0.0000000000000000     
  -1.2898024067875054E-002   1.9748812345662264E-002   0.0000000000000000     
  -1.4537022747265800E-002   2.3580206793154257E-002   0.0000000000000000     
  -1.6147240492566852E-002   2.7645938628980557E-002   0.0000000000000000     
  -1.7728677303778213E-002   3.1946007853141160E-002   0.0000000000000000     
  -1.9281333180899880E-002   3.6480414465636067E-002   0.0000000000000000     
  -1.4954837675247364E-002   2.0169965425454576E-002   0.0000000000000000     
  -1.6856215971708759E-002   2.4030512849173201E-002   0.0000000000000000     
  -1.8716599194130261E-002   2.8114395064176581E-002   0.0000000000000000     
  -2.0535987342511875E-002   3.2421612070464727E-002   0.0000000000000000     
  -2.2314380416853598E-002   3.6952163868037624E-002   0.0000000000000000     
  -1.0707119265434132E-002   3.5475956579196138E-002   0.0000000000000000     
  -1.1568911377818486E-002   4.0236622664344072E-002   0.0000000000000000     
  -1.2408481676929036E-002   4.5207079154722489E-002   0.0000000000000000     
  -1.3225830162765781E-002   5.0387326050331381E-002   0.0000000000000000     
  -1.4020956835328726E-002   5.5777363351170776E-002   0.0000000000000000     
  -1.3477702605190147E-002   3.5742310821215324E-002   0.0000000000000000     
  -1.4558602921610261E-002   4.0504671933492213E-002   0.0000000000000000     
  -1.5609765569017478E-002   4.5475052967681354E-002   0.0000000000000000     
  -1.6631190547411794E-002   5.0653453923782732E-002   0.0000000000000000     
  -1.7622877856793218E-002   5.6039874801796376E-002   0.0000000000000000     
  -1.6335773910345398E-002   3.6077130116695298E-002   0.0000000000000000     
  -1.7635052058570137E-002   4.0837474713127903E-002   0.0000000000000000     
  -1.8897773274020858E-002   4.5804603250364596E-002   0.0000000000000000     
  -2.0123937556697565E-002   5.0978515728405394E-002   0.0000000000000000     
  -2.1313544906600250E-002   5.6359212147250273E-002   0.0000000000000000     
  -1.9281333180899880E-002   3.6480414465636067E-002   0.0000000000000000     
  -2.0798258788698114E-002   4.1235031003251134E-002   0.0000000000000000     
  -2.2272504791939183E-002   4.6195730002772224E-002   0.0000000000000000     
  -2.3704071190623077E-002   5.1362511464199331E-002   0.0000000000000000     
  -2.5092957984749805E-002   5.6735375387532469E-002   0.0000000000000000     
  -2.2314380416853598E-002   3.6952163868037624E-002   0.0000000000000000     
  -2.4048223111994192E-002   4.1697340803861921E-002   0.0000000000000000     
  -2.5733960122772445E-002   4.6648433224904237E-002   0.0000000000000000     
  -2.7371591449188350E-002   5.1805441131164587E-002   0.0000000000000000     
  -2.8961117091241897E-002   5.7168364522642963E-002   0.0000000000000000     
  -1.4020956835328726E-002   5.5777363351170776E-002   0.0000000000000000     
  -1.4793518269347458E-002   6.1366928170011069E-002   0.0000000000000000     
  -1.5543171039551580E-002   6.7145757619622715E-002   0.0000000000000000     
  -1.6269915145941085E-002   7.3113851700005700E-002   0.0000000000000000     
  -1.6973750588515982E-002   7.9271210411160017E-002   0.0000000000000000     
  -1.7622877856793218E-002   5.6039874801796376E-002   0.0000000000000000     
  -1.8586256165591546E-002   6.1624251895570796E-002   0.0000000000000000     
  -1.9522754142236583E-002   6.7396521498954559E-002   0.0000000000000000     
  -2.0432371786728326E-002   7.3356683611947651E-002   0.0000000000000000     
  -2.1315109099066774E-002   7.9504738234550079E-002   0.0000000000000000     
  -2.1313544906600250E-002   5.6359212147250273E-002   0.0000000000000000     
  -2.2468830331153468E-002   6.1936587855139065E-002   0.0000000000000000     
  -2.3592028837781789E-002   6.7700538200311550E-002   0.0000000000000000     
  -2.4683140426485214E-002   7.3651063182767748E-002   0.0000000000000000     
  -2.5742165097263733E-002   7.9788162802507639E-002   0.0000000000000000     
  -2.5092957984749805E-002   5.6735375387532469E-002   0.0000000000000000     
  -2.6441240766033221E-002   6.2303936048715827E-002   0.0000000000000000     
  -2.7750995126187204E-002   6.8057807723693672E-002   0.0000000000000000     
  -2.9022221065211743E-002   7.3996990412465935E-002   0.0000000000000000     
  -3.0254918583106850E-002   8.0121484115032685E-002   0.0000000000000000     
  -2.8961117091241897E-002   5.7168364522642963E-002   0.0000000000000000     
  -3.0503487470230812E-002   6.2726296476301152E-002   0.0000000000000000     
  -3.1999653007452826E-002   6.8468330069100913E-002   0.0000000000000000     
  -3.3449613702907929E-002   7.4394465301042267E-002   0.0000000000000000     
  -3.4853369556596125E-002   8.0504702172125214E-002   0.0000000000000000     
  -1.6973750588515982E-002   7.9271210411160017E-002   0.0000000000000000     
  -1.7648801134175683E-002   8.5593354302528069E-002   0.0000000000000000     
  -1.8289190549819621E-002   9.2055803923552240E-002   0.0000000000000000     
  -1.8894918835447791E-002   9.8658559274232532E-002   0.0000000000000000     
  -1.9465985991060194E-002  0.10540162035456893        0.0000000000000000     
  -2.1315109099066774E-002   7.9504738234550079E-002   0.0000000000000000     
  -2.2161338779611923E-002   8.5817607709686480E-002   0.0000000000000000     
  -2.2961433528723763E-002   9.2272214380281492E-002   0.0000000000000000     
  -2.3715393346402290E-002   9.8868558246335156E-002   0.0000000000000000     
  -2.4423218232647512E-002  0.10560663930784740        0.0000000000000000     
  -2.5742165097263733E-002   7.9788162802507639E-002   0.0000000000000000     
  -2.6757611333456423E-002   8.6089935106150955E-002   0.0000000000000000     
  -2.7717987618402360E-002   9.2534478140317414E-002   0.0000000000000000     
  -2.8623293952101544E-002   9.9121791905007015E-002   0.0000000000000000     
  -2.9473530334553976E-002  0.10585187640021979        0.0000000000000000     
  -3.0254918583106850E-002   8.0121484115032685E-002   0.0000000000000000     
  -3.1437618795709173E-002   8.6410336491921494E-002   0.0000000000000000     
  -3.2558852818855406E-002   9.2842595203659992E-002   0.0000000000000000     
  -3.3618620652545533E-002   9.9418260250248205E-002   0.0000000000000000     
  -3.4616922296779581E-002  0.10613733163168608        0.0000000000000000     
  -3.4853369556596125E-002   8.0504702172125214E-002   0.0000000000000000     
  -3.6201361166370190E-002   8.6778811866998096E-002   0.0000000000000000     
  -3.7484029130082912E-002   9.3196565570309226E-002   0.0000000000000000     
  -3.8701373447734291E-002   9.9757963282058645E-002   0.0000000000000000     
  -3.9853394119324322E-002  0.10646300500224630        0.0000000000000000     
  -1.9465985991060194E-002  0.10540162035456893        0.0000000000000000     
  -2.0018799631890214E-002  0.11230661585519482        0.0000000000000000     
  -2.0569767373171240E-002  0.11939517446674357        0.0000000000000000     
  -2.1118889214903271E-002  0.12666729618921518        0.0000000000000000     
  -2.1666165157086300E-002  0.13412298102260964        0.0000000000000000     
  -2.4423218232647512E-002  0.10560663930784740        0.0000000000000000     
  -2.5108141357362449E-002  0.11250644523851479        0.0000000000000000     
  -2.5793395890450131E-002  0.11958796371203383        0.0000000000000000     
  -2.6478981831910546E-002  0.12685119472840450        0.0000000000000000     
  -2.7164899181743703E-002  0.13429613828762682        0.0000000000000000     
  -2.9473530334553976E-002  0.10585187640021979        0.0000000000000000     
  -3.0295870584678669E-002  0.11274318082711794        0.0000000000000000     
  -3.1117488521394628E-002  0.11981415438686367        0.0000000000000000     
  -3.1938384144701869E-002  0.12706479707945709        0.0000000000000000     
  -3.2758557454600372E-002  0.13449510890489805        0.0000000000000000     
  -3.4616922296779581E-002  0.10613733163168608        0.0000000000000000     
  -3.5581987313838867E-002  0.11301682262100424        0.0000000000000000     
  -3.6542045266004748E-002  0.12007374649123316        0.0000000000000000     
  -3.7497096153277232E-002  0.12730810324237288        0.0000000000000000     
  -3.8447139975656325E-002  0.13471989287442340        0.0000000000000000     
  -3.9853394119324322E-002  0.10646300500224630        0.0000000000000000     
  -4.0966491544843039E-002  0.11332737062017370        0.0000000000000000     
  -4.2067066124280482E-002  0.12036674002514224        0.0000000000000000     
  -4.3155117857636642E-002  0.12758111321715193        0.0000000000000000     
  -4.4230646744911534E-002  0.13497049019620283        0.0000000000000000     
  -2.1666165157086300E-002  0.13412298102260964        0.0000000000000000     
  -2.2180027015366293E-002  0.14169334706405379        0.0000000000000000     
  -2.2628906605389208E-002  0.14930951241067442        0.0000000000000000     
  -2.3012803927155035E-002  0.15697147706247158        0.0000000000000000     
  -2.3331718980663777E-002  0.16467924101944525        0.0000000000000000     
  -2.7164899181743703E-002  0.13429613828762682        0.0000000000000000     
  -2.7807029724171744E-002  0.14185639882408846        0.0000000000000000     
  -2.8361255243416820E-002  0.14946558077217703        0.0000000000000000     
  -2.8827575739478920E-002  0.15712368413189259        0.0000000000000000     
  -2.9205991212358048E-002  0.16483070890323515        0.0000000000000000     
  -3.2758557454600372E-002  0.13449510890489805        0.0000000000000000     
  -3.3527512629439836E-002  0.14204095508341311        0.0000000000000000     
  -3.4194753847569974E-002  0.14963820083522852        0.0000000000000000     
  -3.4760281108990737E-002  0.15728684616034436        0.0000000000000000     
  -3.5224094413702167E-002  0.16498689105876055        0.0000000000000000     
  -3.8447139975656325E-002  0.13471989287442340        0.0000000000000000     
  -3.9341475731170597E-002  0.14224701584202770        0.0000000000000000     
  -4.0129402417848653E-002  0.14982737259982884        0.0000000000000000     
  -4.0810920035690507E-002  0.15746096314782679        0.0000000000000000     
  -4.1386028584696144E-002  0.16514778748602149        0.0000000000000000     
  -4.4230646744911534E-002  0.13497049019620283        0.0000000000000000     
  -4.5248919029363996E-002  0.14247458109993236        0.0000000000000000     
  -4.6165200954252882E-002  0.15003309606597806        0.0000000000000000     
  -4.6979492519578198E-002  0.15764603509433989        0.0000000000000000     
  -4.7691793725339951E-002  0.16531339818501792        0.0000000000000000     
   0.0000000000000000        0.0000000000000000        0.0000000000000000     
  -1.7983327337109858E-003   1.2769402048824834E-003   0.0000000000000000     
  -3.6213646678849537E-003   2.9393084205347505E-003   0.0000000000000000     
  -5.4690958025219024E-003   4.9871046469567998E-003   0.0000000000000000     
  -7.3415261376218333E-003   7.4203288841486349E-003   0.0000000000000000     
   0.0000000000000000        0.0000000000000000        0.0000000000000000     
  -2.0693935621623836E-003   1.3550836538608762E-003   0.0000000000000000     
  -4.1640189944371943E-003   3.0941738952508166E-003   0.0000000000000000     
  -6.2838762968244338E-003   5.2172707241698217E-003   0.0000000000000000     
  -8.4289654693241005E-003   7.7243741406178906E-003   0.0000000000000000     
   0.0000000000000000        0.0000000000000000        0.0000000000000000     
  -2.3400189349752176E-003   1.4591195473955133E-003   0.0000000000000000     
  -4.7200914678031522E-003   3.3000360161622999E-003   0.0000000000000000     
  -7.1402175984838058E-003   5.5227494063003610E-003   0.0000000000000000     
  -9.6003973270171756E-003   8.1272597178096966E-003   0.0000000000000000     
   0.0000000000000000        0.0000000000000000        0.0000000000000000     
  -2.6102088521494891E-003   1.5890478854863944E-003   0.0000000000000000     
  -5.2895820879828286E-003   3.5568947832692009E-003   0.0000000000000000     
  -8.0381197075000202E-003   5.9035406933484191E-003   0.0000000000000000     
  -1.0855821710701060E-002   8.6289856157240503E-003   0.0000000000000000     
   0.0000000000000000        0.0000000000000000        0.0000000000000000     
  -2.8799633136851964E-003   1.7448686681335200E-003   0.0000000000000000     
  -5.8724908549762211E-003   3.8647501965715187E-003   0.0000000000000000     
  -8.9775826238730743E-003   6.3596445853139963E-003   0.0000000000000000     
  -1.2195238620375755E-002   9.2295518343609526E-003   0.0000000000000000     
  -7.3415261376218333E-003   7.4203288841486349E-003   0.0000000000000000     
  -9.2309430602219959E-003   1.0186634849912800E-002   0.0000000000000000     
  -1.1129633957359638E-002   1.3233676262051845E-002   0.0000000000000000     
  -1.3037598829034760E-002   1.6561453120565769E-002   0.0000000000000000     
  -1.4954837675247364E-002   2.0169965425454576E-002   0.0000000000000000     
  -8.4289654693241005E-003   7.7243741406178906E-003   0.0000000000000000     
  -1.0590870263190959E-002   1.0558166381295121E-002   0.0000000000000000     
  -1.2761174429679766E-002   1.3661329682901617E-002   0.0000000000000000     
  -1.4939877968790526E-002   1.7033864045437365E-002   0.0000000000000000     
  -1.7126980880523241E-002   2.0675769468902379E-002   0.0000000000000000     
  -9.6003973270171756E-003   8.1272597178096966E-003   0.0000000000000000     
  -1.2076970120829082E-002   1.1046280077849616E-002   0.0000000000000000     
  -1.4546275447345342E-002   1.4212523613579426E-002   0.0000000000000000     
  -1.7008313306565957E-002   1.7625990324999133E-002   0.0000000000000000     
  -1.9463083698490927E-002   2.1286680212108729E-002   0.0000000000000000     
  -1.0855821710701060E-002   8.6289856157240503E-003   0.0000000000000000     
  -1.3689242633136372E-002   1.1650975939576275E-002   0.0000000000000000     
  -1.6484937010356370E-002   1.4887258054085287E-002   0.0000000000000000     
  -1.9242904842361061E-002   1.8337831959251077E-002   0.0000000000000000     
  -2.1963146129150440E-002   2.2002697655073650E-002   0.0000000000000000     
  -1.2195238620375755E-002   9.2295518343609526E-003   0.0000000000000000     
  -1.5427687800112829E-002   1.2372253966475110E-002   0.0000000000000000     
  -1.8577159118712851E-002   1.5685533004419189E-002   0.0000000000000000     
  -2.1643652576175829E-002   1.9169388948193193E-002   0.0000000000000000     
  -2.4627168172501761E-002   2.2823821797797121E-002   0.0000000000000000     
  -1.4954837675247364E-002   2.0169965425454576E-002   0.0000000000000000     
  -1.6856215971708759E-002   2.4030512849173201E-002   0.0000000000000000     
  -1.8716599194130261E-002   2.8114395064176581E-002   0.0000000000000000     
  -2.0535987342511875E-002   3.2421612070464727E-002   0.0000000000000000     
  -2.2314380416853598E-002   3.6952163868037624E-002   0.0000000000000000     
  -1.7126980880523241E-002   2.0675769468902379E-002   0.0000000000000000     
  -1.9291560040945614E-002   2.4559233578673668E-002   0.0000000000000000     
  -2.1402692326125343E-002   2.8656444000128262E-002   0.0000000000000000     
  -2.3460377736062455E-002   3.2967400733266157E-002   0.0000000000000000     
  -2.5464616270756923E-002   3.7492103778087371E-002   0.0000000000000000     
  -1.9463083698490927E-002   2.1286680212108729E-002   0.0000000000000000     
  -2.1882602298240624E-002   2.5175736283191138E-002   0.0000000000000000     
  -2.4238884780935402E-002   2.9274301546529272E-002   0.0000000000000000     
  -2.6531931146575274E-002   3.3582376002123125E-002   0.0000000000000000     
  -2.8761741395160238E-002   3.8099959649972696E-002   0.0000000000000000     
  -2.1963146129150440E-002   2.2002697655073650E-002   0.0000000000000000     
  -2.4629342743593796E-002   2.5880020962725618E-002   0.0000000000000000     
  -2.7225176558560431E-002   2.9967967703379599E-002   0.0000000000000000     
  -2.9750647574050344E-002   3.4266537877035597E-002   0.0000000000000000     
  -3.2205755790063531E-002   3.8775731483693614E-002   0.0000000000000000     
  -2.4627168172501761E-002   2.2823821797797121E-002   0.0000000000000000     
  -2.7531781377005137E-002   2.6672087617277098E-002   0.0000000000000000     
  -3.0361567659000437E-002   3.0737442470679256E-002   0.0000000000000000     
  -3.3116527018487663E-002   3.5019886358003592E-002   0.0000000000000000     
  -3.5796659455466825E-002   3.9519419279250102E-002   0.0000000000000000     
  -2.2314380416853598E-002   3.6952163868037624E-002   0.0000000000000000     
  -2.4048223111994192E-002   4.1697340803861921E-002   0.0000000000000000     
  -2.5733960122772445E-002   4.6648433224904237E-002   0.0000000000000000     
  -2.7371591449188350E-002   5.1805441131164587E-002   0.0000000000000000     
  -2.8961117091241897E-002   5.7168364522642963E-002   0.0000000000000000     
  -2.5464616270756923E-002   3.7492103778087371E-002   0.0000000000000000     
  -2.7415396745995822E-002   4.2226338466352063E-002   0.0000000000000000     
  -2.9312707977566226E-002   4.7165890129820441E-002   0.0000000000000000     
  -3.1156549965468121E-002   5.2310758768492491E-002   0.0000000000000000     
  -3.2946922709701516E-002   5.7660944382368226E-002   0.0000000000000000     
  -2.8761741395160238E-002   3.8099959649972696E-002   0.0000000000000000     
  -3.0930231408240454E-002   4.2823958342113402E-002   0.0000000000000000     
  -3.3039317067366097E-002   4.7751277930580642E-002   0.0000000000000000     
  -3.5088998372537164E-002   5.2881918415374415E-002   0.0000000000000000     
  -3.7079275323753665E-002   5.8215879796494722E-002   0.0000000000000000     
  -3.2205755790063531E-002   3.8775731483693614E-002   0.0000000000000000     
  -3.4592727098728078E-002   4.3490200431145931E-002   0.0000000000000000     
  -3.6913787392172069E-002   4.8404596627184833E-002   0.0000000000000000     
  -3.9168936670395477E-002   5.3518920071810354E-002   0.0000000000000000     
  -4.1358174933398342E-002   5.8833170765022452E-002   0.0000000000000000     
  -3.5796659455466825E-002   3.9519419279250102E-002   0.0000000000000000     
  -3.8402883817458704E-002   4.4225064733449636E-002   0.0000000000000000     
  -4.0936118951984124E-002   4.9125846219633035E-002   0.0000000000000000     
  -4.3396364859043073E-002   5.4221763737800299E-002   0.0000000000000000     
  -4.5783621538635549E-002   5.9512817287951422E-002   0.0000000000000000     
  -2.8961117091241897E-002   5.7168364522642963E-002   0.0000000000000000     
  -3.0503487470230812E-002   6.2726296476301152E-002   0.0000000000000000     
  -3.1999653007452826E-002   6.8468330069100913E-002   0.0000000000000000     
  -3.3449613702907929E-002   7.4394465301042267E-002   0.0000000000000000     
  -3.4853369556596125E-002   8.0504702172125214E-002   0.0000000000000000     
  -3.2946922709701516E-002   5.7660944382368226E-002   0.0000000000000000     
  -3.4683541510038871E-002   6.3205418584466905E-002   0.0000000000000000     
  -3.6366121666252638E-002   6.8933152987807778E-002   0.0000000000000000     
  -3.7994663178342818E-002   7.4844147592390858E-002   0.0000000000000000     
  -3.9569166046309417E-002   8.0938402398216133E-002   0.0000000000000000     
  -3.7079275323753665E-002   5.8215879796494722E-002   0.0000000000000000     
  -3.9009373951750012E-002   6.3743051819784999E-002   0.0000000000000000     
  -4.0878520287260613E-002   6.9453324231088687E-002   0.0000000000000000     
  -4.2686714330285480E-002   7.5346697030405807E-002   0.0000000000000000     
  -4.4433956080824594E-002   8.1423170217736304E-002   0.0000000000000000     
  -4.1358174933398342E-002   5.8833170765022452E-002   0.0000000000000000     
  -4.3480984795364233E-002   6.4339196182255476E-002   0.0000000000000000     
  -4.5536848870476758E-002   7.0028843798943682E-002   0.0000000000000000     
  -4.7525767158735889E-002   7.5902113615087127E-002   0.0000000000000000     
  -4.9447739660141647E-002   8.1959005630685755E-002   0.0000000000000000     
  -4.5783621538635549E-002   5.9512817287951422E-002   0.0000000000000000     
  -4.8098374040881547E-002   6.4993851671878280E-002   0.0000000000000000     
  -5.0341107415901060E-002   7.0659711691372751E-002   0.0000000000000000     
  -5.2511821663694058E-002   7.6510397346434805E-002   0.0000000000000000     
  -5.4610516784260592E-002   8.2545908637064472E-002   0.0000000000000000     
  -3.4853369556596125E-002   8.0504702172125214E-002   0.0000000000000000     
  -3.6201361166370190E-002   8.6778811866998096E-002   0.0000000000000000     
  -3.7484029130082912E-002   9.3196565570309226E-002   0.0000000000000000     
  -3.8701373447734291E-002   9.9757963282058645E-002   0.0000000000000000     
  -3.9853394119324322E-002  0.10646300500224630        0.0000000000000000     
  -3.9569166046309417E-002   8.0938402398216133E-002   0.0000000000000000     
  -4.1082030983931053E-002   8.7196232987142366E-002   0.0000000000000000     
  -4.2525658704986320E-002   9.3597954941028266E-002   0.0000000000000000     
  -4.3900049209475211E-002  0.10014356825987385        0.0000000000000000     
  -4.5205202497397748E-002  0.10683307294367908        0.0000000000000000     
  -4.4433956080824594E-002   8.1423170217736304E-002   0.0000000000000000     
  -4.6112820786883342E-002   8.7663471608115898E-002   0.0000000000000000     
  -4.7715883696467044E-002   9.4048329016580209E-002   0.0000000000000000     
  -4.9243144809575749E-002  0.10057774244312927        0.0000000000000000     
  -5.0694604126209394E-002  0.10725171188776304        0.0000000000000000     
  -4.9447739660141647E-002   8.1959005630685755E-002   0.0000000000000000     
  -5.1293730575227063E-002   8.8180527729918731E-002   0.0000000000000000     
  -5.3054704104525147E-002   9.4547687796965124E-002   0.0000000000000000     
  -5.4730660248035877E-002  0.10106048583182496        0.0000000000000000     
  -5.6321599005759268E-002  0.10771892183449819        0.0000000000000000     
  -5.4610516784260592E-002   8.2545908637064472E-002   0.0000000000000000     
  -5.6624760348962223E-002   8.8747401352550825E-002   0.0000000000000000     
  -5.8542119929160558E-002   9.5096031282182955E-002   0.0000000000000000     
  -6.0362595524855615E-002  0.10159179842596087        0.0000000000000000     
  -6.2086187136047376E-002  0.10823470278388457        0.0000000000000000     
  -3.9853394119324322E-002  0.10646300500224630        0.0000000000000000     
  -4.0966491544843039E-002  0.11332737062017370        0.0000000000000000     
  -4.2067066124280482E-002  0.12036674002514224        0.0000000000000000     
  -4.3155117857636642E-002  0.12758111321715193        0.0000000000000000     
  -4.4230646744911534E-002  0.13497049019620283        0.0000000000000000     
  -4.5205202497397748E-002  0.10683307294367908        0.0000000000000000     
  -4.6466425513682540E-002  0.11368061291221726        0.0000000000000000     
  -4.7709025203258211E-002  0.12070033208526167        0.0000000000000000     
  -4.8933001566124762E-002  0.12789223046281228        0.0000000000000000     
  -5.0138354602282192E-002  0.13525630804486907        0.0000000000000000     
  -5.0694604126209394E-002  0.10725171188776304        0.0000000000000000     
  -5.2098831456348700E-002  0.11408233758472590        0.0000000000000000     
  -5.3484396609974311E-002  0.12108171976826215        0.0000000000000000     
  -5.4851299587086233E-002  0.12824985843837186        0.0000000000000000     
  -5.6199540387684460E-002  0.13558675359505495        0.0000000000000000     
  -5.6321599005759268E-002  0.10771892183449819        0.0000000000000000     
  -5.7863709372841507E-002  0.11453254463769956        0.0000000000000000     
  -5.9393180344428774E-002  0.12151090307414375        0.0000000000000000     
  -6.0910011920521048E-002  0.12865399714383075        0.0000000000000000     
  -6.2414204101118351E-002  0.13596182684676050        0.0000000000000000     
  -6.2086187136047376E-002  0.10823470278388457        0.0000000000000000     
  -6.3761059263160988E-002  0.11503123407113831        0.0000000000000000     
  -6.5435376406621601E-002  0.12198788200290640        0.0000000000000000     
  -6.7109138566429208E-002  0.12910464657918885        0.0000000000000000     
  -6.8782345742583836E-002  0.13638152779998564        0.0000000000000000     
  -4.4230646744911534E-002  0.13497049019620283        0.0000000000000000     
  -4.5248919029363996E-002  0.14247458109993236        0.0000000000000000     
  -4.6165200954252882E-002  0.15003309606597806        0.0000000000000000     
  -4.6979492519578198E-002  0.15764603509433989        0.0000000000000000     
  -4.7691793725339951E-002  0.16531339818501792        0.0000000000000000     
  -5.0138354602282192E-002  0.13525630804486907        0.0000000000000000     
  -5.1283737466146818E-002  0.14273458889213980        0.0000000000000000     
  -5.2327803312134984E-002  0.15026909706533215        0.0000000000000000     
  -5.3270552140246660E-002  0.15785983256444611        0.0000000000000000     
  -5.4111983950481876E-002  0.16550679538948168        0.0000000000000000     
  -5.6199540387684460E-002  0.13558675359505495        0.0000000000000000     
  -5.7479825983645857E-002  0.14303797725366293        0.0000000000000000     
  -5.8642863346847277E-002  0.15054910142954719        0.0000000000000000     
  -5.9688652477288717E-002  0.15812012612270773        0.0000000000000000     
  -6.0617193374970173E-002  0.16575105133314458        0.0000000000000000     
  -6.2414204101118351E-002  0.13596182684676050        0.0000000000000000     
  -6.3837184581861106E-002  0.14338474618450178        0.0000000000000000     
  -6.5110381058389774E-002  0.15087310915862323        0.0000000000000000     
  -6.6233793530704355E-002  0.15842691576912482        0.0000000000000000     
  -6.7207421998804848E-002  0.16604616601600666        0.0000000000000000     
  -6.8782345742583836E-002  0.13638152779998564        0.0000000000000000     
  -7.0355813260792543E-002  0.14377489568465626        0.0000000000000000     
  -7.1730356446762455E-002  0.15124112025256017        0.0000000000000000     
  -7.2905975300493572E-002  0.15878020150369737        0.0000000000000000     
  -7.3882669821985880E-002  0.16639213943806785        0.0000000000000000     
   0.0000000000000000        0.0000000000000000        0.0000000000000000     
  -2.8799633136851964E-003   1.7448686681335200E-003   0.0000000000000000     
  -5.8724908549762211E-003   3.8647501965715187E-003   0.0000000000000000     
  -8.9775826238730743E-003   6.3596445853139963E-003   0.0000000000000000     
  -1.2195238620375755E-002   9.2295518343609526E-003   0.0000000000000000     
   0.0000000000000000        0.0000000000000000        0.0000000000000000     
  -3.2831179262449526E-003   1.9992744527994937E-003   0.0000000000000000     
  -6.6768045402485010E-003   4.3309463675444059E-003   0.0000000000000000     
  -1.0181059842010641E-002   6.9950157442347383E-003   0.0000000000000000     
  -1.3795883831531379E-002   9.9914825828704874E-003   0.0000000000000000     
   0.0000000000000000        0.0000000000000000        0.0000000000000000     
  -3.9535082964913719E-003   2.4249577969469196E-003   0.0000000000000000     
  -7.9105099152648392E-003   5.0628274076630160E-003   0.0000000000000000     
  -1.1871004856320399E-002   7.9136088321482903E-003   0.0000000000000000     
  -1.5834993119658053E-002   1.0977302070402740E-002   0.0000000000000000     
   0.0000000000000000        0.0000000000000000        0.0000000000000000     
  -4.8911344244244523E-003   3.0219187005757985E-003   0.0000000000000000     
  -9.5736069800252330E-003   6.0603933169273497E-003   0.0000000000000000     
  -1.4047417666802344E-002   9.1154238490546522E-003   0.0000000000000000     
  -1.8312566484755786E-002   1.2187010296957710E-002   0.0000000000000000     
   0.0000000000000000        0.0000000000000000        0.0000000000000000     
  -6.0959963100441945E-003   3.7901571636861282E-003   0.0000000000000000     
  -1.1666095734529687E-002   7.3236440953374036E-003   0.0000000000000000     
  -1.6710298273456478E-002   1.0600460794953828E-002   0.0000000000000000     
  -2.1228603926824564E-002   1.3620607262535398E-002   0.0000000000000000     
  -1.2195238620375755E-002   9.2295518343609526E-003   0.0000000000000000     
  -1.5427687800112829E-002   1.2372253966475110E-002   0.0000000000000000     
  -1.8577159118712851E-002   1.5685533004419189E-002   0.0000000000000000     
  -2.1643652576175829E-002   1.9169388948193193E-002   0.0000000000000000     
  -2.4627168172501761E-002   2.2823821797797121E-002   0.0000000000000000     
  -1.3795883831531379E-002   9.9914825828704874E-003   0.0000000000000000     
  -1.7404209487750334E-002   1.3222047031236441E-002   0.0000000000000000     
  -2.0888969789607120E-002   1.6588409237117380E-002   0.0000000000000000     
  -2.4250164737101745E-002   2.0090569200513310E-002   0.0000000000000000     
  -2.7487794330234207E-002   2.3728526921424221E-002   0.0000000000000000     
  -1.5834993119658053E-002   1.0977302070402740E-002   0.0000000000000000     
  -1.9730711562040773E-002   1.4212288006550600E-002   0.0000000000000000     
  -2.3486397040231512E-002   1.7576947524716099E-002   0.0000000000000000     
  -2.7102049554230279E-002   2.1071280624899245E-002   0.0000000000000000     
  -3.0577669104037069E-002   2.4695287307100022E-002   0.0000000000000000     
  -1.8312566484755786E-002   1.2187010296957710E-002   0.0000000000000000     
  -2.2407194022984151E-002   1.5342976892417585E-002   0.0000000000000000     
  -2.6369440870586031E-002   1.8651147867215351E-002   0.0000000000000000     
  -3.0199307027561441E-002   2.2111523221350994E-002   0.0000000000000000     
  -3.3896792493910366E-002   2.5724102954824517E-002   0.0000000000000000     
  -2.1228603926824564E-002   1.3620607262535398E-002   0.0000000000000000     
  -2.5433656870580461E-002   1.6614113688837400E-002   0.0000000000000000     
  -2.9538101280670682E-002   1.9811010264615125E-002   0.0000000000000000     
  -3.3541937157095220E-002   2.3211296989868554E-002   0.0000000000000000     
  -3.7445164499854085E-002   2.6814973864597712E-002   0.0000000000000000     
  -2.4627168172501761E-002   2.2823821797797121E-002   0.0000000000000000     
  -2.7531781377005137E-002   2.6672087617277098E-002   0.0000000000000000     
  -3.0361567659000437E-002   3.0737442470679256E-002   0.0000000000000000     
  -3.3116527018487663E-002   3.5019886358003592E-002   0.0000000000000000     
  -3.5796659455466825E-002   3.9519419279250102E-002   0.0000000000000000     
  -2.7487794330234207E-002   2.3728526921424221E-002   0.0000000000000000     
  -3.0624593456964048E-002   2.7545727230488010E-002   0.0000000000000000     
  -3.3683297005250822E-002   3.1585614958342556E-002   0.0000000000000000     
  -3.6663904975094530E-002   3.5848190104987861E-002   0.0000000000000000     
  -3.9566417366495167E-002   4.0333452670423924E-002   0.0000000000000000     
  -3.0577669104037069E-002   2.4695287307100022E-002   0.0000000000000000     
  -3.3942454241959963E-002   2.8494730786000771E-002   0.0000000000000000     
  -3.7225603520307016E-002   3.2515374276283829E-002   0.0000000000000000     
  -4.0427116939078259E-002   3.6757217777949172E-002   0.0000000000000000     
  -4.3546994498273643E-002   4.1220261290996818E-002   0.0000000000000000     
  -3.3896792493910366E-002   2.5724102954824517E-002   0.0000000000000000     
  -3.7485363731992870E-002   2.9519098283815392E-002   0.0000000000000000     
  -4.0988487204169033E-002   3.3526720424503061E-002   0.0000000000000000     
  -4.4406162910438821E-002   3.7746969376887519E-002   0.0000000000000000     
  -4.7738390850802261E-002   4.2179845140968793E-002   0.0000000000000000     
  -3.7445164499854085E-002   2.6814973864597712E-002   0.0000000000000000     
  -4.1253321927062790E-002   3.0618829723931856E-002   0.0000000000000000     
  -4.4971948056836845E-002   3.4619653403000258E-002   0.0000000000000000     
  -4.8601042889176251E-002   3.8817444901802910E-002   0.0000000000000000     
  -5.2140606424081005E-002   4.3212204220339827E-002   0.0000000000000000     
  -3.5796659455466825E-002   3.9519419279250102E-002   0.0000000000000000     
  -3.8402883817458704E-002   4.4225064733449636E-002   0.0000000000000000     
  -4.0936118951984124E-002   4.9125846219633035E-002   0.0000000000000000     
  -4.3396364859043073E-002   5.4221763737800299E-002   0.0000000000000000     
  -4.5783621538635549E-002   5.9512817287951422E-002   0.0000000000000000     
  -3.9566417366495167E-002   4.0333452670423924E-002   0.0000000000000000     
  -4.2389609884118558E-002   4.5025716162257333E-002   0.0000000000000000     
  -4.5132258232630507E-002   4.9909294088094636E-002   0.0000000000000000     
  -4.7794362412031055E-002   5.4984186447935866E-002   0.0000000000000000     
  -5.0375922422320148E-002   6.0250393241780997E-002   0.0000000000000000     
  -4.3546994498273643E-002   4.1220261290996818E-002   0.0000000000000000     
  -4.6581813618393850E-002   4.5889319630801777E-002   0.0000000000000000     
  -4.9528151719939469E-002   5.0749207612739052E-002   0.0000000000000000     
  -5.2386008802910528E-002   5.5799925236808642E-002   0.0000000000000000     
  -5.5155384867307013E-002   6.1041472503010556E-002   0.0000000000000000     
  -4.7738390850802261E-002   4.2179845140968793E-002   0.0000000000000000     
  -5.0979495020284572E-002   4.6815875139082995E-002   0.0000000000000000     
  -5.4123799413910982E-002   5.1645586793566269E-002   0.0000000000000000     
  -5.7171304031681511E-002   5.6668980104418648E-002   0.0000000000000000     
  -6.0122008873596124E-002   6.1886055071640092E-002   0.0000000000000000     
  -5.2140606424081005E-002   4.3212204220339827E-002   0.0000000000000000     
  -5.5582654089790740E-002   4.7805382687100974E-002   0.0000000000000000     
  -5.8919201314545061E-002   5.2598431630576314E-002   0.0000000000000000     
  -6.2150248098343984E-002   5.7591351050765856E-002   0.0000000000000000     
  -6.5275794441187501E-002   6.2784140947669598E-002   0.0000000000000000     
  -4.5783621538635549E-002   5.9512817287951422E-002   0.0000000000000000     
  -4.8098374040881547E-002   6.4993851671878280E-002   0.0000000000000000     
  -5.0341107415901060E-002   7.0659711691372751E-002   0.0000000000000000     
  -5.2511821663694058E-002   7.6510397346434805E-002   0.0000000000000000     
  -5.4610516784260592E-002   8.2545908637064472E-002   0.0000000000000000     
  -5.0375922422320148E-002   6.0250393241780997E-002   0.0000000000000000     
  -5.2879174276747661E-002   6.5705122437633795E-002   0.0000000000000000     
  -5.5306353988563442E-002   7.1345582003497998E-002   0.0000000000000000     
  -5.7657461557767457E-002   7.7171771939373593E-002   0.0000000000000000     
  -5.9932496984359727E-002   8.3183692245260607E-002   0.0000000000000000     
  -5.5155384867307013E-002   6.1041472503010556E-002   0.0000000000000000     
  -5.7841018091408319E-002   6.6471112628502360E-002   0.0000000000000000     
  -6.0447646653493808E-002   7.2086108830441573E-002   0.0000000000000000     
  -6.2975270553563528E-002   7.7886461108828256E-002   0.0000000000000000     
  -6.5423889791617423E-002   8.3872169463662355E-002   0.0000000000000000     
  -6.0122008873596124E-002   6.1886055071640092E-002   0.0000000000000000     
  -6.2983905484863489E-002   6.7291822244483920E-002   0.0000000000000000     
  -6.5764985410692187E-002   7.2881292172203488E-002   0.0000000000000000     
  -6.8465248651082264E-002   7.8654464854798739E-002   0.0000000000000000     
  -7.1084695206033652E-002   8.4611340292269702E-002   0.0000000000000000     
  -6.5275794441187501E-002   6.2784140947669598E-002   0.0000000000000000     
  -6.8307836457113177E-002   6.8167251285578545E-002   0.0000000000000000     
  -7.1258370260158549E-002   7.3731132028783702E-002   0.0000000000000000     
  -7.4127395850323630E-002   7.9475783177285070E-002   0.0000000000000000     
  -7.6914913227608406E-002   8.5401204731082633E-002   0.0000000000000000     
  -5.4610516784260592E-002   8.2545908637064472E-002   0.0000000000000000     
  -5.6624760348962223E-002   8.8747401352550825E-002   0.0000000000000000     
  -5.8542119929160558E-002   9.5096031282182955E-002   0.0000000000000000     
  -6.0362595524855615E-002  0.10159179842596087        0.0000000000000000     
  -6.2086187136047376E-002  0.10823470278388457        0.0000000000000000     
  -5.9932496984359727E-002   8.3183692245260607E-002   0.0000000000000000     
  -6.2115667046639088E-002   8.9363003444768024E-002   0.0000000000000000     
  -6.4191178522904305E-002   9.5691366061504843E-002   0.0000000000000000     
  -6.6159031413155420E-002  0.10216878009547110        0.0000000000000000     
  -6.8019225717392412E-002  0.10879524554666675        0.0000000000000000     
  -6.5423889791617423E-002   8.3872169463662355E-002   0.0000000000000000     
  -6.7776207606807901E-002   9.0026244975326172E-002   0.0000000000000000     
  -7.0014927238287367E-002   9.6331698724201942E-002   0.0000000000000000     
  -7.2140048686055752E-002  0.10278853071028969        0.0000000000000000     
  -7.4151571950113127E-002  0.10939674093358939        0.0000000000000000     
  -7.1084695206033652E-002   8.4611340292269702E-002   0.0000000000000000     
  -7.3606382029468703E-002   9.0737125944225241E-002   0.0000000000000000     
  -7.6013366075309688E-002   9.7017029270274210E-002   0.0000000000000000     
  -7.8305647343556620E-002  0.10345105027041662        0.0000000000000000     
  -8.0483225834209485E-002  0.11003918894465249        0.0000000000000000     
  -7.6914913227608406E-002   8.5401204731082633E-002   0.0000000000000000     
  -7.9606190314621461E-002   9.1495646351465232E-002   0.0000000000000000     
  -8.2186495033971324E-002   9.7747357699721663E-002   0.0000000000000000     
  -8.4655827385658008E-002  0.10415633877585195        0.0000000000000000     
  -8.7014187369681514E-002  0.11072258957985608        0.0000000000000000     
  -6.2086187136047376E-002  0.10823470278388457        0.0000000000000000     
  -6.3761059263160988E-002  0.11503123407113831        0.0000000000000000     
  -6.5435376406621601E-002  0.12198788200290640        0.0000000000000000     
  -6.7109138566429208E-002  0.12910464657918885        0.0000000000000000     
  -6.8782345742583836E-002  0.13638152779998564        0.0000000000000000     
  -6.8019225717392412E-002  0.10879524554666675        0.0000000000000000     
  -6.9828340754067075E-002  0.11557388352963344        0.0000000000000000     
  -7.1642955841631134E-002  0.12250781515891278        0.0000000000000000     
  -7.3463070980084630E-002  0.12959704043450479        0.0000000000000000     
  -7.5288686169427549E-002  0.13684155935640943        0.0000000000000000     
  -7.4151571950113127E-002  0.10939674093358939        0.0000000000000000     
  -7.6103013472319708E-002  0.11615597065777625        0.0000000000000000     
  -7.8047889694535702E-002  0.12306586114652547        0.0000000000000000     
  -7.9986200616761177E-002  0.13012641239983702        0.0000000000000000     
  -8.1917946238996092E-002  0.13733762441771089        0.0000000000000000     
  -8.0483225834209485E-002  0.11003918894465249        0.0000000000000000     
  -8.2585077417918845E-002  0.11677749545556680        0.0000000000000000     
  -8.4650177965335319E-002  0.12366201996574447        0.0000000000000000     
  -8.6678527476458850E-002  0.13069276247518552        0.0000000000000000     
  -8.8670125951289466E-002  0.13786972298388994        0.0000000000000000     
  -8.7014187369681514E-002  0.11072258957985608        0.0000000000000000     
  -8.9274532590864597E-002  0.11743845792300503        0.0000000000000000     
  -9.1449820654029956E-002  0.12429629161656978        0.0000000000000000     
  -9.3540051559177662E-002  0.13129609066055034        0.0000000000000000     
  -9.5545225306307671E-002  0.13843785505494668        0.0000000000000000     
  -6.8782345742583836E-002  0.13638152779998564        0.0000000000000000     
  -7.0355813260792543E-002  0.14377489568465626        0.0000000000000000     
  -7.1730356446762455E-002  0.15124112025256017        0.0000000000000000     
  -7.2905975300493572E-002  0.15878020150369737        0.0000000000000000     
  -7.3882669821985880E-002  0.16639213943806785        0.0000000000000000     
  -7.5288686169427549E-002  0.13684155935640943        0.0000000000000000     
  -7.7002057036704430E-002  0.14420385328191729        0.0000000000000000     
  -7.8485439208959784E-002  0.15164640356831882        0.0000000000000000     
  -7.9738832686193667E-002  0.15916921021561409        0.0000000000000000     
  -8.0762237468406023E-002  0.16677227322380306        0.0000000000000000     
  -8.1917946238996092E-002  0.13733762441771089        0.0000000000000000     
  -8.3742260925860956E-002  0.14466704650407566        0.0000000000000000     
  -8.5358279041976237E-002  0.15208222796286000        0.0000000000000000     
  -8.6766000587341935E-002  0.15958316879406378        0.0000000000000000     
  -8.7965425561958077E-002  0.16716986899768713        0.0000000000000000     
  -8.8670125951289466E-002  0.13786972298388994        0.0000000000000000     
  -9.0576424928262136E-002  0.14516447535113142        0.0000000000000000     
  -9.2348875945811745E-002  0.15254859343618360        0.0000000000000000     
  -9.3987479003938390E-002  0.16002207723904646        0.0000000000000000     
  -9.5492234102642015E-002  0.16758492675972006        0.0000000000000000     
  -9.5545225306307671E-002  0.13843785505494668        0.0000000000000000     
  -9.7504549043907929E-002  0.14569613982308455        0.0000000000000000     
  -9.9457229920466378E-002  0.15304549998828970        0.0000000000000000     
 -0.10140326793598300       0.16048593555056212        0.0000000000000000     
 -0.10334266309045784       0.16801744650990183        0.0000000000000000     
 </DataArray>
 <DataArray  type="Float64" Name="stress" NumberOfComponents="3" format="ascii">
   13416869225.650589        4025060767.6951766        2893630346.0249534     
   11766757420.233618        1890563772.3152061        1715644270.7312481     
   10313915521.413395        413633132.25773954        810760912.52882540     
   9058343529.1899242       -405731152.47722101        178980271.41768607     
   8000041443.5632076       -567529081.88967609       -179697652.60217041     
   10539924620.064337        3161977386.0193009        2225428988.1487737     
   9667646653.2169209        1589696058.7251768        1446569842.7830389     
   8943979441.2857361        512783914.48515797        863199625.05202341     
   8368922984.2707815       -68759046.700756073        475318334.95572615     
   7942477282.1720629       -154932824.83256531        282925972.49414861     
   8337751744.3076468        2501325523.2922940        1712098872.5407102     
   8021553931.8681736        1424733758.8355327        1275597646.8090065     
   7805307722.6644115        681314005.16447592        956971559.25545740     
   7689013116.6963615        271066262.27912474        756220609.88006234     
   7672670113.9640226        193990530.17947674        673344798.68282211     
   6810350598.3805189        2043105179.5141556        1353639999.2007620     
   6828479256.1873760        1395676872.6462731        1202727682.8091497     
   6897900365.5494251        919223404.29569578        1092076715.1391275     
   7018613926.4666681        613744774.46242356        1021687096.1906953     
   7190619938.9390993        479240983.14645505        991558825.96385241     
   5957721182.2829514        1787316354.6848853        1150052368.1289306     
   6088422626.1745281        1502525400.1573987        1227959950.7834692     
   6221757369.9407768        1226512111.8788166        1268515092.7030332     
   6357725413.5816956        959276489.84913898        1271717793.8876231     
   6496326757.0972872        700818534.06836557        1237568054.3372390     
   8000041443.5632076       -567529081.88967609       -179697652.60217041     
   7917056699.3716908       -200407108.85153580       -78374998.688494846     
   7792620532.1131172        28543453.963079453       -9471379.9685695879     
   7626732941.7874899        119322606.55417824        27013203.557602007     
   7419393928.3948030        71930348.921750546        31078751.890023302     
   7942477282.1720629       -154932824.83256531        282925972.49414861     
   7739524908.7947884        15979708.186624050        281102818.98996341     
   7513261766.7878141        109189679.10680723        264695010.54101402     
   7263687856.1511326        124697087.92797041        233702547.14730099     
   6990803176.8847466        62501934.650122643        188125428.80882701     
   7672670113.9640226        193990530.17947674        673344798.68282211     
   7400705483.5409603        183980234.82170963        589539934.60435557     
   7123570738.9255486        156736225.48943806        508984795.83011460     
   6841265880.1177816        112258502.18266392        431679382.36009473     
   6553790907.1176672        50547064.901385546        357623694.19429785     
   7190619938.9390993        479240983.14645505        991558825.96385241     
   6900598423.6102114        303594471.05371690        846936348.15468228     
   6623547448.5263243        171183093.11098576        723397975.89872265     
   6359467013.6874418        82006849.318259478        620943709.19597745     
   6108357119.0935574        36065739.675539970        539573548.04644167     
   6496326757.0972872        700818534.06836557        1237568054.3372390     
   6239203729.0025387        374822416.88264680        1053292059.6409440     
   6013191895.5901451        152530281.97144580        907934550.74684644     
   5818291256.8601055        33942129.334756613        801495527.65494943     
   5654501812.8124228        19057958.972586632        733974990.36525249     
   7419393928.3948030        71930348.921750546        31078751.890023302     
   7220742004.2499495       -17387501.965229511        16023741.528566914     
   7034179929.5267258       -66405854.780121326        4126760.9699635608     
   6859707704.2251205       -75124709.522936821       -4612189.7857837155     
   6697325328.3451481       -43544066.193656445       -10193110.738669310     
   6990803176.8847466        62501934.650122643        188125428.80882701     
   6809283325.7337437        3900302.7444162369        181500325.56795329     
   6635371434.1602583       -29341463.902894497        177807351.98535094     
   6469067502.1642933       -37223365.291800737        177046508.06102094     
   6310371529.7458534       -19745401.422296762        179217793.79496342     
   6553790907.1176672        50547064.901385546        357623694.19429785     
   6388757699.9759817        22468023.281585693        354199626.58922172     
   6226850562.5677090        4809214.1065104008        353481788.49783140     
   6068069494.8928576       -2429362.6238391399        355470179.92012960     
   5912414496.9514217        752293.09052681923        360164800.85611337     
   6108357119.0935574        36065739.675539970        539573548.04644167     
   5959165126.9766617        38315659.646294117        534121644.59237099     
   5808617314.7490835        36046179.248091698        531150070.50740319     
   5656713682.4108143        29257298.480929613        530658825.79153812     
   5503454229.9618597        17949017.344811916        532647910.44477838     
   5654501812.8124228        19057958.972586632        733974990.36525249     
   5520505606.7357941        51443211.838534594        721266379.57740116     
   5380671690.7043743        64369431.521845102        710812198.01407039     
   5235000064.7181654        57836618.022522926        702612445.67525518     
   5083490728.7771635        31844771.340555429        696667122.56096244     
   6697325328.3451481       -43544066.193656445       -10193110.738669310     
   6504195286.0058861       -10216348.422619343       -9308866.9622679669     
   6306209267.4622917        6924782.0006344318       -1621387.7798735374     
   6103367272.7143612        7879325.0761024952        12869326.808495084     
   5895669301.7620888       -7352719.1962356567        34163276.802852310     
   6310371529.7458534       -19745401.422296762        179217793.79496342     
   6129942941.9298592       -1388160.7009220123        171635371.41766211     
   5946784896.6052341        7870888.3250019550        170474788.74065372     
   5760897393.7719612        8031745.6554484367        175736045.76395342     
   5572280433.4300642       -905588.70954155922        187419142.48754504     
   5912414496.9514217        752293.09052681923        360164800.85611337     
   5743597661.6424551        3812146.1573691368        346596650.80341667     
   5574177887.5205507        4862203.1810755730        339068944.74534041     
   5404155174.5857077        3902464.1616516113        337581682.68187225     
   5233529522.8379269        932929.09910535812        342134864.61301827     
   5503454229.9618597        17949017.344811916        532647910.44477838     
   5345159445.1436768        5384572.1522376537        515574971.19500816     
   5188388240.2082577       -2101273.4311342239        504161080.23416668     
   5033140615.1555977       -4508519.4053027630        498406237.56225538     
   4879416569.9857006       -1837165.7702682018        498310443.17927235     
   5083490728.7771635        31844771.340555429        696667122.56096244     
   4934628292.4335241        3329117.2836976051        678570332.59243000     
   4789415954.6683426       -13019541.511627197        665751195.20714307     
   4647853715.4816236       -17201205.045418024        658209710.40510368     
   4509941574.8733673       -9215873.3176739216        655945878.18630683     
   5895669301.7620888       -7352719.1962356567        34163276.802852310     
   5739215253.1464291       -11234039.597282887        45458944.584614299     
   5584965014.0342045       -7769328.3201918602        56202931.976280615     
   5432918584.4254179        3041414.6350204945        66395238.977855742     
   5283075964.3200731        21198189.268361568        76035865.589345440     
   5572280433.4300642       -905588.70954155922        187419142.48754504     
   5416651587.2624769       -2059208.7650609016        195957581.26705053     
   5262359196.4434404        1242022.3412606716        205053002.24004737     
   5109403260.9729500        8998104.6093950272        214705405.40653780     
   4957783780.8510075        21209038.039368391        224914790.76651764     
   5233529522.8379269        932929.09910535812        342134864.61301827     
   5081893486.5000849        3457291.6036274433        346904161.20957041     
   4930726551.3558950        7545324.7536692619        353339102.58318901     
   4780028717.4053659        13197028.549247265        361439688.73387766     
   4629799984.6484947        20412402.990337849        371205919.66164178     
   4879416569.9857006       -1837165.7702682018        498310443.17927235     
   4734940950.8592529        5315461.5087878704        498298684.41215885     
   4590067078.7715750        11140578.917063475        501061233.00569749     
   4444794953.7226629        15638186.454564333        506598088.95988297     
   4299124575.7125177        18808284.121283054        514909252.27472943     
   4509941574.8733673       -9215873.3176739216        655945878.18630683     
   4375793980.3399811        3515300.9504096508        650141150.87482572     
   4240380778.6904736        12027784.831413984        648219393.50757444     
   4103701969.9248414        16321578.325344563        650180606.08455777     
   3965757554.0430865        16396681.432181835        656024788.60577166     
   5283075964.3200731        21198189.268361568        76035865.589345440     
   5068338268.6487074        19779940.427546263        65534787.399575025     
   4851326543.1633368        10781592.206727743        51373130.142382197     
   4632040787.8639669       -5796855.3940992355        33550893.817745812     
   4410481002.7505922       -29955402.374928951        12068078.425678039     
   4957783780.8510075        21209038.039368391        224914790.76651764     
   4735109514.0489759        11285902.932577848        212640442.46434876     
   4510559693.5251732       -4889077.9134371281        199884284.57509100     
   4284134319.2795939       -27315904.498707533        186646317.09875882     
   4055833391.3122468       -55994576.823216200        172926540.03533584     
   4629799984.6484947        20412402.990337849        371205919.66164178     
   4408271345.2310801        4709041.1721820831        357623190.02133548     
   4185265628.1841288       -15917912.744453192        346737420.27429307     
   3960782833.5076232       -41468458.759588480        338548610.42051655     
   3734822961.2015796       -71942596.873189926        333056760.46000707     
   4299124575.7125177        18808284.121283054        514909252.27472943     
   4087823762.1950083        49355.146325588226        500483030.07055157     
   3875444347.1401882       -22304912.286340714        491932537.23998970     
   3661986330.5480456       -48254518.176748037        489257773.78303802     
   3447449712.4185901       -77799462.524861574        492458739.69970667     
   3965757554.0430865        16396681.432181835        656024788.60577166     
   3773766764.9407644       -2693155.1449790001        641219962.61198831     
   3581095850.3933568       -24050076.539100885        635469635.47216678     
   3387744810.4008594       -47674082.750190020        638773807.18631256     
   3193713644.9632759       -73565173.778230786        651132477.75442314     
   4410481002.7505922       -29955402.374928951        12068078.425678039     
   4244351036.7790589       -35683274.006840229       -2857742.7233585832     
   4081683054.2081356       -29871200.970065117        24678125.125203986     
   3922477055.0378299       -12519183.264557362        94675681.971415713     
   3766733039.2681298        16372779.109638214        207134927.81523687     
   4055833391.3122468       -55994576.823216200        172926540.03533584     
   3991179641.1049638       -33350928.301849127        167038270.99632850     
   3929870566.0598006        441637.42655587196        190199666.58913633     
   3871906166.1767464        45383120.362003326        242410726.81375453     
   3817286441.4557886        101473520.50445151        323671451.67019498     
   3734822961.2015796       -71942596.873189926        333056760.46000707     
   3733325357.1419516       -32423449.083536148        336069183.91945845     
   3735055120.0059395        17853588.451498270        354719247.64491028     
   3740012249.7935367        78888515.731905937        389006951.63637322     
   3748196746.5047493        150681332.75768244        438932295.89383125     
   3447449712.4185901       -77799462.524861574        492458739.69970667     
   3470788184.8900237       -32900836.351896286        504234996.04602712     
   3497236716.0465684        22364652.104791164        518236868.29254305     
   3526795305.8882289        87997002.845182657        534464356.43925327     
   3559463954.4150043        163996215.86930156        552917460.48617530     
   3193713644.9632759       -73565173.778230786        651132477.75442314     
   3203568124.3491693       -34783090.106936336        671535707.37603426     
   3216415354.1816816        13974828.386435032        680752528.53203487     
   3232255334.4608092        72708581.701838851        678782941.22242785     
   3251088065.1865463        141418169.83929682        665626945.44720340     
   3766733039.2681298        16372779.109638214        207134927.81523687     
   3776097934.8918104        89494187.082696438        257890729.02030900     
   3778504213.3879614        139420204.63064384        195925784.64629942     
   3773951874.7566032        166150831.75354624        21240094.693199158     
   3762440918.9977083        169686068.45137036       -266166340.83898026     
   3817286441.4557886        101473520.50445151        323671451.67019498     
   3559167134.5553303        92437456.273831844        344295910.39621866     
   3295015291.1393986        63292936.991629124        290843452.49898404     
   3024830911.2079949        14039962.657860279        163314077.97850835     
   2748613994.7611141       -55321466.727499247       -38292213.165232070     
   3748196746.5047493        150681332.75768244        438932295.89383125     
   3333004176.9539504        92611078.285503864        430505839.52154720     
   2912705151.4997225        17519304.135241628        386646295.48182887     
   2487299670.1420851       -74593989.693055630        307353663.77469635     
   2056787732.8810349       -183728803.19940090        192627944.40013665     
   3559463954.4150043        163996215.86930156        552917460.48617530     
   3097609062.0876479        90015053.117676020        516520516.39629358     
   2631573794.4689445        2099306.0615431070        483334313.59482908     
   2161358151.5588827       -99751025.299139500        453358852.08176953     
   1686962133.3574417       -215535940.96437013        426594131.85711050     
   3251088065.1865463        141418169.83929682        665626945.44720340     
   2852981789.9564657        84649380.770407438        602339941.02046585     
   2451621220.0470715        17032942.770501733        580907506.83797538     
   2047006355.4583743       -61431144.160418510        601329642.89972842     
   1639137196.1903706       -150742880.02238274        663606349.20570993     
   5957721182.2829514        1787316354.6848853        1150052368.1289306     
   6088422626.1745281        1502525400.1573987        1227959950.7834692     
   6221757369.9407768        1226512111.8788166        1268515092.7030332     
   6357725413.5816956        959276489.84913898        1271717793.8876231     
   6496326757.0972872        700818534.06836557        1237568054.3372390     
   5434447730.2021751        1630334319.0606525        1033595551.5841553     
   5489897133.3206005        1372642876.7862365        1113952298.4523280     
   5547492002.5827694        1122102988.3242958        1167521567.2484958     
   5607232337.9886808        878714653.67482996        1194303357.9726593     
   5669118139.5383348        642477872.83784056        1194297670.6248190     
   4895114476.3254204        1468534342.8976262        936529121.82537687     
   4905497446.2791805        1246998095.1588264        1018765893.5544326     
   4917538048.6457558        1030987288.7960730        1084780149.8744543     
   4931236283.4251432        820501923.80936491        1134571890.7854419     
   4946592150.6173449        615542000.19870281        1168141116.2873950     
   4339721420.6526861        1301916426.1958058        858853078.85259497     
   4335223565.0502672        1125591055.2751684        942400736.08978426     
   4331895508.1297331        953165013.29414749        1020290840.5809088     
   4329737249.8910866        784638300.25274360        1092523392.3259699     
   4328748790.3343210        620010916.15095556        1159098391.3249664     
   3768268563.1839719        1130480568.9551916        800567422.66580975     
   3779075489.6338606        1008421757.1352625        884856826.05838168     
   3790564381.0347042        888636161.81852007        974053639.36785984     
   3802735237.3865042        771123783.00496483        1068157862.5942436     
   3815588058.6892605        655884620.69459724        1167169495.7375333     
   6496326757.0972872        700818534.06836557        1237568054.3372390     
   6239203729.0025387        374822416.88264680        1053292059.6409440     
   6013191895.5901451        152530281.97144580        907934550.74684644     
   5818291256.8601055        33942129.334756613        801495527.65494943     
   5654501812.8124228        19057958.972586632        733974990.36525249     
   5669118139.5383348        642477872.83784056        1194297670.6248190     
   5518804938.6394215        382632490.12692142        1073490979.6358670     
   5392753589.5268602        203659946.70383787        980661654.27040577     
   5290964092.2006483        105560242.56858850        915809694.52843404     
   5213436446.6607885        88333377.721177101        878935100.40995240     
   4946592150.6173449        615542000.19870281        1168141116.2873950     
   4871828433.5465279        412469248.95226192        1102812828.9604497     
   4814477225.3660564        267438194.00697565        1054520787.0782837     
   4774538526.0759296        180448835.36284351        1023264990.6408997     
   4752012335.6761522        151501173.01986718        1009045439.6482944     
   4328748790.3343210        620010916.15095556        1159098391.3249664     
   4298274213.7238550        464332693.35866928        1141257607.6146886     
   4278362803.1077318        343865023.88085711        1129511949.1704819     
   4269014558.4859538        258607907.71752048        1123861415.9923460     
   4270229479.8585134        208561344.86865640        1124306008.0802808     
   3815588058.6892605        655884620.69459724        1167169495.7375333     
   3798142279.1714072        538222823.34614372        1188825315.5985854     
   3784410322.7518916        432940436.32548404        1205635140.5469987     
   3774392189.4307141        340037459.63261807        1217598970.5827746     
   3768087879.2078743        259513893.26754594        1224716805.7059109     
   5654501812.8124228        19057958.972586632        733974990.36525249     
   5520505606.7357941        51443211.838534594        721266379.57740116     
   5380671690.7043743        64369431.521845102        710812198.01407039     
   5235000064.7181654        57836618.022522926        702612445.67525518     
   5083490728.7771635        31844771.340555429        696667122.56096244     
   5213436446.6607885        88333377.721177101        878935100.40995240     
   5077732439.3019543        86811663.299745798        855297017.36050010     
   4939629036.6216145        77291964.473284006        835915496.55115461     
   4799126238.6197634        59774281.241787672        820790537.98191285     
   4656224045.2964010        34258613.605257750        809922141.65277493     
   4752012335.6761522        151501173.01986718        1009045439.6482944     
   4620320907.0796471        117788605.32441831        978489251.40940654     
   4489668397.7949104        87539102.001538038        954191758.42620683     
   4360054807.8219490        60752663.051232338        936152960.69869816     
   4231480137.1607556        37429288.473495007        924372858.22687984     
   4270229479.8585134        208561344.86865640        1124306008.0802808     
   4148271010.0688663        144374037.91254759        1090843081.7241156     
   4030789774.2242723        95110844.106612444        1065640983.6392254     
   3917785772.3247290        60771763.450854063        1048699713.8256125     
   3809259004.3702402        41356795.945271254        1040019272.2832745     
   3768087879.2078743        259513893.26754594        1224716805.7059109     
   3661582748.2696166        166567961.06413639        1192358508.3046288     
   3562993165.9096909        100007190.78850365        1170263172.1902094     
   3472319132.1280994        59831582.440654039        1158430797.3626521     
   3389560646.9248438        46041136.020582318        1156861383.8219578     
   5083490728.7771635        31844771.340555429        696667122.56096244     
   4934628292.4335241        3329117.2836976051        678570332.59243000     
   4789415954.6683426       -13019541.511627197        665751195.20714307     
   4647853715.4816236       -17201205.045418024        658209710.40510368     
   4509941574.8733673       -9215873.3176739216        655945878.18630683     
   4656224045.2964010        34258613.605257750        809922141.65277493     
   4522487623.8125820        11810744.637624264        796199444.39424419     
   4391360312.2329283       -1940091.3161189556        787434232.50096965     
   4262842110.5574446       -6993894.2559649944        783626505.97295117     
   4136933018.7861309       -3350664.1819150448        784776264.81019175     
   4231480137.1607556        37429288.473495007        924372858.22687984     
   4111954967.0567913        20774775.551093340        913809766.89167368     
   3993997918.1827025        9347333.3949463367        907883993.70373476     
   3877608990.5384903        3146962.0050559044        906595538.66306710     
   3762788184.1241570        2173661.3814237118        909944401.76966727     
   3809259004.3702402        41356795.945271254        1040019272.2832745     
   3703030322.1661615        30221210.024110794        1031401300.0847182     
   3597328772.5176711        20842732.621569872        1027100478.8154445     
   3492154355.4247637        13221363.737647057        1027116808.4754534     
   3387507070.8874450        7357103.3723437786        1031450289.0647428     
   3389560646.9248438        46041136.020582318        1156861383.8219578     
   3295713689.1406903        40150048.056679726        1148974043.9733803     
   3201352875.2378292        32546106.363749266        1145083687.8360975     
   3106478205.2162638        23229310.941804647        1145190315.4101067     
   3011089679.0759916        12199661.790834785        1149293926.6954117     
   4509941574.8733673       -9215873.3176739216        655945878.18630683     
   4375793980.3399811        3515300.9504096508        650141150.87482572     
   4240380778.6904736        12027784.831413984        648219393.50757444     
   4103701969.9248414        16321578.325344563        650180606.08455777     
   3965757554.0430865        16396681.432181835        656024788.60577166     
   4136933018.7861309       -3350664.1819150448        784776264.81019175     
   4011614910.4530888        3498867.4125938416        777670228.26252556     
   3885684839.3514647        8308523.1118328571        774830436.38786840     
   3759142805.4812665        11078302.915814161        776256889.18622231     
   3631988808.8424816        11808206.824519873        781949586.65758097     
   3762788184.1241570        2173661.3814237118        909944401.76966727     
   3647394632.6450992        3470071.4984505177        902299641.05795634     
   3532042762.7450094        4905420.2120223045        899304399.74802923     
   3416732574.4238844        6479707.5221464634        900958677.83988738     
   3301464067.6817203        8192933.4288122654        907262475.33352578     
   3387507070.8874450        7357103.3723437786        1031450289.0647428     
   3283133146.9160161        3428913.2079765797        1024029389.2611190     
   3179454548.8711014        1818476.1319751740        1021641283.5880533     
   3076471276.7526922        2525792.1443334818        1024285972.0455486     
   2974183330.5607896        5550861.2450516224        1031963454.6336013     
   3011089679.0759916        12199661.790834785        1149293926.6954117     
   2918830453.2658415        3375392.5411783457        1142859472.8720078     
   2827920197.7297416       -952309.12831056118        1141841087.9079418     
   2738358912.4676952       -783443.21761751175        1146238771.8032086     
   2650146597.4797006        3881990.2732435465        1156052524.5578144     
   3965757554.0430865        16396681.432181835        656024788.60577166     
   3773766764.9407644       -2693155.1449790001        641219962.61198831     
   3581095850.3933568       -24050076.539100885        635469635.47216678     
   3387744810.4008594       -47674082.750190020        638773807.18631256     
   3193713644.9632759       -73565173.778230786        651132477.75442314     
   3631988808.8424816        11808206.824519873        781949586.65758097     
   3463124950.8275661       -1948863.7836012840        766706319.04428709     
   3293571506.5016718       -18004555.428313971        758967861.26679265     
   3123328475.8648000       -36358868.109621286        758734213.32509363     
   2952395858.9169526       -57011801.827509999        766005375.21919775     
   3301464067.6817203        8192933.4288122654        907262475.33352578     
   3151299457.8451581       -1559676.0829899311        891569728.42385089     
   3000435800.8317337       -13642442.851006031        881832102.33181143     
   2848873096.6414480       -28055366.875230789        878049597.05740345     
   2696611345.2742901       -44798448.155677676        880222212.60063183     
   2974183330.5607896        5550861.2450516224        1031963454.6336013     
   2838290285.9935470       -1525592.0431412458        1015810190.7506801     
   2701688733.3835478       -10963738.807167411        1004062358.6672251     
   2564378672.7307968       -22763579.047042370        996719958.38323832     
   2426360104.0352993       -36925112.762742162        993782989.89871478     
   2650146597.4797006        3881990.2732435465        1156052524.5578144     
   2524097435.2727265       -1846611.6640467644        1139427706.0247686     
   2397330304.1571102       -9968443.2968101501        1125658630.2730305     
   2269845204.1328564       -20483504.625032187        1114745297.3025949     
   2141642135.1999621       -33391795.648723841        1106687707.1134598     
   3193713644.9632759       -73565173.778230786        651132477.75442314     
   3203568124.3491693       -34783090.106936336        671535707.37603426     
   3216415354.1816816        13974828.386435032        680752528.53203487     
   3232255334.4608092        72708581.701838851        678782941.22242785     
   3251088065.1865463        141418169.83929682        665626945.44720340     
   2952395858.9169526       -57011801.827509999        766005375.21919775     
   2936055620.9045410       -28400852.063981175        786888454.79789066     
   2922307938.3025298        8851949.0675389767        801155344.97607005     
   2911152811.1109133        54746601.567045808        808806045.75372338     
   2902590239.3296952        109283105.43454373        809840557.13085437     
   2696611345.2742901       -44798448.155677676        880222212.60063183     
   2667134158.6209779       -22441301.672708988        901118247.92748559     
   2639849332.3418474        7223712.7241941690        919968312.91891825     
   2614756866.4368968        44196595.035023451        936772407.57491744     
   2591856760.9061189        88477345.259777904        951530531.89549160     
   2426360104.0352993       -36925112.762742162        993782989.89871478     
   2396803737.4984832       -16904438.933116913        1014225086.7648196     
   2369039536.2996316        9090119.3563808203        1037191432.3605820     
   2343067500.4387379        41058562.105743170        1062682026.6860023     
   2318887629.9158158        79000889.315005064        1090696869.7410908     
   2141642135.1999621       -33391795.648723841        1106687707.1134598     
   2125064357.5370550       -11790263.845203161        1126208971.3098862     
   2109878550.1758859        14451168.964116693        1152824703.3010619     
   2096084713.1164627        45332502.779253483        1186534903.0869915     
   2083682846.3587806        80853737.600189447        1227339570.6676691     
   3251088065.1865463        141418169.83929682        665626945.44720340     
   2852981789.9564657        84649380.770407438        602339941.02046585     
   2451621220.0470715        17032942.770501733        580907506.83797538     
   2047006355.4583743       -61431144.160418510        601329642.89972842     
   1639137196.1903706       -150742880.02238274        663606349.20570993     
   2902590239.3296952        109283105.43454373        809840557.13085437     
   2604868134.5178490        76684036.353657365        750177203.57944405     
   2304297839.3246984        34590999.335082769        720300244.72366738     
   2000879353.7502501       -16996005.621150970        720209680.56353402     
   1694612677.7944994       -78076978.515058637        749905511.09902668     
   2591856760.9061189        88477345.259777904        951530531.89549160     
   2360038324.9450650        69703845.696628690        895964617.56707275     
   2125777802.9007239        42790059.189177155        858116922.38569355     
   1889075194.7730834        7735985.7374123335        837987446.35134041     
   1649930500.5621610       -35458374.658661366        835576189.46403360     
   2318887629.9158158        79000889.315005064        1090696869.7410908     
   2118492361.2381151        63708808.799361229        1039702182.9833516     
   1916061110.7751465        41630122.332793713        994357539.82404077     
   1711593878.5268826        12764829.915271282        954662940.26316082     
   1505090664.4933336       -22887068.453217387        920618384.30070376     
   2083682846.3587806        80853737.600189447        1227339570.6676691     
   1880230243.3970077        58698925.661849856        1181389899.8282771     
   1675147762.9479551        31111188.765922248        1129022097.0387132     
   1468435405.0116279       -1909473.0876004100        1070236162.2989784     
   1260093169.5880222       -40363059.898718715        1005032095.6090623     
   3768268563.1839719        1130480568.9551916        800567422.66580975     
   3779075489.6338606        1008421757.1352625        884856826.05838168     
   3790564381.0347042        888636161.81852007        974053639.36785984     
   3802735237.3865042        771123783.00496483        1068157862.5942436     
   3815588058.6892605        655884620.69459724        1167169495.7375333     
   3207889610.6271148        962366883.18813455        756586549.07618725     
   3235875913.8815808        868043667.45179129        853010146.68719172     
   3263628963.9642930        772942941.14293694        951340717.44244576     
   3291148760.8752522        677064704.26157105        1051578261.3419489     
   3318435304.6144586        580408956.80769491        1153722778.3857019     
   2685718269.6899505        805715480.90698516        721824853.89489412     
   2722311273.2556891        736556058.30623674        829314891.24783647     
   2757755805.5269661        663568398.05727887        935711464.97237206     
   2792051866.5037799        586752500.16011143        1041014575.0685004     
   2825199456.1861315        506108364.61473507        1145224221.5362225     
   2201754540.3724771        660526362.11174321        696282337.12192965     
   2238381567.7561870        613958929.69859874        813771059.74031579     
   2272944905.7227240        560512532.56154656        927165881.95763850     
   2305444554.2720890        500187170.70058632        1036466803.7738978     
   2335880513.4042807        432982844.11571825        1141673825.1890934     
   1755998422.6746969        526799526.80240911        679958998.75729454     
   1784086797.3830721        500252281.62887716        806378652.16462982     
   1809196264.5515659        463775344.65573889        925703968.39824486     
   1831326824.1801775        417368715.88299465        1037934947.4581409     
   1850478476.2689075        361032395.31064415        1143071589.3443167     
   3815588058.6892605        655884620.69459724        1167169495.7375333     
   3798142279.1714072        538222823.34614372        1188825315.5985854     
   3784410322.7518916        432940436.32548404        1205635140.5469987     
   3774392189.4307141        340037459.63261807        1217598970.5827746     
   3768087879.2078743        259513893.26754594        1224716805.7059109     
   3318435304.6144586        580408956.80769491        1153722778.3857019     
   3293894786.9608660        473390427.76871228        1181935516.7563498     
   3273006425.8852253        378545753.98956513        1207080620.3253438     
   3255770221.3875360        295874935.47025704        1229158089.0926855     
   3242186173.4677968        225377972.21078300        1248167923.0583739     
   2825199456.1861315        506108364.61473507        1145224221.5362225     
   2798645229.2853332        411257412.55178338        1179921934.1426795     
   2775681492.4420986        328374760.68071020        1213330372.0584702     
   2756308245.6564283        257460409.00151670        1245449535.2835934     
   2740525488.9283209        198514357.51420140        1276279423.8180494     
   2335880513.4042807        432982844.11571825        1141673825.1890934     
   2312393606.1448078        351823777.69535673        1182784567.7575760     
   2292435522.4225106        282427456.39891583        1224384395.7463765     
   2276006262.2373896        224793880.22639644        1266473309.1554971     
   2263105825.5894451        178923049.17780018        1309051307.9849360     
   1850478476.2689075        361032395.31064415        1143071589.3443167     
   1835139917.5392892        295089523.19943231        1190523417.6010385     
   1823268515.8264601        240703841.14418316        1240242691.3890648     
   1814864271.1304202        197875349.14489907        1292229410.7083964     
   1809927183.4511697        166604047.20157748        1346483575.5590329     
   3768087879.2078743        259513893.26754594        1224716805.7059109     
   3661582748.2696166        166567961.06413639        1192358508.3046288     
   3562993165.9096909        100007190.78850365        1170263172.1902094     
   3472319132.1280994        59831582.440654039        1158430797.3626521     
   3389560646.9248438        46041136.020582318        1156861383.8219578     
   3242186173.4677968        225377972.21078300        1248167923.0583739     
   3164775287.6545215        150685356.46227932        1231352865.4833081     
   3093570969.7989168        96681300.572680235        1222442731.3817749     
   3028573219.9009862        63365804.541988850        1221437520.7537715     
   2969782037.9607263        50738868.370206118        1228337233.5992973     
   2740525488.9283209        198514357.51420140        1276279423.8180494     
   2685471597.3447971        140053882.95203233        1273013795.3450949     
   2634915293.0982833        96585366.179898262        1275295052.5323377     
   2588856576.1887794        68108807.197797537        1283123195.3797839     
   2547295446.6162868        54624206.005730391        1296498223.8874300     
   2263105825.5894451        178923049.17780018        1309051307.9849360     
   2223671677.3404427        134673540.53339732        1317341297.8899832     
   2187026135.8077898        99719387.610157967        1328820135.6419015     
   2153169200.9914842        74060590.408076286        1343487821.2406893     
   2122100872.8915296        57697148.927162528        1361344354.6863480     
   1809927183.4511697        166604047.20157748        1346483575.5590329     
   1779375527.6414595        134544329.20637345        1364335373.1179786     
   1749903497.9274366        106083364.86346173        1383017980.7104650     
   1721511094.3090987        81221154.172832251        1402531398.3364899     
   1694198316.7864485        59957697.134493351        1422875625.9960561     
   3389560646.9248438        46041136.020582318        1156861383.8219578     
   3295713689.1406903        40150048.056679726        1148974043.9733803     
   3201352875.2378292        32546106.363749266        1145083687.8360975     
   3106478205.2162638        23229310.941804647        1145190315.4101067     
   3011089679.0759916        12199661.790834785        1149293926.6954117     
   2969782037.9607263        50738868.370206118        1228337233.5992973     
   2885411186.1175613        40095062.043905497        1219492158.1615305     
   2801201039.3824530        29986939.411122918        1215036192.4353197     
   2717151597.7554011        20414500.471867442        1214969336.4206669     
   2633262861.2364030        11377745.226126432        1219291590.1175740     
   2547295446.6162868        54624206.005730391        1296498223.8874300     
   2473521060.7148695        39563789.317261696        1287482400.9583571     
   2400581941.1482716        27287593.744855165        1283247813.7411110     
   2328478087.9164910        17795619.288510442        1283794462.2356865     
   2257209501.0195308        11087865.948227882        1289122346.4420879     
   2122100872.8915296        57697148.927162528        1361344354.6863480     
   2060043312.9326155        38556229.876750588        1352944772.3638637     
   1999495580.5352838        24448069.364944696        1349718551.7534690     
   1940457675.6995339        15372667.391740680        1351665692.8551629     
   1882929598.4253645        11330023.957144618        1358786195.6689470     
   1694198316.7864485        59957697.134493351        1422875625.9960561     
   1644977942.7707992        37072383.722370684        1415879272.3780475     
   1597941957.5434942        21468366.271393657        1414448406.4723961     
   1553090361.1045325        13145644.781560421        1418583028.2790978     
   1510423153.4539132        12104219.252872348        1428283137.7981536     
   3011089679.0759916        12199661.790834785        1149293926.6954117     
   2918830453.2658415        3375392.5411783457        1142859472.8720078     
   2827920197.7297416       -952309.12831056118        1141841087.9079418     
   2738358912.4676952       -783443.21761751175        1146238771.8032086     
   2650146597.4797006        3881990.2732435465        1156052524.5578144     
   2633262861.2364030        11377745.226126432        1219291590.1175740     
   2555348609.5636768        5819077.0195946693        1214543792.0559578     
   2478385130.7512431        3429651.6807081699        1214660920.3846066     
   2402372424.7991023        4209469.2094668150        1219642975.1035244     
   2327310491.7072515        8158529.6058632135        1229489956.2127118     
   2257209501.0195308        11087865.948227882        1289122346.4420879     
   2192065530.7154655        8322390.9542006254        1285596640.4928663     
   2127474135.8579323        7398834.1152799129        1286384718.4648476     
   2063435316.4469321        8317195.4314764738        1291486580.3580298     
   1999949072.4824693        11077474.902781487        1300902226.1724153     
   1882929598.4253645        11330023.957144618        1358786195.6689470     
   1828981216.7212000        10885334.344985843        1356018018.1827371     
   1775187213.0498085        10955238.175407529        1357012482.1486650     
   1721547587.4111919        11539735.448410869        1361769587.5667238     
   1668062339.8053513        12638826.164001465        1370289334.4369242     
   1510423153.4539132        12104219.252872348        1428283137.7981536     
   1466095667.5808876        13507907.191960335        1425807925.1255722     
   1421524362.3268745        14098863.861093700        1426544211.4360583     
   1376709237.6918795        13877089.260283172        1430491996.7296131     
   1331650293.6758983        12842583.389521003        1437651281.0062380     
   2650146597.4797006        3881990.2732435465        1156052524.5578144     
   2524097435.2727265       -1846611.6640467644        1139427706.0247686     
   2397330304.1571102       -9968443.2968101501        1125658630.2730305     
   2269845204.1328564       -20483504.625032187        1114745297.3025949     
   2141642135.1999621       -33391795.648723841        1106687707.1134598     
   2327310491.7072515        8158529.6058632135        1229489956.2127118     
   2209791816.4294529        56806.405001997948        1211270818.7864163     
   2091774833.6046770       -9705941.9524525404        1197305494.9697824     
   1973259543.2329197       -21129715.466505408        1187593984.7628005     
   1854245945.3141880       -34214514.137147665        1182136288.1654804     
   1999949072.4824693        11077474.902781487        1300902226.1724153     
   1894955372.2148571        1800976.8626567125        1281345041.4414766     
   1789683025.7619278       -8404341.7951933146        1267439741.1485493     
   1684132033.1236815       -19538481.070765734        1259186325.2936301     
   1578302394.3001201       -31601440.964061439        1256584793.8767211     
   1668062339.8053513        12638826.164001465        1370289334.4369242     
   1579588102.6289356        3385899.7089142203        1349650373.9899445     
   1491054880.6288648       -6063642.8250297904        1336061368.8093290     
   1402462673.8051386       -15709801.437819123        1329522318.8950775     
   1313811482.1577597       -25552576.129463673        1330033224.2471881     
   1331650293.6758983        12842583.389521003        1437651281.0062380     
   1263690007.6716914        4811574.9437748194        1416186816.4318216     
   1195890398.2054896       -2683845.0419548750        1403170377.9521229     
   1128251465.2772930       -9643676.5676704049        1398601965.5671422     
   1060773208.8871050       -16067919.633350968        1402481579.2768805     
   2141642135.1999621       -33391795.648723841        1106687707.1134598     
   2125064357.5370550       -11790263.845203161        1126208971.3098862     
   2109878550.1758859        14451168.964116693        1152824703.3010619     
   2096084713.1164627        45332502.779253483        1186534903.0869915     
   2083682846.3587806        80853737.600189447        1227339570.6676691     
   1854245945.3141880       -34214514.137147665        1182136288.1654804     
   1853403616.4585798       -10432460.011654139        1206019079.5537119     
   1853992873.4426134        18121546.912646651        1234408397.0785065     
   1856013716.2662821        51447506.635727763        1267304240.7398596     
   1859466144.9295931        89545419.157619536        1304706610.5377800     
   1578302394.3001201       -31601440.964061439        1256584793.8767211     
   1585801395.2284133       -7857100.2236016989        1284875330.5843103     
   1594771597.5342388        20791245.108638585        1315084451.7702637     
   1605213001.2176027        54343595.032672286        1347212157.4345889     
   1617125606.2785008        92799949.548483431        1381258447.5772877     
   1313811482.1577597       -25552576.129463673        1330033224.2471881     
   1322257693.8465459       -4064184.4810683131        1362777724.4016774     
   1332214722.4507682        22460263.552105427        1394852867.3763399     
   1343682567.9704237        54020767.970060349        1426258653.1711853     
   1356661230.4055068        90617328.772774160        1456995081.7862101     
   1060773208.8871050       -16067919.633350968        1402481579.2768805     
   1062772512.3129872        946287.21596610546        1439726261.0058115     
   1066322248.1921991        23128602.243045092        1473713643.8967314     
   1071422416.5247407        50479025.447894454        1504443727.9496374     
   1078073017.3106077        82997556.830490142        1531916513.1645341     
   2083682846.3587806        80853737.600189447        1227339570.6676691     
   1880230243.3970077        58698925.661849856        1181389899.8282771     
   1675147762.9479551        31111188.765922248        1129022097.0387132     
   1468435405.0116279       -1909473.0876004100        1070236162.2989784     
   1260093169.5880222       -40363059.898718715        1005032095.6090623     
   1859466144.9295931        89545419.157619536        1304706610.5377800     
   1646557296.5134165        62534761.065288901        1253892152.2832980     
   1432084870.5056996        30312177.667822361        1203342370.8957591     
   1216048866.9064443       -7122331.0347735882        1153057266.3751621     
   998449285.71564925       -49768765.042496979        1103036838.7214999     
   1617125606.2785008        92799949.548483431        1381258447.5772877     
   1413854251.8853855        66661567.145391107        1325656551.7860849     
   1209085619.7964725        35532259.089638114        1277002141.6789412     
   1002819710.0117521       -587974.61878925562        1235295217.2558379     
   795056522.53124166       -41699133.979878992        1200535778.5167971     
   1356661230.4055068        90617328.772774160        1456995081.7862101     
   1182121109.5129178        71079343.902168036        1396683098.3366416     
   1006150010.8202664        46771433.031353354        1350001409.3882425     
   828747934.32755804        17693596.160346150        1316950014.9410090     
   649914880.03478229       -16154166.710879803        1297528914.9949384     
   1078073017.3106077        82997556.830490142        1531916513.1645341     
   951357869.39601052        75788091.335609853        1466971791.9349692     
   823278043.57708931        64029699.492983073        1422340174.0236826     
   693833539.85384846        47722381.302620053        1398021659.4306717     
   563024358.22627819        26866136.764505953        1394016248.1559451     
   1755998422.6746969        526799526.80240911        679958998.75729454     
   1784086797.3830721        500252281.62887716        806378652.16462982     
   1809196264.5515659        463775344.65573889        925703968.39824486     
   1831326824.1801775        417368715.88299465        1037934947.4581409     
   1850478476.2689075        361032395.31064415        1143071589.3443167     
   1326257988.4931214        397877396.54793638        669703767.76590717     
   1339541795.3279648        375614162.66958261        791831186.73305845     
   1350599059.7952373        345929120.89932609        908676195.74924839     
   1359429781.8949394        308822271.23716730        1020238794.8144768     
   1366033961.6270697        264293613.68310502        1126518983.9287438     
   890341309.72426379        267102392.91727912        662365573.11268604     
   893997483.60774148        250676250.81075341        781078517.00734997     
   896179480.29595959        229336184.72002873        896320978.17381072     
   896887299.78891790        203082194.64510494        1008092956.6120684     
   896120942.08661652        171914280.58598191        1116394452.3221226     
   448248386.36812377        134474515.91043714        657944414.79763138     
   447453862.22240239        125438546.05238947        774120642.98750424     
   445937526.05373234        113996536.11784634        888638315.67193210     
   443699377.86211348        100148486.10680765        1001497432.8509146     
   440739417.64754623        83894396.019273534        1112697994.5244524     
  -20781.575298123636       -6234.4725894370904        656440292.82074308     
  -89068.828052418292       -98951.605509268309        770957564.67352104     
  -126802.93144433020       -89824.907220896828        885628208.24361193     
  -133983.88547376500        21145.622275601563        1000452223.5310165     
  -110611.69014079416        233959.98297994526        1115429610.5357337     
   1850478476.2689075        361032395.31064415        1143071589.3443167     
   1835139917.5392892        295089523.19943231        1190523417.6010385     
   1823268515.8264601        240703841.14418316        1240242691.3890648     
   1814864271.1304202        197875349.14489907        1292229410.7083964     
   1809927183.4511697        166604047.20157748        1346483575.5590329     
   1366033961.6270697        264293613.68310502        1126518983.9287438     
   1360317339.3458664        216611272.93505260        1181913150.9072430     
   1357184989.5926797        177543173.94705656        1238227393.1540275     
   1356636912.3675096        147089316.71911478        1295461710.6690972     
   1358673107.6703556        125249701.25122815        1353616103.4524503     
   896120942.08661652        171914280.58598191        1116394452.3221226     
   896176626.93091345        141337582.40421510        1178700926.1188312     
   897933699.81445444        116432177.68659446        1240580104.9208059     
   901392160.73723996        97198066.433122158        1302031988.7280455     
   906552009.69926953        83635248.643797159        1363056577.5405493     
   440739417.64754623        83894396.019273534        1112697994.5244524     
   442717780.29442990        69268451.606917530        1180886743.2358031     
   445514646.49178523        57370852.362800434        1247300826.6893995     
   449130016.23961228        48201598.286922514        1311940244.8852406     
   453563889.53791118        41760689.379284173        1374804997.8233273     
  -110611.69014079416        233959.98297994526        1115429610.5357337     
  -59200.563584094256        403880.54316131666        1188470602.2581589     
  -72170.375328425798        359197.97567266983        1258389558.4598091     
  -149521.12537339749        99912.280515439459        1325186479.1406841     
  -291252.81371877377       -373976.54231032659        1388861364.3007858     
   1809927183.4511697        166604047.20157748        1346483575.5590329     
   1779375527.6414595        134544329.20637345        1364335373.1179786     
   1749903497.9274366        106083364.86346173        1383017980.7104650     
   1721511094.3090987        81221154.172832251        1402531398.3364899     
   1694198316.7864485        59957697.134493351        1422875625.9960561     
   1358673107.6703556        125249701.25122815        1353616103.4524503     
   1333195955.4014978        100373569.98369986        1372585505.8671799     
   1308574632.8937674        78350204.586597919        1392969811.7272539     
   1284809140.1471643        59179605.059919298        1414769021.0326722     
   1261899477.1616893        42861771.403667390        1437983133.7834361     
   906552009.69926953        83635248.643797159        1363056577.5405493     
   887818199.29070723        66443355.599776715        1382882489.0874090     
   869716422.30871403        51358240.644319773        1404707397.4914184     
   852246678.75328839        38379903.777422220        1428531302.7525773     
   835408968.62443268        27508344.999089301        1454354204.8708868     
   453563889.53791118        41760689.379284173        1374804997.8233273     
   443242259.30908883        32753686.054605603        1395226322.7786644     
   433328866.17227536        25107473.036624745        1418230738.0029576     
   423823710.12747222        18822050.325343892        1443818243.4962065     
   414726791.17467874        13897417.920762658        1471988839.2584102     
  -291252.81371877377       -373976.54231032659        1388861364.3007858     
  -531864.54335802048       -695438.65181422094        1409617006.9409490     
  -588035.51554673864       -402098.23648301954        1433539833.2618732     
  -459765.73028479062        506044.70368347497        1460629843.2635581     
  -147055.18757190218        2028990.1686869580        1490887036.9460032     
   1694198316.7864485        59957697.134493351        1422875625.9960561     
   1644977942.7707992        37072383.722370684        1415879272.3780475     
   1597941957.5434942        21468366.271393657        1414448406.4723961     
   1553090361.1045325        13145644.781560421        1418583028.2790978     
   1510423153.4539132        12104219.252872348        1428283137.7981536     
   1261899477.1616893        42861771.403667390        1437983133.7834361     
   1228219338.3491855        26876274.481501758        1434780650.9989436     
   1196032916.6868923        15869834.726704657        1436374442.2376029     
   1165340212.1748123        9842452.1392847300        1442764507.4994147     
   1136141224.8129406        8794126.7192255259        1453950846.7843757     
   835408968.62443268        27508344.999089301        1454354204.8708868     
   815071311.61735272        17763338.547568113        1454139809.3420866     
   795536700.12235081        10695150.469640344        1457952474.1472361     
   776805134.13942707        6303780.7653052509        1465792199.2863352     
   758876613.66857922        4589229.4345596433        1477658984.7593818     
   414726791.17467874        13897417.920762658        1471988839.2584102     
   405533862.57530028        9733575.9205688834        1473956747.4074819     
   396453307.84986567        5944313.5001879930        1479182502.2012987     
   387485126.99837685        2529630.6596267521        1487666103.6398606     
   378629320.02083123       -510472.60112351179        1499407551.7231712     
  -147055.18757190218        2028990.1686869580        1490887036.9460032     
  -393008.77697242319        2786986.6005011061        1494231465.1951237     
  -1217260.1305602537        1617323.8183575552        1500064526.3997874     
  -2619809.2483373620       -1479998.1777499057        1508386220.5599930     
  -4600656.1303027859       -6504979.3878191151        1519196547.6757433     
   1510423153.4539132        12104219.252872348        1428283137.7981536     
   1466095667.5808876        13507907.191960335        1425807925.1255722     
   1421524362.3268745        14098863.861093700        1426544211.4360583     
   1376709237.6918795        13877089.260283172        1430491996.7296131     
   1331650293.6758983        12842583.389521003        1437651281.0062380     
   1136141224.8129406        8794126.7192255259        1453950846.7843757     
   1100316579.9111819        8024951.9495199323        1450599536.2360940     
   1064492842.8563430        7258803.3362149596        1451078803.4615927     
   1028670013.6484301        6495680.8793284893        1455388648.4608734     
   992848092.28743482        5735584.5788359046        1463529071.2339334     
   758876613.66857922        4589229.4345596433        1477658984.7593818     
   733323606.28298020        2177830.9195267558        1473717091.4346242     
   708016233.97221136        585215.98726308346        1474224854.6743598     
   682954496.73626888       -188615.36224806309        1479182274.4785912     
   658138394.57515574       -143663.12899222970        1488589350.8473136     
   378629320.02083123       -510472.60112351179        1499407551.7231712     
   365116746.69628507       -4033455.8980116248        1495160590.7211621     
   352094535.67447686       -5921898.1857731044        1495982365.0743601     
   339562686.95539850       -6175799.4644348025        1501872874.7827628     
   327521200.53905958       -4795159.7339645922        1512832119.8463726     
  -4600656.1303027859       -6504979.3878191151        1519196547.6757433     
  -4303998.8489047233       -10608908.503098393        1514930034.0957077     
  -3272252.0368612427       -12262539.182893287        1516351334.6615913     
  -1505415.6941803037       -11465871.427229816        1523460449.3733926     
   996510.17914477317       -8218905.2360858843        1536257378.2311125     
   1331650293.6758983        12842583.389521003        1437651281.0062380     
   1263690007.6716914        4811574.9437748194        1416186816.4318216     
   1195890398.2054896       -2683845.0419548750        1403170377.9521229     
   1128251465.2772930       -9643676.5676704049        1398601965.5671422     
   1060773208.8871050       -16067919.633350968        1402481579.2768805     
   992848092.28743482        5735584.5788359046        1463529071.2339334     
   946535673.69365120        1712773.8573710918        1442961325.5784435     
   900146150.38405502       -2567052.5834655166        1429672790.8229544     
   853679522.35865045       -7103894.7436649799        1423663466.9674692     
   807135789.61743808       -11897752.623224348        1424933354.0119896     
   658138394.57515574       -143663.12899222970        1488589350.8473136     
   630134371.40689433       -1160117.7216576338        1468640912.6479597     
   601815462.26901317       -3226192.2130582035        1454802870.1538961     
   573181667.16150546       -6341886.6032136977        1447075223.3651247     
   544232986.08437598       -10507200.892106235        1445457972.2816458     
   327521200.53905958       -4795159.7339645922        1512832119.8463726     
   314486100.81142944       -3807099.7932904512        1493225577.6403763     
   300898333.86036289       -4661263.9307368249        1478560615.9449527     
   286757899.68585896       -7357652.1463078409        1468837234.7601106     
   272064798.28791630       -11896264.440007433        1464055434.0858443     
   996510.17914477317       -8218905.2360858843        1536257378.2311125     
  -409138.09275145223       -6228172.3575463705        1516715320.5556872     
  -2605234.8418902555       -6872267.7364821127        1500946028.1961241     
  -5591780.0682905074       -10151191.372956023        1488949501.1524272     
  -9368773.7719422597       -16064943.266934926        1480725739.4245918     
   1060773208.8871050       -16067919.633350968        1402481579.2768805     
   1062772512.3129872        946287.21596610546        1439726261.0058115     
   1066322248.1921991        23128602.243045092        1473713643.8967314     
   1071422416.5247407        50479025.447894454        1504443727.9496374     
   1078073017.3106077        82997556.830490142        1531916513.1645341     
   807135789.61743808       -11897752.623224348        1424933354.0119896     
   800436022.04027283       -3153378.6760482788        1461359893.3630099     
   794858441.99925661        9331620.3916274011        1496260561.4501965     
   790403049.49439323        25557244.579808354        1529635358.2735403     
   787069844.52567482        45523493.888475209        1561484283.8330483     
   544232986.08437598       -10507200.892106235        1445457972.2816458     
   533781083.43036795       -8548579.0692172348        1480566750.1847191     
   524023123.39533406       -4276815.1830839515        1515881084.3981292     
   514959105.97927082        2308090.7662865222        1551400974.9218724     
   506589031.18217808        11206138.778892815        1587126421.7559507     
   272064798.28791630       -11896264.440007433        1464055434.0858443     
   262807696.48327756       -15239313.963534728        1497346831.4709332     
   253816292.38042659       -17696704.481100976        1532575212.7405248     
   245090585.97937670       -19268435.992665216        1569740577.8946264     
   236630577.28011960       -19954508.498252228        1608842926.9332325     
  -9368773.7719422597       -16064943.266934926        1480725739.4245918     
  -12484138.801009055       -23225583.359031081        1511700137.2216489     
  -15762051.045456883       -30928047.502396651        1546342946.4773860     
  -19202510.505289994       -39172335.697046854        1584654167.1918023     
  -22805517.180508442       -47958447.942981489        1626633799.3648977     
   1078073017.3106077        82997556.830490142        1531916513.1645341     
   951357869.39601052        75788091.335609853        1466971791.9349692     
   823278043.57708931        64029699.492983073        1422340174.0236826     
   693833539.85384846        47722381.302620053        1398021659.4306717     
   563024358.22627819        26866136.764505953        1394016248.1559451     
   787069844.52567482        45523493.888475209        1561484283.8330483     
   709189061.48874724        43078355.940742999        1496673210.8049140     
   630155026.84800804        36789045.980304688        1448014470.3150597     
   549967740.60346162        26655564.007175744        1415508062.3634861     
   468627202.75510889        12677910.021362752        1399153986.9501891     
   506589031.18217808        11206138.778892815        1587126421.7559507     
   465654696.50864184        9958953.4240184724        1522695660.9465082     
   423778536.53181273        5572350.3914992660        1470256461.8953495     
   380960551.25168508       -1953670.3186753541        1429808824.6024783     
   337200740.66826820       -12619108.706488535        1401352749.0678873     
   236630577.28011960       -19954508.498252228        1608842926.9332325     
   220754774.45569670       -23570116.214555442        1545039142.3597507     
   204148572.62849516       -29620387.273453087        1489066148.7645588     
   186811971.79851362       -38105321.674953319        1440923946.1476552     
   168744971.96575433       -49024919.419041790        1400612534.5090361     
  -22805517.180508442       -47958447.942981489        1626633799.3648977     
  -25510704.670088138       -57508852.974977948        1563703655.0446484     
  -28734864.861934900       -68789167.014529184        1504443530.9226847     
  -32477997.756050505       -81799390.061643258        1448853426.9990139     
  -36740103.352424666       -96539522.116287902        1396933343.2736311     
  -20781.575298123636       -6234.4725894370904        656440292.82074308     
  -89068.828052418292       -98951.605509268309        770957564.67352104     
  -126802.93144433020       -89824.907220896828        885628208.24361193     
  -133983.88547376500        21145.622275601563        1000452223.5310165     
  -110611.69014079416        233959.98297994526        1115429610.5357337     
  -448296116.94399112       -134488835.08319733        657877275.44505787     
  -447603893.26693690       -125546140.28694098        774106380.31171429     
  -446157286.19664532       -114088834.17989358        888682026.80802345     
  -443956295.73311621       -100116916.76205480        1001604214.9339854     
  -441000921.87635010       -83630388.033425212        1112872944.6895995     
  -890407542.57594383       -267122262.77278316        662279430.93361247     
  -894117179.64811134       -250692867.55105972        781064837.43200159     
  -896348603.08316648       -229336093.53896216        896389955.47238290     
  -897101812.88110948       -203051940.73649028        1008254785.0547560     
  -896376809.04194033       -171840409.14364439        1116659326.1791215     
  -1326355058.4711566       -397906517.54134697        669646759.28640664     
  -1339628927.9715757       -375539133.39786541        791832936.03438258     
  -1350700753.5910082       -345831602.98442680        908751994.23669004     
  -1359570535.3294532       -308783926.30103093        1020403933.8933288     
  -1366238273.1869109       -264396103.34767765        1126788755.0042992     
  -1756138664.6296291       -526841599.38888872        679979260.50344062     
  -1784139138.2373307       -500084937.82735837        806410676.11885726     
  -1809213737.7201700       -463575362.51628780        925768143.10094488     
  -1831362463.0781474       -417312873.45567667        1038051661.4497036     
  -1850585314.3112628       -361297470.64552552        1143261231.1651330     
  -110611.69014079416        233959.98297994526        1115429610.5357337     
  -59200.563584094256        403880.54316131666        1188470602.2581589     
  -72170.375328425798        359197.97567266983        1258389558.4598091     
  -149521.12537339749        99912.280515439459        1325186479.1406841     
  -291252.81371877377       -373976.54231032659        1388861364.3007858     
  -441000921.87635010       -83630388.033425212        1112872944.6895995     
  -442923650.68298692       -68810367.076963261        1180960620.1458914     
  -445734659.78823203       -56951280.449196085        1247270969.5444365     
  -449433949.19208670       -48053128.150126934        1311803992.8852344     
  -454021518.89454997       -42115910.179753482        1374559690.1682866     
  -896376809.04194033       -171840409.14364439        1116659326.1791215     
  -896431650.74454772       -141217679.67973521        1178832469.4489205     
  -898198672.10607171       -116302215.74554816        1240572996.1240008     
  -901677873.12651253       -97094017.341083527        1301880906.2043626     
  -906869253.80587041       -83593084.466341347        1362756199.6900058     
  -1366238273.1869109       -264396103.34767765        1126788755.0042992     
  -1360583200.7482662       -216818057.26515427        1182086150.1672463     
  -1357464207.3288465       -177693607.91337988        1238295638.1985030     
  -1356881292.9286513       -147022755.29235500        1295417219.0980687     
  -1358834457.5476801       -124805499.40207618        1353450892.8659437     
  -1850585314.3112628       -361297470.64552552        1143261231.1651330     
  -1835378300.6941435       -295611499.83322161        1190721662.3008690     
  -1823531265.4565563       -241125456.95269173        1240438895.7679427     
  -1815044208.5985017       -197839342.00393778        1292412931.5663536     
  -1809917130.1199801       -165753154.98695928        1346643769.6961017     
  -291252.81371877377       -373976.54231032659        1388861364.3007858     
  -531864.54335802048       -695438.65181422094        1409617006.9409490     
  -588035.51554673864       -402098.23648301954        1433539833.2618732     
  -459765.73028479062        506044.70368347497        1460629843.2635581     
  -147055.18757190218        2028990.1686869580        1490887036.9460032     
  -454021518.89454997       -42115910.179753482        1374559690.1682866     
  -444072944.50764048       -33476470.799155310        1395329825.0836661     
  -434329686.62426800       -25521419.763681024        1418702711.4486845     
  -424791745.24443185       -18250757.073328465        1444678349.2633417     
  -415459120.36813414       -11664482.728102505        1473256738.5276351     
  -906869253.80587041       -83593084.466341347        1362756199.6900058     
  -888344156.81990480       -66476542.650888354        1383086110.0761170     
  -870414133.59846520       -51343580.050520927        1405454339.6807439     
  -853079184.14154935       -38194196.665232360        1429860888.5038850     
  -836339308.44915986       -27028392.495031923        1456305756.5455418     
  -1358834457.5476801       -124805499.40207618        1353450892.8659437     
  -1333345501.4801531       -99695654.207018316        1372885861.9183004     
  -1308841376.4381385       -77868579.097001553        1393794717.9580498     
  -1285322082.4216380       -59324274.072031379        1416177460.9851911     
  -1262787619.4306486       -44062739.132099807        1440034090.9997256     
  -1809917130.1199801       -165753154.98695928        1346643769.6961017     
  -1779076978.4883850       -133133805.46754307        1364729080.6102171     
  -1749611415.1432905       -105096416.90313047        1383723846.2806034     
  -1721520440.0846941       -81640989.293711782        1403628066.7072587     
  -1694804053.3126018       -62767522.639306128        1424441741.8901844     
  -147055.18757190218        2028990.1686869580        1490887036.9460032     
  -393008.77697242319        2786986.6005011061        1494231465.1951237     
  -1217260.1305602537        1617323.8183575552        1500064526.3997874     
  -2619809.2483373620       -1479998.1777499057        1508386220.5599930     
  -4600656.1303027859       -6504979.3878191151        1519196547.6757433     
  -415459120.36813414       -11664482.728102505        1473256738.5276351     
  -406916098.46182513       -6773355.9392552376        1474288722.1437023     
  -399129254.55662763       -4402822.4874456227        1478639023.8723791     
  -392098588.65253913       -4552882.3726644367        1486307643.7136683     
  -385824100.74955952       -7223535.5949167013        1497294581.6675653     
  -836339308.44915986       -27028392.495031923        1456305756.5455418     
  -816636782.02694976       -17292976.643095255        1454817768.5854812     
  -797868313.84277117       -10671088.251263320        1457477783.8950970     
  -780033903.89662564       -7162727.3195410669        1464285802.4743924     
  -763133552.18851185       -6767893.8479254544        1475241824.3233635     
  -1262787619.4306486       -44062739.132099807        1440034090.9997256     
  -1229555059.4723454       -28771875.511013806        1435818604.5204606     
  -1197434437.9889951       -17187473.473108530        1436580806.4679406     
  -1166425754.9805987       -9309533.0183820128        1442320696.8421657     
  -1136529010.4471569       -5138054.1468366385        1453038275.6431351     
  -1694804053.3126018       -62767522.639306128        1424441741.8901844     
  -1645670930.7980125       -41210052.543018043        1417291229.9486399     
  -1597827626.9952979       -23951978.152977467        1415948091.5909085     
  -1551274141.9044609       -10993299.469196856        1420412326.8169889     
  -1506010475.5254982       -2334016.4916633368        1430683935.6268816     
  -4600656.1303027859       -6504979.3878191151        1519196547.6757433     
  -4303998.8489047233       -10608908.503098393        1514930034.0957077     
  -3272252.0368612427       -12262539.182893287        1516351334.6615913     
  -1505415.6941803037       -11465871.427229816        1523460449.3733926     
   996510.17914477317       -8218905.2360858843        1536257378.2311125     
  -385824100.74955952       -7223535.5949167013        1497294581.6675653     
  -370755126.83814961       -7902367.5811406970        1494617851.0475245     
  -355356254.85957783       -7481539.3434941024        1496826219.7364066     
  -339627484.81384957       -5961050.8819915503        1503919687.7342141     
  -323568816.70096302       -3340902.1966292560        1515898255.0409465     
  -763133552.18851185       -6767893.8479254544        1475241824.3233635     
  -735585732.60992777       -4709669.9939421713        1473682153.2892516     
  -708113206.42766869       -2902424.1277074218        1476204866.7270691     
  -680715973.64173627       -1346156.2492285669        1482809964.6368191     
  -653394034.25212622       -40866.358492553234        1493497447.0184956     
  -1136529010.4471569       -5138054.1468366385        1453038275.6431351     
  -1098795816.1642411       -1030815.7415037751        1452122940.8208895     
  -1061543106.7411332        1474806.4644688964        1454487275.6335793     
  -1024770882.1778346        2378812.4710775018        1460131280.0812068     
  -988479142.47434306        1681202.2783296108        1469054954.1637683     
  -1506010475.5254982       -2334016.4916633368        1430683935.6268816     
  -1460385377.5010898        3134195.1761707067        1429940213.6424379     
  -1415645955.7999725        5650152.4330316186        1431673446.4559355     
  -1371792210.4221489        5213855.2789161205        1435883634.0673766     
  -1328824141.3676147        1825303.7138354182        1442570776.4767601     
   996510.17914477317       -8218905.2360858843        1536257378.2311125     
  -409138.09275145223       -6228172.3575463705        1516715320.5556872     
  -2605234.8418902555       -6872267.7364821127        1500946028.1961241     
  -5591780.0682905074       -10151191.372956023        1488949501.1524272     
  -9368773.7719422597       -16064943.266934926        1480725739.4245918     
  -323568816.70096302       -3340902.1966292560        1515898255.0409465     
  -313703918.14236218       -2586370.6374114752        1494563519.8176367     
  -304173853.64643067       -2947952.6204234809        1478410947.9140713     
  -294978623.21317112       -4425648.1456767172        1467440539.3302536     
  -286118226.84257948       -7019457.2131564319        1461652294.0661838     
  -653394034.25212622       -40866.358492553234        1493497447.0184956     
  -628231737.42336881        685519.31329381466        1470901584.3976498     
  -602948660.24269986        1814506.1581194103        1454897283.1004324     
  -577544802.71011722        3346094.1759894788        1445484543.1268384     
  -552020164.82562554        5280283.3668911159        1442663364.4768779     
  -988479142.47434306        1681202.2783296108        1469054954.1637683     
  -943992595.93576729        3587497.4945819974        1445729514.2957313     
  -898929654.63069808        7415108.5991454124        1430405033.7552023     
  -853290318.55913377        13164035.592024565        1423081512.5421827     
  -807074587.72107625        20834278.473218054        1423758950.6566722     
  -1328824141.3676147        1825303.7138354182        1442570776.4767601     
  -1260986493.6795557        6119563.9064598680        1419047309.5118744     
  -1192116836.8104255        13853854.702656150        1404934199.8783829     
  -1122215170.7602136        25028176.102458239        1400231447.5762820     
  -1051281495.5289309        39642528.105827153        1404939052.6055727     
  -9368773.7719422597       -16064943.266934926        1480725739.4245918     
  -12484138.801009055       -23225583.359031081        1511700137.2216489     
  -15762051.045456883       -30928047.502396651        1546342946.4773860     
  -19202510.505289994       -39172335.697046854        1584654167.1918023     
  -22805517.180508442       -47958447.942981489        1626633799.3648977     
  -286118226.84257948       -7019457.2131564319        1461652294.0661838     
  -281108897.30351740       -11882310.754473120        1495286809.1071076     
  -276499057.49807006       -18076796.741171956        1530972419.3069623     
  -272288707.42624462       -25602915.173277795        1568709124.6657510     
  -268477847.08803236       -34460666.050761506        1608496925.1834702     
  -552020164.82562554        5280283.3668911159        1442663364.4768779     
  -543507044.43199873        1328945.2622879446        1478681563.8237274     
  -535630356.29022163       -4743833.6818125546        1515133542.0297616     
  -528390100.40030003       -12938053.465432376        1552019299.0949788     
  -521786276.76222605       -23253714.088542461        1589338835.0193822     
  -807074587.72107625        20834278.473218054        1423758950.6566722     
  -799678580.18645000        16408184.691260546        1461884401.3715098     
  -793155947.42190909        9070841.6756879687        1498826314.6457815     
  -787506689.42745507       -1177750.5735068023        1534584690.4794946     
  -782730806.20308793       -14337592.056330532        1569159528.8726361     
  -1051281495.5289309        39642528.105827153        1404939052.6055727     
  -1049623504.5668731        33355407.532441497        1444895321.7504556     
  -1049075830.8931342        23367229.331327200        1482050737.1550255     
  -1049638474.5077193        9677993.5024659634        1516405298.8192847     
  -1051311435.4106183       -7712299.9541091919        1547959006.7432308     
  -22805517.180508442       -47958447.942981489        1626633799.3648977     
  -25510704.670088138       -57508852.974977948        1563703655.0446484     
  -28734864.861934900       -68789167.014529184        1504443530.9226847     
  -32477997.756050505       -81799390.061643258        1448853426.9990139     
  -36740103.352424666       -96539522.116287902        1396933343.2736311     
  -268477847.08803236       -34460666.050761506        1608496925.1834702     
  -255298557.59290987       -40877533.471299343        1544760108.2755761     
  -241963500.53347921       -46775175.677477598        1488848975.5549850     
  -228472675.90974635       -52153592.669318676        1440763527.0216923     
  -214826083.72170639       -57012784.446797580        1400503762.6756942     
  -521786276.76222605       -23253714.088542461        1589338835.0193822     
  -480849184.59951890       -22975046.192748606        1525582542.5015154     
  -439081584.60593694       -19928018.860706687        1473807598.1599567     
  -396483476.78147805       -14112632.092406496        1434014001.9947000     
  -353054861.12614250       -5528885.8878535628        1406201754.0057523     
  -782730806.20308793       -14337592.056330532        1569159528.8726361     
  -702162585.68992007       -3801391.1393463314        1506170957.7224636     
  -620089117.07930613        11752303.435787439        1459319398.7376010     
  -536510400.37123996        32323491.669090778        1428604851.9180539     
  -451426435.56573176        57912173.560544491        1414027317.2638245     
  -1051311435.4106183       -7712299.9541091919        1547959006.7432308     
  -919238760.86410725        16643431.688930094        1486525353.9384153     
  -784986097.95358050        48265791.212025851        1445384377.2879233     
  -648553446.67903149        87154778.615189761        1424536076.7917471     
  -509940807.04047155        133310393.89839745        1423980452.4498963     
  -1756138664.6296291       -526841599.38888872        679979260.50344062     
  -1784139138.2373307       -500084937.82735837        806410676.11885726     
  -1809213737.7201700       -463575362.51628780        925768143.10094488     
  -1831362463.0781474       -417312873.45567667        1038051661.4497036     
  -1850585314.3112628       -361297470.64552552        1143261231.1651330     
  -2201920495.9177876       -660576148.77533615        696383081.66642213     
  -2238442668.9916854       -613870529.14849520        813844942.32405126     
  -2272932998.5121937       -560392097.67702389        927221992.47209406     
  -2305391484.4793139       -500140854.36092293        1036514232.1105510     
  -2335818126.8930440       -433116799.20019180        1141721661.2394226     
  -2685862687.2020578       -805758806.16061735        721964369.85705888     
  -2722366165.1028857       -736542110.07668567        829413639.89018142     
  -2757731830.0217972       -663532704.05303419        935767237.53746128     
  -2791959681.9587936       -586730588.08966327        1041025162.7988981     
  -2825049720.9138732       -506135762.18657202        1145187415.6744926     
  -3207965238.4824405       -962389571.54473209        756723125.07535100     
  -3235909626.5709314       -868099680.61192966        853116768.81724858     
  -3263610232.2489805       -772997181.64431810        951403878.29704642     
  -3291067055.5165854       -677082074.64189661        1051584453.5147451     
  -3318280096.3737493       -580354359.60466671        1153658494.4703441     
  -3768228149.7589350       -1130468444.9276805        800659347.32129860     
  -3779073053.3958235       -1008543240.7542276        884954329.10525239     
  -3790568205.1937428       -888785530.45087576        974131914.75084984     
  -3802713605.1526923       -771195314.01762521        1068192104.2580910     
  -3815509253.2726717       -655772591.45447505        1167134897.6269758     
  -1850585314.3112628       -361297470.64552552        1143261231.1651330     
  -1835378300.6941435       -295611499.83322161        1190721662.3008690     
  -1823531265.4565563       -241125456.95269173        1240438895.7679427     
  -1815044208.5985017       -197839342.00393778        1292412931.5663536     
  -1809917130.1199801       -165753154.98695928        1346643769.6961017     
  -2335818126.8930440       -433116799.20019180        1141721661.2394226     
  -2312451352.8519230       -352128497.65211624        1182917134.2539608     
  -2292549682.9460220       -282690543.22144222        1224601236.6319854     
  -2276113117.1753407       -224802935.90816909        1266773968.3734965     
  -2263141655.5398822       -178465675.71230054        1309435329.4784942     
  -2825049720.9138732       -506135762.18657202        1145187415.6744926     
  -2798575109.2140384       -411360706.73231238        1179995283.8528640     
  -2775670727.4051108       -328486417.58107996        1213523608.4268708     
  -2756336575.4870925       -257512894.73287570        1245772389.3965127     
  -2740572653.4599810       -198440138.18769860        1276741626.7617905     
  -3318280096.3737493       -580354359.60466671        1153658494.4703441     
  -3293749569.7804880       -473308127.07380819        1181956111.0975788     
  -3272894398.8338232       -378513080.03160536        1207206011.1525989     
  -3255714583.5337534       -295969218.47805381        1229408194.6354032     
  -3242210123.8802819       -225676542.41315901        1248562661.5459919     
  -3815509253.2726717       -655772591.45447505        1167134897.6269758     
  -3797974734.5512733       -537970758.67660534        1188799615.9881051     
  -3784220697.2321587       -432770530.57301641        1205648444.8091695     
  -3774247141.3153286       -340171907.14370775        1217681384.0901663     
  -3768054066.8007812       -260174888.38867736        1224898433.8310974     
  -1809917130.1199801       -165753154.98695928        1346643769.6961017     
  -1779076978.4883850       -133133805.46754307        1364729080.6102171     
  -1749611415.1432905       -105096416.90313047        1383723846.2806034     
  -1721520440.0846941       -81640989.293711782        1403628066.7072587     
  -1694804053.3126018       -62767522.639306128        1424441741.8901844     
  -2263141655.5398822       -178465675.71230054        1309435329.4784942     
  -2223321521.3184414       -133836214.18016064        1317671675.7421906     
  -2186473030.5043263       -99112230.672436357        1329134681.8542542     
  -2152596183.0975332       -74293725.189122319        1343824347.8146851     
  -2121690979.0980668       -59380697.730225801        1361740673.6234825     
  -2740572653.4599810       -198440138.18769860        1276741626.7617905     
  -2685151950.6712780       -139814388.84961212        1273265777.4007750     
  -2634299946.4107218       -96417634.605350733        1275333792.9802220     
  -2588016640.6783118       -68249875.454912186        1282945673.5001338     
  -2546302033.4740520       -55311111.398302078        1296101418.9605083     
  -3242210123.8802819       -225676542.41315901        1248562661.5459919     
  -3164568266.5468955       -151068329.47589815        1231511385.5859687     
  -3093092162.8624787       -97012628.701875329        1222321179.6585059     
  -3027781812.8270311       -63509440.091083050        1220992043.7636037     
  -2968637216.4405575       -50558763.643534303        1227523977.9012623     
  -3768054066.8007812       -260174888.38867736        1224898433.8310974     
  -3661570468.9452906       -167598036.05901730        1192408500.2977726     
  -3562849679.8595934       -100897212.96200323        1170096841.8891058     
  -3471891699.5436897       -60072419.097637415        1157963458.6050966     
  -3388696527.9975829       -45123654.465923071        1156008350.4457452     
  -1694804053.3126018       -62767522.639306128        1424441741.8901844     
  -1645670930.7980125       -41210052.543018043        1417291229.9486399     
  -1597827626.9952979       -23951978.152977467        1415948091.5909085     
  -1551274141.9044609       -10993299.469196856        1420412326.8169889     
  -1506010475.5254982       -2334016.4916633368        1430683935.6268816     
  -2121690979.0980668       -59380697.730225801        1361740673.6234825     
  -2059049511.2357075       -40896886.538234830        1353822079.6483853     
  -1997359539.8071933       -25584730.125731349        1351196452.8733675     
  -1936621064.8125279       -13444228.492719650        1353863793.2984304     
  -1876834086.2517071       -4475381.6391952038        1361824100.9235716     
  -2546302033.4740520       -55311111.398302078        1296101418.9605083     
  -2471621952.7888727       -40341878.868095040        1287809452.2762256     
  -2397555046.2595110       -27416560.190611839        1284296046.4082894     
  -2324101313.8859673       -16535155.365856767        1285561201.3567007     
  -2251260755.6682410       -7697664.3938219547        1291604917.1214581     
  -2968637216.4405575       -50558763.643534303        1227523977.9012623     
  -2883388255.4575090       -39545029.532594442        1219253347.8321612     
  -2798414146.3522501       -29447468.347621918        1215246872.1956728     
  -2713714889.1247768       -20266080.088600993        1215504550.9918017     
  -2629290483.7750931       -12000864.755548000        1220026384.2205420     
  -3388696527.9975829       -45123654.465923071        1156008350.4457452     
  -3294348419.2416153       -38506338.531736851        1148153766.3161922     
  -3199936840.0854087       -31677454.596749663        1144048930.2355211     
  -3105461790.5289626       -24637002.660966873        1143693842.2037318     
  -3010923270.5722723       -17384982.724368691        1147088502.2208235     
  -1506010475.5254982       -2334016.4916633368        1430683935.6268816     
  -1460385377.5010898        3134195.1761707067        1429940213.6424379     
  -1415645955.7999725        5650152.4330316186        1431673446.4559355     
  -1371792210.4221489        5213855.2789161205        1435883634.0673766     
  -1328824141.3676147        1825303.7138354182        1442570776.4767601     
  -1876834086.2517071       -4475381.6391952038        1361824100.9235716     
  -1823977191.9876556       -319859.87342703342        1359262019.2069595     
  -1771971636.3218946        997866.56470835209        1360088831.3156841     
  -1720817419.2544150       -522202.32476425171        1364304537.2497454     
  -1670514540.7852223       -4880066.5418562889        1371909137.0091429     
  -2251260755.6682410       -7697664.3938219547        1291604917.1214581     
  -2188566525.0862780       -4073170.5066475868        1287264536.3518505     
  -2126689295.3775949       -3172012.8637421131        1287224988.4349742     
  -2065629066.5421922       -4994191.4650982618        1291486273.3708296     
  -2005385838.5800707       -9539706.3107267618        1300048391.1594157     
  -2629290483.7750931       -12000864.755548000        1220026384.2205420     
  -2554153376.7969503       -8125736.7234817743        1213947765.0771124     
  -2479798932.9670796       -6859485.8523308039        1213081917.8138103     
  -2406227152.2854834       -8202112.1420929432        1217428842.4306324     
  -2333438034.7521634       -12153615.592770576        1226988538.9275827     
  -3010923270.5722723       -17384982.724368691        1147088502.2208235     
  -2920737747.1196737       -12477558.523929000        1139311705.3827465     
  -2831300549.0903463       -10064552.401053071        1137659619.4521878     
  -2742611676.4842825       -10145964.355729938        1142132244.4291508     
  -2654671129.3014927       -12721794.387982011        1152729580.3136342     
  -1328824141.3676147        1825303.7138354182        1442570776.4767601     
  -1260986493.6795557        6119563.9064598680        1419047309.5118744     
  -1192116836.8104255        13853854.702656150        1404934199.8783829     
  -1122215170.7602136        25028176.102458239        1400231447.5762820     
  -1051281495.5289309        39642528.105827153        1404939052.6055727     
  -1670514540.7852223       -4880066.5418562889        1371909137.0091429     
  -1579622176.9530969        2830918.3920407295        1350892041.7664044     
  -1487949680.9784453        13142343.801032245        1337410511.2858777     
  -1395497052.8612595        26054209.685141504        1331464545.5675611     
  -1302264292.6015377        41566516.044358730        1333054144.6114545     
  -2005385838.5800707       -9539706.3107267618        1300048391.1594157     
  -1896795308.8015404       -18961.694850683212        1281243811.0938561     
  -1787676523.9190235        11262633.267647624        1268100003.2213280     
  -1678029483.9325187        24305078.576774001        1260616967.5418284     
  -1567854188.8420248        39108374.232531130        1258794704.0553610     
  -2333438034.7521634       -12153615.592770576        1226988538.9275827     
  -2212505889.2248869       -2430076.3542189598        1210102617.4942327     
  -2091297365.6321652        8214723.1024872065        1197002675.6847336     
  -1969812463.9740000        19780782.777339935        1187688713.4990814     
  -1848051184.2503905        32268102.670334220        1182160730.9372809     
  -2654671129.3014927       -12721794.387982011        1152729580.3136342     
  -2526753918.2231293       -4402425.5860441923        1137468460.9675307     
  -2398812206.1178641        3998613.3055678606        1124118528.6760929     
  -2270845992.9857011        12481322.286835432        1112679783.4393234     
  -2142855278.8266351        21045701.357783556        1103152225.2572222     
  -1051281495.5289309        39642528.105827153        1404939052.6055727     
  -1049623504.5668731        33355407.532441497        1444895321.7504556     
  -1049075830.8931342        23367229.331327200        1482050737.1550255     
  -1049638474.5077193        9677993.5024659634        1516405298.8192847     
  -1051311435.4106183       -7712299.9541091919        1547959006.7432308     
  -1302264292.6015377        41566516.044358730        1333054144.6114545     
  -1307296527.0073135        26913414.943986595        1367724351.2854056     
  -1313561141.2874444        8152380.9290874600        1401979695.3844860     
  -1321058135.4419394       -14716586.000361562        1435820176.9086998     
  -1329787509.4707952       -41693485.844336033        1469245795.8580446     
  -1567854188.8420248        39108374.232531130        1258794704.0553610     
  -1572759531.0000777        18134427.889834583        1288036441.9079962     
  -1579019315.6185319       -7354326.6542055607        1319249308.3512073     
  -1586633542.6973834       -37357889.399566293        1352433303.3849957     
  -1595602212.2366343       -71876260.346259952        1387588427.0093570     
  -1848051184.2503905        32268102.670334220        1182160730.9372809     
  -1846012516.5451672        7018446.3699866533        1205831593.6182263     
  -1845450353.8863869       -23152893.418505311        1233859576.0551887     
  -1846364696.2740467       -58245916.695138335        1266244678.2481692     
  -1848755543.7081454       -98260623.459886312        1302986900.1971734     
  -2142855278.8266351        21045701.357783556        1103152225.2572222     
  -2127055483.6425858       -6434529.6155667305        1121109806.4160981     
  -2112854256.0910206       -39243319.363861442        1145810498.4964316     
  -2100251596.1719294       -77380667.887068748        1177254301.4982290     
  -2089247503.8853154       -120846575.18520355        1215441215.4214876     
  -1051311435.4106183       -7712299.9541091919        1547959006.7432308     
  -919238760.86410725        16643431.688930094        1486525353.9384153     
  -784986097.95358050        48265791.212025851        1445384377.2879233     
  -648553446.67903149        87154778.615189761        1424536076.7917471     
  -509940807.04047155        133310393.89839745        1423980452.4498963     
  -1329787509.4707952       -41693485.844336033        1469245795.8580446     
  -1152077702.8908901       -11919612.282332480        1411184075.2529242     
  -972595503.76188231        23762236.443350434        1366684824.2301812     
  -791340912.08376813        65352060.332715005        1335748042.7898118     
  -608313927.85655451        112849859.38574889        1318373730.9318125     
  -1595602212.2366343       -71876260.346259952        1387588427.0093570     
  -1391484435.2574673       -42452993.355528414        1332423110.1532001     
  -1186001861.5441101       -8480403.9174957275        1284090056.3074744     
  -979154491.09656763        30041507.967821538        1242589265.4721754     
  -770942323.91483212        73112742.300435215        1207920737.6473081     
  -1848755543.7081454       -98260623.459886312        1302986900.1971734     
  -1637458957.9638433       -74956711.530656517        1250242458.6392460     
  -1425205171.3002729       -48462129.870529175        1197600073.5197988     
  -1211994183.7174284       -18776878.479490340        1145059744.8388371     
  -997825995.21530914        14099042.642465174        1092621472.5963519     
  -2089247503.8853154       -120846575.18520355        1215441215.4214876     
  -1890001271.0100195       -109430766.80773789        1164642120.7110565     
  -1690205433.0303609       -96182941.415727019        1107214875.8671575     
  -1489859989.9463484       -81103099.009213388        1043159480.8897973     
  -1288964941.7579784       -64191239.588162661        972475935.77897048     
  -3768228149.7589350       -1130468444.9276805        800659347.32129860     
  -3779073053.3958235       -1008543240.7542276        884954329.10525239     
  -3790568205.1937428       -888785530.45087576        974131914.75084984     
  -3802713605.1526923       -771195314.01762521        1068192104.2580910     
  -3815509253.2726717       -655772591.45447505        1167134897.6269758     
  -4339574773.6745558       -1301872432.1023667        858890112.07114625     
  -4335154487.9296198       -1125654177.5663774        942456994.70273900     
  -4331883382.1261911       -953266522.83540940        1020354561.3750447     
  -4329761456.2642679       -784709467.90946233        1092582812.0880632     
  -4328788710.3438511       -619983012.78853595        1159141746.8417945     
  -4894928462.8723183       -1468478538.8616955        936532494.80113935     
  -4905391330.0910730       -1247011736.6668246        1018789191.2031488     
  -4917502309.0318127       -1031038640.2118951        1084824651.8249404     
  -4931261399.6945333       -820559249.49690580        1134638876.6665144     
  -4946668602.0792379       -615573564.52185845        1168231865.7278705     
  -5434289217.3522205       -1630286765.2056663        1033586495.5112776     
  -5489783579.8801861       -1372615918.0555692        1113950918.6064820     
  -5547424985.9106083       -1122101882.5803332        1167542186.1005380     
  -5607213435.4434900       -878744658.77995706        1194360297.9934454     
  -5669148928.4788303       -642544246.65444350        1194405254.2852039     
  -5957657037.1142664       -1787297111.1342797        1150052114.2015610     
  -6088331237.2969551       -1502466721.7326109        1227942176.9127386     
  -6221651412.7625799       -1226456249.9407234        1268507164.2018366     
  -6357617563.5111370       -959265695.75861561        1271747076.0688553     
  -6496229689.5426292       -700895059.18628955        1237661912.5137949     
  -3815509253.2726717       -655772591.45447505        1167134897.6269758     
  -3797974734.5512733       -537970758.67660534        1188799615.9881051     
  -3784220697.2321587       -432770530.57301641        1205648444.8091695     
  -3774247141.3153286       -340171907.14370775        1217681384.0901663     
  -3768054066.8007812       -260174888.38867736        1224898433.8310974     
  -4328788710.3438511       -619983012.78853595        1159141746.8417945     
  -4298178875.0501490       -464194243.69570136        1141265900.9267578     
  -4278175121.0281787       -343759078.84197485        1129497664.3039520     
  -4268777448.2779398       -258677518.22735476        1123837036.9733770     
  -4269985856.7994337       -208949561.85184145        1124284018.9350331     
  -4946668602.0792379       -615573564.52185845        1168231865.7278705     
  -4871773453.5495262       -412434860.11494875        1102852255.6889777     
  -4814309986.1609936       -267401759.51197314        1054503753.7746133     
  -4774278199.9136410       -180474262.71292901        1023186359.9847766     
  -4751678094.8074713       -151652369.71781945        1008900074.3194678     
  -5669148928.4788303       -642544246.65444350        1194405254.2852039     
  -5518758470.0494022       -382692607.93434525        1073558680.2747660     
  -5392625292.6306038       -203698572.58300662        980666713.22115338     
  -5290749396.2224321       -105562140.60043192        915729353.12436581     
  -5213130780.8248901       -88283311.986614466        878746599.98440397     
  -6496229689.5426292       -700895059.18628955        1237661912.5137949     
  -6239133924.5497808       -374967487.15389299        1053385174.6841223     
  -6013121040.4370079       -152649518.05508351        907986542.64357209     
  -5818191037.2043095       -33941151.889857769        801466016.39214456     
  -5654343914.8516903       -18842388.658220768        733823595.92983949     
  -3768054066.8007812       -260174888.38867736        1224898433.8310974     
  -3661570468.9452906       -167598036.05901730        1192408500.2977726     
  -3562849679.8595934       -100897212.96200323        1170096841.8891058     
  -3471891699.5436897       -60072419.097637415        1157963458.6050966     
  -3388696527.9975829       -45123654.465923071        1156008350.4457452     
  -4269985856.7994337       -208949561.85184145        1124284018.9350331     
  -4148196306.3525920       -145044395.24855638        1090814106.3485634     
  -4030782330.1039500       -95724475.972606421        1065556271.1830248     
  -3917743928.0535073       -60989804.023989439        1048510513.4384149     
  -3809081100.2012672       -40840379.402709961        1039676833.1147351     
  -4751678094.8074713       -151652369.71781945        1008900074.3194678     
  -4620200299.4942131       -118104201.15839243        978401956.34671426     
  -4489710843.8075619       -87850498.020984411        954149718.09116220     
  -4360209727.7475185       -60891260.305600405        936143359.55281317     
  -4231696951.3140798       -37226488.012234688        924382880.73166597     
  -5213130780.8248901       -88283311.986614466        878746599.98440397     
  -5077582448.3701534       -86777453.788525105        855172050.29222465     
  -4939635220.9704275       -77275279.107140779        835877182.61352122     
  -4799289098.6257200       -59776787.942469358        820861996.94829106     
  -4656544081.3360176       -34281980.294497490        810126493.29653656     
  -5654343914.8516903       -18842388.658220768        733823595.92983949     
  -5520342752.9804115       -51064153.138951063        721124388.18509567     
  -5380555461.5925493       -63998819.231071949        710738664.75009894     
  -5234982040.6881084       -57646386.934589624        702666425.62484968     
  -5083622490.2670832       -32006856.249499559        696907670.80934584     
  -3388696527.9975829       -45123654.465923071        1156008350.4457452     
  -3294348419.2416153       -38506338.531736851        1148153766.3161922     
  -3199936840.0854087       -31677454.596749663        1144048930.2355211     
  -3105461790.5289626       -24637002.660966873        1143693842.2037318     
  -3010923270.5722723       -17384982.724368691        1147088502.2208235     
  -3809081100.2012672       -40840379.402709961        1039676833.1147351     
  -3702969436.8357167       -29337994.329288721        1030810358.9489768     
  -3597678918.0863748       -20572757.976566553        1026115701.2480391     
  -3493209543.9532423       -14544670.344540834        1025592860.0119226     
  -3389561314.4363174       -11253731.433207512        1029241835.2406280     
  -4231696951.3140798       -37226488.012234688        924382880.73166597     
  -4112615823.5791168       -20477260.871628523        913472465.67717683     
  -3995240455.4768143       -9413899.1732223034        907155935.50344729     
  -3879570847.0071692       -4036402.9170122147        905433290.21047807     
  -3765606998.1701827       -4344772.1029951572        908304529.79827130     
  -4656544081.3360176       -34281980.294497490        810126493.29653656     
  -4523287579.4718180       -11924138.158762932        796140086.50079155     
  -4392621452.2567253        1799121.8132774830        787169633.00174510     
  -4264545699.6907415        6887799.6216242313        783215132.79939842     
  -4139060321.7738652        3341895.2662751675        784276585.89375389     
  -5083622490.2670832       -32006856.249499559        696907670.80934584     
  -4934984704.5138168       -3678626.1906790733        678813221.41981995     
  -4789821908.4261084        13066304.982939482        666156793.74293220     
  -4648134102.0039597        18227937.271365404        658938387.77868652     
  -4509921285.2473679        11806270.674597502        657158003.52707863     
  -3010923270.5722723       -17384982.724368691        1147088502.2208235     
  -2920737747.1196737       -12477558.523929000        1139311705.3827465     
  -2831300549.0903463       -10064552.401053071        1137659619.4521878     
  -2742611676.4842825       -10145964.355729938        1142132244.4291508     
  -2654671129.3014927       -12721794.387982011        1152729580.3136342     
  -3389561314.4363174       -11253731.433207512        1029241835.2406280     
  -3285280724.5777206       -9499087.6288192272        1021411245.7552079     
  -3181317014.1970510       -8800708.7508553267        1019025868.8428948     
  -3077670183.2943082       -9158594.7993091345        1022085704.5036888     
  -2974340231.8694921       -10572745.774192810        1030590752.7375883     
  -3765606998.1701827       -4344772.1029951572        908304529.79827130     
  -3649172765.7181969       -6325335.8384361267        900923501.26840830     
  -3532623966.7987967       -7924011.3491628170        898308186.97723794     
  -3415960601.4119811       -9140798.6351776123        900458586.92475903     
  -3299182669.5577555       -9975697.6964848042        907374701.11097407     
  -4139060321.7738652        3341895.2662751675        784276585.89375389     
  -4012413870.5411015       -2956303.1527810097        777848471.92234623     
  -3885221406.8955846       -7434460.1959860325        775506573.85521710     
  -3757482930.8373156       -10092575.863348961        777250891.69236493     
  -3629198442.3662868       -10930650.154859304        783081425.43379033     
  -4509921285.2473679        11806270.674597502        657158003.52707863     
  -4375004039.0464401        608010.42813968658        652186157.71702266     
  -4239109334.4874148       -7332055.2913215160        650621029.47682989     
  -4102237171.5702944       -12013926.483805180        652462618.80650175     
  -3964387550.2950821       -13437603.149306297        657710925.70603764     
  -2654671129.3014927       -12721794.387982011        1152729580.3136342     
  -2526753918.2231293       -4402425.5860441923        1137468460.9675307     
  -2398812206.1178641        3998613.3055678606        1124118528.6760929     
  -2270845992.9857011        12481322.286835432        1112679783.4393234     
  -2142855278.8266351        21045701.357783556        1103152225.2572222     
  -2974340231.8694921       -10572745.774192810        1030590752.7375883     
  -2838957084.4921823       -2413773.8745522499        1014680463.6180823     
  -2703285301.0948892        6707318.0916906595        1002639030.0359378     
  -2567324881.6776180        16790530.124531507        994466451.99115062     
  -2431075826.2403698        27835862.223962665        990162729.48372507     
  -3299182669.5577555       -9975697.6964848042        907374701.11097407     
  -3150740247.3595185       -299121.14254283905        891123399.70999253     
  -3001745054.1482253        11220025.454926848        880698622.32905948     
  -2852197089.9238763        24581742.095911622        876100368.96818137     
  -2702096354.6864686        39786028.780424356        877328639.62735105     
  -3629198442.3662868       -10930650.154859304        783081425.43379033     
  -3462103406.8251486        1941532.6099805832        766797269.24325478     
  -3294191465.2778778        17536735.395262957        758297305.55546379     
  -3125462617.7244706        35854958.201002598        757581534.37041450     
  -2955916864.1649294        56896201.027181506        764649955.68811131     
  -3964387550.2950821       -13437603.149306297        657710925.70603764     
  -3773046562.8890681        4308187.3830139637        641702072.21787477     
  -3580624534.4838414        25657447.912712574        635435079.71514559     
  -3387121465.0794020        50610178.439785242        638909948.19785261     
  -3192537354.6757522        79166378.964230180        652126677.66599333     
  -2142855278.8266351        21045701.357783556        1103152225.2572222     
  -2127055483.6425858       -6434529.6155667305        1121109806.4160981     
  -2112854256.0910206       -39243319.363861442        1145810498.4964316     
  -2100251596.1719294       -77380667.887068748        1177254301.4982290     
  -2089247503.8853154       -120846575.18520355        1215441215.4214876     
  -2431075826.2403698        27835862.223962665        990162729.48372507     
  -2402460782.2362785        4030051.2992247343        1009816331.1053281     
  -2375822905.8527431       -26366318.360699058        1031736762.4250509     
  -2351162197.0897703       -63353246.755826116        1055924023.4428961     
  -2328478655.9473510       -106930733.88613307        1082378114.1588593     
  -2702096354.6864686        39786028.780424356        877328639.62735105     
  -2673455436.7861633        15817825.427170038        898236561.72559321     
  -2647170286.4944963       -16002936.621546268        916935032.29861236     
  -2623240903.8114634       -55676257.365719318        933424051.34641004     
  -2601667288.7370787       -103202136.80536687        947703618.86899078     
  -2955916864.1649294        56896201.027181506        764649955.68811131     
  -2940039447.2922440        28928792.768245935        786370498.27689052     
  -2926896398.0162730       -8153174.1464004517        801405308.11711323     
  -2916487716.3370256       -54349699.716793418        809754385.20877266     
  -2908813402.2544966       -109660783.94290304        811417729.55186784     
  -3192537354.6757522        79166378.964230180        652126677.66599333     
  -3202212813.7545218        43362953.322469473        674218140.75922775     
  -3215001240.4180822       -2817030.9352675676        685147589.88055623     
  -3230902634.6664467       -59373573.809015870        684915025.02998555     
  -3249916996.4996090       -126306675.29875374        673520446.20750952     
  -2089247503.8853154       -120846575.18520355        1215441215.4214876     
  -1890001271.0100195       -109430766.80773789        1164642120.7110565     
  -1690205433.0303609       -96182941.415727019        1107214875.8671575     
  -1489859989.9463484       -81103099.009213388        1043159480.8897973     
  -1288964941.7579784       -64191239.588162661        972475935.77897048     
  -2328478655.9473510       -106930733.88613307        1082378114.1588593     
  -2131442493.6090837       -98572440.501352429        1027156455.2053696     
  -1932673123.5471745       -84436788.037751198        977568472.50901210     
  -1732170545.7616262       -64523776.495351017        933614166.06979525     
  -1529934760.2524252       -38833405.874127388        895293535.88770807     
  -2601667288.7370787       -103202136.80536687        947703618.86899078     
  -2371807407.2484207       -87391221.507048368        889440265.39493620     
  -2139030715.4168317       -61857605.065631986        849072414.56862140     
  -1903337213.2423081       -26601287.481103182        826600066.39004529     
  -1664726900.7248650        18377731.246510029        822023220.85920048     
  -2908813402.2544966       -109660783.94290304        811417729.55186784     
  -2611096011.9280167       -75887109.824829102        751493551.27976251     
  -2309278208.6393237       -28445392.499354839        721726702.04599440     
  -2003359992.3884194        32664368.033499122        722117181.85055315     
  -1693341363.1752810        107442171.77374768        752664990.69345152     
  -3249916996.4996090       -126306675.29875374        673520446.20750952     
  -2849308307.6478853       -64060105.454681277        613316312.85984707     
  -2443415603.2146592        15799849.661064267        595531334.94111669     
  -2032238883.1999242        113273190.04850698        620165512.45131969     
  -1615778147.6036944        228359915.70759952        687218845.39046752     
  -5957657037.1142664       -1787297111.1342797        1150052114.2015610     
  -6088331237.2969551       -1502466721.7326109        1227942176.9127386     
  -6221651412.7625799       -1226456249.9407234        1268507164.2018366     
  -6357617563.5111370       -959265695.75861561        1271747076.0688553     
  -6496229689.5426292       -700895059.18628955        1237661912.5137949     
  -6810374151.8044596       -2043112245.5413380        1353655917.6567025     
  -6828424933.5607710       -1395641916.4073675        1202732818.9802697     
  -6897778024.5502310       -919179284.71723175        1092082054.5772157     
  -7018433424.7728424       -613724350.47093034        1021703624.4475408     
  -7190391134.2286034       -479277113.66846466        991597528.59124351     
  -8337782791.0688162       -2501334837.3206449        1712124472.6614139     
  -8021503269.5545826       -1424712503.0011230        1275622489.6554525     
  -7805182391.2237120       -681285645.95948887        956990250.61832750     
  -7688820156.0762119       -271054266.19574451        756227755.55003905     
  -7672416564.1120749       -194018363.70988894        673335004.45058751     
  -10539882954.907331       -3161964886.4721994        2225457779.2156959     
  -9667566245.2783852       -1589678481.5138757        1446611188.9382865     
  -8943864512.7830257       -512775333.66749477        863231752.32517207     
  -8368777757.4212465        68744557.066940784        475319469.37635159     
  -7942305979.1930494        154881190.68943644        282874340.09182459     
  -13416674643.320009       -4025002392.9960027        2893655837.3195481     
  -11766613860.732187       -1890539851.9456282        1715698916.8287721     
  -10313824389.228167       -413648347.84125090        810806559.69774818     
  -9058306228.8079433        405672119.31712961        178978765.92647699     
  -8000059379.4715185        567421549.52951193       -179784464.48504180     
  -6496229689.5426292       -700895059.18628955        1237661912.5137949     
  -6239133924.5497808       -374967487.15389299        1053385174.6841223     
  -6013121040.4370079       -152649518.05508351        907986542.64357209     
  -5818191037.2043095       -33941151.889857769        801466016.39214456     
  -5654343914.8516903       -18842388.658220768        733823595.92983949     
  -7190391134.2286034       -479277113.66846466        991597528.59124351     
  -6900475512.3197460       -303709975.22345304        846979529.47161198     
  -6623505118.1668634       -171293595.96502471        723428029.94149148     
  -6359479951.7699566       -82027975.893181562        620943030.00088346     
  -6108400013.1290255       -35913115.007921457        539524529.64978552     
  -7672416564.1120749       -194018363.70988894        673335004.45058751     
  -7400571388.7146692       -184078749.88050127        589536339.35244656     
  -7123533787.9491348       -156831051.49069023        508992567.64420617     
  -6841303761.8154802       -112275268.54047132        431703689.32586801     
  -6553881310.3136950       -50411401.029824734        357669704.39742988     
  -7942305979.1930494        154881190.68943644        282874340.09182459     
  -7739421553.7345524       -16073811.125037670        281055604.32662719     
  -7513207049.7838278       -109261884.63208961        264680155.75171730     
  -7263662467.3408766       -124683029.83171844        233747994.36709997     
  -6990787806.4056978       -62337246.723925591        188259120.17277202     
  -8000059379.4715185        567421549.52951193       -179784464.48504180     
  -7917026007.3793917        200304841.04293966       -78462675.605847627     
  -7792524903.6709318       -28586095.389200687       -9509205.7359731421     
  -7626556068.3461542       -119251259.76693535        27075945.124581136     
  -7419119501.4050398       -71690652.090231895        31292776.975815810     
  -5654343914.8516903       -18842388.658220768        733823595.92983949     
  -5520342752.9804115       -51064153.138951063        721124388.18509567     
  -5380555461.5925493       -63998819.231071949        710738664.75009894     
  -5234982040.6881084       -57646386.934589624        702666425.62484968     
  -5083622490.2670832       -32006856.249499559        696907670.80934584     
  -6108400013.1290255       -35913115.007921457        539524529.64978552     
  -5959078390.5753155       -37986075.197866917        534060986.57113862     
  -5808455711.4188395       -35722180.045264244        531111512.56366497     
  -5656531975.6596050       -29121429.550122023        530676107.62736475     
  -5503307183.2976046       -18183823.712434292        532754771.76223886     
  -6553881310.3136950       -50411401.029824734        357669704.39742988     
  -6388666127.7591925       -22163627.133475542        354209240.91875905     
  -6226634961.5157471       -4529240.9406442642        353463431.27268702     
  -6067787811.5833559        2491757.5486662388        355432275.45921177     
  -5912124677.9620237       -1100631.6655397415        360115773.47833842     
  -6990787806.4056978       -62337246.723925591        188259120.17277202     
  -6809105964.5320473       -3596808.9457759857        181569151.22795656     
  -6635093211.8832703        29579998.082794666        177794420.87716323     
  -6468749548.4593658        37193174.361782312        176934929.12039226     
  -6310074974.2603397        19242719.891186237        178990675.95764747     
  -7419119501.4050398       -71690652.090231895        31292776.975815810     
  -7220397900.8938770        17714379.365228653        16140717.498725882     
  -7033830462.5214052        66605537.025052071        4104481.3770899186     
  -6859417186.2876339        74982820.889212608       -4815931.3890994070     
  -6697158072.1925488        42846230.957744598       -10620520.799830684     
  -5083622490.2670832       -32006856.249499559        696907670.80934584     
  -4934984704.5138168       -3678626.1906790733        678813221.41981995     
  -4789821908.4261084        13066304.982939482        666156793.74293220     
  -4648134102.0039597        18227937.271365404        658938387.77868652     
  -4509921285.2473679        11806270.674597502        657158003.52707863     
  -5503307183.2976046       -18183823.712434292        532754771.76223886     
  -5344947056.1016665       -5799415.3724467754        515782750.79467356     
  -5187949830.3092976        2041988.2889842987        504530775.77471840     
  -5032315505.9204931        5340387.2718646526        498998846.70236802     
  -4878044082.9352551        4095781.5761888027        499186963.57762313     
  -5912124677.9620237       -1100631.6655397415        360115773.47833842     
  -5743236425.7949409       -4418309.9858415127        346730283.90506327     
  -5573598986.7694330       -5238698.7780551910        339346864.51436412     
  -5403212360.8854942       -3561798.0421786308        337965515.30623436     
  -5232076548.1431332        612392.22178840637        342586236.28067529     
  -6310074974.2603397        19242719.891186237        178990675.95764747     
  -6129852813.5936356        464689.96913433075        171655820.75098655     
  -5946769377.8065128       -8775756.2181768417        170605059.96186361     
  -5760824666.8989687       -8478618.6707620621        175838393.59028053     
  -5572018680.8710041        1356102.6113841534        187355821.63624108     
  -6697158072.1925488        42846230.957744598       -10620520.799830684     
  -6504796219.4977455        8849584.4924943447       -9440638.6675531212     
  -6307461003.4205360       -8569184.0313854218       -1694637.8827715511     
  -6105152423.9609146       -9410074.6138904095        12617481.554519948     
  -5897870481.1188774        6326912.7449791431        33495719.644311290     
  -4509921285.2473679        11806270.674597502        657158003.52707863     
  -4375004039.0464401        608010.42813968658        652186157.71702266     
  -4239109334.4874148       -7332055.2913215160        650621029.47682989     
  -4102237171.5702944       -12013926.483805180        652462618.80650175     
  -3964387550.2950821       -13437603.149306297        657710925.70603764     
  -4878044082.9352551        4095781.5761888027        499186963.57762313     
  -4733805657.2371712       -1971178.8120524883        499401124.13177717     
  -4589399355.7441483       -7478553.2171614170        502194559.06967729     
  -4444825178.4561949       -12426341.639158010        507567268.39132267     
  -4300083125.3732939       -16814544.078020334        515519252.09671140     
  -5232076548.1431332        612392.22178840637        342586236.28067529     
  -5080881066.3368101       -1032505.3249197006        347041890.20869261     
  -4930327291.2987013       -4816425.4323475361        353249375.33433175     
  -4780415223.0288124       -10739368.100517750        361208691.65760082     
  -4631144861.5271530       -18801333.329428673        370919839.17849028     
  -5572018680.8710041        1356102.6113841534        187355821.63624108     
  -5416230266.3453455        3424030.8895568848        195108455.94776517     
  -5261893141.1510696        654328.06312680244        203785478.27079394     
  -5109007305.2881746       -6953005.8679063320        213386888.60532975     
  -4957572758.7566528       -19397970.903532028        223912686.95137361     
  -5897870481.1188774        6326912.7449791431        33495719.644311290     
  -5739853257.2627993        11398429.831343412        43600821.348994419     
  -5584096905.3012629        8933707.2692389488        53802867.879063182     
  -5430601425.2342567       -1067254.9413034916        64101859.234513491     
  -5279366817.0617943       -18604456.800321341        74497795.415362075     
  -3964387550.2950821       -13437603.149306297        657710925.70603764     
  -3773046562.8890681        4308187.3830139637        641702072.21787477     
  -3580624534.4838414        25657447.912712574        635435079.71514559     
  -3387121465.0794020        50610178.439785242        638909948.19785261     
  -3192537354.6757522        79166378.964230180        652126677.66599333     
  -4300083125.3732939       -16814544.078020334        515519252.09671140     
  -4087942102.9049292        1307246.9928543568        500760575.40870112     
  -3874458866.5430994        23903084.375291586        492173295.35124218     
  -3659633416.2877860        50972968.069326401        489757411.92433757     
  -3443465752.1390042        82516898.074938059        493512925.12798429     
  -4631144861.5271530       -18801333.329428673        370919839.17849028     
  -4408405130.7246809       -3363939.7384941578        357716041.00060648     
  -4184062013.1344628        17418076.478239059        347113175.09838885     
  -3958115508.7565117        43544715.320765495        339111241.47184867     
  -3730565617.5908246        75015976.789078712        333710240.12097853     
  -4957572758.7566528       -19397970.903532028        223912686.95137361     
  -4734435646.3482971       -9705372.8109979630        212568468.99359047     
  -4509433974.2579384        6202424.2215478420        200254718.95658600     
  -4282567742.4855857        28325420.194083214        186971436.84038427     
  -4053836951.0312200        56663615.106641769        172718622.64497015     
  -5279366817.0617943       -18604456.800321341        74497795.415362075     
  -5066033649.7757874       -17717052.224643707        65317859.387643307     
  -4850574749.9135208       -9743872.3947737217        51597926.925839633     
  -4632990117.4749784        5315082.6893415451        33337998.029940557     
  -4413279752.4601879        27459813.027639866        10538072.699958980     
  -3192537354.6757522        79166378.964230180        652126677.66599333     
  -3202212813.7545218        43362953.322469473        674218140.75922775     
  -3215001240.4180822       -2817030.9352675676        685147589.88055623     
  -3230902634.6664467       -59373573.809015870        684915025.02998555     
  -3249916996.4996090       -126306675.29875374        673520446.20750952     
  -3443465752.1390042        82516898.074938059        493512925.12798429     
  -3466875584.9642243        39684447.683157682        506073379.60147166     
  -3493278047.9281073       -13123436.504146099        520853027.79959440     
  -3522673141.0306482       -75906754.486979485        537851869.72234964     
  -3555060864.2718430       -148665506.26533353        557069905.36974347     
  -3730565617.5908246        75015976.789078712        333710240.12097853     
  -3729477802.1723976        36624108.244302750        336880079.66188157     
  -3731262279.4464822       -11342069.275523424        355650320.62395900     
  -3735919049.4130898       -68882555.770418167        390020963.00721067     
  -3743448112.0722113       -135997351.24036336        439992006.81163067     
  -4053836951.0312200        56663615.106641769        172718622.64497015     
  -3990019465.3790298        34181935.005897999        166638240.94044983     
  -3928953934.9732165        2527070.7505750656        189539468.35365051     
  -3870640359.8137789       -38300977.659336567        241422304.88455448     
  -3815078739.9007192       -88302210.223839998        322286750.53317302     
  -4413279752.4601879        27459813.027639866        10538072.699958980     
  -4248500574.5841222        32357927.967984676       -4652136.5628156178     
  -4086353014.5082979        28483983.574191332        22520470.988669023     
  -3926837072.2327023        15837979.846300364        92055895.354393527     
  -3769952747.7573528       -5580083.2157409191        203954136.53437376     
  -3249916996.4996090       -126306675.29875374        673520446.20750952     
  -2849308307.6478853       -64060105.454681277        613316312.85984707     
  -2443415603.2146592        15799849.661064267        595531334.94111669     
  -2032238883.1999242        113273190.04850698        620165512.45131969     
  -1615778147.6036944        228359915.70759952        687218845.39046752     
  -3555060864.2718430       -148665506.26533353        557069905.36974347     
  -3090047782.3716173       -70549548.068858027        523715648.06436926     
  -2620951212.0256343        21178038.280131459        493821909.59373927     
  -2147771153.2339091        126517252.78160596        467388689.95785791     
  -1670507605.9964306        245468095.43557894        444415989.15671694     
  -3743448112.0722113       -135997351.24036336        439992006.81163067     
  -3325341027.3925867       -75405121.772194147        432087010.55683231     
  -2904350981.4029713       -5203021.2707139254        388683896.54258645     
  -2480477974.1033583        74608950.264070392        309782664.76889992     
  -2053722005.4937534        164030792.83218229        195383315.23577064     
  -3815078739.9007192       -88302210.223839998        322286750.53317302     
  -3555188042.7108045       -78626826.564707279        338430400.33722967     
  -3293614911.3466630       -63343328.991470218        280117295.78765881     
  -3030359345.8082724       -42451717.504080296        147347436.88444671     
  -2765421346.0956554       -15951992.102587938       -59879176.372400731     
  -3769952747.7573528       -5580083.2157409191        203954136.53437376     
  -3779588828.3262820       -80214662.446411848        242745817.40557334     
  -3788743001.8567147       -153242884.88211656        168122107.32894641     
  -3797415268.3486834       -224664750.52290881       -19916993.695495658     
  -3805605627.8021493       -294480259.36873603       -321371485.66776776     
 </DataArray>
 <DataArray  type="Float64" Name="VM" NumberOfComponents="1" format="ascii">
   12935573810.028500     
   11340869105.080866     
   10210473463.059549     
   9273055549.9905491     
   8304208708.3668842     
   10130089398.974865     
   9321995415.0902786     
   8826478775.7173710     
   8443744515.8001270     
   8036021485.6146688     
   7982051736.6359272     
   7734860254.0716219     
   7669193937.3521986     
   7669796373.6685171     
   7666762896.6830273     
   6491372367.0630407     
   6586755950.2991934     
   6757453981.9954519     
   6961430890.4995537     
   7172043918.8049097     
   5657602874.0197935     
   5890850527.0882807     
   6116447300.5855541     
   6331971710.4694748     
   6537230745.9108429     
   8304208708.3668842     
   8020287535.7020359     
   7778405382.9805298     
   7567921824.0659695     
   7383887750.5144567     
   8036021485.6146688     
   7746862732.7399683     
   7473342255.4272146     
   7213515131.5904751     
   6967386192.6375847     
   7666762896.6830273     
   7381421194.5729008     
   7101443606.3654995     
   6826900601.3347673     
   6557982882.3811131     
   7172043918.8049097     
   6911392639.1063070     
   6658585360.9639645     
   6409737844.7443581     
   6161691639.1126804     
   6537230745.9108429     
   6329125854.6324520     
   6143092368.6728125     
   5965179399.3142862     
   5786376115.7381735     
   7383887750.5144567     
   7229504710.8243313     
   7067620451.0338125     
   6897581523.6184349     
   6719226377.7410879     
   6967386192.6375847     
   6814589016.2634201     
   6657218102.5899820     
   6495002447.0558891     
   6327885633.9318600     
   6557982882.3811131     
   6406992986.6324129     
   6254485824.1045179     
   6100433753.7849817     
   5944859454.3907442     
   6161691639.1126804     
   6011709037.4729366     
   5863302581.9524508     
   5716516586.3340263     
   5571417272.3448324     
   5786376115.7381735     
   5635185142.4410677     
   5488641219.0507011     
   5346661462.9454308     
   5209322865.6061897     
   6719226377.7410879     
   6509329441.8503075     
   6302750355.1941910     
   6099472156.9428730     
   5899645851.0248652     
   6327885633.9318600     
   6137840650.1278400     
   5950184118.0210276     
   5764926946.7388039     
   5582180044.3946333     
   5944859454.3907442     
   5772990638.5314827     
   5602613963.6029196     
   5433755886.6572361     
   5266509130.4906425     
   5571417272.3448324     
   5416588386.0319796     
   5262396255.8239164     
   5108859278.1297112     
   4956068364.0437117     
   5209322865.6061897     
   5071046499.4904280     
   4932616410.8807726     
   4794007592.3351612     
   4655321253.8604937     
   5899645851.0248652     
   5745380060.8779325     
   5589701450.5237789     
   5432615835.8917027     
   5274153365.4570293     
   5582180044.3946333     
   5428302754.5935316     
   5273711225.3616619     
   5118437548.4542265     
   4962527582.3396158     
   5266509130.4906425     
   5115575360.0655098     
   4964822543.3859167     
   4814320561.7313051     
   4664154877.9356880     
   4956068364.0437117     
   4810346183.2330704     
   4665928736.4102688     
   4522926383.7131853     
   4381479353.6873474     
   4655321253.8604937     
   4516663993.6091137     
   4380700466.2090521     
   4247571284.9042926     
   4117472784.9928312     
   5274153365.4570293     
   5059750690.2564173     
   4846761603.6053867     
   4635306216.6401291     
   4425584102.7383442     
   4962527582.3396158     
   4743795671.0429411     
   4526266266.0709534     
   4309998674.1590166     
   4095086730.4459853     
   4664154877.9356880     
   4449247434.6921253     
   4236036233.0063748     
   4024625862.3281441     
   3815173858.2295561     
   4381479353.6873474     
   4178702088.9539313     
   3978944672.4869924     
   3782499078.2837005     
   3589807632.9591398     
   4117472784.9928312     
   3935095336.8363810     
   3757980374.8826656     
   3586738250.1701307     
   3422292402.8883200     
   4425584102.7383442     
   4262307574.6077199     
   4096923314.8845601     
   3932172381.8547368     
   3775657373.7504377     
   4095086730.4459853     
   4018387998.9333982     
   3943434419.7178121     
   3872245690.1834674     
   3809056153.8754206     
   3815173858.2295561     
   3794554555.6889801     
   3776473036.7230539     
   3762027410.3970861     
   3752983495.0989280     
   3589807632.9591398     
   3595052672.3819518     
   3599813703.2655535     
   3604530153.9161010     
   3609722002.7148008     
   3422292402.8883200     
   3424670671.5068941     
   3419187942.9417443     
   3405875398.1642241     
   3385112623.4898238     
   3775657373.7504377     
   3758790881.7506566     
   3726243818.2020955     
   3693863429.2228966     
   3709293030.5432000     
   3809056153.8754206     
   3564103539.5167947     
   3302476390.6940393     
   3031063363.4269395     
   2777480080.0910745     
   3752983495.0989280     
   3371175815.3858347     
   2980203974.8336792     
   2580922382.0666442     
   2180215534.0112362     
   3609722002.7148008     
   3181954352.0654979     
   2760524721.8777170     
   2348109827.9888043     
   1949832200.9902568     
   3385112623.4898238     
   2998934424.6356177     
   2642222359.7363343     
   2324768970.3643746     
   2068260763.4522815     
   5657602874.0197935     
   5890850527.0882807     
   6116447300.5855541     
   6331971710.4694748     
   6537230745.9108429     
   5151330389.0626478     
   5311319984.4270077     
   5467928777.0868044     
   5618284279.5121326     
   5760940557.9428978     
   4643420670.1291113     
   4755566770.7513018     
   4868823261.3125210     
   4980560807.6516819     
   5088859561.3047752     
   4134138316.5264854     
   4224427435.4510589     
   4320626250.2613144     
   4421066198.0296955     
   4524282856.4316187     
   3624997170.5482755     
   3719722954.5865555     
   3825697511.4701905     
   3942832896.6141620     
   4071015258.8778338     
   6537230745.9108429     
   6329125854.6324520     
   6143092368.6728125     
   5965179399.3142862     
   5786376115.7381735     
   5760940557.9428978     
   5652352620.5584488     
   5559682777.1991978     
   5473851544.0729818     
   5389321167.8578243     
   5088859561.3047752     
   5054102507.8042984     
   5029829153.9656839     
   5010831640.1527252     
   4993911943.4177008     
   4524282856.4316187     
   4538980458.7426720     
   4558381711.9850245     
   4580017016.8441877     
   4602167406.9317932     
   4071015258.8778338     
   4112327639.2401304     
   4151077321.8955164     
   4186390915.9717116     
   4217553358.6500311     
   5786376115.7381735     
   5635185142.4410677     
   5488641219.0507011     
   5346661462.9454308     
   5209322865.6061897     
   5389321167.8578243     
   5248304064.6378975     
   5110810071.5366888     
   4976887844.7405729     
   4846648518.1817617     
   4993911943.4177008     
   4867169806.9326315     
   4743754801.0258064     
   4623638282.7952070     
   4506865801.7715130     
   4602167406.9317932     
   4494430941.3492870     
   4390866950.4836502     
   4291149156.6001201     
   4195181290.4524260     
   4217553358.6500311     
   4134027959.8003654     
   4056740622.4408011     
   3984810078.5383511     
   3917928882.2958384     
   5209322865.6061897     
   5071046499.4904280     
   4932616410.8807726     
   4794007592.3351612     
   4655321253.8604937     
   4846648518.1817617     
   4722437984.8269377     
   4599209367.6369724     
   4477041114.8033867     
   4356111667.4840565     
   4506865801.7715130     
   4396399114.1711931     
   4288068743.7399731     
   4182033609.4874268     
   4078528786.0896282     
   4195181290.4524260     
   4097902238.5575347     
   4003877712.4280291     
   3913317341.8940296     
   3826487310.7097363     
   3917928882.2958384     
   3832941656.9159861     
   3752223056.5482807     
   3675998866.6667023     
   3604539526.9432187     
   4655321253.8604937     
   4516663993.6091137     
   4380700466.2090521     
   4247571284.9042926     
   4117472784.9928312     
   4356111667.4840565     
   4230052396.2403016     
   4106996227.8395276     
   3987148945.3143525     
   3870779034.5727782     
   4078528786.0896282     
   3966519488.7011571     
   3858013633.6290011     
   3753284383.2435846     
   3652678337.3947010     
   3826487310.7097363     
   3730097319.0286798     
   3637912246.0522733     
   3550267120.5016518     
   3467583269.6503329     
   3604539526.9432187     
   3525352994.2185674     
   3451264958.8148551     
   3382653612.4685740     
   3319996465.8531065     
   4117472784.9928312     
   3935095336.8363810     
   3757980374.8826656     
   3586738250.1701307     
   3422292402.8883200     
   3870779034.5727782     
   3709919557.2002034     
   3554621409.7297978     
   3405450960.2937007     
   3263204830.4568062     
   3652678337.3947010     
   3510027842.3289962     
   3372924243.9179530     
   3241867438.5241594     
   3117514568.1509032     
   3467583269.6503329     
   3340035206.2473307     
   3217652325.1508217     
   3100851918.5264721     
   2990149550.0873094     
   3319996465.8531065     
   3204780615.3090668     
   3093947585.8548355     
   2987822358.0056376     
   2886785819.3915138     
   3422292402.8883200     
   3424670671.5068941     
   3419187942.9417443     
   3405875398.1642241     
   3385112623.4898238     
   3263204830.4568062     
   3249953233.4583945     
   3231043729.6003804     
   3206389529.6602316     
   3176050063.1050401     
   3117514568.1509032     
   3100000723.3228998     
   3080391575.2066116     
   3058753192.0754499     
   3035203479.7634816     
   2990149550.0873094     
   2978494270.3364172     
   2969544460.8158884     
   2963667897.0785713     
   2961274350.7978587     
   2886785819.3915138     
   2888967383.7957969     
   2899710418.4690433     
   2919623370.0627928     
   2949387266.9034724     
   3385112623.4898238     
   2998934424.6356177     
   2642222359.7363343     
   2324768970.3643746     
   2068260763.4522815     
   3176050063.1050401     
   2877457931.4466023     
   2605335761.8876085     
   2365146921.6830821     
   2167300903.5852566     
   3035203479.7634816     
   2796139045.5180588     
   2576605141.6380749     
   2379226756.5211077     
   2208301272.9394798     
   2961274350.7978587     
   2756817723.4011850     
   2561151721.3719320     
   2375292051.4508858     
   2200655236.0265880     
   2949387266.9034724     
   2759599630.9289331     
   2564964869.6068258     
   2365444239.8719149     
   2161155646.4868174     
   3624997170.5482755     
   3719722954.5865555     
   3825697511.4701905     
   3942832896.6141620     
   4071015258.8778338     
   3137962502.0648117     
   3255516867.4100494     
   3382493653.5750108     
   3518409674.3678875     
   3662794916.8315744     
   2694703811.5861263     
   2830485506.2598395     
   2973591824.1671181     
   3122934956.8889098     
   3277599139.6548715     
   2298723231.1098428     
   2449427131.3193345     
   2604870141.8936009     
   2763131975.8063850     
   2922785160.9993167     
   1955254915.2776794     
   2119307468.6928232     
   2284732278.4432287     
   2448579776.6162963     
   2608902121.5711622     
   4071015258.8778338     
   4112327639.2401304     
   4151077321.8955164     
   4186390915.9717116     
   4217553358.6500311     
   3662794916.8315744     
   3702088302.5336895     
   3740055633.0548267     
   3775813784.0338869     
   3808624234.6722989     
   3277599139.6548715     
   3320727555.0919666     
   3364117382.0795546     
   3406950893.9563899     
   3448553573.8774867     
   2922785160.9993167     
   2975622137.8789334     
   3030665043.2995529     
   3087226658.9340272     
   3144771155.6214509     
   2608902121.5711622     
   2676812246.6745090     
   2749178874.7516732     
   2825480600.6808367     
   2905358184.7660413     
   4217553358.6500311     
   4134027959.8003654     
   4056740622.4408011     
   3984810078.5383511     
   3917928882.2958384     
   3808624234.6722989     
   3756369662.8073697     
   3709924102.8373332     
   3668799782.7775631     
   3632896018.9061956     
   3448553573.8774867     
   3423003715.2954993     
   3402461680.8079967     
   3386695831.0200057     
   3375689090.9309435     
   3144771155.6214509     
   3141583555.9052029     
   3142010061.5185208     
   3145955526.4405990     
   3153407246.4128065     
   2905358184.7660413     
   2920463591.4767160     
   2937004679.2639441     
   2954937761.7256994     
   2974230618.7727041     
   3917928882.2958384     
   3832941656.9159861     
   3752223056.5482807     
   3675998866.6667023     
   3604539526.9432187     
   3632896018.9061956     
   3559915442.5204396     
   3491785486.0385399     
   3428747837.0051012     
   3371091529.5641432     
   3375689090.9309435     
   3315847201.4614468     
   3261626437.6216235     
   3213265448.7608004     
   3171056497.1612878     
   3153407246.4128065     
   3107606185.1031451     
   3068373670.9974594     
   3035915469.0756092     
   3010501350.4781671     
   2974230618.7727041     
   2942870347.4970560     
   2919172326.3487253     
   2903270488.2418847     
   2895379126.6006913     
   3604539526.9432187     
   3525352994.2185674     
   3451264958.8148551     
   3382653612.4685740     
   3319996465.8531065     
   3371091529.5641432     
   3307615527.2568192     
   3249631990.8012853     
   3197481076.4838638     
   3151569436.3524909     
   3171056497.1612878     
   3121738857.2617440     
   3078119075.8277392     
   3040474510.3104925     
   3009120207.5519490     
   3010501350.4781671     
   2973505726.6594877     
   2942177882.1165743     
   2916717724.8338370     
   2897341529.6914783     
   2895379126.6006913     
   2868553608.3358464     
   2847099150.6683607     
   2831137269.7024093     
   2820794076.8495741     
   3319996465.8531065     
   3204780615.3090668     
   3093947585.8548355     
   2987822358.0056376     
   2886785819.3915138     
   3151569436.3524909     
   3047061754.2457523     
   2948989682.8877058     
   2857802043.6097255     
   2774018636.2377648     
   3009120207.5519490     
   2917701437.9649029     
   2835011034.5187449     
   2761564492.1864748     
   2697949176.9616446     
   2897341529.6914783     
   2820359925.1550174     
   2754542174.7931347     
   2700383222.5681853     
   2658437500.7733645     
   2820794076.8495741     
   2758189722.3851376     
   2709249335.2859106     
   2674357350.0714254     
   2653941622.9518909     
   2886785819.3915138     
   2888967383.7957969     
   2899710418.4690433     
   2919623370.0627928     
   2949387266.9034724     
   2774018636.2377648     
   2796067849.9601083     
   2824059669.8264871     
   2858343331.1475534     
   2899293719.1007848     
   2697949176.9616446     
   2734959130.4189105     
   2774691475.2566872     
   2817333979.4455376     
   2863086198.3971877     
   2658437500.7733645     
   2706519019.7202435     
   2753583519.9360051     
   2799724193.5317435     
   2845049768.0458913     
   2653941622.9518909     
   2710519459.4828119     
   2761957863.3122158     
   2808284629.2556772     
   2849553861.3070512     
   2949387266.9034724     
   2759599630.9289331     
   2564964869.6068258     
   2365444239.8719149     
   2161155646.4868174     
   2899293719.1007848     
   2707181384.5027480     
   2520411648.5596557     
   2340108940.9491324     
   2167750054.0324607     
   2863086198.3971877     
   2679789870.4642735     
   2512447500.6432028     
   2363070073.0965128     
   2234024468.6989317     
   2845049768.0458913     
   2677799325.8170514     
   2536725793.1084266     
   2423952288.3687167     
   2341771337.5683241     
   2849553861.3070512     
   2700878143.9283886     
   2588112633.8799534     
   2512760374.3026772     
   2476375542.6468010     
   1955254915.2776794     
   2119307468.6928232     
   2284732278.4432287     
   2448579776.6162963     
   2608902121.5711622     
   1653810148.9568245     
   1820246476.6247089     
   1988378866.7473600     
   2155518482.7823334     
   2319913987.6028814     
   1393708541.6606622     
   1571056044.5711911     
   1749394252.7153199     
   1926723019.1770322     
   2101794708.1400657     
   1207230129.4437106     
   1399146216.6081638     
   1590614448.0468700     
   1780857759.6838567     
   1969417278.7305703     
   1136987939.4509554     
   1335337675.8307810     
   1533953057.4524786     
   1732834087.8273535     
   1931980781.7446384     
   2608902121.5711622     
   2676812246.6745090     
   2749178874.7516732     
   2825480600.6808367     
   2905358184.7660413     
   2319913987.6028814     
   2406964836.8180809     
   2496424438.1467557     
   2587897856.1844339     
   2681107302.3871570     
   2101794708.1400657     
   2205550507.4016619     
   2309201159.5683241     
   2412509816.6533089     
   2515309404.2474036     
   1969417278.7305703     
   2086530919.3221138     
   2200793769.6909194     
   2312131916.5203490     
   2420493619.5919909     
   1931980781.7446384     
   2058491512.6931586     
   2179594687.7062306     
   2295290321.6739001     
   2405578471.7001553     
   2905358184.7660413     
   2920463591.4767160     
   2937004679.2639441     
   2954937761.7256994     
   2974230618.7727041     
   2681107302.3871570     
   2702895037.5974078     
   2727099910.7766743     
   2753709571.3583698     
   2782719291.2906590     
   2515309404.2474036     
   2543764570.4831829     
   2575652506.9402595     
   2610975549.8216991     
   2649740099.6051216     
   2420493619.5919909     
   2454177695.6657939     
   2492320159.4671311     
   2534923457.7006431     
   2581991720.8827343     
   2405578471.7001553     
   2441528356.4618144     
   2482963880.4594307     
   2529885237.9553032     
   2582292955.4178710     
   2974230618.7727041     
   2942870347.4970560     
   2919172326.3487253     
   2903270488.2418847     
   2895379126.6006913     
   2782719291.2906590     
   2766228780.5976591     
   2757041958.2729321     
   2755241033.1968279     
   2760945860.4031463     
   2649740099.6051216     
   2644569179.8305516     
   2646008483.2421341     
   2654092963.5716128     
   2668868738.3660569     
   2581991720.8827343     
   2584231150.8918543     
   2592064146.9441934     
   2605498462.1326938     
   2624542383.1496778     
   2582292955.4178710     
   2588086558.0188589     
   2598189141.7391877     
   2612602562.1222930     
   2631331983.0515609     
   2895379126.6006913     
   2868553608.3358464     
   2847099150.6683607     
   2831137269.7024093     
   2820794076.8495741     
   2760945860.4031463     
   2741285835.4763551     
   2728068884.7765069     
   2721394979.2187562     
   2721366879.7357311     
   2668868738.3660569     
   2655503228.4701128     
   2649696162.5902495     
   2651508306.4725294     
   2661002721.4646387     
   2624542383.1496778     
   2615590710.7032146     
   2615335620.6732640     
   2623795804.9277301     
   2640993509.1455402     
   2631331983.0515609     
   2623952064.5833831     
   2626420579.7571254     
   2638732971.3322911     
   2660890251.4322419     
   2820794076.8495741     
   2758189722.3851376     
   2709249335.2859106     
   2674357350.0714254     
   2653941622.9518909     
   2721366879.7357311     
   2672213254.0194664     
   2635236852.8786035     
   2610619972.9604812     
   2598560761.5533342     
   2661002721.4646387     
   2620786159.3161469     
   2591039946.4933715     
   2571826705.3718038     
   2563213716.9240303     
   2640993509.1455402     
   2605624907.5298829     
   2578834734.2011604     
   2560633234.1057029     
   2551033569.4751630     
   2660890251.4322419     
   2627034925.5705295     
   2599721725.5149121     
   2578951221.4090476     
   2564730296.4812002     
   2653941622.9518909     
   2710519459.4828119     
   2761957863.3122158     
   2808284629.2556772     
   2849553861.3070512     
   2598560761.5533342     
   2655174205.3677034     
   2709401540.5555105     
   2761257434.0669250     
   2810768696.5264926     
   2563213716.9240303     
   2620265654.1440945     
   2677787530.9963784     
   2735787745.9192696     
   2794278431.5419750     
   2551033569.4751630     
   2607575067.4079924     
   2667505940.6992850     
   2730827644.8535767     
   2797541912.1092510     
   2564730296.4812002     
   2618418844.3916755     
   2678478489.9776764     
   2744911198.9098954     
   2817718747.2924447     
   2849553861.3070512     
   2700878143.9283886     
   2588112633.8799534     
   2512760374.3026772     
   2476375542.6468010     
   2810768696.5264926     
   2682227855.8483853     
   2581763681.7171960     
   2509881383.3194532     
   2467129224.1490564     
   2794278431.5419750     
   2677331184.4625463     
   2581127669.8092780     
   2505781086.7058258     
   2451425572.2282395     
   2797541912.1092510     
   2686248181.1596365     
   2588543017.4174438     
   2504446987.7341199     
   2433987968.8306251     
   2817718747.2924447     
   2708873997.6711874     
   2606459669.3109226     
   2510501551.2694254     
   2421031007.4746203     
   1136987939.4509554     
   1335337675.8307810     
   1533953057.4524786     
   1732834087.8273535     
   1931980781.7446384     
   1207134359.2699263     
   1399156246.2961416     
   1590735130.6181338     
   1781096871.0762711     
   1969785102.4274440     
   1393619155.8296664     
   1571092131.5786202     
   1749575843.3929060     
   1927069439.3106680     
   2102325118.6766174     
   1653802395.1375387     
   1820316020.4900763     
   1988559171.2833006     
   2155838257.0616508     
   2320397150.9471226     
   1955375555.1238887     
   2119412851.5432482     
   2284860940.0784407     
   2448763183.5751195     
   2609162471.4878535     
   1931980781.7446384     
   2058491512.6931586     
   2179594687.7062306     
   2295290321.6739001     
   2405578471.7001553     
   1969785102.4274440     
   2086730084.8377950     
   2200816278.1274505     
   2311967218.1726093     
   2420130324.0748734     
   2102325118.6766174     
   2205873548.7063222     
   2309304795.8965983     
   2412381476.8519597     
   2514936386.5744858     
   2320397150.9471226     
   2407318157.0021968     
   2496637667.4645805     
   2587965885.0127416     
   2681026937.7273650     
   2609162471.4878535     
   2677105706.6318202     
   2749504303.4771705     
   2825850719.6088996     
   2905791282.7819428     
   2405578471.7001553     
   2441528356.4618144     
   2482963880.4594307     
   2529885237.9553032     
   2582292955.4178710     
   2420130324.0748734     
   2454443199.8898220     
   2493263134.8731065     
   2536595147.9302149     
   2584444326.7309642     
   2514936386.5744858     
   2544268458.1438794     
   2577105440.6479301     
   2613451108.8527660     
   2653312728.5364132     
   2681026937.7273650     
   2703565695.0213995     
   2728589891.0359807     
   2756083675.9020653     
   2786041414.8101149     
   2905791282.7819428     
   2921205334.7153463     
   2938091645.6839752     
   2956394170.9267159     
   2976075388.3856912     
   2582292955.4178710     
   2588086558.0188589     
   2598189141.7391877     
   2612602562.1222930     
   2631331983.0515609     
   2584444326.7309642     
   2585237341.2679367     
   2591657064.5411811     
   2603710446.3618107     
   2621411565.3467512     
   2653312728.5364132     
   2646234460.3944569     
   2645924803.6957059     
   2652416965.6600904     
   2665758641.8670330     
   2786041414.8101149     
   2768028550.2954330     
   2757690521.1469836     
   2755112304.0314360     
   2760406806.0786271     
   2976075388.3856912     
   2944190242.9777660     
   2920630528.6140966     
   2905551966.3731403     
   2899159795.1340137     
   2631331983.0515609     
   2623952064.5833831     
   2626420579.7571254     
   2638732971.3322911     
   2660890251.4322419     
   2621411565.3467512     
   2614620341.5037241     
   2616322156.3424158     
   2626534048.3828549     
   2645273046.0024028     
   2665758641.8670330     
   2655722397.3389287     
   2652719343.9890432     
   2656809340.6423674     
   2668051899.1548457     
   2760406806.0786271     
   2744486064.4485073     
   2734052160.8228021     
   2729202964.7275381     
   2730040851.3415427     
   2899159795.1340137     
   2876021462.1207647     
   2856772756.7480512     
   2841527548.8137093     
   2830412297.4382348     
   2660890251.4322419     
   2627034925.5705295     
   2599721725.5149121     
   2578951221.4090476     
   2564730296.4812002     
   2645273046.0024028     
   2607444309.5255690     
   2578513239.5034161     
   2558490123.5547123     
   2547388231.9165049     
   2668051899.1548457     
   2624073296.1909604     
   2591297502.5066423     
   2569781782.1831174     
   2559590146.1508045     
   2730040851.3415427     
   2676737369.9916768     
   2636848659.0243945     
   2610554228.0752754     
   2598054449.5331211     
   2830412297.4382348     
   2763860863.6537023     
   2712815919.5394211     
   2677690164.7402635     
   2658947346.9248204     
   2564730296.4812002     
   2618418844.3916755     
   2678478489.9776764     
   2744911198.9098954     
   2817718747.2924447     
   2547388231.9165049     
   2604509762.4404492     
   2665222303.7022753     
   2729536630.6769195     
   2797463680.0904479     
   2559590146.1508045     
   2618324171.3223720     
   2677922775.5414033     
   2738397134.5202537     
   2799761058.0982523     
   2598054449.5331211     
   2657855214.8097224     
   2715845023.8455453     
   2772019336.7464862     
   2826382049.1383376     
   2658947346.9248204     
   2720477931.6786261     
   2777596674.1775951     
   2830273498.4313726     
   2878495864.9150624     
   2817718747.2924447     
   2708873997.6711874     
   2606459669.3109226     
   2510501551.2694254     
   2421031007.4746203     
   2797463680.0904479     
   2686124294.8302388     
   2588325749.0969849     
   2504077217.7347426     
   2433389660.2145615     
   2799761058.0982523     
   2683822375.0475411     
   2588583830.3903580     
   2514158181.5902781     
   2460678041.1933627     
   2826382049.1383376     
   2701116512.5454206     
   2603992209.6298609     
   2535540489.9248571     
   2496337816.5956173     
   2878495864.9150624     
   2736758863.0569582     
   2631316919.3416963     
   2563718230.0213513     
   2535537947.7610073     
   1955375555.1238887     
   2119412851.5432482     
   2284860940.0784407     
   2448763183.5751195     
   2609162471.4878535     
   2298940353.0462699     
   2449567184.9689064     
   2604947580.6473861     
   2763156811.3898106     
   2922762301.0206914     
   2694929640.9902182     
   2830621037.0296116     
   2973633502.2966919     
   3122877466.5853596     
   3277435474.9937792     
   3138122373.5551901     
   3255616795.2032089     
   3382517242.8639989     
   3518341879.1520147     
   3662621933.2567163     
   3625024889.3464255     
   3719761621.5103164     
   3825721347.1984181     
   3942821474.1640644     
   4070952440.2222319     
   2609162471.4878535     
   2677105706.6318202     
   2749504303.4771705     
   2825850719.6088996     
   2905791282.7819428     
   2922762301.0206914     
   2975739329.4653487     
   3030933922.5806866     
   3087668899.3181691     
   3145414073.2053108     
   3277435474.9937792     
   3320720260.4150405     
   3364282958.4485030     
   3407309574.4968529     
   3449128134.1506639     
   3662621933.2567163     
   3702014197.3448772     
   3740095669.6642070     
   3775979006.0267587     
   3808922653.2017612     
   4070952440.2222319     
   4112244989.4212494     
   4150985658.3657875     
   4186288263.0706429     
   4217427876.8243561     
   2905791282.7819428     
   2921205334.7153463     
   2938091645.6839752     
   2956394170.9267159     
   2976075388.3856912     
   3145414073.2053108     
   3142019369.6450992     
   3142225061.2514472     
   3145927069.9043608     
   3153113409.6229205     
   3449128134.1506639     
   3423124800.8612990     
   3402097654.2128325     
   3385809381.5192943     
   3374242319.9861226     
   3808922653.2017612     
   3756209364.6055193     
   3709281436.5154014     
   3667651583.8092203     
   3631214374.4228740     
   4217427876.8243561     
   4133646026.9359422     
   4056103591.3984351     
   3983931958.5120988     
   3916817056.0720444     
   2976075388.3856912     
   2944190242.9777660     
   2920630528.6140966     
   2905551966.3731403     
   2899159795.1340137     
   3153113409.6229205     
   3107354405.4132848     
   3068581654.0638280     
   3037019432.3167353     
   3012942301.6573939     
   3374242319.9861226     
   3314542536.6688738     
   3260603956.3002658     
   3212677039.4111209     
   3171062058.6935740     
   3631214374.4228740     
   3558258583.3459077     
   3489993919.3417416     
   3426662631.5738134     
   3368553375.5469956     
   3916817056.0720444     
   3831727047.0784078     
   3750436941.4803348     
   3673159057.0002375     
   3600146167.2599206     
   2899159795.1340137     
   2876021462.1207647     
   2856772756.7480512     
   2841527548.8137093     
   2830412297.4382348     
   3012942301.6573939     
   2978101608.8547902     
   2948080316.7697892     
   2923062582.1779099     
   2903255838.6290483     
   3171062058.6935740     
   3122831340.3819647     
   3080083772.8041420     
   3043081106.1084118     
   3012127160.9450355     
   3368553375.5469956     
   3305150321.9848361     
   3247636505.6412964     
   3196350918.9766808     
   3151701712.9631763     
   3600146167.2599206     
   3519732161.2318907     
   3445384818.9935431     
   3377512916.2689705     
   3316628547.8652520     
   2830412297.4382348     
   2763860863.6537023     
   2712815919.5394211     
   2677690164.7402635     
   2658947346.9248204     
   2903255838.6290483     
   2823900483.9083142     
   2756759464.9668574     
   2702377273.3516169     
   2661362566.4405060     
   3012127160.9450355     
   2919341293.4763494     
   2835538925.9679022     
   2761272123.6443987     
   2697166063.0441985     
   3151701712.9631763     
   3046778083.7271519     
   2947747919.8107409     
   2855053466.3252597     
   2769201960.2627645     
   3316628547.8652520     
   3202324842.6097069     
   3091089664.0298347     
   2983187786.4779487     
   2878924114.3284473     
   2658947346.9248204     
   2720477931.6786261     
   2777596674.1775951     
   2830273498.4313726     
   2878495864.9150624     
   2661362566.4405060     
   2712368348.6231666     
   2762762961.7511048     
   2812598167.3025246     
   2861936287.9602880     
   2697166063.0441985     
   2734874059.4730282     
   2775427836.2321024     
   2818999086.6656318     
   2865768941.2775273     
   2769201960.2627645     
   2789777250.2800612     
   2816154099.1305208     
   2848690704.4721823     
   2887770234.0077124     
   2878924114.3284473     
   2877738943.3874884     
   2884687648.0217896     
   2900398030.4315076     
   2925572194.6487713     
   2878495864.9150624     
   2736758863.0569582     
   2631316919.3416963     
   2563718230.0213513     
   2535537947.7610073     
   2861936287.9602880     
   2699632247.8923097     
   2563805750.9269285     
   2456598378.1253262     
   2380285056.4673672     
   2865768941.2775273     
   2684215442.9433026     
   2518586185.9636850     
   2370895513.3201475     
   2243497442.0894771     
   2887770234.0077124     
   2693226768.2126322     
   2503443166.6232824     
   2319484956.3590503     
   2142752654.4431157     
   2925572194.6487713     
   2728814654.1662436     
   2526113809.3806467     
   2317320294.5963602     
   2102365148.0966473     
   3625024889.3464255     
   3719761621.5103164     
   3825721347.1984181     
   3942821474.1640644     
   4070952440.2222319     
   4134039786.3019767     
   4224387832.8756356     
   4320632081.4955320     
   4421109590.6422825     
   4524361163.3463888     
   4643267795.4430981     
   4755482736.7458000     
   4868805635.7408123     
   4980610450.7555046     
   5088980224.4212437     
   5151192830.4418993     
   5311223383.6650753     
   5467881203.7210016     
   5618292925.1852007     
   5761010795.7850962     
   5657549356.3840322     
   5890771969.7472248     
   6116362419.9117098     
   6331893018.6765547     
   6537162977.8986750     
   4070952440.2222319     
   4112244989.4212494     
   4150985658.3657875     
   4186288263.0706429     
   4217427876.8243561     
   4524361163.3463888     
   4538952700.2921429     
   4558243746.5262537     
   4579756244.8449631     
   4601768261.0570040     
   5088980224.4212437     
   5054091331.5210581     
   5029678308.0907173     
   5010528907.5439215     
   4993443500.6902666     
   5761010795.7850962     
   5652322118.5125799     
   5559546041.5278263     
   5473604886.3643055     
   5388959156.5497246     
   6537162977.8986750     
   6329042688.5839787     
   6142991549.5908489     
   5965070508.1979275     
   5786269092.1879883     
   4217427876.8243561     
   4133646026.9359422     
   4056103591.3984351     
   3983931958.5120988     
   3916817056.0720444     
   4601768261.0570040     
   4494054304.5039129     
   4390530189.2643938     
   4290876099.1176987     
   4194995375.3417654     
   4993443500.6902666     
   4866861977.5748091     
   4743627608.8039808     
   4623713996.2275887     
   4507168159.0451469     
   5388959156.5497246     
   5248115078.4843521     
   5110805013.6809616     
   4977078086.9846764     
   4847046243.7018709     
   5786269092.1879883     
   5635154051.1424751     
   5488676714.5186663     
   5346756267.9667492     
   5209469473.2786665     
   3916817056.0720444     
   3831727047.0784078     
   3750436941.4803348     
   3673159057.0002375     
   3600146167.2599206     
   4194995375.3417654     
   4097793999.2221217     
   4003553790.7461653     
   3912472239.8583932     
   3824803734.0906606     
   4507168159.0451469     
   4396943138.1509752     
   4288731724.1479435     
   4182685150.4119854     
   4079032433.5597730     
   4847046243.7018709     
   4723119045.4662342     
   4600210583.6687317     
   4478397998.7858486     
   4357858775.9571095     
   5209469473.2786665     
   5071320909.8630714     
   4933198205.8481789     
   4795081665.7711544     
   4657074689.4771147     
   3600146167.2599206     
   3519732161.2318907     
   3445384818.9935431     
   3377512916.2689705     
   3316628547.8652520     
   3824803734.0906606     
   3727169878.2488136     
   3634294803.2487841     
   3546537475.4702950     
   3464349369.4542193     
   4079032433.5597730     
   3965905836.7629461     
   3856471849.3362408     
   3751016232.5555172     
   3649901464.0598822     
   4357858775.9571095     
   4231164926.1496530     
   4107352853.8675518     
   3986629403.3928409     
   3869261023.9228983     
   4657074689.4771147     
   4518778719.1210546     
   4382800873.4984961     
   4249274358.9069114     
   4118376905.6342335     
   3316628547.8652520     
   3202324842.6097069     
   3091089664.0298347     
   2983187786.4779487     
   2878924114.3284473     
   3464349369.4542193     
   3337897524.3700585     
   3215864312.3261471     
   3098618448.3017154     
   2986610502.3064628     
   3649901464.0598822     
   3508350678.4975209     
   3372116413.3386908     
   3241666245.0974913     
   3117616067.9535556     
   3869261023.9228983     
   3709018699.3488436     
   3554549018.0758338     
   3406413778.1536608     
   3265414336.6302862     
   4118376905.6342335     
   3935415933.0712991     
   3758288609.2831268     
   3587644602.9152308     
   3424487014.1098709     
   2878924114.3284473     
   2877738943.3874884     
   2884687648.0217896     
   2900398030.4315076     
   2925572194.6487713     
   2986610502.3064628     
   2973331996.1609888     
   2962436531.0386133     
   2954310441.0191565     
   2949387775.0413604     
   3117616067.9535556     
   3100062771.9339795     
   3080213252.6382046     
   3058150066.3418698     
   3034015851.3962293     
   3265414336.6302862     
   3253437612.7824292     
   3235688011.3142319     
   3212078883.0425606     
   3182677227.4500012     
   3424487014.1098709     
   3429083690.8790135     
   3425706615.1904078     
   3414345119.4113064     
   3395337541.9707503     
   2925572194.6487713     
   2728814654.1662436     
   2526113809.3806467     
   2317320294.5963602     
   2102365148.0966473     
   2949387775.0413604     
   2740038921.5512519     
   2538914456.6344337     
   2346852821.4290295     
   2165051355.6822519     
   3034015851.3962293     
   2792694829.9614673     
   2570940556.1248894     
   2371196315.0894504     
   2197592734.2158608     
   3182677227.4500012     
   2884382148.7397976     
   2613533041.2211161     
   2375777005.7620883     
   2181833822.9059448     
   3395337541.9707503     
   3011412498.7024426     
   2659531492.0419168     
   2350923151.3846078     
   2109188341.3635659     
   5657549356.3840322     
   5890771969.7472248     
   6116362419.9117098     
   6331893018.6765547     
   6537162977.8986750     
   6491401847.0125866     
   6586718915.6169186     
   6757356524.8894358     
   6961272635.8055515     
   7171822521.6498537     
   7982093829.8032169     
   7734831777.5519915     
   7669090857.7065544     
   7669614042.2568331     
   7666496555.5267639     
   10130074126.910444     
   9321944247.2367134     
   8826378930.8348484     
   8443592877.5175533     
   8035818560.3010883     
   12935431477.823935     
   11340765343.345295     
   10210387059.300310     
   9272986794.1496487     
   8304173091.9086123     
   6537162977.8986750     
   6329042688.5839787     
   6142991549.5908489     
   5965070508.1979275     
   5786269092.1879883     
   7171822521.6498537     
   6911235907.4430294     
   6658501474.0805454     
   6409740191.0792150     
   6161795919.5611010     
   7666496555.5267639     
   7381240628.9346085     
   7101363151.8337536     
   6826934737.2348890     
   6558147150.8596153     
   8035818560.3010883     
   7746707630.4526606     
   7473250827.1173754     
   7213501038.1848211     
   6967462817.3548136     
   8304173091.9086123     
   8020206396.4213257     
   7778288690.5760565     
   7567780469.0783195     
   7383734145.0249395     
   5786269092.1879883     
   5635154051.1424751     
   5488676714.5186663     
   5346756267.9667492     
   5209469473.2786665     
   6161795919.5611010     
   6011768426.9446259     
   5863291007.7264681     
   5716408588.0481806     
   5571187699.0485315     
   6558147150.8596153     
   6407054133.0213661     
   6254407303.6335545     
   6100177939.9172258     
   5944389157.7226124     
   6967462817.3548136     
   6814568804.4106989     
   6657059074.3539171     
   6494660521.5514860     
   6327317951.1161623     
   7383734145.0249395     
   7229325423.7402716     
   7067372203.9141264     
   6897219337.4457712     
   6718708835.1370735     
   5209469473.2786665     
   5071320909.8630714     
   4933198205.8481789     
   4795081665.7711544     
   4657074689.4771147     
   5571187699.0485315     
   5416233990.1151266     
   5262040978.1216345     
   5108630142.3738585     
   4956094543.8305187     
   5944389157.7226124     
   5772354323.3693209     
   5601901783.0061932     
   5433059305.8268042     
   5265921139.8863878     
   6327317951.1161623     
   6137291045.3852854     
   5949728893.6406908     
   5764641039.6595945     
   5582137302.1251030     
   6718708835.1370735     
   6509246061.8004074     
   6303181463.5047054     
   6100491974.5856361     
   5901321669.2108049     
   4657074689.4771147     
   4518778719.1210546     
   4382800873.4984961     
   4249274358.9069114     
   4118376905.6342335     
   4956094543.8305187     
   4811215351.3407488     
   4667431674.2105455     
   4524849827.4127884     
   4383602853.2029476     
   5265921139.8863878     
   5115801174.8160934     
   4965758673.8629789     
   4815865608.2397451     
   4666211429.1611843     
   5582137302.1251030     
   5428472095.4009504     
   5274044787.9068565     
   5118894697.5584173     
   4963078456.1245928     
   5901321669.2108049     
   5746057235.0590992     
   5589346025.4140444     
   5431202839.8556509     
   5271668628.3936872     
   4118376905.6342335     
   3935415933.0712991     
   3758288609.2831268     
   3587644602.9152308     
   3424487014.1098709     
   4383602853.2029476     
   4179581289.7070704     
   3978858886.8095551     
   3781751489.7150979     
   3588742754.6316390     
   4666211429.1611843     
   4450067392.9116030     
   4235684041.5992007     
   4023172732.8321896     
   3812700725.3112011     
   4963078456.1245928     
   4743899417.4316311     
   4525848927.8983364     
   4308987036.8574171     
   4093409949.5831704     
   5271668628.3936872     
   5058463691.6874456     
   4846534226.0560303     
   4636009563.2597675     
   4427111157.9196301     
   3424487014.1098709     
   3429083690.8790135     
   3425706615.1904078     
   3414345119.4113064     
   3395337541.9707503     
   3588742754.6316390     
   3595373835.4179869     
   3601552937.5219226     
   3607692768.2319169     
   3614280688.6910858     
   3812700725.3112011     
   3793072549.4171371     
   3776186973.2544699     
   3763089867.7466259     
   3755473194.9180808     
   4093409949.5831704     
   4017600681.3586321     
   3943905397.4441223     
   3874264915.8063211     
   3812787620.0713506     
   4427111157.9196301     
   4264779217.0793710     
   4100854718.6514134     
   3938009175.1397605     
   3783692650.9731808     
   3395337541.9707503     
   3011412498.7024426     
   2659531492.0419168     
   2350923151.3846078     
   2109188341.3635659     
   3614280688.6910858     
   3187193954.1856279     
   2767114129.4509511     
   2357119897.3169408     
   1963013826.3083422     
   3755473194.9180808     
   3372377305.3768868     
   2978824568.3436060     
   2575130915.3995199     
   2167043549.4659634     
   3812787620.0713506     
   3565054901.5222230     
   3298284421.7669187     
   3020160551.3004990     
   2759429697.4754429     
   3783692650.9731808     
   3763684930.6010604     
   3725889710.8102846     
   3690376901.6773043     
   3709247360.3937359     
 </DataArray>
 <DataArray  type="Float64" Name="strain" NumberOfComponents="3" format="ascii">
  0.20348918325570059        0.0000000000000000       0.12539064832774799     
  0.18665980480898425       -2.7324390895914649E-002   7.4344585065020757E-002
  0.16983042636226789       -4.4675692069437986E-002   3.5132972876249099E-002
  0.15300104791555152       -5.2053903520569975E-002   7.7558117614330638E-003
  0.13617166946883519       -4.9459025249310645E-002  -7.7868982794273844E-003
  0.15985552340430911        0.0000000000000000        9.6435256153113533E-002
  0.15317896392665611       -2.1843298953998318E-002   6.2684693187265023E-002
  0.14650240444900314       -3.6173498631676043E-002   3.7405317085587683E-002
  0.13982584497135014       -4.2990599033033178E-002   2.0597127848081466E-002
  0.13314928549369720       -4.2294600158069733E-002   1.2260125474746440E-002
  0.12645590145533264        0.0000000000000000        7.4190951143430772E-002
  0.12656889673695856       -1.6362207012081992E-002   5.5275898028390280E-002
  0.12668189201858449       -2.7671305193914125E-002   4.1468767567736486E-002
  0.12679488730021041       -3.3927294545496402E-002   3.2769559761469370E-002
  0.12690788258183633       -3.5130175066828834E-002   2.9178274609588960E-002
  0.10329031740877120        0.0000000000000000        5.8657733298699694E-002
  0.10682960323989157       -1.0881115070165662E-002   5.2118199588396488E-002
  0.11036888907101194       -1.9169111756152199E-002   4.7323324322695523E-002
  0.11390817490213236       -2.4863990057959615E-002   4.4273107501596798E-002
  0.11744746073325271       -2.7965749975587914E-002   4.2967549125100271E-002
   9.0358771264624757E-002   0.0000000000000000        4.9835602618920324E-002
   9.3961083435455145E-002  -5.4000231282493307E-003   5.3211597867283668E-002
   9.7563395606285533E-002  -1.0666918318390273E-002   5.4968987350464772E-002
  0.10116570777711591       -1.5800685570422832E-002   5.5107771068463665E-002
  0.10476801994794629       -2.0801324884347008E-002   5.3627949021280361E-002
  0.13617166946883519       -4.9459025249310645E-002  -7.7868982794273844E-003
  0.13295298053378587       -4.2925401977717388E-002  -3.3962499431681101E-003
  0.12973429159873656       -3.8487378427847600E-002  -4.1042646530468213E-004
  0.12651560266368728       -3.6144954599701150E-002   1.1705721541627537E-003
  0.12329691372863796       -3.5898130493278169E-002   1.3467459152343431E-003
  0.13314928549369720       -4.2294600158069733E-002   1.2260125474746440E-002
  0.12891218327231335       -3.8431296074196875E-002   1.2181122156231749E-002
  0.12467508105092953       -3.5746480848825618E-002   1.1470117123443941E-002
  0.12043797882954570       -3.4240154481956157E-002   1.0127110376383043E-002
  0.11620087660816183       -3.3912316973588361E-002   8.1521019150491703E-003
  0.12690788258183633       -3.5130175066828834E-002   2.9178274609588960E-002
  0.12242519021824080       -3.3937190170676312E-002   2.5546730499522073E-002
  0.11794249785464528       -3.3005583269803768E-002   2.2056007819304967E-002
  0.11345980549104971       -3.2335354364211179E-002   1.8706106568937439E-002
  0.10897711312745420       -3.1926503453898580E-002   1.5497026748419573E-002
  0.11744746073325271       -2.7965749975587914E-002   4.2967549125100271E-002
  0.11349200137156827       -2.9443084267155778E-002   3.6700575086702901E-002
  0.10953654200988382       -3.0264685690781862E-002   3.1347245622277982E-002
  0.10558108264819940       -3.0430554246466218E-002   2.6907560731825691E-002
  0.10162562328651492       -2.9940689934208786E-002   2.3381520415345806E-002
  0.10476801994794629       -2.0801324884347008E-002   5.3627949021280361E-002
  0.10211261673229574       -2.4948978363635244E-002   4.5642655917774243E-002
   9.9457213516645201E-002  -2.7523788111759966E-002   3.9343830532363344E-002
   9.6801810300994648E-002  -2.8525754128721253E-002   3.4731472865047811E-002
   9.4146407085344122E-002  -2.7954876414519006E-002   3.1805582915827607E-002
  0.12329691372863796       -3.5898130493278169E-002   1.3467459152343431E-003
  0.12043263758065864       -3.6393501720670240E-002   6.9436213290456628E-004
  0.11756836143267936       -3.6277663893968984E-002   1.7882630869842098E-004
  0.11470408528470002       -3.5550617013174551E-002  -1.9986155738396100E-004
  0.11183980913672076       -3.4212361078286679E-002  -4.4170146534233679E-004
  0.11620087660816183       -3.3912316973588361E-002   8.1521019150491703E-003
  0.11346855391517364       -3.3981411582928445E-002   7.8650141079446428E-003
  0.11073623122218544       -3.3665881569182862E-002   7.7049852526985402E-003
  0.10800390852919722       -3.2965726932351481E-002   7.6720153493109074E-003
  0.10527158583620905       -3.1880947672434212E-002   7.7661043977817479E-003
  0.10897711312745420       -3.1926503453898580E-002   1.5497026748419573E-002
  0.10636695488319177       -3.1569321445186815E-002   1.5348650485532942E-002
  0.10375679663892927       -3.1054099244396706E-002   1.5317544168239362E-002
  0.10114663839466682       -3.0380836851528273E-002   1.5403707796538949E-002
   9.8536480150404393E-002  -2.9549534266581662E-002   1.5607141370431579E-002
  0.10162562328651492       -2.9940689934208786E-002   2.3381520415345806E-002
   9.9127840484712904E-002  -2.9157231307445075E-002   2.3145271265669409E-002
   9.6630057682910928E-002  -2.8442316919610553E-002   2.3016503055320804E-002
   9.4132274881108924E-002  -2.7795946770705245E-002   2.2995215784299985E-002
   9.1634492079306934E-002  -2.7218120860729098E-002   2.3081409452607064E-002
   9.4146407085344122E-002  -2.7954876414519006E-002   3.1805582915827607E-002
   9.1751210719737228E-002  -2.6745141169703390E-002   3.1254876448354049E-002
   8.9356014354130348E-002  -2.5830534594824452E-002   3.0801861913943053E-002
   8.6960817988523481E-002  -2.5211056689882112E-002   3.0446539312594393E-002
   8.4565621622916615E-002  -2.4886707454876561E-002   3.0188908644308371E-002
  0.11183980913672076       -3.4212361078286679E-002  -4.4170146534233679E-004
  0.10845433650887787       -3.2691248903739756E-002  -4.0338423503161192E-004
  0.10506886388103504       -3.1415633303967558E-002  -7.0260137127853284E-005
  0.10168339125319217       -3.0385514278970096E-002   5.5767082836812032E-004
   9.8297918625349312E-002  -2.9600891828747700E-002   1.4804086614569334E-003
  0.10527158583620905       -3.1880947672434212E-002   7.7661043977817479E-003
  0.10217265650233559       -3.0672850721331330E-002   7.4375327614320252E-003
   9.9073727168462217E-002  -2.9602743010942803E-002   7.3872408454283278E-003
   9.5974797834588774E-002  -2.8670624541268997E-002   7.6152286497713148E-003
   9.2875868500715442E-002  -2.7876495312309346E-002   8.1214961744602854E-003
   9.8536480150404393E-002  -2.9549534266581662E-002   1.5607141370431579E-002
   9.5707566963254082E-002  -2.8654452538922792E-002   1.5019188201481390E-002
   9.2878653776103812E-002  -2.7789852717918166E-002   1.4692987605631418E-002
   9.0049740588953542E-002  -2.6955734803567680E-002   1.4628539582881132E-002
   8.7220827401803258E-002  -2.6152098795871215E-002   1.4825844133230792E-002
   9.1634492079306934E-002  -2.7218120860729098E-002   2.3081409452607064E-002
   8.9059067891633426E-002  -2.6636054356514421E-002   2.2341582085117020E-002
   8.6483643703959973E-002  -2.5976962424893526E-002   2.1846980143480556E-002
   8.3908219516286492E-002  -2.5240845065866373E-002   2.1597603627697734E-002
   8.1332795328613011E-002  -2.4427702279432972E-002   2.1593452537768468E-002
   8.4565621622916615E-002  -2.4886707454876561E-002   3.0188908644308371E-002
   8.2227159287473581E-002  -2.4617656174105995E-002   2.9404714412338634E-002
   7.9888696952030519E-002  -2.4164072131868837E-002   2.8849218458976200E-002
   7.7550234616587471E-002  -2.3525955328165080E-002   2.8522420784221160E-002
   7.5211772281144479E-002  -2.2703305762994730E-002   2.8424321388073298E-002
   9.8297918625349312E-002  -2.9600891828747700E-002   1.4804086614569334E-003
   9.5709757750426894E-002  -2.8883310259020190E-002   1.9698875986666198E-003
   9.3121596875504364E-002  -2.8054313875507553E-002   2.4354603856388268E-003
   9.0533436000581863E-002  -2.7113902678210081E-002   2.8771270223737488E-003
   8.7945275125659417E-002  -2.6062076667127676E-002   3.2948875088716356E-003
   9.2875868500715442E-002  -2.7876495312309346E-002   8.1214961744602854E-003
   9.0287822498199916E-002  -2.7117578082396732E-002   8.4914951882388567E-003
   8.7699776495684362E-002  -2.6291095609862855E-002   8.8856300970687196E-003
   8.5111730493168863E-002  -2.5397047894708171E-002   9.3039009009499712E-003
   8.2523684490653282E-002  -2.4435434936932232E-002   9.7463075998824311E-003
   8.7220827401803258E-002  -2.6152098795871215E-002   1.4825844133230792E-002
   8.4680938316983284E-002  -2.5351845905773301E-002   1.5032513652414717E-002
   8.2141049232163241E-002  -2.4527877344218324E-002   1.5311361111938190E-002
   7.9601160147343197E-002  -2.3680193111206040E-002   1.5662386511801366E-002
   7.7061271062523223E-002  -2.2808793206736844E-002   1.6085589852004478E-002
   8.1332795328613011E-002  -2.4427702279432972E-002   2.1593452537768468E-002
   7.8889105206776944E-002  -2.3586113729149802E-002   2.1592942991193551E-002
   7.6445415084940946E-002  -2.2764659078573488E-002   2.1712653430246892E-002
   7.4001724963104892E-002  -2.1963338327703908E-002   2.1952583854928261E-002
   7.1558034841268880E-002  -2.1182151476541206E-002   2.2312734265238277E-002
   7.5211772281144479E-002  -2.2703305762994730E-002   2.8424321388073298E-002
   7.2912323167580978E-002  -2.1820381552526413E-002   2.8172783204575780E-002
   7.0612874054017491E-002  -2.1001440812928804E-002   2.8089507051994894E-002
   6.8313424940453976E-002  -2.0246483544201801E-002   2.8174492930330836E-002
   6.6013975826890531E-002  -1.9555509746345734E-002   2.8427740839583437E-002
   8.7945275125659417E-002  -2.6062076667127676E-002   3.2948875088716356E-003
   8.4373404775340721E-002  -2.5012025669451099E-002   2.8398407873149178E-003
   8.0801534425021970E-002  -2.4076939512371220E-002   2.2261689728365619E-003
   7.7229664074703275E-002  -2.3256818195888151E-002   1.4538720654356518E-003
   7.3657793724384524E-002  -2.2551661720001781E-002   5.2295006511271502E-004
   8.2523684490653282E-002  -2.4435434936932232E-002   9.7463075998824311E-003
   7.8862062386153370E-002  -2.3487449188035248E-002   9.2144191734551129E-003
   7.5200440281653402E-002  -2.2634283099516483E-002   8.6616523315872773E-003
   7.1538818177153435E-002  -2.1875936671376425E-002   8.0880070742795490E-003
   6.7877196072653523E-002  -2.1212409903614837E-002   7.4934834015312202E-003
   7.7061271062523223E-002  -2.2808793206736844E-002   1.6085589852004478E-002
   7.3447643881323771E-002  -2.1962872706619035E-002   1.5497004900924538E-002
   6.9834016700124402E-002  -2.1191626686661524E-002   1.5025288211886034E-002
   6.6220389518924991E-002  -2.0495055146864588E-002   1.4670439784889050E-002
   6.2606762337725608E-002  -1.9873158087227727E-002   1.4432459619933641E-002
   7.1558034841268880E-002  -2.1182151476541206E-002   2.2312734265238277E-002
   6.8130149260851841E-002  -2.0438296225202948E-002   2.1687597969723901E-002
   6.4702263680434843E-002  -1.9748970273806621E-002   2.1317076613732888E-002
   6.1274378100017839E-002  -1.9114173622352695E-002   2.1201170197264980E-002
   5.7846492519600813E-002  -1.8533906270840644E-002   2.1339878720320622E-002
   6.6013975826890531E-002  -1.9555509746345734E-002   2.8427740839583437E-002
   6.2909578524737636E-002  -1.8913719743786805E-002   2.7786198379852828E-002
   5.9805181222584783E-002  -1.8306313860951801E-002   2.7537017537127229E-002
   5.6700783920431937E-002  -1.7733292097840796E-002   2.7680198311406876E-002
   5.3596386618279090E-002  -1.7194654454453562E-002   2.8215740702691672E-002
   7.3657793724384524E-002  -2.2551661720001781E-002   5.2295006511271502E-004
   7.0917600316351859E-002  -2.1816476417342634E-002  -1.2383551801220527E-004
   6.8177406908319249E-002  -2.0906268620541762E-002   1.0693854220921728E-003
   6.5437213500286612E-002  -1.9821038329598438E-002   4.1026128854280142E-003
   6.2697020092253974E-002  -1.8560785544513347E-002   8.9758468719935980E-003
   6.7877196072653523E-002  -2.1212409903614837E-002   7.4934834015312202E-003
   6.6686415326591975E-002  -2.0511747010555637E-002   7.2383250765075680E-003
   6.5495634580530565E-002  -1.9641992206523073E-002   8.2419855521959073E-003
   6.4304853834469086E-002  -1.8603145491517009E-002   1.0504464828596030E-002
   6.3114073088407552E-002  -1.7395206865538082E-002   1.4025762905708450E-002
   6.2606762337725608E-002  -1.9873158087227727E-002   1.4432459619933641E-002
   6.2384206531116870E-002  -1.9207017603768695E-002   1.4562997969843200E-002
   6.2161650724508175E-002  -1.8377715792504731E-002   1.5371167397946112E-002
   6.1939094917899416E-002  -1.7385252653435917E-002   1.6856967904242841E-002
   6.1716539111290741E-002  -1.6229628186562373E-002   1.9020399488732687E-002
   5.7846492519600813E-002  -1.8533906270840644E-002   2.1339878720320622E-002
   5.8010973929926546E-002  -1.7902288196981725E-002   2.1850183161994510E-002
   5.8175455340252188E-002  -1.7113439378486327E-002   2.2456930959343532E-002
   5.8339936750577907E-002  -1.6167359815354769E-002   2.3160122112367641E-002
   5.8504418160903564E-002  -1.5064049507586663E-002   2.3959756621067599E-002
   5.3596386618279090E-002  -1.7194654454453562E-002   2.8215740702691672E-002
   5.3566717523020835E-002  -1.6597558790194783E-002   2.9099880652961485E-002
   5.3537048427762524E-002  -1.5849162964467825E-002   2.9499276236388178E-002
   5.3507379332504296E-002  -1.4949466977273399E-002   2.9413927452971875E-002
   5.3477710237245957E-002  -1.3898470828611120E-002   2.8843834302712146E-002
   6.2697020092253974E-002  -1.8560785544513347E-002   8.9758468719935980E-003
   6.2487494646116692E-002  -1.7388919889747445E-002   1.1175264924213391E-002
   6.2277969199979466E-002  -1.6568850989762407E-002   8.4901173346729752E-003
   6.2068443753842323E-002  -1.6100578844557248E-002   9.2040410337196343E-004
   6.1858918307704958E-002  -1.5984103454132370E-002  -1.1533874769689145E-002
   6.3114073088407552E-002  -1.7395206865538082E-002   1.4025762905708450E-002
   5.8857264961219680E-002  -1.6255211401546121E-002   1.4919489450502810E-002
   5.4600456834031835E-002  -1.5420194172503177E-002   1.2603216274955975E-002
   5.0343648706843949E-002  -1.4890155178408970E-002   7.0769433790686953E-003
   4.6086840579656063E-002  -1.4665094419263891E-002  -1.6593292371600565E-003
   6.1716539111290741E-002  -1.6229628186562373E-002   1.9020399488732687E-002
   5.5087014224471653E-002  -1.5121502913344687E-002   1.8655253045933712E-002
   4.8457489337652496E-002  -1.4271537355244585E-002   1.6754672804212584E-002
   4.1827964450833359E-002  -1.3679731512261352E-002   1.3318658763570176E-002
   3.5198439564014250E-002  -1.3346085384395190E-002   8.3472109240059211E-003
   5.8504418160903564E-002  -1.5064049507586663E-002   2.3959756621067599E-002
   5.1176742435872426E-002  -1.3987794425143640E-002   2.2382555710506055E-002
   4.3849066710841364E-002  -1.3122880537985673E-002   2.0944486922442593E-002
   3.6521390985810406E-002  -1.2469307846113404E-002   1.9645550256876681E-002
   2.9193715260779213E-002  -1.2027076349526711E-002   1.8485745713808122E-002
   5.3477710237245957E-002  -1.3898470828611120E-002   2.8843834302712146E-002
   4.7126449595422393E-002  -1.2854085936942206E-002   2.6101397444220187E-002
   4.0775188953598690E-002  -1.1974223720726998E-002   2.5172658629645600E-002
   3.4423928311775001E-002  -1.1258884179965515E-002   2.6057617858988233E-002
   2.8072667669951423E-002  -1.0708067314658232E-002   2.8756275132247433E-002
   9.0358771264624757E-002   0.0000000000000000        4.9835602618920324E-002
   9.3961083435455145E-002  -5.4000231282493307E-003   5.3211597867283668E-002
   9.7563395606285533E-002  -1.0666918318390273E-002   5.4968987350464772E-002
  0.10116570777711591       -1.5800685570422832E-002   5.5107771068463665E-002
  0.10476801994794629       -2.0801324884347008E-002   5.3627949021280361E-002
   8.2422457241399655E-002   0.0000000000000000        4.4789140568646732E-002
   8.4635071171412168E-002  -4.5721043868323956E-003   4.8271266266267543E-002
   8.6847685101424682E-002  -9.0357435408422518E-003   5.0592601247434824E-002
   8.9060299031437196E-002  -1.3390917462029570E-002   5.1753145512148574E-002
   9.1272912961449709E-002  -1.7637626150394332E-002   5.1752899060408822E-002
   7.4242569557602209E-002   0.0000000000000000        4.0582928612432997E-002
   7.5523300295525550E-002  -3.7441856454154634E-003   4.4146522054025417E-002
   7.6804031033448891E-002  -7.4045687632942284E-003   4.7007139827893021E-002
   7.8084761771372233E-002  -1.0981149353636302E-002   4.9164781934035819E-002
   7.9365492509295574E-002  -1.4473927416441677E-002   5.0619448372453781E-002
   6.5819108213232405E-002   0.0000000000000000        3.7216966750279114E-002
   6.6625770807795276E-002  -2.9162669039985286E-003   4.0837365230557317E-002
   6.7432433402358147E-002  -5.7733939857462059E-003   4.4212603091839379E-002
   6.8239095996921045E-002  -8.5713812452430354E-003   4.7342680334125364E-002
   6.9045758591483902E-002  -1.1310228682489010E-002   5.0227596957415209E-002
   5.7152073208290244E-002   0.0000000000000000        3.4691254982185088E-002
   5.7942482708221360E-002  -2.0883481625815960E-003   3.8343795795863209E-002
   5.8732892208152469E-002  -4.1422192081981852E-003   4.2208991039273926E-002
   5.9523301708083579E-002  -6.1616131368497726E-003   4.6286840712417225E-002
   6.0313711208014695E-002  -8.1465299485363497E-003   5.0577344815293107E-002
  0.10476801994794629       -2.0801324884347008E-002   5.3627949021280361E-002
  0.10211261673229574       -2.4948978363635244E-002   4.5642655917774243E-002
   9.9457213516645201E-002  -2.7523788111759966E-002   3.9343830532363344E-002
   9.6801810300994648E-002  -2.8525754128721253E-002   3.4731472865047811E-002
   9.4146407085344122E-002  -2.7954876414519006E-002   3.1805582915827607E-002
   9.1272912961449709E-002  -1.7637626150394332E-002   5.1752899060408822E-002
   9.0066919860022424E-002  -2.1216816524415087E-002   4.6517942450887570E-002
   8.8860926758595152E-002  -2.3569435502570339E-002   4.2495338351717586E-002
   8.7654933657167852E-002  -2.4695483084860095E-002   3.9685086762898808E-002
   8.6448940555740594E-002  -2.4594959271284328E-002   3.8087187684431270E-002
   7.9365492509295574E-002  -1.4473927416441677E-002   5.0619448372453781E-002
   7.9134794314347501E-002  -1.7484654685194945E-002   4.7788555921619486E-002
   7.8904096119399386E-002  -1.9615082893380684E-002   4.5695900773392292E-002
   7.8673397924451272E-002  -2.0865212040998924E-002   4.4341482927772319E-002
   7.8442699729503199E-002  -2.1235042128049643E-002   4.3725302384759426E-002
   6.9045758591483902E-002  -1.1310228682489010E-002   5.0227596957415209E-002
   6.9316240095270903E-002  -1.3752492845974788E-002   4.9454496329969837E-002
   6.9586721599057919E-002  -1.5660730284191043E-002   4.8945517797387553E-002
   6.9857203102844961E-002  -1.7034940997137763E-002   4.8700661359668329E-002
   7.0127684606631949E-002  -1.7875124984814961E-002   4.8719927016812166E-002
   6.0313711208014695E-002  -8.1465299485363497E-003   5.0577344815293107E-002
   6.0611257202792729E-002  -1.0020331006754639E-002   5.1515763675938700E-002
   6.0908803197570770E-002  -1.1706377675001389E-002   5.2244189423703284E-002
   6.1206349192348811E-002  -1.3204669953276600E-002   5.2762622058586901E-002
   6.1503895187126845E-002  -1.4515207841580273E-002   5.3071061580589475E-002
   9.4146407085344122E-002  -2.7954876414519006E-002   3.1805582915827607E-002
   9.1751210719737228E-002  -2.6745141169703390E-002   3.1254876448354049E-002
   8.9356014354130348E-002  -2.5830534594824452E-002   3.0801861913943053E-002
   8.6960817988523481E-002  -2.5211056689882112E-002   3.0446539312594393E-002
   8.4565621622916615E-002  -2.4886707454876561E-002   3.0188908644308371E-002
   8.6448940555740594E-002  -2.4594959271284328E-002   3.8087187684431270E-002
   8.4194815671867179E-002  -2.3941801141514008E-002   3.7062870752288340E-002
   8.1940690787993820E-002  -2.3409945775220004E-002   3.6223004850550036E-002
   7.9686565904120446E-002  -2.2999393172402353E-002   3.5567589979216226E-002
   7.7432441020247059E-002  -2.2710143333061039E-002   3.5096626138286915E-002
   7.8442699729503199E-002  -2.1235042128049643E-002   4.3725302384759426E-002
   7.6416405424705361E-002  -2.1138461113324597E-002   4.2401200894407617E-002
   7.4390111119907495E-002  -2.0989356955615587E-002   4.1348309531802296E-002
   7.2363816815109658E-002  -2.0787729654922541E-002   4.0566628296943588E-002
   7.0337522510311792E-002  -2.0533579211245531E-002   4.0056157189831458E-002
   7.0127684606631949E-002  -1.7875124984814961E-002   4.8719927016812166E-002
   6.8415979978251704E-002  -1.8335121085135207E-002   4.7269866874711679E-002
   6.6704275349871472E-002  -1.8568768136011153E-002   4.6177775957699764E-002
   6.4992570721491214E-002  -1.8576066137442747E-002   4.5443654265776547E-002
   6.3280866093110982E-002  -1.8357015089430016E-002   4.5067501798941895E-002
   6.1503895187126845E-002  -1.4515207841580273E-002   5.3071061580589475E-002
   6.0193539332506263E-002  -1.5531781056945811E-002   5.1668868693200587E-002
   5.8883183477885660E-002  -1.6148179316406726E-002   5.0711404128242404E-002
   5.7572827623265058E-002  -1.6364402619962932E-002   5.0198667885714927E-002
   5.6262471768644490E-002  -1.6180450967614515E-002   5.0130659965618177E-002
   8.4565621622916615E-002  -2.4886707454876561E-002   3.0188908644308371E-002
   8.2227159287473581E-002  -2.4617656174105995E-002   2.9404714412338634E-002
   7.9888696952030519E-002  -2.4164072131868837E-002   2.8849218458976200E-002
   7.7550234616587471E-002  -2.3525955328165080E-002   2.8522420784221160E-002
   7.5211772281144479E-002  -2.2703305762994730E-002   2.8424321388073298E-002
   7.7432441020247059E-002  -2.2710143333061039E-002   3.5096626138286915E-002
   7.5315740007021570E-002  -2.2415592375102503E-002   3.4501975923750580E-002
   7.3199038993796067E-002  -2.1989136416433290E-002   3.4122150075042018E-002
   7.1082337980570565E-002  -2.1430775457053304E-002   3.3957148592161215E-002
   6.8965636967345090E-002  -2.0740509496962573E-002   3.4006971475108311E-002
   7.0337522510311792E-002  -2.0533579211245531E-002   4.0056157189831458E-002
   6.8428708906524388E-002  -2.0213528576099066E-002   3.9598423231972525E-002
   6.6519895302736970E-002  -1.9814200700997740E-002   3.9341639727161842E-002
   6.4611081698949566E-002  -1.9335595585941522E-002   3.9285806675399576E-002
   6.2702268095162161E-002  -1.8777713230930387E-002   3.9430924076685581E-002
   6.3280866093110982E-002  -1.8357015089430016E-002   4.5067501798941895E-002
   6.1566065985982146E-002  -1.8011464777095629E-002   4.4694056337004455E-002
   5.9851265878853331E-002  -1.7639264985562189E-002   4.4507687415335929E-002
   5.8136465771724488E-002  -1.7240415714829701E-002   4.4508395033936311E-002
   5.6421665664595694E-002  -1.6814916964898161E-002   4.4696179192805524E-002
   5.6262471768644490E-002  -1.6180450967614515E-002   5.0130659965618177E-002
   5.4727811245394775E-002  -1.5809400978092122E-002   4.9788875238846481E-002
   5.3193150722145074E-002  -1.5464329270126660E-002   4.9620293139564224E-002
   5.1658490198895381E-002  -1.5145235843717911E-002   4.9624913667771289E-002
   5.0123829675645687E-002  -1.4852120698866045E-002   4.9802736823467836E-002
   7.5211772281144479E-002  -2.2703305762994730E-002   2.8424321388073298E-002
   7.2912323167580978E-002  -2.1820381552526413E-002   2.8172783204575780E-002
   7.0612874054017491E-002  -2.1001440812928804E-002   2.8089507051994894E-002
   6.8313424940453976E-002  -2.0246483544201801E-002   2.8174492930330836E-002
   6.6013975826890531E-002  -1.9555509746345734E-002   2.8427740839583437E-002
   6.8965636967345090E-002  -2.0740509496962573E-002   3.4006971475108311E-002
   6.6842754170488516E-002  -1.9999760095388883E-002   3.3699043224709443E-002
   6.4719871373631915E-002  -1.9289948811560112E-002   3.3575985576807632E-002
   6.2596988576775370E-002  -1.8611075645476097E-002   3.3637798531402967E-002
   6.0474105779918769E-002  -1.7963140597137078E-002   3.3884482088495177E-002
   6.2702268095162161E-002  -1.8777713230930387E-002   3.9430924076685581E-002
   6.0772560186592738E-002  -1.8179138638251324E-002   3.9099651112511444E-002
   5.8842852278023383E-002  -1.7578456810191344E-002   3.8969857322414599E-002
   5.6913144369454008E-002  -1.6975667746750314E-002   3.9041542706395121E-002
   5.4983436460884612E-002  -1.6370771447928395E-002   3.9314707264452783E-002
   5.6421665664595694E-002  -1.6814916964898161E-002   4.4696179192805524E-002
   5.4701741215893725E-002  -1.6358517181113807E-002   4.4374606867981822E-002
   5.2981816767191811E-002  -1.5866964808822586E-002   4.4271122288815648E-002
   5.1261892318489870E-002  -1.5340259848024569E-002   4.4385725455307105E-002
   4.9541967869787901E-002  -1.4778402298719753E-002   4.4718416367456056E-002
   5.0123829675645687E-002  -1.4852120698866045E-002   4.9802736823467836E-002
   4.8630297258391464E-002  -1.4537895723976235E-002   4.9523910491120343E-002
   4.7136764841137241E-002  -1.4155472807453884E-002   4.9479780476010815E-002
   4.5643232423883011E-002  -1.3704851949298769E-002   4.9670346778139043E-002
   4.4149700006628795E-002  -1.3186033149511112E-002   5.0095609397505292E-002
   6.6013975826890531E-002  -1.9555509746345734E-002   2.8427740839583437E-002
   6.2909578524737636E-002  -1.8913719743786805E-002   2.7786198379852828E-002
   5.9805181222584783E-002  -1.8306313860951801E-002   2.7537017537127229E-002
   5.6700783920431937E-002  -1.7733292097840796E-002   2.7680198311406876E-002
   5.3596386618279090E-002  -1.7194654454453562E-002   2.8215740702691672E-002
   6.0474105779918769E-002  -1.7963140597137078E-002   3.3884482088495177E-002
   5.7728493499377448E-002  -1.7348105817197854E-002   3.3223940491919110E-002
   5.4982881218836099E-002  -1.6767933456313590E-002   3.2888607321561014E-002
   5.2237268938294779E-002  -1.6222623514484356E-002   3.2878482577420723E-002
   4.9491656657753430E-002  -1.5712175991709931E-002   3.3193566259498569E-002
   5.4983436460884612E-002  -1.6370771447928395E-002   3.9314707264452783E-002
   5.2529456011167590E-002  -1.5782491890608957E-002   3.8634688231700208E-002
   5.0075475561450589E-002  -1.5229553051675435E-002   3.8212724434378495E-002
   4.7621495111733622E-002  -1.4711954931127754E-002   3.8048815872487485E-002
   4.5167514662016559E-002  -1.4229697528966079E-002   3.8142962546027379E-002
   4.9541967869787901E-002  -1.4778402298719753E-002   4.4718416367456056E-002
   4.7312466060108152E-002  -1.4216877964020089E-002   4.4018441599196136E-002
   4.5082964250428299E-002  -1.3691172647037196E-002   4.3509368875579754E-002
   4.2853462440748495E-002  -1.3201286347771358E-002   4.3191198196606995E-002
   4.0623960631068698E-002  -1.2747219066222198E-002   4.3063929562277642E-002
   4.4149700006628795E-002  -1.3186033149511112E-002   5.0095609397505292E-002
   4.2077523646199017E-002  -1.2651264037431081E-002   4.9375200594406643E-002
   4.0005347285769224E-002  -1.2152792242399055E-002   4.8778540645164653E-002
   3.7933170925339439E-002  -1.1690617764414820E-002   4.8305629549779114E-002
   3.5860994564909654E-002  -1.1264740603478540E-002   4.7956467308249928E-002
   5.3596386618279090E-002  -1.7194654454453562E-002   2.8215740702691672E-002
   5.3566717523020835E-002  -1.6597558790194783E-002   2.9099880652961485E-002
   5.3537048427762524E-002  -1.5849162964467825E-002   2.9499276236388178E-002
   5.3507379332504296E-002  -1.4949466977273399E-002   2.9413927452971875E-002
   5.3477710237245957E-002  -1.3898470828611120E-002   2.8843834302712146E-002
   4.9491656657753430E-002  -1.5712175991709931E-002   3.3193566259498569E-002
   4.9076264608728923E-002  -1.5153625638922391E-002   3.4098499707908597E-002
   4.8660872559704471E-002  -1.4464007207053667E-002   3.4716731615629701E-002
   4.8245480510679992E-002  -1.3643320696103804E-002   3.5048261982661345E-002
   4.7830088461655540E-002  -1.2691566106072749E-002   3.5093090809003691E-002
   4.5167514662016559E-002  -1.4229697528966079E-002   3.8142962546027379E-002
   4.4564442485379843E-002  -1.3709692487650041E-002   3.9048457410191043E-002
   4.3961370308743156E-002  -1.3078851449639335E-002   3.9865293559819791E-002
   4.3358298132106503E-002  -1.2337174414934095E-002   4.0593470994913089E-002
   4.2755225955469753E-002  -1.1484661383534295E-002   4.1232989715471305E-002
   4.0623960631068698E-002  -1.2747219066222198E-002   4.3063929562277642E-002
   4.0031251152973638E-002  -1.2265759336377698E-002   4.3949753759808849E-002
   3.9438541674878626E-002  -1.1693695692225146E-002   4.4944962068958552E-002
   3.8845832196783586E-002  -1.1031028133764637E-002   4.6049554489726766E-002
   3.8253122718688568E-002  -1.0277756660995660E-002   4.7263531022113933E-002
   3.5860994564909654E-002  -1.1264740603478540E-002   4.7956467308249928E-002
   3.5476690611510264E-002  -1.0821826185105327E-002   4.8802388756761739E-002
   3.5092386658110847E-002  -1.0308539934810818E-002   4.9955737143046020E-002
   3.4708082704711443E-002  -9.7248818525947564E-003   5.1416512467102965E-002
   3.4323778751312067E-002  -9.0708519384574138E-003   5.3184714728932325E-002
   5.3477710237245957E-002  -1.3898470828611120E-002   2.8843834302712146E-002
   4.7126449595422393E-002  -1.2854085936942206E-002   2.6101397444220187E-002
   4.0775188953598690E-002  -1.1974223720726998E-002   2.5172658629645600E-002
   3.4423928311775001E-002  -1.1258884179965515E-002   2.6057617858988233E-002
   2.8072667669951423E-002  -1.0708067314658232E-002   2.8756275132247433E-002
   4.7830088461655540E-002  -1.2691566106072749E-002   3.5093090809003691E-002
   4.3031048726862531E-002  -1.1746273400028290E-002   3.2507678821775909E-002
   3.8232008992069563E-002  -1.0944972541038780E-002   3.1213010604692254E-002
   3.3432969257276589E-002  -1.0287663529103767E-002   3.1209086157753141E-002
   2.8633929522483614E-002  -9.7743463642234740E-003   3.2495905480957821E-002
   4.2755225955469753E-002  -1.1484661383534295E-002   4.1232989715471305E-002
   3.8985452853934607E-002  -1.0638460863114846E-002   3.8825133427906486E-002
   3.5215679752399510E-002  -9.9157213613506670E-003   3.7185066636713386E-002
   3.1445906650864330E-002  -9.3164428782418780E-003   3.6312789341891416E-002
   2.7676133549329324E-002  -8.8406254137884943E-003   3.6208301543441457E-002
   3.8253122718688568E-002  -1.0277756660995660E-002   4.7263531022113933E-002
   3.4989661976638442E-002  -9.5306483262012215E-003   4.5053761262611902E-002
   3.1726201234588469E-002  -8.8864701816625015E-003   4.3088826725708435E-002
   2.8462740492538358E-002  -8.3452222273798921E-003   4.1368727411403634E-002
   2.5199279750488315E-002  -7.9069044633536256E-003   3.9893463319697162E-002
   3.4323778751312067E-002  -9.0708519384574138E-003   5.3184714728932325E-002
   3.1043676094974215E-002  -8.4228357892875416E-003   5.1193562325892006E-002
   2.7763573438636308E-002  -7.8572190019744054E-003   4.8924290871677573E-002
   2.4483470782298469E-002  -7.3740015765181473E-003   4.6376900366289067E-002
   2.1203368125960631E-002  -6.9731835129187569E-003   4.3551390809726032E-002
   5.7152073208290244E-002   0.0000000000000000        3.4691254982185088E-002
   5.7942482708221360E-002  -2.0883481625815960E-003   3.8343795795863209E-002
   5.8732892208152469E-002  -4.1422192081981852E-003   4.2208991039273926E-002
   5.9523301708083579E-002  -6.1616131368497726E-003   4.6286840712417225E-002
   6.0313711208014695E-002  -8.1465299485363497E-003   5.0577344815293107E-002
   4.8652992427844578E-002   0.0000000000000000        3.2785417126634783E-002
   4.9591046894100724E-002  -1.7119851118780486E-003   3.6963773023111643E-002
   5.0529101360356869E-002  -3.4357624674391848E-003   4.1224764422505986E-002
   5.1467155826613015E-002  -5.1713320666834095E-003   4.5568391324817784E-002
   5.2405210292869167E-002  -6.9186939096107106E-003   4.9994653730047085E-002
   4.0733393756964248E-002   0.0000000000000000        3.1279077002112077E-002
   4.1689074262730309E-002  -1.3356220611745019E-003   3.5936978620739579E-002
   4.2644754768496378E-002  -2.7293057266801835E-003   4.0547496815469458E-002
   4.3600435274262439E-002  -4.1810509965170420E-003   4.5110631586301686E-002
   4.4556115780028521E-002  -5.6908578706850749E-003   4.9626382933236304E-002
   3.3393277195649239E-002   0.0000000000000000        3.0172234608616951E-002
   3.4236564814110124E-002  -9.5925901047095577E-004   3.5263412588747017E-002
   3.5079852432571001E-002  -2.0228489859211783E-003   4.0177188218164336E-002
   3.5923140051031886E-002  -3.1907699263506732E-003   4.4913561496868905E-002
   3.6766427669492757E-002  -4.4630218317594341E-003   4.9472532424860716E-002
   2.6632642743899572E-002   0.0000000000000000        2.9464889946149431E-002
   2.7233518548240153E-002  -5.8289595976740872E-004   3.4943074927133957E-002
   2.7834394352580734E-002  -1.3163922451621800E-003   4.0113838630590613E-002
   2.8435270156921318E-002  -2.2004888561843114E-003   4.4977181056519440E-002
   2.9036145961261903E-002  -3.2351857928338019E-003   4.9533102204920396E-002
   6.0313711208014695E-002  -8.1465299485363497E-003   5.0577344815293107E-002
   6.0611257202792729E-002  -1.0020331006754639E-002   5.1515763675938700E-002
   6.0908803197570770E-002  -1.1706377675001389E-002   5.2244189423703284E-002
   6.1206349192348811E-002  -1.3204669953276600E-002   5.2762622058586901E-002
   6.1503895187126845E-002  -1.4515207841580273E-002   5.3071061580589475E-002
   5.2405210292869167E-002  -6.9186939096107106E-003   4.9994653730047085E-002
   5.2531294310504205E-002  -8.5796334719924587E-003   5.1217205726108495E-002
   5.2657378328139264E-002  -1.0055936229600042E-002   5.2306826880764899E-002
   5.2783462345774315E-002  -1.1347602182433395E-002   5.3263517194016376E-002
   5.2909546363409360E-002  -1.2454631330492599E-002   5.4087276665862875E-002
   4.4556115780028521E-002  -5.6908578706850749E-003   4.9626382933236304E-002
   4.4587800091996636E-002  -7.1389359372302751E-003   5.1129950479516115E-002
   4.4619484403964758E-002  -8.4054947841986551E-003   5.2577649455867043E-002
   4.4651168715932887E-002  -9.4905344115901961E-003   5.3969479862289053E-002
   4.4682853027901009E-002  -1.0394054819404915E-002   5.5305441698782147E-002
   3.6766427669492757E-002  -4.4630218317594341E-003   4.9472532424860716E-002
   3.6780774547270016E-002  -5.6982384024680949E-003   5.1253997936161630E-002
   3.6795121425047261E-002  -6.7550533387972884E-003   5.3056657149009645E-002
   3.6809468302824506E-002  -7.6334666407470069E-003   5.4880510063404872E-002
   3.6823815180601752E-002  -8.3334783083172225E-003   5.6725556679347228E-002
   2.9036145961261903E-002  -3.2351857928338019E-003   4.9533102204920396E-002
   2.9110217676324324E-002  -4.2575408677059069E-003   5.1589348096044998E-002
   2.9184289391386752E-002  -5.1046118933959148E-003   5.3743849960192804E-002
   2.9258361106449176E-002  -5.7763988699037847E-003   5.5996607797363845E-002
   2.9332432821511607E-002  -6.2729017972295575E-003   5.8347621607558089E-002
   6.1503895187126845E-002  -1.4515207841580273E-002   5.3071061580589475E-002
   6.0193539332506263E-002  -1.5531781056945811E-002   5.1668868693200587E-002
   5.8883183477885660E-002  -1.6148179316406726E-002   5.0711404128242404E-002
   5.7572827623265058E-002  -1.6364402619962932E-002   5.0198667885714927E-002
   5.6262471768644490E-002  -1.6180450967614515E-002   5.0130659965618177E-002
   5.2909546363409360E-002  -1.2454631330492599E-002   5.4087276665862875E-002
   5.1992828011930628E-002  -1.3312453830567953E-002   5.3358624170943350E-002
   5.1076109660451882E-002  -1.3856499839449914E-002   5.2972518359876916E-002
   5.0159391308973157E-002  -1.4086769357138448E-002   5.2928959232663435E-002
   4.9242672957494411E-002  -1.4003262383633530E-002   5.3227946789302885E-002
   4.4682853027901009E-002  -1.0394054819404915E-002   5.5305441698782147E-002
   4.4057590540986458E-002  -1.1093126604190113E-002   5.5163931131620776E-002
   4.3432328054071899E-002  -1.1564820362493112E-002   5.5262785609734633E-002
   4.2807065567157333E-002  -1.1809136094313938E-002   5.5602005133123966E-002
   4.2181803080242795E-002  -1.1826073799652594E-002   5.6181589701788631E-002
   3.6823815180601752E-002  -8.3334783083172225E-003   5.6725556679347228E-002
   3.6387826919673724E-002  -8.8737993778122571E-003   5.7084789575232608E-002
   3.5951838658745711E-002  -9.2731408855363188E-003   5.7582205877815734E-002
   3.5515850397817683E-002  -9.5315028314894822E-003   5.8217805587096536E-002
   3.5079862136889677E-002  -9.6488852156716050E-003   5.8991588703075075E-002
   2.9332432821511607E-002  -6.2729017972295575E-003   5.8347621607558089E-002
   2.8983537147992455E-002  -6.6544721514344048E-003   5.9121199501779076E-002
   2.8634641474473303E-002  -6.9814614085794875E-003   5.9930779164120145E-002
   2.8285745800954151E-002  -7.2538695686649559E-003   6.0776360594581233E-002
   2.7936850127435006E-002  -7.4716966316906858E-003   6.1657943793162431E-002
   5.6262471768644490E-002  -1.6180450967614515E-002   5.0130659965618177E-002
   5.4727811245394775E-002  -1.5809400978092122E-002   4.9788875238846481E-002
   5.3193150722145074E-002  -1.5464329270126660E-002   4.9620293139564224E-002
   5.1658490198895381E-002  -1.5145235843717911E-002   4.9624913667771289E-002
   5.0123829675645687E-002  -1.4852120698866045E-002   4.9802736823467836E-002
   4.9242672957494411E-002  -1.4003262383633530E-002   5.3227946789302885E-002
   4.7889711125073162E-002  -1.3758804896522717E-002   5.2844660186999654E-002
   4.6536749292651933E-002  -1.3506222873393550E-002   5.2651568338863856E-002
   4.5183787460230683E-002  -1.3245516314245882E-002   5.2648671244895570E-002
   4.3830825627809419E-002  -1.2976685219079909E-002   5.2835968905094871E-002
   4.2181803080242795E-002  -1.1826073799652594E-002   5.6181589701788631E-002
   4.1027532065328179E-002  -1.1708208814953318E-002   5.5790904041528810E-002
   3.9873261050413583E-002  -1.1548116476660439E-002   5.5607405262114808E-002
   3.8718990035498967E-002  -1.1345796784773947E-002   5.5631093363546415E-002
   3.7564719020584371E-002  -1.1101249739293856E-002   5.5861968345823812E-002
   3.5079862136889677E-002  -9.6488852156716050E-003   5.8991588703075075E-002
   3.4141274066159841E-002  -9.6576127333839017E-003   5.8627606802434090E-002
   3.3202685995430012E-002  -9.5900100799273420E-003   5.8487803909316995E-002
   3.2264097924700197E-002  -9.4460772553019937E-003   5.8572180023723726E-002
   3.1325509853970354E-002  -9.2258142595077475E-003   5.8880735145654367E-002
   2.7936850127435006E-002  -7.4716966316906858E-003   6.1657943793162431E-002
   2.7230937127568133E-002  -7.6070166518144855E-003   6.1354768469715396E-002
   2.6525024127701267E-002  -7.6319036831942431E-003   6.1292764280470501E-002
   2.5819111127834405E-002  -7.5463577258299891E-003   6.1471931225427573E-002
   2.5113198127967529E-002  -7.3503787797216946E-003   6.1892269304586661E-002
   5.0123829675645687E-002  -1.4852120698866045E-002   4.9802736823467836E-002
   4.8630297258391464E-002  -1.4537895723976235E-002   4.9523910491120343E-002
   4.7136764841137241E-002  -1.4155472807453884E-002   4.9479780476010815E-002
   4.5643232423883011E-002  -1.3704851949298769E-002   4.9670346778139043E-002
   4.4149700006628795E-002  -1.3186033149511112E-002   5.0095609397505292E-002
   4.3830825627809419E-002  -1.2976685219079909E-002   5.2835968905094871E-002
   4.2560048107629971E-002  -1.2679758430825139E-002   5.2630230989091503E-002
   4.1289270587450508E-002  -1.2334764792411079E-002   5.2635306549999622E-002
   4.0018493067271038E-002  -1.1941704303837730E-002   5.2851195587819394E-002
   3.8747715547091541E-002  -1.1500576965105203E-002   5.3277898102550847E-002
   3.7564719020584371E-002  -1.1101249739293856E-002   5.5861968345823812E-002
   3.6492813557153427E-002  -1.0821621137673987E-002   5.5709187754690873E-002
   3.5420908093722475E-002  -1.0514056777368330E-002   5.5743337800143400E-002
   3.4349002630291489E-002  -1.0178556658376720E-002   5.5964418482181297E-002
   3.3277097166860579E-002  -9.8151207806993213E-003   5.6372429800804660E-002
   3.1325509853970354E-002  -9.2258142595077475E-003   5.8880735145654367E-002
   3.0428593606961742E-002  -8.9634838445229043E-003   5.8760780787918604E-002
   2.9531677359953101E-002  -8.6933487623255812E-003   5.8803874226442149E-002
   2.8634761112944478E-002  -8.4154090129157783E-003   5.9010015461224703E-002
   2.7737844865935848E-002  -8.1296645962933983E-003   5.9379204492266718E-002
   2.5113198127967529E-002  -7.3503787797216946E-003   6.1892269304586661E-002
   2.4367388257054992E-002  -7.1053465513717662E-003   6.1785010088774794E-002
   2.3621578386142442E-002  -6.8726407472828113E-003   6.1816915828895855E-002
   2.2875768515229912E-002  -6.6522613674546791E-003   6.1987986524949905E-002
   2.2129958644317368E-002  -6.4442084118874754E-003   6.2298222176936979E-002
   4.4149700006628795E-002  -1.3186033149511112E-002   5.0095609397505292E-002
   4.2077523646199017E-002  -1.2651264037431081E-002   4.9375200594406643E-002
   4.0005347285769224E-002  -1.2152792242399055E-002   4.8778540645164653E-002
   3.7933170925339439E-002  -1.1690617764414820E-002   4.8305629549779114E-002
   3.5860994564909654E-002  -1.1264740603478540E-002   4.7956467308249928E-002
   3.8747715547091541E-002  -1.1500576965105203E-002   5.3277898102550847E-002
   3.6829579575132540E-002  -1.1048012308730565E-002   5.2488402147411378E-002
   3.4911443603173546E-002  -1.0620639867230927E-002   5.1883238115357236E-002
   3.2993307631214525E-002  -1.0218459640606355E-002   5.1462406006388024E-002
   3.1075171659255538E-002  -9.8414716288567350E-003   5.1225905820504153E-002
   3.3277097166860579E-002  -9.8151207806993213E-003   5.6372429800804660E-002
   3.1573584652601003E-002  -9.4447605800300066E-003   5.5524951795797320E-002
   2.9870072138341430E-002  -9.0884874920628619E-003   5.4922388783103800E-002
   2.8166559624081856E-002  -8.7463015167978369E-003   5.4564740762723968E-002
   2.6463047109822307E-002  -8.4182026542349575E-003   5.4452007734657915E-002
   2.7737844865935848E-002  -8.1296645962933983E-003   5.9379204492266718E-002
   2.6309538878604356E-002  -7.8415088513294415E-003   5.8484849539564260E-002
   2.4881232891272899E-002  -7.5563351168948210E-003   5.7895992648404254E-002
   2.3452926903941407E-002  -7.2741433929893453E-003   5.7612633818786695E-002
   2.2024620916609981E-002  -6.9949336796131939E-003   5.7634773050711484E-002
   2.2129958644317368E-002  -6.4442084118874754E-003   6.2298222176936979E-002
   2.1037442253142649E-002  -6.2382571226288763E-003   6.1368095378712267E-002
   1.9944925861967937E-002  -6.0241827417266969E-003   6.0804049711258662E-002
   1.8852409470793235E-002  -5.8019852691809717E-003   6.0606085174576163E-002
   1.7759893079618505E-002  -5.5716647049913748E-003   6.0774201768664826E-002
   3.5860994564909654E-002  -1.1264740603478540E-002   4.7956467308249928E-002
   3.5476690611510264E-002  -1.0821826185105327E-002   4.8802388756761739E-002
   3.5092386658110847E-002  -1.0308539934810818E-002   4.9955737143046020E-002
   3.4708082704711443E-002  -9.7248818525947564E-003   5.1416512467102965E-002
   3.4323778751312067E-002  -9.0708519384574138E-003   5.3184714728932325E-002
   3.1075171659255538E-002  -9.8414716288567350E-003   5.1225905820504153E-002
   3.0942222574367934E-002  -9.4408924158204677E-003   5.2260826780660852E-002
   3.0809273489480322E-002  -8.9679385853356219E-003   5.3491030540068610E-002
   3.0676324404592729E-002  -8.4226101374026141E-003   5.4916517098727254E-002
   3.0543375319705121E-002  -7.8049070720209723E-003   5.6537286456637137E-002
   2.6463047109822307E-002  -8.4182026542349575E-003   5.4452007734657915E-002
   2.6469308754924897E-002  -8.0599586465354284E-003   5.5677930991986785E-002
   2.6475570400027452E-002  -7.6273372358605512E-003   5.6986992910044762E-002
   2.6481832045130018E-002  -7.1203384222101422E-003   5.8379193488832186E-002
   2.6488093690232598E-002  -6.5389622055844476E-003   5.9854532728349133E-002
   2.2024620916609981E-002  -6.9949336796131939E-003   5.7634773050711484E-002
   2.2057949153181107E-002  -6.6790248772505348E-003   5.9053701390739358E-002
   2.2091277389752279E-002  -6.2867358863854181E-003   6.0443624252974726E-002
   2.2124605626323426E-002  -5.8180667070177796E-003   6.1804541637418033E-002
   2.2157933862894576E-002  -5.2730173391479646E-003   6.3136453544069104E-002
   1.7759893079618505E-002  -5.5716647049913748E-003   6.0774201768664826E-002
   1.7708143769136625E-002  -5.2980911079655024E-003   6.2388137976918501E-002
   1.7656394458654759E-002  -4.9461345369102433E-003   6.3860924568858363E-002
   1.7604645148172872E-002  -4.5157949918254621E-003   6.5192561544484287E-002
   1.7552895837691013E-002  -4.0070724727115370E-003   6.6383048903796482E-002
   3.4323778751312067E-002  -9.0708519384574138E-003   5.3184714728932325E-002
   3.1043676094974215E-002  -8.4228357892875416E-003   5.1193562325892006E-002
   2.7763573438636308E-002  -7.8572190019744054E-003   4.8924290871677573E-002
   2.4483470782298469E-002  -7.3740015765181473E-003   4.6376900366289067E-002
   2.1203368125960631E-002  -6.9731835129187569E-003   4.3551390809726032E-002
   3.0543375319705121E-002  -7.8049070720209723E-003   5.6537286456637137E-002
   2.7129947803230497E-002  -7.1905404648122673E-003   5.4335326598942912E-002
   2.3716520286755881E-002  -6.6552213913981251E-003   5.2144836072149564E-002
   2.0303092770281275E-002  -6.1989498517784486E-003   4.9965814876257023E-002
   1.6889665253806641E-002  -5.8217258459531962E-003   4.7798263011264996E-002
   2.6488093690232598E-002  -6.5389622055844476E-003   5.9854532728349133E-002
   2.3230929695696137E-002  -5.9582451403370762E-003   5.7445117244063676E-002
   1.9973765701159683E-002  -5.4532237808217268E-003   5.5336759472754120E-002
   1.6716601706623150E-002  -5.0238981270385816E-003   5.3529459414419639E-002
   1.3459437712086755E-002  -4.6702681789875244E-003   5.2023217069061212E-002
   2.2157933862894576E-002  -5.2730173391479646E-003   6.3136453544069104E-002
   1.9346621772371123E-002  -4.7259498158617880E-003   6.0522934261254463E-002
   1.6535309681847674E-002  -4.2512261702454431E-003   5.8500061073490504E-002
   1.3723997591324238E-002  -3.8488464022986878E-003   5.7067833980777062E-002
   1.0912685500800771E-002  -3.5188105120219082E-003   5.6226252983113997E-002
   1.7552895837691013E-002  -4.0070724727115370E-003   6.6383048903796482E-002
   1.5477024033255460E-002  -3.4936544913865553E-003   6.3568777650515329E-002
   1.3401152228819907E-002  -3.0492285596690621E-003   6.1634740874359578E-002
   1.1325280424384375E-002  -2.6737946775589085E-003   6.0580938575329105E-002
   9.2494086199487735E-003  -2.3673528450562920E-003   6.0407370753424283E-002
   2.6632642743899572E-002   0.0000000000000000        2.9464889946149431E-002
   2.7233518548240153E-002  -5.8289595976740872E-004   3.4943074927133957E-002
   2.7834394352580734E-002  -1.3163922451621800E-003   4.0113838630590613E-002
   2.8435270156921318E-002  -2.2004888561843114E-003   4.4977181056519440E-002
   2.9036145961261903E-002  -3.2351857928338019E-003   4.9533102204920396E-002
   2.0114912825479007E-002   0.0000000000000000        2.9020496603189311E-002
   2.0447625775451499E-002  -4.3747293214678028E-004   3.4312684758432535E-002
   2.0780338725423991E-002  -9.8750995065408423E-004   3.9375968482467431E-002
   2.1113051675396486E-002  -1.6501110555219084E-003   4.4210347775294000E-002
   2.1445764625368971E-002  -2.4252762467502648E-003   4.8815822636912233E-002
   1.3503509864151334E-002   0.0000000000000000        2.8702508168216397E-002
   1.3646576806075257E-002  -2.9204990452615055E-004   3.3846735736985163E-002
   1.3789643747999182E-002  -6.5862765614598581E-004   3.8840575720865134E-002
   1.3932710689923106E-002  -1.0997332548595071E-003   4.3684028119856298E-002
   1.4075777631847031E-002  -1.6153667006667165E-003   4.8377092933958643E-002
   6.7984338599165438E-003   0.0000000000000000        2.8510924641230694E-002
   6.8303716401114257E-003  -1.4662687690552060E-004   3.3545227862791849E-002
   6.8623094203063076E-003  -3.2974536163788955E-004   3.8507660345783727E-002
   6.8942472005011869E-003  -5.4935545419710664E-004   4.3398222090206301E-002
   6.9261849806960697E-003  -8.0545715458317209E-004   4.8216913096059612E-002
  -3.1518722535487514E-007   0.0000000000000000        2.8445746022232203E-002
  -9.8972243999396331E-007  -1.2038492848923804E-006   3.3408161135852578E-002
  -1.6642576546343525E-006  -8.6306712979329625E-007   3.8377222357223184E-002
  -2.3387928692740912E-006   1.0223464652955178E-006   4.3352929686344049E-002
  -3.0133280839129625E-006   4.4523915003697248E-006   4.8335283123215132E-002
   2.9036145961261903E-002  -3.2351857928338019E-003   4.9533102204920396E-002
   2.9110217676324324E-002  -4.2575408677059069E-003   5.1589348096044998E-002
   2.9184289391386752E-002  -5.1046118933959148E-003   5.3743849960192804E-002
   2.9258361106449176E-002  -5.7763988699037847E-003   5.5996607797363845E-002
   2.9332432821511607E-002  -6.2729017972295575E-003   5.8347621607558089E-002
   2.1445764625368971E-002  -2.4252762467502648E-003   4.8815822636912233E-002
   2.1588899291089179E-002  -3.1913988144784554E-003   5.1216236539313870E-002
   2.1732033956809380E-002  -3.8268720488457892E-003   5.3656520370007857E-002
   2.1875168622529584E-002  -4.3316959498523010E-003   5.6136674128994209E-002
   2.2018303288249788E-002  -4.7058705174979759E-003   5.8656697816272849E-002
   1.4075777631847031E-002  -1.6153667006667165E-003   4.8377092933958643E-002
   1.4229589203494149E-002  -2.1252567612509827E-003   5.1077040131816021E-002
   1.4383400775141268E-002  -2.5491322042956975E-003   5.3758471213234925E-002
   1.4537212346788389E-002  -2.8869930298008302E-003   5.6421386178215301E-002
   1.4691023918435506E-002  -3.1388392377663943E-003   5.9065785026757134E-002
   6.9261849806960697E-003  -8.0545715458317209E-004   4.8216913096059612E-002
   7.0322874135392436E-003  -1.0591147080235240E-003   5.1171758873551465E-002
   7.1383898463824183E-003  -1.2713923597455854E-003   5.4049702489873980E-002
   7.2444922792255922E-003  -1.4422901097493530E-003   5.6850743945027093E-002
   7.3505947120687653E-003  -1.5718079580348196E-003   5.9574883239010848E-002
  -3.0133280839129625E-006   4.4523915003697248E-006   4.8335283123215132E-002
  -3.0060787755414875E-006   7.0273452039424159E-006   5.1500392764520217E-002
  -2.9988294671704462E-006   6.3474848045199598E-006   5.4530214199925056E-002
  -2.9915801588004890E-006   2.4128103021243117E-006   5.7424747429429650E-002
  -2.9843308504279298E-006  -4.7766783032449078E-006   6.0183992453034046E-002
   2.9332432821511607E-002  -6.2729017972295575E-003   5.8347621607558089E-002
   2.8983537147992455E-002  -6.6544721514344048E-003   5.9121199501779076E-002
   2.8634641474473303E-002  -6.9814614085794875E-003   5.9930779164120145E-002
   2.8285745800954151E-002  -7.2538695686649559E-003   6.0776360594581233E-002
   2.7936850127435006E-002  -7.4716966316906858E-003   6.1657943793162431E-002
   2.2018303288249788E-002  -4.7058705174979759E-003   5.8656697816272849E-002
   2.1718064740106464E-002  -4.9930869439458250E-003   5.9478705254244459E-002
   2.1417826191963134E-002  -5.2370364213588719E-003   6.0362025174847671E-002
   2.1117587643819810E-002  -5.4377189497371668E-003   6.1306657578082457E-002
   2.0817349095676483E-002  -5.5951345290806559E-003   6.2312602463948902E-002
   1.4691023918435506E-002  -3.1388392377663943E-003   5.9065785026757134E-002
   1.4464753210179570E-002  -3.3317017364572574E-003   5.9924907860454395E-002
   1.4238482501923635E-002  -3.4926114341382406E-003   6.0870653891294792E-002
   1.4012211793667696E-002  -3.6215683308094050E-003   6.1903023119278353E-002
   1.3785941085411764E-002  -3.7185724264706746E-003   6.3022015544405091E-002
   7.3505947120687653E-003  -1.5718079580348196E-003   5.9574883239010848E-002
   7.2236025582117849E-003  -1.6703165289686838E-003   6.0459807320408794E-002
   7.0966104043547985E-003  -1.7481864469176310E-003   6.1456665313461493E-002
   6.9696182504978173E-003  -1.8054177118816295E-003   6.2565457218168946E-002
   6.8426260966408326E-003  -1.8420103238606829E-003   6.3786183034531110E-002
  -2.9843308504279298E-006  -4.7766783032449078E-006   6.0183992453034046E-002
  -5.3872157968959042E-006  -8.9313214801135798E-006   6.1083403634107789E-002
  -7.7901007433638786E-006  -3.7614596969832992E-006   6.2120059441347845E-002
  -1.0192985689830552E-005   1.0732907046148536E-005   6.3293959874754183E-002
  -1.2595870636299827E-005   3.4551778749308815E-005   6.4605104934326807E-002
   2.7936850127435006E-002  -7.4716966316906858E-003   6.1657943793162431E-002
   2.7230937127568133E-002  -7.6070166518144855E-003   6.1354768469715396E-002
   2.6525024127701267E-002  -7.6319036831942431E-003   6.1292764280470501E-002
   2.5819111127834405E-002  -7.5463577258299891E-003   6.1471931225427573E-002
   2.5113198127967529E-002  -7.3503787797216946E-003   6.1892269304586661E-002
   2.0817349095676483E-002  -5.5951345290806559E-003   6.2312602463948902E-002
   2.0335940933412247E-002  -5.6931587837208975E-003   6.2173828209954221E-002
   1.9854532771148015E-002  -5.7156673379893837E-003   6.2242892496962798E-002
   1.9373124608883786E-002  -5.6626601918859836E-003   6.2519795324974634E-002
   1.8891716446619550E-002  -5.5341373454109444E-003   6.3004536693989616E-002
   1.3785941085411764E-002  -3.7185724264706746E-003   6.3022015544405091E-002
   1.3495705167551372E-002  -3.7793009156272955E-003   6.3012725071490416E-002
   1.3205469249690979E-002  -3.7994309927844149E-003   6.3177940546380235E-002
   1.2915233331830592E-002  -3.7789626579420479E-003   6.3517661969074532E-002
   1.2624997413970190E-002  -3.7178959111002358E-003   6.4031889339573211E-002
   6.8426260966408326E-003  -1.8420103238606829E-003   6.3786183034531110E-002
   6.7102298299854934E-003  -1.8654430475336867E-003   6.3871459054324217E-002
   6.5778335633301550E-003  -1.8831946475795286E-003   6.4097908428722941E-002
   6.4454372966748141E-003  -1.8952651239981051E-003   6.4465531157727296E-002
   6.3130410300194714E-003  -1.9016544767895480E-003   6.4974327241337421E-002
  -1.2595870636299827E-005   3.4551778749308815E-005   6.4605104934326807E-002
  -2.0485079285379251E-005   4.8414820559880556E-005   6.4750030158455360E-002
  -2.8374287934458675E-005   3.3041697625427191E-005   6.5002796143990793E-002
  -3.6263496583539834E-005  -1.1567590054144955E-005   6.5363402890933037E-002
  -4.4152705232617523E-005  -8.5413042478804657E-005   6.5831850399282216E-002
   2.5113198127967529E-002  -7.3503787797216946E-003   6.1892269304586661E-002
   2.4367388257054992E-002  -7.1053465513717662E-003   6.1785010088774794E-002
   2.3621578386142442E-002  -6.8726407472828113E-003   6.1816915828895855E-002
   2.2875768515229912E-002  -6.6522613674546791E-003   6.1987986524949905E-002
   2.2129958644317368E-002  -6.4442084118874754E-003   6.2298222176936979E-002
   1.8891716446619550E-002  -5.5341373454109444E-003   6.3004536693989616E-002
   1.8298484905438762E-002  -5.3678337003972426E-003   6.2859313236897404E-002
   1.7705253364257975E-002  -5.2014841586781324E-003   6.2880081483335681E-002
   1.7112021823077195E-002  -5.0350887202533431E-003   6.3066841433304516E-002
   1.6518790281896401E-002  -4.8686473851232426E-003   6.3419593086803783E-002
   1.2624997413970190E-002  -3.7178959111002358E-003   6.4031889339573211E-002
   1.2211170950118703E-002  -3.6303208494227884E-003   6.3861073962167045E-002
   1.1797344486267208E-002  -3.5303275700733390E-003   6.3883077035888927E-002
   1.1383518022415721E-002  -3.4179160730521451E-003   6.4097898560738956E-002
   1.0969691558564223E-002  -3.2930863583589820E-003   6.4505538536716922E-002
   6.3130410300194714E-003  -1.9016544767895480E-003   6.4974327241337421E-002
   6.1054463910948089E-003  -1.8928079984482857E-003   6.4790292264583688E-002
   5.8978517521701464E-003  -1.8591709814686028E-003   6.4825902486555606E-002
   5.6902571132454822E-003  -1.8007434258509058E-003   6.5081157907253051E-002
   5.4826624743208154E-003  -1.7175253315947075E-003   6.5556058526676148E-002
  -4.4152705232617523E-005  -8.5413042478804657E-005   6.5831850399282216E-002
  -1.8688771632920098E-005  -1.5529514747378292E-004   6.5646968144147333E-002
   6.7751619667790614E-006  -1.8801439286391525E-004   6.5708557835335621E-002
   3.2239095566477353E-005  -1.8357077864959541E-004   6.6016619472847010E-002
   5.7703029166175646E-005  -1.4196430483048861E-004   6.6571153056681542E-002
   2.2129958644317368E-002  -6.4442084118874754E-003   6.2298222176936979E-002
   2.1037442253142649E-002  -6.2382571226288763E-003   6.1368095378712267E-002
   1.9944925861967937E-002  -6.0241827417266969E-003   6.0804049711258662E-002
   1.8852409470793235E-002  -5.8019852691809717E-003   6.0606085174576163E-002
   1.7759893079618505E-002  -5.5716647049913748E-003   6.0774201768664826E-002
   1.6518790281896401E-002  -4.8686473851232426E-003   6.3419593086803783E-002
   1.5767030692273996E-002  -4.7041321375120709E-003   6.2528324108399216E-002
   1.5015271102651578E-002  -4.5435149616446999E-003   6.1952487602328021E-002
   1.4263511513029167E-002  -4.3867958575210027E-003   6.1692083568590336E-002
   1.3511751923406756E-002  -4.2339748251409293E-003   6.1747112007186217E-002
   1.0969691558564223E-002  -3.2930863583589820E-003   6.4505538536716922E-002
   1.0508040112056527E-002  -3.1700071523954321E-003   6.3641106214744919E-002
   1.0046388665548843E-002  -3.0628471815627029E-003   6.3041457706668830E-002
   9.5847372190411596E-003  -2.9716064458610893E-003   6.2706593012488737E-002
   9.1230857725334638E-003  -2.8962849452903172E-003   6.2636512132204655E-002
   5.4826624743208154E-003  -1.7175253315947075E-003   6.5556058526676148E-002
   5.2604705124902756E-003  -1.6358821672786544E-003   6.4706441697749639E-002
   5.0382785506597316E-003  -1.5821794014807614E-003   6.4070960024281282E-002
   4.8160865888291892E-003  -1.5564170342010925E-003   6.3649613506271463E-002
   4.5938946269986417E-003  -1.5585950654397052E-003   6.3442402143719920E-002
   5.7703029166175646E-005  -1.4196430483048861E-004   6.6571153056681542E-002
   2.4321893575207643E-005  -1.0175718216201557E-004   6.5724330557413113E-002
  -9.0592420157603604E-006  -1.0151162139858394E-004   6.5040994555165377E-002
  -4.2440377606728363E-005  -1.4122762254114782E-004   6.4521145049938514E-002
  -7.5821513197696366E-005  -2.2090518558920413E-004   6.4164782041732316E-002
   1.7759893079618505E-002  -5.5716647049913748E-003   6.0774201768664826E-002
   1.7708143769136625E-002  -5.2980911079655024E-003   6.2388137976918501E-002
   1.7656394458654759E-002  -4.9461345369102433E-003   6.3860924568858363E-002
   1.7604645148172872E-002  -4.5157949918254621E-003   6.5192561544484287E-002
   1.7552895837691013E-002  -4.0070724727115370E-003   6.6383048903796482E-002
   1.3511751923406756E-002  -4.2339748251409293E-003   6.1747112007186217E-002
   1.3356367260718122E-002  -4.0547364214688353E-003   6.3325595379063765E-002
   1.3200982598029473E-002  -3.8187652034691599E-003   6.4837957662841852E-002
   1.3045597935340845E-002  -3.5260611711418269E-003   6.6284198858520077E-002
   1.2890213272652204E-002  -3.1766243244871206E-003   6.7664318966098758E-002
   9.1230857725334638E-003  -2.8962849452903172E-003   6.2636512132204655E-002
   8.9390942858522185E-003  -2.8113817349721265E-003   6.4157892508004494E-002
   8.7551027991709870E-003  -2.6913958700280696E-003   6.5688180323918932E-002
   8.5711113124897469E-003  -2.5363273504582454E-003   6.7227375579947804E-002
   8.3871198258085033E-003  -2.3461761762626765E-003   6.8775478276091193E-002
   4.5938946269986417E-003  -1.5585950654397052E-003   6.3442402143719920E-002
   4.4563248445389659E-003  -1.5680270484752998E-003   6.4885029363740437E-002
   4.3187550620792815E-003  -1.5640265365871493E-003   6.6411592552089407E-002
   4.1811852796196040E-003  -1.5465935297746371E-003   6.8022091708767149E-002
   4.0436154971599213E-003  -1.5157280280381352E-003   6.9716526833773412E-002
  -7.5821513197696366E-005  -2.2090518558920413E-004   6.4164782041732316E-002
  -9.1941063221662178E-005  -3.2467236197880611E-004   6.5507005946271457E-002
  -1.0806061324563146E-004  -4.3665720314599310E-004   6.7008194347353389E-002
  -1.2418016326959901E-004  -5.5685970909099755E-004   6.8668347244978098E-002
  -1.4029971329356655E-004  -6.8527987981381600E-004   7.0487464639145569E-002
   1.7552895837691013E-002  -4.0070724727115370E-003   6.6383048903796482E-002
   1.5477024033255460E-002  -3.4936544913865553E-003   6.3568777650515329E-002
   1.3401152228819907E-002  -3.0492285596690621E-003   6.1634740874359578E-002
   1.1325280424384375E-002  -2.6737946775589085E-003   6.0580938575329105E-002
   9.2494086199487735E-003  -2.3673528450562920E-003   6.0407370753424283E-002
   1.2890213272652204E-002  -3.1766243244871206E-003   6.7664318966098758E-002
   1.1604425911775407E-002  -2.8279727084313533E-003   6.4855839134879606E-002
   1.0318638550898609E-002  -2.5376243679016280E-003   6.2747293713652591E-002
   9.0328511900218157E-003  -2.3055793028977124E-003   6.1338682702417727E-002
   7.7470638291450011E-003  -2.1318375134194989E-003   6.0630006101174860E-002
   8.3871198258085033E-003  -2.3461761762626765E-003   6.8775478276091193E-002
   7.7111168413572725E-003  -2.1622909254762346E-003   6.5983478641015350E-002
   7.0351138569060487E-003  -2.0260201761340760E-003   6.3711113348798476E-002
   6.3591108724547953E-003  -1.9373639282363481E-003   6.1958382399440723E-002
   5.6831078880035801E-003  -1.8963221817828169E-003   6.0725285792941786E-002
   4.0436154971599213E-003  -1.5157280280381352E-003   6.9716526833773412E-002
   3.7970968220010556E-003  -1.4966091425210742E-003   6.6951696168922534E-002
   3.5505781468421847E-003  -1.5144159843666939E-003   6.4526199779797552E-002
   3.3040594716833272E-003  -1.5691485535751235E-003   6.2440037666398399E-002
   3.0575407965244480E-003  -1.6608068501461348E-003   6.0693209828724892E-002
  -1.4029971329356655E-004  -6.8527987981381600E-004   7.0487464639145569E-002
  -1.3763414629324594E-004  -8.3092735956585839E-004   6.7760491718601434E-002
  -1.3496857929293574E-004  -1.0028117925991453E-003   6.5192553006649667E-002
  -1.3230301229262553E-004  -1.2009331789138017E-003   6.2783648503290601E-002
  -1.2963744529230492E-004  -1.4252915185093418E-003   6.0533778208524014E-002
  -3.1518722535487514E-007   0.0000000000000000        2.8445746022232203E-002
  -9.8972243999396331E-007  -1.2038492848923804E-006   3.3408161135852578E-002
  -1.6642576546343525E-006  -8.6306712979329625E-007   3.8377222357223184E-002
  -2.3387928692740912E-006   1.0223464652955178E-006   4.3352929686344049E-002
  -3.0133280839129625E-006   4.4523915003697248E-006   4.8335283123215132E-002
  -6.7991577736505318E-003   0.0000000000000000        2.8508015269285841E-002
  -6.8323341863475769E-003   1.4558379488566805E-004   3.3544609813507618E-002
  -6.8655105990446212E-003   3.2930586131833372E-004   3.8509554495014350E-002
  -6.8986870117416629E-003   5.5116619929800135E-004   4.3402849313806030E-002
  -6.9318634244387098E-003   8.1116480882466400E-004   4.8224494269882651E-002
  -1.3504514395735148E-002   0.0000000000000000        2.8698775340456541E-002
  -1.3648488656379890E-002   2.9237143905622761E-004   3.3846142955386738E-002
  -1.3792462917024632E-002   6.5947478976646334E-004   3.8843564737136592E-002
  -1.3936437177669373E-002   1.1013100521307098E-003   4.3691040685706097E-002
  -1.4080411438314115E-002   1.6178772261489613E-003   4.8388570801095265E-002
  -2.0116385053479208E-002   0.0000000000000000        2.9018026235744288E-002
  -2.0449453132536936E-002   4.3915908322678804E-004   3.4312760561489915E-002
  -2.0782521211594671E-002   9.8964371821459512E-004   3.9379253083589902E-002
  -2.1115589290652399E-002   1.6514539049634169E-003   4.4217503802044249E-002
  -2.1448657369710127E-002   2.4245896434732604E-003   4.8827512716852962E-002
  -2.6634769746882708E-002   0.0000000000000000        2.9465767955149096E-002
  -2.7235227614818718E-002   5.8594672739734760E-004   3.4944462631817150E-002
  -2.7835685482754731E-002   1.3198126466627217E-003   4.0116619534374280E-002
  -2.8436143350690741E-002   2.2015977577961258E-003   4.4982238662820487E-002
  -2.9036601218626754E-002   3.2313020607975555E-003   4.9541320017155763E-002
  -3.0133280839129625E-006   4.4523915003697248E-006   4.8335283123215132E-002
  -3.0060787755414875E-006   7.0273452039424159E-006   5.1500392764520217E-002
  -2.9988294671704462E-006   6.3474848045199598E-006   5.4530214199925056E-002
  -2.9915801588004890E-006   2.4128103021243117E-006   5.7424747429429650E-002
  -2.9843308504279298E-006  -4.7766783032449078E-006   6.0183992453034046E-002
  -6.9318634244387098E-003   8.1116480882466400E-004   4.8224494269882651E-002
  -7.0380090093316323E-003   1.0677788021322136E-003   5.1174960206321958E-002
  -7.1441545942245539E-003   1.2794852914545590E-003   5.4048408680258911E-002
  -7.2503001791174772E-003   1.4462842767916512E-003   5.6844839691693488E-002
  -7.3564457640103989E-003   1.5681757581435252E-003   5.9564253240625753E-002
  -1.4080411438314115E-002   1.6178772261489613E-003   4.8388570801095265E-002
  -1.4234439114010454E-002   2.1285302590604853E-003   5.1082740342786558E-002
  -1.4388466789706789E-002   2.5526230981045561E-003   5.3758163165373372E-002
  -1.4542494465403125E-002   2.8901557432811711E-003   5.6414839268855717E-002
  -1.4696522141099467E-002   3.1411281945903299E-003   5.9052768653233584E-002
  -2.1448657369710127E-002   2.4245896434732604E-003   4.8827512716852962E-002
  -2.1592296392811999E-002   3.1892817159887600E-003   5.1223733173914009E-002
  -2.1735935415913874E-002   3.8257609047545674E-003   5.3659477655268462E-002
  -2.1879574439015746E-002   4.3340272097706738E-003   5.6134746160916307E-002
  -2.2023213462117622E-002   4.7140806310371312E-003   5.8649538690857560E-002
  -2.9036601218626754E-002   3.2313020607975555E-003   4.9541320017155763E-002
  -2.9111580845736285E-002   4.2500331729170247E-003   5.1597938699704325E-002
  -2.9186560472845811E-002   5.0988987114045864E-003   5.3752352149944178E-002
  -2.9261540099955342E-002   5.7778986762602128E-003   5.6004560367875322E-002
  -2.9336519727064872E-002   6.2870330674839117E-003   5.8354563353497736E-002
  -2.9843308504279298E-006  -4.7766783032449078E-006   6.0183992453034046E-002
  -5.3872157968959042E-006  -8.9313214801135798E-006   6.1083403634107789E-002
  -7.7901007433638786E-006  -3.7614596969832992E-006   6.2120059441347845E-002
  -1.0192985689830552E-005   1.0732907046148536E-005   6.3293959874754183E-002
  -1.2595870636299827E-005   3.4551778749308815E-005   6.4605104934326807E-002
  -7.3564457640103989E-003   1.5681757581435252E-003   5.9564253240625753E-002
  -7.2338333877982313E-003   1.6624235425522806E-003   6.0464292420292193E-002
  -7.1112210115860611E-003   1.7462914370599894E-003   6.1477117496109665E-002
  -6.9886086353738884E-003   1.8197794416666847E-003   6.2602728468078142E-002
  -6.8659962591617225E-003   1.8828875563722952E-003   6.3841125336197527E-002
  -1.4696522141099467E-002   3.1411281945903299E-003   5.9052768653233584E-002
  -1.4473353233743972E-002   3.3337784065847181E-003   5.9933731436631742E-002
  -1.4250184326388483E-002   3.4963443338169777E-003   6.0903021386165566E-002
  -1.4027015419032994E-002   3.6288259762872073E-003   6.1960638501835016E-002
  -1.3803846511677506E-002   3.7312233339952677E-003   6.3106582783640147E-002
  -2.2023213462117622E-002   4.7140806310371312E-003   5.8649538690857560E-002
  -2.1723946753634128E-002   5.0051332706171269E-003   5.9491720683126352E-002
  -2.1424680045150635E-002   5.2463972305739999E-003   6.0397771111515487E-002
  -2.1125413336667145E-002   5.4378725109076676E-003   6.1367689976024944E-002
  -2.0826146628183648E-002   5.5795591116182472E-003   6.2401477276654779E-002
  -2.9336519727064872E-002   6.2870330674839117E-003   5.8354563353497736E-002
  -2.8985613947468701E-002   6.6764881346495393E-003   5.9138260159776079E-002
  -2.8634708167872523E-002   6.9964501273309439E-003   5.9961366672159483E-002
  -2.8283802388276345E-002   7.2469190455282748E-003   6.0823882890647878E-002
  -2.7932896608680167E-002   7.4278948892412405E-003   6.1725808815241326E-002
  -1.2595870636299827E-005   3.4551778749308815E-005   6.4605104934326807E-002
  -2.0485079285379251E-005   4.8414820559880556E-005   6.4750030158455360E-002
  -2.8374287934458675E-005   3.3041697625427191E-005   6.5002796143990793E-002
  -3.6263496583539834E-005  -1.1567590054144955E-005   6.5363402890933037E-002
  -4.4152705232617523E-005  -8.5413042478804657E-005   6.5831850399282216E-002
  -6.8659962591617225E-003   1.8828875563722952E-003   6.3841125336197527E-002
  -6.7480681946674760E-003   1.9216912266548716E-003   6.3885844626227095E-002
  -6.6301401301732321E-003   1.9222658979923778E-003   6.4074357701136425E-002
  -6.5122120656789968E-003   1.8846115703849550E-003   6.4406664560925628E-002
  -6.3942840011847416E-003   1.8087282438325192E-003   6.4882765205594495E-002
  -1.3803846511677506E-002   3.7312233339952677E-003   6.3106582783640147E-002
  -1.3524148150567020E-002   3.7949676327498280E-003   6.3042103305370856E-002
  -1.3244449789456537E-002   3.8114900983594671E-003   6.3157370635454207E-002
  -1.2964751428346055E-002   3.7807907308241104E-003   6.3452384773890341E-002
  -1.2685053067235569E-002   3.7028695301438014E-003   6.3927145720679091E-002
  -2.0826146628183648E-002   5.5795591116182472E-003   6.2401477276654779E-002
  -2.0348724946984018E-002   5.6682440388448295E-003   6.2218806195886628E-002
  -1.9871303265784377E-002   5.7007142987265010E-003   6.2251834946944092E-002
  -1.9393881584584736E-002   5.6769698912632937E-003   6.2500563529827177E-002
  -1.8916459903385099E-002   5.5970108164551738E-003   6.2964991944535850E-002
  -2.7932896608680167E-002   7.4278948892412405E-003   6.1725808815241326E-002
  -2.7221798583918454E-002   7.5415204449397616E-003   6.1415953297774398E-002
  -2.6510700559156743E-002   7.5899384990935313E-003   6.1357750635606036E-002
  -2.5799602534395033E-002   7.5731490517023580E-003   6.1551200828736191E-002
  -2.5088504509633319E-002   7.4911521027664352E-003   6.1996303877164871E-002
  -4.4152705232617523E-005  -8.5413042478804657E-005   6.5831850399282216E-002
  -1.8688771632920098E-005  -1.5529514747378292E-004   6.5646968144147333E-002
   6.7751619667790614E-006  -1.8801439286391525E-004   6.5708557835335621E-002
   3.2239095566477353E-005  -1.8357077864959541E-004   6.6016619472847010E-002
   5.7703029166175646E-005  -1.4196430483048861E-004   6.6571153056681542E-002
  -6.3942840011847416E-003   1.8087282438325192E-003   6.4882765205594495E-002
  -6.1397402760634563E-003   1.7220695078384030E-003   6.4766773545392731E-002
  -5.8851965509421596E-003   1.6520889519063206E-003   6.4862469521910951E-002
  -5.6306528258208682E-003   1.5987865760360553E-003   6.5169853135149280E-002
  -5.3761091006995707E-003   1.5621623802276607E-003   6.5688924385107678E-002
  -1.2685053067235569E-002   3.7028695301438014E-003   6.3927145720679091E-002
  -1.2236213860195752E-002   3.5994341631506027E-003   6.3859559975867564E-002
  -1.1787374653155941E-002   3.4921922966765530E-003   6.3968877558173001E-002
  -1.1338535446116129E-002   3.3811439307215385E-003   6.4255098467595501E-002
  -1.0889696239076306E-002   3.2662890652857546E-003   6.4718222704134812E-002
  -1.8916459903385099E-002   5.5970108164551738E-003   6.2964991944535850E-002
  -1.8308109524029833E-002   5.4767988184628094E-003   6.2925327435571873E-002
  -1.7699759144674566E-002   5.3322956414468149E-003   6.3027781944121772E-002
  -1.7091408765319300E-002   5.1635012854071329E-003   6.3272355470185629E-002
  -1.6483058385964033E-002   4.9704157503438762E-003   6.3659048013763292E-002
  -2.5088504509633319E-002   7.4911521027664352E-003   6.1996303877164871E-002
  -2.4355427267565684E-002   7.3541634737749606E-003   6.1964075924505646E-002
  -2.3622350025498035E-002   7.1723989862170559E-003   6.2039182679757207E-002
  -2.2889272783430399E-002   6.9458586400926812E-003   6.2221624142919658E-002
  -2.2156195541362757E-002   6.6745424354019978E-003   6.2511400313992938E-002
   5.7703029166175646E-005  -1.4196430483048861E-004   6.6571153056681542E-002
   2.4321893575207643E-005  -1.0175718216201557E-004   6.5724330557413113E-002
  -9.0592420157603604E-006  -1.0151162139858394E-004   6.5040994555165377E-002
  -4.2440377606728363E-005  -1.4122762254114782E-004   6.4521145049938514E-002
  -7.5821513197696366E-005  -2.2090518558920413E-004   6.4164782041732316E-002
  -5.3761091006995707E-003   1.5621623802276607E-003   6.5688924385107678E-002
  -5.2154667825189786E-003   1.5254134134216196E-003   6.4764419192097591E-002
  -5.0548244643383936E-003   1.4717367245584284E-003   6.4064474409609759E-002
  -4.8941821461578015E-003   1.4011323136379102E-003   6.3589090037644319E-002
  -4.7335398279772095E-003   1.3136001806602904E-003   6.3338266076201299E-002
  -1.0889696239076306E-002   3.2662890652857546E-003   6.4718222704134812E-002
  -1.0473956553622616E-002   3.1525840090050744E-003   6.3739068657231487E-002
  -1.0058216868168927E-002   3.0449850705154893E-003   6.3045548934352075E-002
  -9.6424771827152353E-003   2.9434922498170774E-003   6.2637663535496338E-002
  -9.2267374972615484E-003   2.8481055469096461E-003   6.2515412460664707E-002
  -1.6483058385964033E-002   4.9704157503438762E-003   6.3659048013763292E-002
  -1.5751147419735698E-002   4.7797546045885361E-003   6.2648278952815023E-002
  -1.5019236453507362E-002   4.6182334164725815E-003   6.1984218129392102E-002
  -1.4287325487279021E-002   4.4858521859960790E-003   6.1666865543494584E-002
  -1.3555414521050694E-002   4.3826109131590157E-003   6.1696221195122469E-002
  -2.2156195541362757E-002   6.6745424354019978E-003   6.2511400313992938E-002
  -2.1047039380858227E-002   6.4069252001721089E-003   6.1492050078847893E-002
  -1.9937883220353704E-002   6.1914817624297291E-003   6.0880481994729924E-002
  -1.8828727059849185E-002   6.0282121221753721E-003   6.0676696061638891E-002
  -1.7719570899344651E-002   5.9171162794084409E-003   6.0880692279574822E-002
  -7.5821513197696366E-005  -2.2090518558920413E-004   6.4164782041732316E-002
  -9.1941063221662178E-005  -3.2467236197880611E-004   6.5507005946271457E-002
  -1.0806061324563146E-004  -4.3665720314599310E-004   6.7008194347353389E-002
  -1.2418016326959901E-004  -5.5685970909099755E-004   6.8668347244978098E-002
  -1.4029971329356655E-004  -6.8527987981381600E-004   7.0487464639145569E-002
  -4.7335398279772095E-003   1.3136001806602904E-003   6.3338266076201299E-002
  -4.6257367346195909E-003   1.2075059739430349E-003   6.4795761727974660E-002
  -4.5179336412619741E-003   1.0812153418041509E-003   6.6342138169968368E-002
  -4.4101305479043555E-003   9.3472828424326013E-004   6.7977395402182547E-002
  -4.3023274545467317E-003   7.6804480126080321E-004   6.9701533424617046E-002
  -9.2267374972615484E-003   2.8481055469096461E-003   6.2515412460664707E-002
  -9.0650954668447525E-003   2.7396843098647927E-003   6.4076201099028188E-002
  -8.9034534364279654E-003   2.5990878867542325E-003   6.5655786821289669E-002
  -8.7418114060111712E-003   2.4263162775776271E-003   6.7254169627449081E-002
  -8.5801693755943893E-003   2.2213694823354224E-003   6.8871349517506564E-002
  -1.3555414521050694E-002   4.3826109131590157E-003   6.1696221195122469E-002
  -1.3410017259897137E-002   4.2718626457865921E-003   6.3348324059432096E-002
  -1.3264619998743591E-002   4.1169604317043453E-003   6.4949140301317196E-002
  -1.3119222737590050E-002   3.9179042709121615E-003   6.6498669920778103E-002
  -1.2973825476436480E-002   3.6746941634099306E-003   6.7996912917814234E-002
  -1.7719570899344651E-002   5.9171162794084409E-003   6.0880692279574822E-002
  -1.7660502113776760E-002   5.8040409817083916E-003   6.2612130609186412E-002
  -1.7601433328208873E-002   5.6348329766544580E-003   6.4222198610051101E-002
  -1.7542364542640985E-002   5.4094922642463628E-003   6.5710896282169001E-002
  -1.7483295757073095E-002   5.1280188444846053E-003   6.7078223625540001E-002
  -1.4029971329356655E-004  -6.8527987981381600E-004   7.0487464639145569E-002
  -1.3763414629324594E-004  -8.3092735956585839E-004   6.7760491718601434E-002
  -1.3496857929293574E-004  -1.0028117925991453E-003   6.5192553006649667E-002
  -1.3230301229262553E-004  -1.2009331789138017E-003   6.2783648503290601E-002
  -1.2963744529230492E-004  -1.4252915185093418E-003   6.0533778208524014E-002
  -4.3023274545467317E-003   7.6804480126080321E-004   6.9701533424617046E-002
  -4.0505882925253346E-003   5.9520056344289363E-004   6.6939604691941629E-002
  -3.7988491305039323E-003   4.3023124137610280E-004   6.4516788940716024E-002
  -3.5471099684825126E-003   2.7313683506008726E-004   6.2433086170939997E-002
  -3.2953708064611190E-003   1.2391734449523906E-004   6.0688496382613422E-002
  -8.5801693755943893E-003   2.2213694823354224E-003   6.8871349517506564E-002
  -7.8992778456949044E-003   2.0213284864517844E-003   6.6108576841732339E-002
  -7.2183863157954152E-003   1.8632742753512399E-003   6.3864995920264789E-002
  -6.5374947858959347E-003   1.7472068490339485E-003   6.2140606753103664E-002
  -5.8566032559964412E-003   1.6731262074998199E-003   6.0935409340249269E-002
  -1.2973825476436480E-002   3.6746941634099306E-003   6.7996912917814234E-002
  -1.1683702805801936E-002   3.4474564094604948E-003   6.5267408167973426E-002
  -1.0393580135167373E-002   3.2963173093263215E-003   6.3237173945296044E-002
  -9.1034574645327861E-003   3.2212768630077125E-003   6.1906210249782337E-002
  -7.8133347938982526E-003   3.2223350705044007E-003   6.1274517081432389E-002
  -1.7483295757073095E-002   5.1280188444846053E-003   6.7078223625540001E-002
  -1.5403863172846439E-002   4.8735843324693717E-003   6.4416098670664668E-002
  -1.3324430588619804E-002   4.7293603433016668E-003   6.2633323015810011E-002
  -1.1244998004393141E-002   4.6953468769816535E-003   6.1729896660975711E-002
  -9.1655654201665132E-003   4.7715439335089815E-003   6.1705819606162171E-002
  -2.6634769746882708E-002   0.0000000000000000        2.9465767955149096E-002
  -2.7235227614818718E-002   5.8594672739734760E-004   3.4944462631817150E-002
  -2.7835685482754731E-002   1.3198126466627217E-003   4.0116619534374280E-002
  -2.8436143350690741E-002   2.2015977577961258E-003   4.4982238662820487E-002
  -2.9036601218626754E-002   3.2313020607975555E-003   4.9541320017155763E-002
  -3.3395794188086442E-002   0.0000000000000000        3.0176600205544961E-002
  -3.4238025170785613E-002   9.6103785915017427E-004   3.5266614167375553E-002
  -3.5080256153484778E-002   2.0247966979439038E-003   4.0179619673790745E-002
  -3.5922487136183949E-002   3.1912765163811876E-003   4.4915616724790546E-002
  -3.6764718118883113E-002   4.4604773144620250E-003   4.9474605320374981E-002
  -4.0735584089231211E-002   0.0000000000000000        3.1285122693805886E-002
  -4.1690058867998002E-002   1.3361289909030018E-003   3.5941257728574531E-002
  -4.2644533646764786E-002   2.7297807492250850E-003   4.0549913626623323E-002
  -4.3599008425531577E-002   4.1809552749662486E-003   4.5111090387952253E-002
  -4.4553483204298361E-002   5.6896525681264989E-003   4.9624788012561344E-002
  -4.8654139450317012E-002   0.0000000000000000        3.2791335419931879E-002
  -4.9591328706455877E-002   1.7112201226558285E-003   3.6968393315414107E-002
  -5.0528517962594749E-002   3.4347648005062662E-003   4.1227501392872012E-002
  -5.1465707218733607E-002   5.1706340335513166E-003   4.5568659652305624E-002
  -5.2402896474872486E-002   6.9188278217909667E-003   4.9991868093714906E-002
  -5.7151460271343844E-002   0.0000000000000000        3.4695238383922938E-002
  -5.7941834686159259E-002   2.0863112544086569E-003   3.8348020927894272E-002
  -5.8732209100974667E-002   4.1397488517874483E-003   4.2212382972536829E-002
  -5.9522583515790081E-002   6.1603127921363750E-003   4.6288324517850608E-002
  -6.0312957930605482E-002   8.1480030754554414E-003   5.0575845563835618E-002
  -2.9036601218626754E-002   3.2313020607975555E-003   4.9541320017155763E-002
  -2.9111580845736285E-002   4.2500331729170247E-003   5.1597938699704325E-002
  -2.9186560472845811E-002   5.0988987114045864E-003   5.3752352149944178E-002
  -2.9261540099955342E-002   5.7778986762602128E-003   5.6004560367875322E-002
  -2.9336519727064872E-002   6.2870330674839117E-003   5.8354563353497736E-002
  -3.6764718118883113E-002   4.4604773144620250E-003   4.9474605320374981E-002
  -3.6780213392604802E-002   5.6934484700576779E-003   5.1259742484338303E-002
  -3.6795708666326483E-002   6.7512393610394041E-003   5.3066053587386038E-002
  -3.6811203940048172E-002   7.6338499874072201E-003   5.4893538629518179E-002
  -3.6826699213769867E-002   8.3412803491610676E-003   5.6742197610734749E-002
  -4.4553483204298361E-002   5.6896525681264989E-003   4.9624788012561344E-002
  -4.4586114953239074E-002   7.1368637671983173E-003   5.1133128966957445E-002
  -4.4618746702179780E-002   8.4035800106742227E-003   5.2586023031831068E-002
  -4.4651378451120494E-002   9.4898012985541996E-003   5.3983470207182221E-002
  -4.4684010200061186E-002   1.0395527630838262E-002   5.5325470493010918E-002
  -5.2402896474872486E-002   6.9188278217909667E-003   4.9991868093714906E-002
  -5.2529285527639094E-002   8.5802790643389713E-003   5.1218098147561744E-002
  -5.2655674580405695E-002   1.0055920660309027E-002   5.2312260483279284E-002
  -5.2782063633172289E-002   1.1345752609701205E-002   5.3274355100867470E-002
  -5.2908452685938898E-002   1.2449774912515423E-002   5.4104382000326315E-002
  -6.0312957930605482E-002   8.1480030754554414E-003   5.0575845563835618E-002
  -6.0609725115804862E-002   1.0023694361479610E-002   5.1514650026151222E-002
  -6.0906492301004228E-002   1.1708261309943853E-002   5.2244765941730678E-002
  -6.1203259486203608E-002   1.3201703920848183E-002   5.2766193310573875E-002
  -6.1500026671402967E-002   1.4504022194192619E-002   5.3078932132680882E-002
  -2.9336519727064872E-002   6.2870330674839117E-003   5.8354563353497736E-002
  -2.8985613947468701E-002   6.6764881346495393E-003   5.9138260159776079E-002
  -2.8634708167872523E-002   6.9964501273309439E-003   5.9961366672159483E-002
  -2.8283802388276345E-002   7.2469190455282748E-003   6.0823882890647878E-002
  -2.7932896608680167E-002   7.4278948892412405E-003   6.1725808815241326E-002
  -3.6826699213769867E-002   8.3412803491610676E-003   5.6742197610734749E-002
  -3.6386177617739886E-002   8.8860040369228635E-003   5.7099105948828256E-002
  -3.5945656021709925E-002   9.2804946413143595E-003   5.7595836213684352E-002
  -3.5505134425679943E-002   9.5247521623356285E-003   5.8232388405303023E-002
  -3.5064612829649983E-002   9.6187765999865699E-003   5.9008762523684241E-002
  -4.4684010200061186E-002   1.0395527630838262E-002   5.5325470493010918E-002
  -4.4053460566939900E-002   1.1095519939196186E-002   5.5174850354033578E-002
  -4.3422910933818608E-002   1.1564539155297763E-002   5.5264464362476291E-002
  -4.2792361300697301E-002   1.1802585279143022E-002   5.5594312518339128E-002
  -4.2161811667576023E-002   1.1809658310731892E-002   5.6164394821622027E-002
  -5.2908452685938898E-002   1.2449774912515423E-002   5.4104382000326315E-002
  -5.1987462795068766E-002   1.3305035841469508E-002   5.3365493375391974E-002
  -5.1066472904198600E-002   1.3848583669281137E-002   5.2967251118535258E-002
  -5.0145483013328440E-002   1.4080418395950438E-002   5.2909655229756158E-002
  -4.9224493122458295E-002   1.4000540021477218E-002   5.3192705709054704E-002
  -6.1500026671402967E-002   1.4504022194192619E-002   5.3078932132680882E-002
  -6.0188184302126420E-002   1.5514551743742829E-002   5.1671035012903481E-002
  -5.8876341932849879E-002   1.6132628183264580E-002   5.0704196481861252E-002
  -5.7564499563573304E-002   1.6358251512757827E-002   5.0178416539554183E-002
  -5.6252657194296771E-002   1.6191421732222530E-002   5.0093695185982293E-002
  -2.7932896608680167E-002   7.4278948892412405E-003   6.1725808815241326E-002
  -2.7221798583918454E-002   7.5415204449397616E-003   6.1415953297774398E-002
  -2.6510700559156743E-002   7.5899384990935313E-003   6.1357750635606036E-002
  -2.5799602534395033E-002   7.5731490517023580E-003   6.1551200828736191E-002
  -2.5088504509633319E-002   7.4911521027664352E-003   6.1996303877164871E-002
  -3.5064612829649983E-002   9.6187765999865699E-003   5.9008762523684241E-002
  -3.4113007421237282E-002   9.6136327805412883E-003   5.8665623451430025E-002
  -3.3161402012824567E-002   9.5603855302737774E-003   5.8551846291179259E-002
  -3.2209796604411867E-002   9.4590348491839782E-003   5.8667431042931983E-002
  -3.1258191195999145E-002   9.3095807372719497E-003   5.9012377706688102E-002
  -4.2161811667576023E-002   1.1809658310731892E-002   5.6164394821622027E-002
  -4.0991989818807403E-002   1.1685745116142780E-002   5.5805076265303108E-002
  -3.9822167970038791E-002   1.1530832561454025E-002   5.5652828677692542E-002
  -3.8652346121270179E-002   1.1344920646665559E-002   5.5707652058790358E-002
  -3.7482524272501573E-002   1.1128009371777506E-002   5.5969546408596520E-002
  -4.9224493122458295E-002   1.4000540021477218E-002   5.3192705709054704E-002
  -4.7858745776628846E-002   1.3757857451744303E-002   5.2834311739393652E-002
  -4.6492998430799390E-002   1.3501279592634217E-002   5.2660697795145824E-002
  -4.5127251084969941E-002   1.3230806444147201E-002   5.2671863876311405E-002
  -4.3761503739140478E-002   1.2946438006283000E-002   5.2867809982890153E-002
  -5.6252657194296771E-002   1.6191421732222530E-002   5.0093695185982293E-002
  -5.4713275294701574E-002   1.5829969787345799E-002   4.9753329873701665E-002
  -5.3173893395106399E-002   1.5471726623814550E-002   4.9575453643539248E-002
  -5.1634511495511209E-002   1.5116692241628697E-002   4.9560066495495048E-002
  -5.0095129595916027E-002   1.4764866640788549E-002   4.9707168429569015E-002
  -2.5088504509633319E-002   7.4911521027664352E-003   6.1996303877164871E-002
  -2.4355427267565684E-002   7.3541634737749606E-003   6.1964075924505646E-002
  -2.3622350025498035E-002   7.1723989862170559E-003   6.2039182679757207E-002
  -2.2889272783430399E-002   6.9458586400926812E-003   6.2221624142919658E-002
  -2.2156195541362757E-002   6.6745424354019978E-003   6.2511400313992938E-002
  -3.1258191195999145E-002   9.3095807372719497E-003   5.9012377706688102E-002
  -3.0398020567093793E-002   9.1145549620478272E-003   5.8901354165634912E-002
  -2.9537849938188452E-002   8.8764892910212778E-003   5.8937182690346313E-002
  -2.8677679309283093E-002   8.5953837241926692E-003   5.9119863280822298E-002
  -2.7817508680377759E-002   8.2712382615618418E-003   5.9449395937062860E-002
  -3.7482524272501573E-002   1.1128009371777506E-002   5.5969546408596520E-002
  -3.6455742898904728E-002   1.0874946450320597E-002   5.5781463241913520E-002
  -3.5428961525307875E-002   1.0580579595825607E-002   5.5779749498848882E-002
  -3.4402180151711044E-002   1.0244908808292656E-002   5.5964405179402620E-002
  -3.3375398778114213E-002   9.8679340877215749E-003   5.6335430283574683E-002
  -4.3761503739140478E-002   1.2946438006283000E-002   5.2867809982890153E-002
  -4.2528594262998425E-002   1.2635337938593387E-002   5.2604403153341535E-002
  -4.1295684786856336E-002   1.2284669900629883E-002   5.2566883105265118E-002
  -4.0062775310714255E-002   1.1894433892392533E-002   5.2755249838660735E-002
  -3.8829865834572201E-002   1.1464629913881308E-002   5.3169503353528588E-002
  -5.0095129595916027E-002   1.4764866640788549E-002   4.9707168429569015E-002
  -4.8616574659374918E-002   1.4395729426866219E-002   4.9370173899919018E-002
  -4.7138019722833838E-002   1.3988760205434179E-002   4.9298583509594804E-002
  -4.5659464786292729E-002   1.3543958976492581E-002   4.9492397258596534E-002
  -4.4180909849751634E-002   1.3061325740041096E-002   4.9951615146924144E-002
  -2.2156195541362757E-002   6.6745424354019978E-003   6.2511400313992938E-002
  -2.1047039380858227E-002   6.4069252001721089E-003   6.1492050078847893E-002
  -1.9937883220353704E-002   6.1914817624297291E-003   6.0880481994729924E-002
  -1.8828727059849185E-002   6.0282121221753721E-003   6.0676696061638891E-002
  -1.7719570899344651E-002   5.9171162794084409E-003   6.0880692279574822E-002
  -2.7817508680377759E-002   8.2712382615618418E-003   5.9449395937062860E-002
  -2.6341190874511818E-002   7.9452928579661630E-003   5.8538655143210855E-002
  -2.4864873068645918E-002   7.6587874682427642E-003   5.7954455489054701E-002
  -2.3388555262780032E-002   7.4117220923919890E-003   5.7696796974594317E-002
  -2.1912237456914088E-002   7.2040967304136672E-003   5.7765679599829700E-002
  -3.3375398778114213E-002   9.8679340877215749E-003   5.6335430283574683E-002
  -3.1613160338218087E-002   9.4836605157601894E-003   5.5520565147400433E-002
  -2.9850921898321961E-002   9.1260931740559104E-003   5.4951000139590880E-002
  -2.8088683458425849E-002   8.7952320626088279E-003   5.4626735260145901E-002
  -2.6326445018529737E-002   8.4910771814189767E-003   5.4547770509065646E-002
  -3.8829865834572201E-002   1.1464629913881308E-002   5.3169503353528588E-002
  -3.6862947771977017E-002   1.1022028173554119E-002   5.2437780091416752E-002
  -3.4896029709381854E-002   1.0593398879868945E-002   5.1870115946338460E-002
  -3.2929111646786705E-002   1.0178742032825667E-002   5.1466510918293532E-002
  -3.0962193584191514E-002   9.7780576324241891E-003   5.1226965007282174E-002
  -4.4180909849751634E-002   1.3061325740041096E-002   4.9951615146924144E-002
  -4.2090553175788595E-002   1.2560395831348242E-002   4.9290299975259660E-002
  -4.0000196501825576E-002   1.2060704585682119E-002   4.8711802909297358E-002
  -3.7909839827862529E-002   1.1562252003042429E-002   4.8216123949037348E-002
  -3.5819483153899503E-002   1.1065038083429568E-002   4.7803263094479631E-002
  -1.7719570899344651E-002   5.9171162794084409E-003   6.0880692279574822E-002
  -1.7660502113776760E-002   5.8040409817083916E-003   6.2612130609186412E-002
  -1.7601433328208873E-002   5.6348329766544580E-003   6.4222198610051101E-002
  -1.7542364542640985E-002   5.4094922642463628E-003   6.5710896282169001E-002
  -1.7483295757073095E-002   5.1280188444846053E-003   6.7078223625540001E-002
  -2.1912237456914088E-002   7.2040967304136672E-003   5.7765679599829700E-002
  -2.1922842524841828E-002   6.9850395507696783E-003   5.9268055222367583E-002
  -2.1933447592769509E-002   6.7036787219220129E-003   6.0752453466661055E-002
  -2.1944052660697183E-002   6.3600142438703378E-003   6.2218874332710325E-002
  -2.1954657728624906E-002   5.9540461166150416E-003   6.3667317820515268E-002
  -2.6326445018529737E-002   8.4910771814189767E-003   5.4547770509065646E-002
  -2.6303330989450466E-002   8.1660381198309651E-003   5.5814912482679835E-002
  -2.6280216960371174E-002   7.7725244671892346E-003   5.7167470028552311E-002
  -2.6257102931291895E-002   7.3105362234941462E-003   5.8605443146683145E-002
  -2.6233988902212606E-002   6.7800733887455056E-003   6.0128831837072141E-002
  -3.0962193584191514E-002   9.7780576324241891E-003   5.1226965007282174E-002
  -3.0801967507602720E-002   9.3470366888922796E-003   5.2252702390123140E-002
  -3.0641741431013919E-002   8.8413702124568450E-003   5.3467248295724842E-002
  -3.0481515354425084E-002   8.2610582031179269E-003   5.4870602724087329E-002
  -3.0321289277836325E-002   7.6061006608759557E-003   5.6462765675210844E-002
  -3.5819483153899503E-002   1.1065038083429568E-002   4.7803263094479631E-002
  -3.5418752079298593E-002   1.0528035257953483E-002   4.8581424944697582E-002
  -3.5018021004697704E-002   9.9102159577240806E-003   4.9651788268178704E-002
  -3.4617289930096815E-002   9.2115801827418360E-003   5.1014353064923260E-002
  -3.4216558855495904E-002   8.4321279330065169E-003   5.2669119334931125E-002
  -1.7483295757073095E-002   5.1280188444846053E-003   6.7078223625540001E-002
  -1.5403863172846439E-002   4.8735843324693717E-003   6.4416098670664668E-002
  -1.3324430588619804E-002   4.7293603433016668E-003   6.2633323015810011E-002
  -1.1244998004393141E-002   4.6953468769816535E-003   6.1729896660975711E-002
  -9.1655654201665132E-003   4.7715439335089815E-003   6.1705819606162171E-002
  -2.1954657728624906E-002   5.9540461166150416E-003   6.3667317820515268E-002
  -1.9141696986769839E-002   5.5617283097489090E-003   6.1151309927626712E-002
  -1.6328736244914790E-002   5.2590147928652520E-003   5.9223009049974518E-002
  -1.3515775503059711E-002   5.0459055659640914E-003   5.7882415187558517E-002
  -1.0702814761204653E-002   4.9224006290452538E-003   5.7129528340378544E-002
  -2.6233988902212606E-002   6.7800733887455056E-003   6.0128831837072141E-002
  -2.2979142287513479E-002   6.2498722870285295E-003   5.7738334773305339E-002
  -1.9724295672814356E-002   5.7886692424289551E-003   5.5643902439990560E-002
  -1.6469449058115235E-002   5.3964642549465310E-003   5.3845534837127604E-002
  -1.3214602443416046E-002   5.0732573245814150E-003   5.2343231964716685E-002
  -3.0321289277836325E-002   7.6061006608759557E-003   5.6462765675210844E-002
  -2.6916199075077439E-002   6.9380162643082749E-003   5.4177173207700664E-002
  -2.3511108872318567E-002   6.3183236919925438E-003   5.1896003185857943E-002
  -2.0106018669559689E-002   5.7470229439289698E-003   4.9619255609682944E-002
  -1.6700928466800810E-002   5.2241140201176317E-003   4.7346930479175250E-002
  -3.4216558855495904E-002   8.4321279330065169E-003   5.2669119334931125E-002
  -3.0952867349461635E-002   7.6261602415877983E-003   5.0467825230812446E-002
  -2.7689175843427380E-002   6.8479781415563545E-003   4.7979311287576820E-002
  -2.4425484337393076E-002   6.0975816329115196E-003   4.5203577505224551E-002
  -2.1161792831358828E-002   5.3749707156538484E-003   4.2140623883755390E-002
  -5.7151460271343844E-002   0.0000000000000000        3.4695238383922938E-002
  -5.7941834686159259E-002   2.0863112544086569E-003   3.8348020927894272E-002
  -5.8732209100974667E-002   4.1397488517874483E-003   4.2212382972536829E-002
  -5.9522583515790081E-002   6.1603127921363750E-003   4.6288324517850608E-002
  -6.0312957930605482E-002   8.1480030754554414E-003   5.0575845563835618E-002
  -6.5816884067397427E-002   0.0000000000000000        3.7218571523083006E-002
  -6.6624303910995109E-002   2.9148694802084750E-003   4.0839803103785356E-002
  -6.7431723754592804E-002   5.7716415300407978E-003   4.4215364326251935E-002
  -6.8239143598190485E-002   8.5703161494969649E-003   4.7345255190482743E-002
  -6.9046563441788167E-002   1.1310893338576988E-002   5.0229475696477767E-002
  -7.4239748353563492E-002   0.0000000000000000        4.0583074774716038E-002
  -7.5521463484850435E-002   3.7434277060082919E-003   4.4147531618803117E-002
  -7.6803178616137405E-002   7.4035342082941465E-003   4.7009068245747423E-002
  -7.8084893747424361E-002   1.0980319506857569E-002   4.9167684655548959E-002
  -7.9366608878711331E-002   1.4473783601698546E-002   5.0623380848207722E-002
  -8.2420053129842019E-002   0.0000000000000000        4.4788748138822027E-002
  -8.4633313407725258E-002   4.5719859318081096E-003   4.8271206472947553E-002
  -8.6846573685608483E-002   9.0354268865474926E-003   5.0593494731023314E-002
  -8.9059833963491722E-002   1.3390322864218167E-002   5.1755612913049302E-002
  -9.1273094241374961E-002   1.7636673864820096E-002   5.1757561019025504E-002
  -9.0357798396233036E-002   0.0000000000000000        4.9835591615400979E-002
  -9.3959853679619537E-002   5.4005441576079269E-003   5.3210827666218673E-002
  -9.7561908963006039E-002   1.0667319564800841E-002   5.4968643782079586E-002
 -0.10116396424639254        1.5800326221578759E-002   5.5109039962983726E-002
 -0.10476601952977904        2.0799564127941657E-002   5.3632016208931113E-002
  -6.0312957930605482E-002   8.1480030754554414E-003   5.0575845563835618E-002
  -6.0609725115804862E-002   1.0023694361479610E-002   5.1514650026151222E-002
  -6.0906492301004228E-002   1.1708261309943853E-002   5.2244765941730678E-002
  -6.1203259486203608E-002   1.3201703920848183E-002   5.2766193310573875E-002
  -6.1500026671402967E-002   1.4504022194192619E-002   5.3078932132680882E-002
  -6.9046563441788167E-002   1.1310893338576988E-002   5.0229475696477767E-002
  -6.9315343365690632E-002   1.3754323646989051E-002   4.9454855706826173E-002
  -6.9584123289593111E-002   1.5661557624441314E-002   4.8944898786504591E-002
  -6.9852903213495562E-002   1.7032595270933790E-002   4.8699604935513008E-002
  -7.0121683137398028E-002   1.7867436586466480E-002   4.8718974153851430E-002
  -7.9366608878711331E-002   1.4473783601698546E-002   5.0623380848207722E-002
  -7.9134049925250693E-002   1.7484952932498486E-002   4.7790264413189038E-002
  -7.8901490971790028E-002   1.9614853938938751E-002   4.5695162663566574E-002
  -7.8668932018329377E-002   2.0863486621019389E-002   4.4338075599340318E-002
  -7.8436373064868753E-002   2.1230850978740366E-002   4.3719003220510269E-002
  -9.1273094241374961E-002   1.7636673864820096E-002   5.1757561019025504E-002
  -9.0065844794484984E-002   2.1215582218007924E-002   4.6520876145239858E-002
  -8.8858595347595021E-002   2.3568150253436237E-002   4.2495557572916648E-002
  -8.7651345900705044E-002   2.4694377971104964E-002   3.9681605302055854E-002
  -8.6444096453815095E-002   2.4594265371014210E-002   3.8079019332657504E-002
 -0.10476601952977904        2.0799564127941657E-002   5.3632016208931113E-002
 -0.10211072797339354        2.4946211503517356E-002   4.5646690902978633E-002
  -9.9455436417008047E-002   2.7521446567933646E-002   3.9346083514554792E-002
  -9.6800144860622536E-002   2.8525269321190583E-002   3.4730194043659596E-002
  -9.4144853304237067E-002   2.7957679763288106E-002   3.1799022490293045E-002
  -6.1500026671402967E-002   1.4504022194192619E-002   5.3078932132680882E-002
  -6.0188184302126420E-002   1.5514551743742829E-002   5.1671035012903481E-002
  -5.8876341932849879E-002   1.6132628183264580E-002   5.0704196481861252E-002
  -5.7564499563573304E-002   1.6358251512757827E-002   5.0178416539554183E-002
  -5.6252657194296771E-002   1.6191421732222530E-002   5.0093695185982293E-002
  -7.0121683137398028E-002   1.7867436586466480E-002   4.8718974153851430E-002
  -6.8411383129633754E-002   1.8323574944287022E-002   4.7268611275104414E-002
  -6.6701083121869467E-002   1.8558503717642977E-002   4.6174105084597739E-002
  -6.4990783114105180E-002   1.8572222906534382E-002   4.5435455582331315E-002
  -6.3280483106340907E-002   1.8364732510961171E-002   4.5052662768305191E-002
  -7.8436373064868753E-002   2.1230850978740366E-002   4.3719003220510269E-002
  -7.6412817319111592E-002   2.1132598144831191E-002   4.2397418108357621E-002
  -7.4389261573354445E-002   2.0984379252021401E-002   4.1346487783950364E-002
  -7.2365705827597313E-002   2.0786194300310923E-002   4.0566212247288569E-002
  -7.0342150081840152E-002   2.0538043289699819E-002   4.0056591498372193E-002
  -8.6444096453815095E-002   2.4594265371014210E-002   3.8079019332657504E-002
  -8.4192486870559927E-002   2.3941621345375350E-002   3.7057455512663068E-002
  -8.1940877287304759E-002   2.3410254786399791E-002   3.6221344579919254E-002
  -7.9689267704049646E-002   2.3000165694087443E-002   3.5570686534425945E-002
  -7.7437658120794478E-002   2.2711354068438463E-002   3.5105481376183252E-002
  -9.4144853304237067E-002   2.7957679763288106E-002   3.1799022490293045E-002
  -9.1750391783978771E-002   2.6750644545919539E-002   3.1248723488020810E-002
  -8.9355930263720462E-002   2.5836130320778215E-002   3.0798675472504287E-002
  -8.6961468743462195E-002   2.5214137087864047E-002   3.0448878443743485E-002
  -8.4567007223203899E-002   2.4884664847177093E-002   3.0199332401738319E-002
  -5.6252657194296771E-002   1.6191421732222530E-002   5.0093695185982293E-002
  -5.4713275294701574E-002   1.5829969787345799E-002   4.9753329873701665E-002
  -5.3173893395106399E-002   1.5471726623814550E-002   4.9575453643539248E-002
  -5.1634511495511209E-002   1.5116692241628697E-002   4.9560066495495048E-002
  -5.0095129595916027E-002   1.4764866640788549E-002   4.9707168429569015E-002
  -6.3280483106340907E-002   1.8364732510961171E-002   4.5052662768305191E-002
  -6.1569467308948841E-002   1.8025880612023773E-002   4.4668448887788995E-002
  -5.9858451511556748E-002   1.7645515290822433E-002   4.4465013720748361E-002
  -5.8147435714164669E-002   1.7223636547357198E-002   4.4442357267183312E-002
  -5.6436419916772583E-002   1.6760244381628125E-002   4.4600479527093881E-002
  -7.0342150081840152E-002   2.0538043289699819E-002   4.0056591498372193E-002
  -6.8441210755293802E-002   2.0221791436701775E-002   3.9583806846010997E-002
  -6.6540271428747466E-002   1.9819303957830367E-002   3.9310090538482716E-002
  -6.4639332102201089E-002   1.9330580853085640E-002   3.9235442575787385E-002
  -6.2738392775654739E-002   1.8755622122467661E-002   3.9359862957925089E-002
  -7.7437658120794478E-002   2.2711354068438463E-002   3.5105481376183252E-002
  -7.5328505633736484E-002   2.2417702261379707E-002   3.4499403748367637E-002
  -7.3219353146678476E-002   2.1993092624838249E-002   3.4110684096742290E-002
  -7.1110200659620482E-002   2.1437525158814114E-002   3.3939322421307268E-002
  -6.9001048172562460E-002   2.0750999863307244E-002   3.3985318722062667E-002
  -8.4567007223203899E-002   2.4884664847177093E-002   3.0199332401738319E-002
  -8.2231351944276887E-002   2.4613613086057765E-002   2.9415239594858866E-002
  -7.9895696665349847E-002   2.4166881291846205E-002   2.8866794395527064E-002
  -7.7560041386422834E-002   2.3544469464542559E-002   2.8553996803743081E-002
  -7.5224386107495794E-002   2.2746377604146800E-002   2.8476846819506740E-002
  -5.0095129595916027E-002   1.4764866640788549E-002   4.9707168429569015E-002
  -4.8616574659374918E-002   1.4395729426866219E-002   4.9370173899919018E-002
  -4.7138019722833838E-002   1.3988760205434179E-002   4.9298583509594804E-002
  -4.5659464786292729E-002   1.3543958976492581E-002   4.9492397258596534E-002
  -4.4180909849751634E-002   1.3061325740041096E-002   4.9951615146924144E-002
  -5.6436419916772583E-002   1.6760244381628125E-002   4.4600479527093881E-002
  -5.4707183304817913E-002   1.6268085495741616E-002   4.4261153982725676E-002
  -5.2977946692863237E-002   1.5759906591804332E-002   4.4157787649858775E-002
  -5.1248710080908588E-002   1.5235707669816387E-002   4.4290380528493184E-002
  -4.9519473468953898E-002   1.4695488729777578E-002   4.4658932618628827E-002
  -6.2738392775654739E-002   1.8755622122467661E-002   3.9359862957925089E-002
  -6.0787919416111100E-002   1.8140441564617048E-002   3.9040018388297695E-002
  -5.8837446056567461E-002   1.7531052978174599E-002   3.8926688102346979E-002
  -5.6886972697023794E-002   1.6927456363140279E-002   3.9019872100072892E-002
  -5.4936499337480169E-002   1.6329651719514032E-002   3.9319570381475544E-002
  -6.9001048172562460E-002   2.0750999863307244E-002   3.3985318722062667E-002
  -6.6858782993254456E-002   2.0012797633492490E-002   3.3706767116635006E-002
  -6.4716517813946481E-002   1.9302199364544824E-002   3.3605284867059410E-002
  -6.2574252634638519E-002   1.8619205056464097E-002   3.3680871973335816E-002
  -6.0431987455330481E-002   1.7963814709250445E-002   3.3933528435464246E-002
  -7.5224386107495794E-002   2.2746377604146800E-002   2.8476846819506740E-002
  -7.2919774036248039E-002   2.1885153702367863E-002   2.8261400167737649E-002
  -7.0615161965000312E-002   2.1073345750915053E-002   2.8193577943995962E-002
  -6.8310549893752542E-002   2.0310953749788051E-002   2.8273380148281742E-002
  -6.6005937822504829E-002   1.9597977698986968E-002   2.8500806780594967E-002
  -4.4180909849751634E-002   1.3061325740041096E-002   4.9951615146924144E-002
  -4.2090553175788595E-002   1.2560395831348242E-002   4.9290299975259660E-002
  -4.0000196501825576E-002   1.2060704585682119E-002   4.8711802909297358E-002
  -3.7909839827862529E-002   1.1562252003042429E-002   4.8216123949037348E-002
  -3.5819483153899503E-002   1.1065038083429568E-002   4.7803263094479631E-002
  -4.9519473468953898E-002   1.4695488729777578E-002   4.4658932618628827E-002
  -4.7303882538830277E-002   1.4154555857885040E-002   4.3969486756783568E-002
  -4.5088291608706609E-002   1.3628215140335957E-002   4.3447691301557304E-002
  -4.2872700678582953E-002   1.3116466577130280E-002   4.3093546252949859E-002
  -4.0657109748459312E-002   1.2619310168267894E-002   4.2907051610961422E-002
  -5.4936499337480169E-002   1.6329651719514032E-002   3.9319570381475544E-002
  -5.2510841850279266E-002   1.5748715884421879E-002   3.8615347320766345E-002
  -5.0085184363078385E-002   1.5195725694989906E-002   3.8163606967592578E-002
  -4.7659526875877496E-002   1.4670681151217908E-002   3.7964349321954527E-002
  -4.5233869388676601E-002   1.4173582253106082E-002   3.8017574383851879E-002
  -6.0431987455330481E-002   1.7963814709250445E-002   3.3933528435464246E-002
  -5.7711431110135714E-002   1.7342875910958754E-002   3.3227881667207707E-002
  -5.4990874764940946E-002   1.6763236249643772E-002   3.2859549907403432E-002
  -5.2270318419746185E-002   1.6224895725305728E-002   3.2828533156051297E-002
  -4.9549762074551397E-002   1.5727854337944339E-002   3.3134831413151489E-002
  -6.6005937822504829E-002   1.9597977698986968E-002   2.8500806780594967E-002
  -6.2905650318399536E-002   1.8937035937495572E-002   2.7807089796107909E-002
  -5.9805362814294258E-002   1.8330746804297748E-002   2.7535520120989643E-002
  -5.6705075310188958E-002   1.7779110299393427E-002   2.7686097755240280E-002
  -5.3604787806083687E-002   1.7282126422782595E-002   2.8258822698859709E-002
  -3.5819483153899503E-002   1.1065038083429568E-002   4.7803263094479631E-002
  -3.5418752079298593E-002   1.0528035257953483E-002   4.8581424944697582E-002
  -3.5018021004697704E-002   9.9102159577240806E-003   4.9651788268178704E-002
  -3.4617289930096815E-002   9.2115801827418360E-003   5.1014353064923260E-002
  -3.4216558855495904E-002   8.4321279330065169E-003   5.2669119334931125E-002
  -4.0657109748459312E-002   1.2619310168267894E-002   4.2907051610961422E-002
  -4.0061163293767431E-002   1.2079471432835137E-002   4.3758707681230885E-002
  -3.9465216839075556E-002   1.1439675889918732E-002   4.4708593038418870E-002
  -3.8869270384383703E-002   1.0699923539518416E-002   4.5756707682525502E-002
  -3.8273323929691849E-002   9.8602143816345356E-003   4.6903051613550573E-002
  -4.5233869388676601E-002   1.4173582253106082E-002   3.8017574383851879E-002
  -4.4636679740238577E-002   1.3630907607716986E-002   3.8923584341442372E-002
  -4.4039490091800540E-002   1.2969135822113377E-002   3.9733851399606536E-002
  -4.3442300443362461E-002   1.2188266896295328E-002   4.0448375558344435E-002
  -4.2845110794924472E-002   1.1288300830262610E-002   4.1067156817656270E-002
  -4.9549762074551397E-002   1.5727854337944339E-002   3.3134831413151489E-002
  -4.9145301418711963E-002   1.5182343782598653E-002   3.4076054925331924E-002
  -4.8740840762872550E-002   1.4498595754308025E-002   3.4727563351741576E-002
  -4.8336380107033131E-002   1.3676610253071906E-002   3.5089356692380148E-002
  -4.7931919451193766E-002   1.2716387278890767E-002   3.5161434947247605E-002
  -5.3604787806083687E-002   1.7282126422782595E-002   2.8258822698859709E-002
  -5.3587028329187714E-002   1.6733779957480432E-002   2.9216119432899867E-002
  -5.3569268852291699E-002   1.6028055686502618E-002   2.9689728894824102E-002
  -5.3551509375395705E-002   1.5164953609848639E-002   2.9679651084632705E-002
  -5.3533749898499711E-002   1.4144473727518814E-002   2.9185886002325412E-002
  -3.4216558855495904E-002   8.4321279330065169E-003   5.2669119334931125E-002
  -3.0952867349461635E-002   7.6261602415877983E-003   5.0467825230812446E-002
  -2.7689175843427380E-002   6.8479781415563545E-003   4.7979311287576820E-002
  -2.4425484337393076E-002   6.0975816329115196E-003   4.5203577505224551E-002
  -2.1161792831358828E-002   5.3749707156538484E-003   4.2140623883755390E-002
  -3.8273323929691849E-002   9.8602143816345356E-003   4.6903051613550573E-002
  -3.5031179357644639E-002   9.0143384596895471E-003   4.4510113058899348E-002
  -3.1789034785597484E-002   8.2560858171066842E-003   4.2361300475390523E-002
  -2.8546890213550349E-002   7.5854564538856140E-003   4.0456613863024460E-002
  -2.5304745641503118E-002   7.0024503700266694E-003   3.8796053221800686E-002
  -4.2845110794924472E-002   1.1288300830262610E-002   4.1067156817656270E-002
  -3.9093167346605097E-002   1.0402516677791296E-002   3.8542411500447238E-002
  -3.5341223898285701E-002   9.6641934926569584E-003   3.6793137964640260E-002
  -3.1589280449966284E-002   9.0733312748598194E-003   3.5819336210235295E-002
  -2.7837337001646964E-002   8.6299300243994903E-003   3.5621006237232022E-002
  -4.7931919451193766E-002   1.2716387278890767E-002   3.5161434947247605E-002
  -4.3138831316342802E-002   1.1790694895892934E-002   3.2564720555456374E-002
  -3.8345743181491955E-002   1.1072301168207371E-002   3.1274823755326427E-002
  -3.3552655046641150E-002   1.0561206095833747E-002   3.1291744546857306E-002
  -2.8759566911790088E-002   1.0257409678772200E-002   3.2615482930049566E-002
  -5.3533749898499711E-002   1.4144473727518814E-002   2.9185886002325412E-002
  -4.7168171266858017E-002   1.3178873113994738E-002   2.6577040223926707E-002
  -4.0802592635216309E-002   1.2480408843757701E-002   2.5806357847448391E-002
  -3.4437014003574608E-002   1.2049080916808071E-002   2.6873838872890521E-002
  -2.8071435371932907E-002   1.1884889333145132E-002   2.9779483300253595E-002
  -9.0357798396233036E-002   0.0000000000000000        4.9835591615400979E-002
  -9.3959853679619537E-002   5.4005441576079269E-003   5.3210827666218673E-002
  -9.7561908963006039E-002   1.0667319564800841E-002   5.4968643782079586E-002
 -0.10116396424639254        1.5800326221578759E-002   5.5109039962983726E-002
 -0.10476601952977904        2.0799564127941657E-002   5.3632016208931113E-002
 -0.10329067463570098        0.0000000000000000        5.8658423098457105E-002
 -0.10682887264397602        1.0881426061014398E-002   5.2118422155811688E-002
 -0.11036707065225103        1.9169235377463963E-002   4.7323555698346016E-002
 -0.11390526866052605        2.4863427949348704E-002   4.4273823726060098E-002
 -0.11744346666880107        2.7964003776668606E-002   4.2969226238953884E-002
 -0.12645637233121038        0.0000000000000000        7.4192060481994601E-002
 -0.12656815864423743        1.6362307964420866E-002   5.5276974551736274E-002
 -0.12667994495726442        2.7671151190127082E-002   4.1469577526794192E-002
 -0.12679173127029147        3.3926529677118657E-002   3.2769869407168362E-002
 -0.12690351758331847        3.5128443425395554E-002   2.9177850192858793E-002
 -0.15985489148276119        0.0000000000000000        9.6436503766013482E-002
 -0.15317771168040373        2.1843189867827337E-002   6.2686484853992419E-002
 -0.14650053187804629        3.6173067002790216E-002   3.7406709267424121E-002
 -0.13982335207568880        4.2989631404888581E-002   2.0597177006308569E-002
 -0.13314617227333134        4.2292883074122517E-002   1.2257888070645732E-002
 -0.20348623209035346        0.0000000000000000       0.12539175295051375     
 -0.18665753175247499        2.7324071771233804E-002   7.4346953062580129E-002
 -0.16982883141459651        4.4674982815453311E-002   3.5134950920235754E-002
 -0.15300013107671803        5.2052733132658541E-002   7.7557465234806694E-003
 -0.13617143073883953        4.9457322722849459E-002  -7.7906601276851450E-003
 -0.10476601952977904        2.0799564127941657E-002   5.3632016208931113E-002
 -0.10211072797339354        2.4946211503517356E-002   4.5646690902978633E-002
  -9.9455436417008047E-002   2.7521446567933646E-002   3.9346083514554792E-002
  -9.6800144860622536E-002   2.8525269321190583E-002   3.4730194043659596E-002
  -9.4144853304237067E-002   2.7957679763288106E-002   3.1799022490293045E-002
 -0.11744346666880107        2.7964003776668606E-002   4.2969226238953884E-002
 -0.11348937532921184        2.9440544641207846E-002   3.6702446277103187E-002
 -0.10953528398962260        3.0262632324750571E-002   3.1348547964131300E-002
 -0.10558119265003336        3.0430266827296753E-002   2.6907531300038284E-002
 -0.10162710131044414        2.9943448148846433E-002   2.3379396284824040E-002
 -0.12690351758331847        3.5128443425395554E-002   2.9177850192858793E-002
 -0.12242246272917531        3.3934877778898323E-002   2.5546574705272683E-002
 -0.11794140787503213        3.3003818081567500E-002   2.2056344597915601E-002
 -0.11346035302088898        3.2335264333402877E-002   1.8707159870787613E-002
 -0.10897929816674579        3.1929216534404725E-002   1.5499020523888627E-002
 -0.13314617227333134        4.2292883074122517E-002   1.2257888070645732E-002
 -0.12890999017328403        3.8429210916588803E-002   1.2179076187487179E-002
 -0.12467380807323668        3.5745003838384318E-002   1.1469473415907750E-002
 -0.12043762597318936        3.4240261839509074E-002   1.0129079755907665E-002
 -0.11620144387314200        3.3914984919963066E-002   8.1578952074867882E-003
 -0.13617143073883953        4.9457322722849459E-002  -7.7906601276851450E-003
 -0.13295195766153789        4.2923544054279283E-002  -3.4000492762533974E-003
 -0.12973248458423620        3.8486189595201316E-002  -4.1206558189216952E-004
 -0.12651301150693456        3.6145259345615181E-002   1.1732909553985160E-003
 -0.12329353842963284        3.5900753305521338E-002   1.3560203356186851E-003
  -9.4144853304237067E-002   2.7957679763288106E-002   3.1799022490293045E-002
  -9.1750391783978771E-002   2.6750644545919539E-002   3.1248723488020810E-002
  -8.9355930263720462E-002   2.5836130320778215E-002   3.0798675472504287E-002
  -8.6961468743462195E-002   2.5214137087864047E-002   3.0448878443743485E-002
  -8.4567007223203899E-002   2.4884664847177093E-002   3.0199332401738319E-002
 -0.10162710131044414        2.9943448148846433E-002   2.3379396284824040E-002
  -9.9128042800265923E-002   2.9162290699578795E-002   2.3142642751416007E-002
  -9.6628984290087677E-002   2.8446908889673130E-002   2.3014832211092150E-002
  -9.4129925779909474E-002   2.7797302719129321E-002   2.2995964663852474E-002
  -9.1630867269731242E-002   2.7213472187947452E-002   2.3086040109697017E-002
 -0.10897929816674579        3.1929216534404725E-002   1.5499020523888627E-002
 -0.10636695066031918        3.1573936853238040E-002   1.5349067106479559E-002
 -0.10375460315389257        3.1057687458568000E-002   1.5316748688483105E-002
 -0.10114225564746594        3.0380468350394554E-002   1.5402065269899177E-002
  -9.8529908141039360E-002   2.9542279528717789E-002   1.5605016850727998E-002
 -0.11620144387314200        3.3914984919963066E-002   8.1578952074867882E-003
 -0.11346711536413856        3.3985583006897295E-002   7.8679965532114510E-003
 -0.11073278685513514        3.3668466027462929E-002   7.7044249046770734E-003
 -0.10799845834613167        3.2963633981659864E-002   7.6671802618836649E-003
 -0.10526412983712827        3.1871086869488141E-002   7.7562626248313905E-003
 -0.12329353842963284        3.5900753305521338E-002   1.3560203356186851E-003
 -0.12042853691172409        3.6397229160556530E-002   6.9943109161145489E-004
 -0.11756353539381535        3.6279244596357896E-002   1.7786085967389648E-004
 -0.11469853387590662        3.5546799612925048E-002  -2.0869036019430763E-004
 -0.11183353235799787        3.4199894210258486E-002  -4.6022256799266303E-004
  -8.4567007223203899E-002   2.4884664847177093E-002   3.0199332401738319E-002
  -8.2231351944276887E-002   2.4613613086057765E-002   2.9415239594858866E-002
  -7.9895696665349847E-002   2.4166881291846205E-002   2.8866794395527064E-002
  -7.7560041386422834E-002   2.3544469464542559E-002   2.8553996803743081E-002
  -7.5224386107495794E-002   2.2746377604146800E-002   2.8476846819506740E-002
  -9.1630867269731242E-002   2.7213472187947452E-002   2.3086040109697017E-002
  -8.9053453858165543E-002   2.6628078357634220E-002   2.2350585867769189E-002
  -8.6476040446599886E-002   2.5973782289696226E-002   2.1863000283571132E-002
  -8.3898627035034201E-002   2.5250583984133542E-002   2.1623283357102615E-002
  -8.1321213623468530E-002   2.4458483440946088E-002   2.1631435088363668E-002
  -9.8529908141039360E-002   2.9542279528717789E-002   1.5605016850727998E-002
  -9.5698515546653151E-002   2.8642543629210683E-002   1.5024978969219407E-002
  -9.2867122952266942E-002   2.7780683287546244E-002   1.4705030795622446E-002
  -9.0035730357880678E-002   2.6956698503724497E-002   1.4645172329936822E-002
  -8.7204337763494497E-002   2.6170589277745473E-002   1.4845403572162595E-002
 -0.10526412983712827        3.1871086869488141E-002   7.7562626248313905E-003
 -0.10216653700973960        3.0657008900787087E-002   7.4384188992094175E-003
  -9.9068944182350988E-002   2.9587584285396280E-002   7.3928859316807569E-003
  -9.5971351354962348E-002   2.8662813023315477E-002   7.6196637222454905E-003
  -9.2873758527573652E-002   2.7882695114544755E-002   8.1187522709037802E-003
 -0.11183353235799787        3.4199894210258486E-002  -4.6022256799266303E-004
 -0.10845751824742489        3.2671474172363629E-002  -4.0909434226063524E-004
 -0.10508150413685202        3.1394485283246260E-002  -7.3434308253433889E-005
 -0.10170549002627913        3.0368927542906397E-002   5.4675753402919774E-004
  -9.8329475915706177E-002   2.9594800951344036E-002   1.4514811845868225E-003
  -7.5224386107495794E-002   2.2746377604146800E-002   2.8476846819506740E-002
  -7.2919774036248039E-002   2.1885153702367863E-002   2.8261400167737649E-002
  -7.0615161965000312E-002   2.1073345750915053E-002   2.8193577943995962E-002
  -6.8310549893752542E-002   2.0310953749788051E-002   2.8273380148281742E-002
  -6.6005937822504829E-002   1.9597977698986968E-002   2.8500806780594967E-002
  -8.1321213623468530E-002   2.4458483440946088E-002   2.1631435088363668E-002
  -7.8886905059892598E-002   2.3636175305984983E-002   2.1640715379043676E-002
  -7.6452596496316666E-002   2.2822354225101385E-002   2.1761764226352683E-002
  -7.4018287932740789E-002   2.2017020198295007E-002   2.1994581630290649E-002
  -7.1583979369164788E-002   2.1220173225566130E-002   2.2339167590857495E-002
  -8.7204337763494497E-002   2.6170589277745473E-002   1.4845403572162595E-002
  -8.4676188578988898E-002   2.5387196909602054E-002   1.5038481909043347E-002
  -8.2148039394483285E-002   2.4571362699287714E-002   1.5307472931154375E-002
  -7.9619890209977617E-002   2.3723086646802099E-002   1.5652376638496036E-002
  -7.7091741025472088E-002   2.2842368752145292E-002   1.6073193031067912E-002
  -9.2873758527573652E-002   2.7882695114544755E-002   8.1187522709037802E-003
  -9.0287624593536883E-002   2.7138218513219344E-002   8.4546997577364912E-003
  -8.7701490659500128E-002   2.6320371173474126E-002   8.8307040584010704E-003
  -8.5115356725463373E-002   2.5429153095309097E-002   9.2467651728976221E-003
  -8.2529222791426562E-002   2.4464564278724399E-002   9.7028831012261896E-003
  -9.8329475915706177E-002   2.9594800951344036E-002   1.4514811845868225E-003
  -9.5721213103536706E-002   2.8889240116836384E-002   1.8893689251230916E-003
  -9.3112950291367236E-002   2.8069379647660292E-002   2.3314576080927379E-003
  -9.0504687479197765E-002   2.7135219543816223E-002   2.7777472334955845E-003
  -8.7896424667028294E-002   2.6086759805303616E-002   3.2282378013323565E-003
  -6.6005937822504829E-002   1.9597977698986968E-002   2.8500806780594967E-002
  -6.2905650318399536E-002   1.8937035937495572E-002   2.7807089796107909E-002
  -5.9805362814294258E-002   1.8330746804297748E-002   2.7535520120989643E-002
  -5.6705075310188958E-002   1.7779110299393427E-002   2.7686097755240280E-002
  -5.3604787806083687E-002   1.7282126422782595E-002   2.8258822698859709E-002
  -7.1583979369164788E-002   2.1220173225566130E-002   2.2339167590857495E-002
  -6.8138904616713084E-002   2.0461497964405551E-002   2.1699624934377049E-002
  -6.4693829864261448E-002   1.9770679072303690E-002   2.1327509465220496E-002
  -6.1248755111809730E-002   1.9147716549261038E-002   2.1222821183387960E-002
  -5.7803680359358095E-002   1.8592610395277320E-002   2.1385560088879318E-002
  -7.7091741025472088E-002   2.2842368752145292E-002   1.6073193031067912E-002
  -7.3456599146718871E-002   2.1985959991315168E-002   1.5501028443359613E-002
  -6.9821457267965584E-002   2.1210611340309632E-002   1.5041570920930183E-002
  -6.6186315389212352E-002   2.0516322799128649E-002   1.4694820463780109E-002
  -6.2551173510459135E-002   1.9903094367772101E-002   1.4460777071909070E-002
  -8.2529222791426562E-002   2.4464564278724399E-002   9.7028831012261896E-003
  -7.8858733908416634E-002   2.3510422018224855E-002   9.2113003230555879E-003
  -7.5188245025406719E-002   2.2650543608315490E-002   8.6777044881187274E-003
  -7.1517756142396846E-002   2.1884929048995982E-002   8.1020955964166523E-003
  -6.7847267259386876E-002   2.1213578340266798E-002   7.4844736479487070E-003
  -8.7896424667028294E-002   2.6086759805303616E-002   3.2282378013323565E-003
  -8.4345308901806582E-002   2.5034884045134875E-002   2.8304405734645433E-003
  -8.0794193136584813E-002   2.4090475876321377E-002   2.2359101667863840E-003
  -7.7243077371363017E-002   2.3253535298863919E-002   1.4446465812974242E-003
  -7.3691961606141332E-002   2.2524062312761606E-002   4.5664981699822249E-004
  -5.3604787806083687E-002   1.7282126422782595E-002   2.8258822698859709E-002
  -5.3587028329187714E-002   1.6733779957480432E-002   2.9216119432899867E-002
  -5.3569268852291699E-002   1.6028055686502618E-002   2.9689728894824102E-002
  -5.3551509375395705E-002   1.5164953609848639E-002   2.9679651084632705E-002
  -5.3533749898499711E-002   1.4144473727518814E-002   2.9185886002325412E-002
  -5.7803680359358095E-002   1.8592610395277320E-002   2.1385560088879318E-002
  -5.7979681987819526E-002   1.7995785386207080E-002   2.1929846449397106E-002
  -5.8155683616281054E-002   1.7247666297904765E-002   2.2570297871315759E-002
  -5.8331685244742575E-002   1.6348253130370253E-002   2.3306914354635153E-002
  -5.8507686873204054E-002   1.5297545883603658E-002   2.4139695899355551E-002
  -6.2551173510459135E-002   1.9903094367772101E-002   1.4460777071909070E-002
  -6.2341083910761472E-002   1.9257790814933701E-002   1.4598136785348201E-002
  -6.2130994311063753E-002   1.8467276909307023E-002   1.5411513893704890E-002
  -6.1920904711366069E-002   1.7531552650891812E-002   1.6900908396979129E-002
  -6.1710815111668378E-002   1.6450618039688336E-002   1.9066320295170663E-002
  -6.7847267259386876E-002   2.1213578340266798E-002   7.4844736479487070E-003
  -6.6671234098013316E-002   2.0519796243660113E-002   7.2209904407528266E-003
  -6.5495200936639825E-002   1.9686887520709004E-002   8.2133769619915226E-003
  -6.4319167775266306E-002   1.8714852171413287E-002   1.0461633211664028E-002
  -6.3143134613892787E-002   1.7603690195772931E-002   1.3965759189770832E-002
  -7.3691961606141332E-002   2.2524062312761606E-002   4.5664981699822249E-004
  -7.0970132549575293E-002   2.1781801672387024E-002  -2.0159258438867678E-004
  -6.8248303493009255E-002   2.0906498132111345E-002   9.7588707617565773E-004
  -6.5526474436443216E-002   1.9898151691935186E-002   3.9890887986903864E-003
  -6.2804645379877178E-002   1.8756762351857748E-002   8.8380125831561962E-003
  -5.3533749898499711E-002   1.4144473727518814E-002   2.9185886002325412E-002
  -4.7168171266858017E-002   1.3178873113994738E-002   2.6577040223926707E-002
  -4.0802592635216309E-002   1.2480408843757701E-002   2.5806357847448391E-002
  -3.4437014003574608E-002   1.2049080916808071E-002   2.6873838872890521E-002
  -2.8071435371932907E-002   1.1884889333145132E-002   2.9779483300253595E-002
  -5.8507686873204054E-002   1.5297545883603658E-002   2.4139695899355551E-002
  -5.1148048632515999E-002   1.4274413110710454E-002   2.2694344749456002E-002
  -4.3788410391827896E-002   1.3457723364797031E-002   2.1398949415728702E-002
  -3.6428772151139849E-002   1.2847476645862978E-002   2.0253509898173844E-002
  -2.9069133910451739E-002   1.2443672953908469E-002   1.9258026196791067E-002
  -6.1710815111668378E-002   1.6450618039688336E-002   1.9066320295170663E-002
  -5.5045324847682139E-002   1.5369953107426365E-002   1.8723770457462735E-002
  -4.8379834583695949E-002   1.4435037885836291E-002   1.6842968850178747E-002
  -4.1714344319709655E-002   1.3645872374917965E-002   1.3423915473318997E-002
  -3.5048854055723472E-002   1.3002456574671806E-002   8.4666103268833948E-003
  -6.3143134613892787E-002   1.7603690195772931E-002   1.3965759189770832E-002
  -5.8859999912356534E-002   1.6465493104142234E-002   1.4665317347946620E-002
  -5.4576865210820363E-002   1.5412352406875475E-002   1.2138416150798550E-002
  -5.0293730509284137E-002   1.4444268103973356E-002   6.3850555983260247E-003
  -4.6010595807747981E-002   1.3561240195435142E-002  -2.5947643094706985E-003
  -6.2804645379877178E-002   1.8756762351857748E-002   8.8380125831561962E-003
  -6.2592073826539307E-002   1.7561033100857881E-002   1.0518985420908178E-002
  -6.2379502273201326E-002   1.6389666927914964E-002   7.2852913175876777E-003
  -6.2166930719863511E-002   1.5242663833028268E-002  -8.6306972680481181E-004
  -6.1954359166525474E-002   1.4120023816198479E-002  -1.3926097712269936E-002
 </DataArray>
 </PointData>
 </Piece>
 <Piece  NumberOfPoints="          1600 "  NumberOfCells="         1024 ">
 <Points>
 <DataArray  type="Float64" NumberOfComponents="3"  format="ascii" >
  0.50000000000000000        0.0000000000000000        0.0000000000000000     
  0.53125000000000000        0.0000000000000000        0.0000000000000000     
  0.56250000000000000        0.0000000000000000        0.0000000000000000     
  0.59375000000000000        0.0000000000000000        0.0000000000000000     
  0.62500000000000000        0.0000000000000000        0.0000000000000000     
  0.50000000000000000        3.1250000000000000E-002   0.0000000000000000     
  0.53125000000000000        3.1250000000000000E-002   0.0000000000000000     
  0.56250000000000000        3.1250000000000000E-002   0.0000000000000000     
  0.59375000000000000        3.1250000000000000E-002   0.0000000000000000     
  0.62500000000000000        3.1250000000000000E-002   0.0000000000000000     
  0.50000000000000000        6.2500000000000000E-002   0.0000000000000000     
  0.53125000000000000        6.2500000000000000E-002   0.0000000000000000     
  0.56250000000000000        6.2500000000000000E-002   0.0000000000000000     
  0.59375000000000000        6.2500000000000000E-002   0.0000000000000000     
  0.62500000000000000        6.2500000000000000E-002   0.0000000000000000     
  0.50000000000000000        9.3750000000000000E-002   0.0000000000000000     
  0.53125000000000000        9.3750000000000000E-002   0.0000000000000000     
  0.56250000000000000        9.3750000000000000E-002   0.0000000000000000     
  0.59375000000000000        9.3750000000000000E-002   0.0000000000000000     
  0.62500000000000000        9.3750000000000000E-002   0.0000000000000000     
  0.50000000000000000       0.12500000000000000        0.0000000000000000     
  0.53125000000000000       0.12500000000000000        0.0000000000000000     
  0.56250000000000000       0.12500000000000000        0.0000000000000000     
  0.59375000000000000       0.12500000000000000        0.0000000000000000     
  0.62500000000000000       0.12500000000000000        0.0000000000000000     
  0.62500000000000000        0.0000000000000000        0.0000000000000000     
  0.65625000000000000        0.0000000000000000        0.0000000000000000     
  0.68750000000000000        0.0000000000000000        0.0000000000000000     
  0.71875000000000000        0.0000000000000000        0.0000000000000000     
  0.75000000000000000        0.0000000000000000        0.0000000000000000     
  0.62500000000000000        3.1250000000000000E-002   0.0000000000000000     
  0.65625000000000000        3.1250000000000000E-002   0.0000000000000000     
  0.68750000000000000        3.1250000000000000E-002   0.0000000000000000     
  0.71875000000000000        3.1250000000000000E-002   0.0000000000000000     
  0.75000000000000000        3.1250000000000000E-002   0.0000000000000000     
  0.62500000000000000        6.2500000000000000E-002   0.0000000000000000     
  0.65625000000000000        6.2500000000000000E-002   0.0000000000000000     
  0.68750000000000000        6.2500000000000000E-002   0.0000000000000000     
  0.71875000000000000        6.2500000000000000E-002   0.0000000000000000     
  0.75000000000000000        6.2500000000000000E-002   0.0000000000000000     
  0.62500000000000000        9.3750000000000000E-002   0.0000000000000000     
  0.65625000000000000        9.3750000000000000E-002   0.0000000000000000     
  0.68750000000000000        9.3750000000000000E-002   0.0000000000000000     
  0.71875000000000000        9.3750000000000000E-002   0.0000000000000000     
  0.75000000000000000        9.3750000000000000E-002   0.0000000000000000     
  0.62500000000000000       0.12500000000000000        0.0000000000000000     
  0.65625000000000000       0.12500000000000000        0.0000000000000000     
  0.68750000000000000       0.12500000000000000        0.0000000000000000     
  0.71875000000000000       0.12500000000000000        0.0000000000000000     
  0.75000000000000000       0.12500000000000000        0.0000000000000000     
  0.75000000000000000        0.0000000000000000        0.0000000000000000     
  0.78125000000000000        0.0000000000000000        0.0000000000000000     
  0.81250000000000000        0.0000000000000000        0.0000000000000000     
  0.84375000000000000        0.0000000000000000        0.0000000000000000     
  0.87500000000000000        0.0000000000000000        0.0000000000000000     
  0.75000000000000000        3.1250000000000000E-002   0.0000000000000000     
  0.78125000000000000        3.1250000000000000E-002   0.0000000000000000     
  0.81250000000000000        3.1250000000000000E-002   0.0000000000000000     
  0.84375000000000000        3.1250000000000000E-002   0.0000000000000000     
  0.87500000000000000        3.1250000000000000E-002   0.0000000000000000     
  0.75000000000000000        6.2500000000000000E-002   0.0000000000000000     
  0.78125000000000000        6.2500000000000000E-002   0.0000000000000000     
  0.81250000000000000        6.2500000000000000E-002   0.0000000000000000     
  0.84375000000000000        6.2500000000000000E-002   0.0000000000000000     
  0.87500000000000000        6.2500000000000000E-002   0.0000000000000000     
  0.75000000000000000        9.3750000000000000E-002   0.0000000000000000     
  0.78125000000000000        9.3750000000000000E-002   0.0000000000000000     
  0.81250000000000000        9.3750000000000000E-002   0.0000000000000000     
  0.84375000000000000        9.3750000000000000E-002   0.0000000000000000     
  0.87500000000000000        9.3750000000000000E-002   0.0000000000000000     
  0.75000000000000000       0.12500000000000000        0.0000000000000000     
  0.78125000000000000       0.12500000000000000        0.0000000000000000     
  0.81250000000000000       0.12500000000000000        0.0000000000000000     
  0.84375000000000000       0.12500000000000000        0.0000000000000000     
  0.87500000000000000       0.12500000000000000        0.0000000000000000     
  0.87500000000000000        0.0000000000000000        0.0000000000000000     
  0.90625000000000000        0.0000000000000000        0.0000000000000000     
  0.93750000000000000        0.0000000000000000        0.0000000000000000     
  0.96875000000000000        0.0000000000000000        0.0000000000000000     
   1.0000000000000000        0.0000000000000000        0.0000000000000000     
  0.87500000000000000        3.1250000000000000E-002   0.0000000000000000     
  0.90625000000000000        3.1250000000000000E-002   0.0000000000000000     
  0.93750000000000000        3.1250000000000000E-002   0.0000000000000000     
  0.96875000000000000        3.1250000000000000E-002   0.0000000000000000     
   1.0000000000000000        3.1250000000000000E-002   0.0000000000000000     
  0.87500000000000000        6.2500000000000000E-002   0.0000000000000000     
  0.90625000000000000        6.2500000000000000E-002   0.0000000000000000     
  0.93750000000000000        6.2500000000000000E-002   0.0000000000000000     
  0.96875000000000000        6.2500000000000000E-002   0.0000000000000000     
   1.0000000000000000        6.2500000000000000E-002   0.0000000000000000     
  0.87500000000000000        9.3750000000000000E-002   0.0000000000000000     
  0.90625000000000000        9.3750000000000000E-002   0.0000000000000000     
  0.93750000000000000        9.3750000000000000E-002   0.0000000000000000     
  0.96875000000000000        9.3750000000000000E-002   0.0000000000000000     
   1.0000000000000000        9.3750000000000000E-002   0.0000000000000000     
  0.87500000000000000       0.12500000000000000        0.0000000000000000     
  0.90625000000000000       0.12500000000000000        0.0000000000000000     
  0.93750000000000000       0.12500000000000000        0.0000000000000000     
  0.96875000000000000       0.12500000000000000        0.0000000000000000     
   1.0000000000000000       0.12500000000000000        0.0000000000000000     
   1.0000000000000000        0.0000000000000000        0.0000000000000000     
   1.0312500000000000        0.0000000000000000        0.0000000000000000     
   1.0625000000000000        0.0000000000000000        0.0000000000000000     
   1.0937500000000000        0.0000000000000000        0.0000000000000000     
   1.1250000000000000        0.0000000000000000        0.0000000000000000     
   1.0000000000000000        3.1250000000000000E-002   0.0000000000000000     
   1.0312500000000000        3.1250000000000000E-002   0.0000000000000000     
   1.0625000000000000        3.1250000000000000E-002   0.0000000000000000     
   1.0937500000000000        3.1250000000000000E-002   0.0000000000000000     
   1.1250000000000000        3.1250000000000000E-002   0.0000000000000000     
   1.0000000000000000        6.2500000000000000E-002   0.0000000000000000     
   1.0312500000000000        6.2500000000000000E-002   0.0000000000000000     
   1.0625000000000000        6.2500000000000000E-002   0.0000000000000000     
   1.0937500000000000        6.2500000000000000E-002   0.0000000000000000     
   1.1250000000000000        6.2500000000000000E-002   0.0000000000000000     
   1.0000000000000000        9.3750000000000000E-002   0.0000000000000000     
   1.0312500000000000        9.3750000000000000E-002   0.0000000000000000     
   1.0625000000000000        9.3750000000000000E-002   0.0000000000000000     
   1.0937500000000000        9.3750000000000000E-002   0.0000000000000000     
   1.1250000000000000        9.3750000000000000E-002   0.0000000000000000     
   1.0000000000000000       0.12500000000000000        0.0000000000000000     
   1.0312500000000000       0.12500000000000000        0.0000000000000000     
   1.0625000000000000       0.12500000000000000        0.0000000000000000     
   1.0937500000000000       0.12500000000000000        0.0000000000000000     
   1.1250000000000000       0.12500000000000000        0.0000000000000000     
   1.1250000000000000        0.0000000000000000        0.0000000000000000     
   1.1562500000000000        0.0000000000000000        0.0000000000000000     
   1.1875000000000000        0.0000000000000000        0.0000000000000000     
   1.2187500000000000        0.0000000000000000        0.0000000000000000     
   1.2500000000000000        0.0000000000000000        0.0000000000000000     
   1.1250000000000000        3.1250000000000000E-002   0.0000000000000000     
   1.1562500000000000        3.1250000000000000E-002   0.0000000000000000     
   1.1875000000000000        3.1250000000000000E-002   0.0000000000000000     
   1.2187500000000000        3.1250000000000000E-002   0.0000000000000000     
   1.2500000000000000        3.1250000000000000E-002   0.0000000000000000     
   1.1250000000000000        6.2500000000000000E-002   0.0000000000000000     
   1.1562500000000000        6.2500000000000000E-002   0.0000000000000000     
   1.1875000000000000        6.2500000000000000E-002   0.0000000000000000     
   1.2187500000000000        6.2500000000000000E-002   0.0000000000000000     
   1.2500000000000000        6.2500000000000000E-002   0.0000000000000000     
   1.1250000000000000        9.3750000000000000E-002   0.0000000000000000     
   1.1562500000000000        9.3750000000000000E-002   0.0000000000000000     
   1.1875000000000000        9.3750000000000000E-002   0.0000000000000000     
   1.2187500000000000        9.3750000000000000E-002   0.0000000000000000     
   1.2500000000000000        9.3750000000000000E-002   0.0000000000000000     
   1.1250000000000000       0.12500000000000000        0.0000000000000000     
   1.1562500000000000       0.12500000000000000        0.0000000000000000     
   1.1875000000000000       0.12500000000000000        0.0000000000000000     
   1.2187500000000000       0.12500000000000000        0.0000000000000000     
   1.2500000000000000       0.12500000000000000        0.0000000000000000     
   1.2500000000000000        0.0000000000000000        0.0000000000000000     
   1.2812500000000000        0.0000000000000000        0.0000000000000000     
   1.3125000000000000        0.0000000000000000        0.0000000000000000     
   1.3437500000000000        0.0000000000000000        0.0000000000000000     
   1.3750000000000000        0.0000000000000000        0.0000000000000000     
   1.2500000000000000        3.1250000000000000E-002   0.0000000000000000     
   1.2812500000000000        3.1250000000000000E-002   0.0000000000000000     
   1.3125000000000000        3.1250000000000000E-002   0.0000000000000000     
   1.3437500000000000        3.1250000000000000E-002   0.0000000000000000     
   1.3750000000000000        3.1250000000000000E-002   0.0000000000000000     
   1.2500000000000000        6.2500000000000000E-002   0.0000000000000000     
   1.2812500000000000        6.2500000000000000E-002   0.0000000000000000     
   1.3125000000000000        6.2500000000000000E-002   0.0000000000000000     
   1.3437500000000000        6.2500000000000000E-002   0.0000000000000000     
   1.3750000000000000        6.2500000000000000E-002   0.0000000000000000     
   1.2500000000000000        9.3750000000000000E-002   0.0000000000000000     
   1.2812500000000000        9.3750000000000000E-002   0.0000000000000000     
   1.3125000000000000        9.3750000000000000E-002   0.0000000000000000     
   1.3437500000000000        9.3750000000000000E-002   0.0000000000000000     
   1.3750000000000000        9.3750000000000000E-002   0.0000000000000000     
   1.2500000000000000       0.12500000000000000        0.0000000000000000     
   1.2812500000000000       0.12500000000000000        0.0000000000000000     
   1.3125000000000000       0.12500000000000000        0.0000000000000000     
   1.3437500000000000       0.12500000000000000        0.0000000000000000     
   1.3750000000000000       0.12500000000000000        0.0000000000000000     
   1.3750000000000000        0.0000000000000000        0.0000000000000000     
   1.4062500000000000        0.0000000000000000        0.0000000000000000     
   1.4375000000000000        0.0000000000000000        0.0000000000000000     
   1.4687500000000000        0.0000000000000000        0.0000000000000000     
   1.5000000000000000        0.0000000000000000        0.0000000000000000     
   1.3750000000000000        3.1250000000000000E-002   0.0000000000000000     
   1.4062500000000000        3.1250000000000000E-002   0.0000000000000000     
   1.4375000000000000        3.1250000000000000E-002   0.0000000000000000     
   1.4687500000000000        3.1250000000000000E-002   0.0000000000000000     
   1.5000000000000000        3.1250000000000000E-002   0.0000000000000000     
   1.3750000000000000        6.2500000000000000E-002   0.0000000000000000     
   1.4062500000000000        6.2500000000000000E-002   0.0000000000000000     
   1.4375000000000000        6.2500000000000000E-002   0.0000000000000000     
   1.4687500000000000        6.2500000000000000E-002   0.0000000000000000     
   1.5000000000000000        6.2500000000000000E-002   0.0000000000000000     
   1.3750000000000000        9.3750000000000000E-002   0.0000000000000000     
   1.4062500000000000        9.3750000000000000E-002   0.0000000000000000     
   1.4375000000000000        9.3750000000000000E-002   0.0000000000000000     
   1.4687500000000000        9.3750000000000000E-002   0.0000000000000000     
   1.5000000000000000        9.3750000000000000E-002   0.0000000000000000     
   1.3750000000000000       0.12500000000000000        0.0000000000000000     
   1.4062500000000000       0.12500000000000000        0.0000000000000000     
   1.4375000000000000       0.12500000000000000        0.0000000000000000     
   1.4687500000000000       0.12500000000000000        0.0000000000000000     
   1.5000000000000000       0.12500000000000000        0.0000000000000000     
  0.50000000000000000       0.12500000000000000        0.0000000000000000     
  0.53125000000000000       0.12500000000000000        0.0000000000000000     
  0.56250000000000000       0.12500000000000000        0.0000000000000000     
  0.59375000000000000       0.12500000000000000        0.0000000000000000     
  0.62500000000000000       0.12500000000000000        0.0000000000000000     
  0.50000000000000000       0.15625000000000000        0.0000000000000000     
  0.53125000000000000       0.15625000000000000        0.0000000000000000     
  0.56250000000000000       0.15625000000000000        0.0000000000000000     
  0.59375000000000000       0.15625000000000000        0.0000000000000000     
  0.62500000000000000       0.15625000000000000        0.0000000000000000     
  0.50000000000000000       0.18750000000000000        0.0000000000000000     
  0.53125000000000000       0.18750000000000000        0.0000000000000000     
  0.56250000000000000       0.18750000000000000        0.0000000000000000     
  0.59375000000000000       0.18750000000000000        0.0000000000000000     
  0.62500000000000000       0.18750000000000000        0.0000000000000000     
  0.50000000000000000       0.21875000000000000        0.0000000000000000     
  0.53125000000000000       0.21875000000000000        0.0000000000000000     
  0.56250000000000000       0.21875000000000000        0.0000000000000000     
  0.59375000000000000       0.21875000000000000        0.0000000000000000     
  0.62500000000000000       0.21875000000000000        0.0000000000000000     
  0.50000000000000000       0.25000000000000000        0.0000000000000000     
  0.53125000000000000       0.25000000000000000        0.0000000000000000     
  0.56250000000000000       0.25000000000000000        0.0000000000000000     
  0.59375000000000000       0.25000000000000000        0.0000000000000000     
  0.62500000000000000       0.25000000000000000        0.0000000000000000     
  0.62500000000000000       0.12500000000000000        0.0000000000000000     
  0.65625000000000000       0.12500000000000000        0.0000000000000000     
  0.68750000000000000       0.12500000000000000        0.0000000000000000     
  0.71875000000000000       0.12500000000000000        0.0000000000000000     
  0.75000000000000000       0.12500000000000000        0.0000000000000000     
  0.62500000000000000       0.15625000000000000        0.0000000000000000     
  0.65625000000000000       0.15625000000000000        0.0000000000000000     
  0.68750000000000000       0.15625000000000000        0.0000000000000000     
  0.71875000000000000       0.15625000000000000        0.0000000000000000     
  0.75000000000000000       0.15625000000000000        0.0000000000000000     
  0.62500000000000000       0.18750000000000000        0.0000000000000000     
  0.65625000000000000       0.18750000000000000        0.0000000000000000     
  0.68750000000000000       0.18750000000000000        0.0000000000000000     
  0.71875000000000000       0.18750000000000000        0.0000000000000000     
  0.75000000000000000       0.18750000000000000        0.0000000000000000     
  0.62500000000000000       0.21875000000000000        0.0000000000000000     
  0.65625000000000000       0.21875000000000000        0.0000000000000000     
  0.68750000000000000       0.21875000000000000        0.0000000000000000     
  0.71875000000000000       0.21875000000000000        0.0000000000000000     
  0.75000000000000000       0.21875000000000000        0.0000000000000000     
  0.62500000000000000       0.25000000000000000        0.0000000000000000     
  0.65625000000000000       0.25000000000000000        0.0000000000000000     
  0.68750000000000000       0.25000000000000000        0.0000000000000000     
  0.71875000000000000       0.25000000000000000        0.0000000000000000     
  0.75000000000000000       0.25000000000000000        0.0000000000000000     
  0.75000000000000000       0.12500000000000000        0.0000000000000000     
  0.78125000000000000       0.12500000000000000        0.0000000000000000     
  0.81250000000000000       0.12500000000000000        0.0000000000000000     
  0.84375000000000000       0.12500000000000000        0.0000000000000000     
  0.87500000000000000       0.12500000000000000        0.0000000000000000     
  0.75000000000000000       0.15625000000000000        0.0000000000000000     
  0.78125000000000000       0.15625000000000000        0.0000000000000000     
  0.81250000000000000       0.15625000000000000        0.0000000000000000     
  0.84375000000000000       0.15625000000000000        0.0000000000000000     
  0.87500000000000000       0.15625000000000000        0.0000000000000000     
  0.75000000000000000       0.18750000000000000        0.0000000000000000     
  0.78125000000000000       0.18750000000000000        0.0000000000000000     
  0.81250000000000000       0.18750000000000000        0.0000000000000000     
  0.84375000000000000       0.18750000000000000        0.0000000000000000     
  0.87500000000000000       0.18750000000000000        0.0000000000000000     
  0.75000000000000000       0.21875000000000000        0.0000000000000000     
  0.78125000000000000       0.21875000000000000        0.0000000000000000     
  0.81250000000000000       0.21875000000000000        0.0000000000000000     
  0.84375000000000000       0.21875000000000000        0.0000000000000000     
  0.87500000000000000       0.21875000000000000        0.0000000000000000     
  0.75000000000000000       0.25000000000000000        0.0000000000000000     
  0.78125000000000000       0.25000000000000000        0.0000000000000000     
  0.81250000000000000       0.25000000000000000        0.0000000000000000     
  0.84375000000000000       0.25000000000000000        0.0000000000000000     
  0.87500000000000000       0.25000000000000000        0.0000000000000000     
  0.87500000000000000       0.12500000000000000        0.0000000000000000     
  0.90625000000000000       0.12500000000000000        0.0000000000000000     
  0.93750000000000000       0.12500000000000000        0.0000000000000000     
  0.96875000000000000       0.12500000000000000        0.0000000000000000     
   1.0000000000000000       0.12500000000000000        0.0000000000000000     
  0.87500000000000000       0.15625000000000000        0.0000000000000000     
  0.90625000000000000       0.15625000000000000        0.0000000000000000     
  0.93750000000000000       0.15625000000000000        0.0000000000000000     
  0.96875000000000000       0.15625000000000000        0.0000000000000000     
   1.0000000000000000       0.15625000000000000        0.0000000000000000     
  0.87500000000000000       0.18750000000000000        0.0000000000000000     
  0.90625000000000000       0.18750000000000000        0.0000000000000000     
  0.93750000000000000       0.18750000000000000        0.0000000000000000     
  0.96875000000000000       0.18750000000000000        0.0000000000000000     
   1.0000000000000000       0.18750000000000000        0.0000000000000000     
  0.87500000000000000       0.21875000000000000        0.0000000000000000     
  0.90625000000000000       0.21875000000000000        0.0000000000000000     
  0.93750000000000000       0.21875000000000000        0.0000000000000000     
  0.96875000000000000       0.21875000000000000        0.0000000000000000     
   1.0000000000000000       0.21875000000000000        0.0000000000000000     
  0.87500000000000000       0.25000000000000000        0.0000000000000000     
  0.90625000000000000       0.25000000000000000        0.0000000000000000     
  0.93750000000000000       0.25000000000000000        0.0000000000000000     
  0.96875000000000000       0.25000000000000000        0.0000000000000000     
   1.0000000000000000       0.25000000000000000        0.0000000000000000     
   1.0000000000000000       0.12500000000000000        0.0000000000000000     
   1.0312500000000000       0.12500000000000000        0.0000000000000000     
   1.0625000000000000       0.12500000000000000        0.0000000000000000     
   1.0937500000000000       0.12500000000000000        0.0000000000000000     
   1.1250000000000000       0.12500000000000000        0.0000000000000000     
   1.0000000000000000       0.15625000000000000        0.0000000000000000     
   1.0312500000000000       0.15625000000000000        0.0000000000000000     
   1.0625000000000000       0.15625000000000000        0.0000000000000000     
   1.0937500000000000       0.15625000000000000        0.0000000000000000     
   1.1250000000000000       0.15625000000000000        0.0000000000000000     
   1.0000000000000000       0.18750000000000000        0.0000000000000000     
   1.0312500000000000       0.18750000000000000        0.0000000000000000     
   1.0625000000000000       0.18750000000000000        0.0000000000000000     
   1.0937500000000000       0.18750000000000000        0.0000000000000000     
   1.1250000000000000       0.18750000000000000        0.0000000000000000     
   1.0000000000000000       0.21875000000000000        0.0000000000000000     
   1.0312500000000000       0.21875000000000000        0.0000000000000000     
   1.0625000000000000       0.21875000000000000        0.0000000000000000     
   1.0937500000000000       0.21875000000000000        0.0000000000000000     
   1.1250000000000000       0.21875000000000000        0.0000000000000000     
   1.0000000000000000       0.25000000000000000        0.0000000000000000     
   1.0312500000000000       0.25000000000000000        0.0000000000000000     
   1.0625000000000000       0.25000000000000000        0.0000000000000000     
   1.0937500000000000       0.25000000000000000        0.0000000000000000     
   1.1250000000000000       0.25000000000000000        0.0000000000000000     
   1.1250000000000000       0.12500000000000000        0.0000000000000000     
   1.1562500000000000       0.12500000000000000        0.0000000000000000     
   1.1875000000000000       0.12500000000000000        0.0000000000000000     
   1.2187500000000000       0.12500000000000000        0.0000000000000000     
   1.2500000000000000       0.12500000000000000        0.0000000000000000     
   1.1250000000000000       0.15625000000000000        0.0000000000000000     
   1.1562500000000000       0.15625000000000000        0.0000000000000000     
   1.1875000000000000       0.15625000000000000        0.0000000000000000     
   1.2187500000000000       0.15625000000000000        0.0000000000000000     
   1.2500000000000000       0.15625000000000000        0.0000000000000000     
   1.1250000000000000       0.18750000000000000        0.0000000000000000     
   1.1562500000000000       0.18750000000000000        0.0000000000000000     
   1.1875000000000000       0.18750000000000000        0.0000000000000000     
   1.2187500000000000       0.18750000000000000        0.0000000000000000     
   1.2500000000000000       0.18750000000000000        0.0000000000000000     
   1.1250000000000000       0.21875000000000000        0.0000000000000000     
   1.1562500000000000       0.21875000000000000        0.0000000000000000     
   1.1875000000000000       0.21875000000000000        0.0000000000000000     
   1.2187500000000000       0.21875000000000000        0.0000000000000000     
   1.2500000000000000       0.21875000000000000        0.0000000000000000     
   1.1250000000000000       0.25000000000000000        0.0000000000000000     
   1.1562500000000000       0.25000000000000000        0.0000000000000000     
   1.1875000000000000       0.25000000000000000        0.0000000000000000     
   1.2187500000000000       0.25000000000000000        0.0000000000000000     
   1.2500000000000000       0.25000000000000000        0.0000000000000000     
   1.2500000000000000       0.12500000000000000        0.0000000000000000     
   1.2812500000000000       0.12500000000000000        0.0000000000000000     
   1.3125000000000000       0.12500000000000000        0.0000000000000000     
   1.3437500000000000       0.12500000000000000        0.0000000000000000     
   1.3750000000000000       0.12500000000000000        0.0000000000000000     
   1.2500000000000000       0.15625000000000000        0.0000000000000000     
   1.2812500000000000       0.15625000000000000        0.0000000000000000     
   1.3125000000000000       0.15625000000000000        0.0000000000000000     
   1.3437500000000000       0.15625000000000000        0.0000000000000000     
   1.3750000000000000       0.15625000000000000        0.0000000000000000     
   1.2500000000000000       0.18750000000000000        0.0000000000000000     
   1.2812500000000000       0.18750000000000000        0.0000000000000000     
   1.3125000000000000       0.18750000000000000        0.0000000000000000     
   1.3437500000000000       0.18750000000000000        0.0000000000000000     
   1.3750000000000000       0.18750000000000000        0.0000000000000000     
   1.2500000000000000       0.21875000000000000        0.0000000000000000     
   1.2812500000000000       0.21875000000000000        0.0000000000000000     
   1.3125000000000000       0.21875000000000000        0.0000000000000000     
   1.3437500000000000       0.21875000000000000        0.0000000000000000     
   1.3750000000000000       0.21875000000000000        0.0000000000000000     
   1.2500000000000000       0.25000000000000000        0.0000000000000000     
   1.2812500000000000       0.25000000000000000        0.0000000000000000     
   1.3125000000000000       0.25000000000000000        0.0000000000000000     
   1.3437500000000000       0.25000000000000000        0.0000000000000000     
   1.3750000000000000       0.25000000000000000        0.0000000000000000     
   1.3750000000000000       0.12500000000000000        0.0000000000000000     
   1.4062500000000000       0.12500000000000000        0.0000000000000000     
   1.4375000000000000       0.12500000000000000        0.0000000000000000     
   1.4687500000000000       0.12500000000000000        0.0000000000000000     
   1.5000000000000000       0.12500000000000000        0.0000000000000000     
   1.3750000000000000       0.15625000000000000        0.0000000000000000     
   1.4062500000000000       0.15625000000000000        0.0000000000000000     
   1.4375000000000000       0.15625000000000000        0.0000000000000000     
   1.4687500000000000       0.15625000000000000        0.0000000000000000     
   1.5000000000000000       0.15625000000000000        0.0000000000000000     
   1.3750000000000000       0.18750000000000000        0.0000000000000000     
   1.4062500000000000       0.18750000000000000        0.0000000000000000     
   1.4375000000000000       0.18750000000000000        0.0000000000000000     
   1.4687500000000000       0.18750000000000000        0.0000000000000000     
   1.5000000000000000       0.18750000000000000        0.0000000000000000     
   1.3750000000000000       0.21875000000000000        0.0000000000000000     
   1.4062500000000000       0.21875000000000000        0.0000000000000000     
   1.4375000000000000       0.21875000000000000        0.0000000000000000     
   1.4687500000000000       0.21875000000000000        0.0000000000000000     
   1.5000000000000000       0.21875000000000000        0.0000000000000000     
   1.3750000000000000       0.25000000000000000        0.0000000000000000     
   1.4062500000000000       0.25000000000000000        0.0000000000000000     
   1.4375000000000000       0.25000000000000000        0.0000000000000000     
   1.4687500000000000       0.25000000000000000        0.0000000000000000     
   1.5000000000000000       0.25000000000000000        0.0000000000000000     
  0.50000000000000000       0.25000000000000000        0.0000000000000000     
  0.53125000000000000       0.25000000000000000        0.0000000000000000     
  0.56250000000000000       0.25000000000000000        0.0000000000000000     
  0.59375000000000000       0.25000000000000000        0.0000000000000000     
  0.62500000000000000       0.25000000000000000        0.0000000000000000     
  0.50000000000000000       0.28125000000000000        0.0000000000000000     
  0.53125000000000000       0.28125000000000000        0.0000000000000000     
  0.56250000000000000       0.28125000000000000        0.0000000000000000     
  0.59375000000000000       0.28125000000000000        0.0000000000000000     
  0.62500000000000000       0.28125000000000000        0.0000000000000000     
  0.50000000000000000       0.31250000000000000        0.0000000000000000     
  0.53125000000000000       0.31250000000000000        0.0000000000000000     
  0.56250000000000000       0.31250000000000000        0.0000000000000000     
  0.59375000000000000       0.31250000000000000        0.0000000000000000     
  0.62500000000000000       0.31250000000000000        0.0000000000000000     
  0.50000000000000000       0.34375000000000000        0.0000000000000000     
  0.53125000000000000       0.34375000000000000        0.0000000000000000     
  0.56250000000000000       0.34375000000000000        0.0000000000000000     
  0.59375000000000000       0.34375000000000000        0.0000000000000000     
  0.62500000000000000       0.34375000000000000        0.0000000000000000     
  0.50000000000000000       0.37500000000000000        0.0000000000000000     
  0.53125000000000000       0.37500000000000000        0.0000000000000000     
  0.56250000000000000       0.37500000000000000        0.0000000000000000     
  0.59375000000000000       0.37500000000000000        0.0000000000000000     
  0.62500000000000000       0.37500000000000000        0.0000000000000000     
  0.62500000000000000       0.25000000000000000        0.0000000000000000     
  0.65625000000000000       0.25000000000000000        0.0000000000000000     
  0.68750000000000000       0.25000000000000000        0.0000000000000000     
  0.71875000000000000       0.25000000000000000        0.0000000000000000     
  0.75000000000000000       0.25000000000000000        0.0000000000000000     
  0.62500000000000000       0.28125000000000000        0.0000000000000000     
  0.65625000000000000       0.28125000000000000        0.0000000000000000     
  0.68750000000000000       0.28125000000000000        0.0000000000000000     
  0.71875000000000000       0.28125000000000000        0.0000000000000000     
  0.75000000000000000       0.28125000000000000        0.0000000000000000     
  0.62500000000000000       0.31250000000000000        0.0000000000000000     
  0.65625000000000000       0.31250000000000000        0.0000000000000000     
  0.68750000000000000       0.31250000000000000        0.0000000000000000     
  0.71875000000000000       0.31250000000000000        0.0000000000000000     
  0.75000000000000000       0.31250000000000000        0.0000000000000000     
  0.62500000000000000       0.34375000000000000        0.0000000000000000     
  0.65625000000000000       0.34375000000000000        0.0000000000000000     
  0.68750000000000000       0.34375000000000000        0.0000000000000000     
  0.71875000000000000       0.34375000000000000        0.0000000000000000     
  0.75000000000000000       0.34375000000000000        0.0000000000000000     
  0.62500000000000000       0.37500000000000000        0.0000000000000000     
  0.65625000000000000       0.37500000000000000        0.0000000000000000     
  0.68750000000000000       0.37500000000000000        0.0000000000000000     
  0.71875000000000000       0.37500000000000000        0.0000000000000000     
  0.75000000000000000       0.37500000000000000        0.0000000000000000     
  0.75000000000000000       0.25000000000000000        0.0000000000000000     
  0.78125000000000000       0.25000000000000000        0.0000000000000000     
  0.81250000000000000       0.25000000000000000        0.0000000000000000     
  0.84375000000000000       0.25000000000000000        0.0000000000000000     
  0.87500000000000000       0.25000000000000000        0.0000000000000000     
  0.75000000000000000       0.28125000000000000        0.0000000000000000     
  0.78125000000000000       0.28125000000000000        0.0000000000000000     
  0.81250000000000000       0.28125000000000000        0.0000000000000000     
  0.84375000000000000       0.28125000000000000        0.0000000000000000     
  0.87500000000000000       0.28125000000000000        0.0000000000000000     
  0.75000000000000000       0.31250000000000000        0.0000000000000000     
  0.78125000000000000       0.31250000000000000        0.0000000000000000     
  0.81250000000000000       0.31250000000000000        0.0000000000000000     
  0.84375000000000000       0.31250000000000000        0.0000000000000000     
  0.87500000000000000       0.31250000000000000        0.0000000000000000     
  0.75000000000000000       0.34375000000000000        0.0000000000000000     
  0.78125000000000000       0.34375000000000000        0.0000000000000000     
  0.81250000000000000       0.34375000000000000        0.0000000000000000     
  0.84375000000000000       0.34375000000000000        0.0000000000000000     
  0.87500000000000000       0.34375000000000000        0.0000000000000000     
  0.75000000000000000       0.37500000000000000        0.0000000000000000     
  0.78125000000000000       0.37500000000000000        0.0000000000000000     
  0.81250000000000000       0.37500000000000000        0.0000000000000000     
  0.84375000000000000       0.37500000000000000        0.0000000000000000     
  0.87500000000000000       0.37500000000000000        0.0000000000000000     
  0.87500000000000000       0.25000000000000000        0.0000000000000000     
  0.90625000000000000       0.25000000000000000        0.0000000000000000     
  0.93750000000000000       0.25000000000000000        0.0000000000000000     
  0.96875000000000000       0.25000000000000000        0.0000000000000000     
   1.0000000000000000       0.25000000000000000        0.0000000000000000     
  0.87500000000000000       0.28125000000000000        0.0000000000000000     
  0.90625000000000000       0.28125000000000000        0.0000000000000000     
  0.93750000000000000       0.28125000000000000        0.0000000000000000     
  0.96875000000000000       0.28125000000000000        0.0000000000000000     
   1.0000000000000000       0.28125000000000000        0.0000000000000000     
  0.87500000000000000       0.31250000000000000        0.0000000000000000     
  0.90625000000000000       0.31250000000000000        0.0000000000000000     
  0.93750000000000000       0.31250000000000000        0.0000000000000000     
  0.96875000000000000       0.31250000000000000        0.0000000000000000     
   1.0000000000000000       0.31250000000000000        0.0000000000000000     
  0.87500000000000000       0.34375000000000000        0.0000000000000000     
  0.90625000000000000       0.34375000000000000        0.0000000000000000     
  0.93750000000000000       0.34375000000000000        0.0000000000000000     
  0.96875000000000000       0.34375000000000000        0.0000000000000000     
   1.0000000000000000       0.34375000000000000        0.0000000000000000     
  0.87500000000000000       0.37500000000000000        0.0000000000000000     
  0.90625000000000000       0.37500000000000000        0.0000000000000000     
  0.93750000000000000       0.37500000000000000        0.0000000000000000     
  0.96875000000000000       0.37500000000000000        0.0000000000000000     
   1.0000000000000000       0.37500000000000000        0.0000000000000000     
   1.0000000000000000       0.25000000000000000        0.0000000000000000     
   1.0312500000000000       0.25000000000000000        0.0000000000000000     
   1.0625000000000000       0.25000000000000000        0.0000000000000000     
   1.0937500000000000       0.25000000000000000        0.0000000000000000     
   1.1250000000000000       0.25000000000000000        0.0000000000000000     
   1.0000000000000000       0.28125000000000000        0.0000000000000000     
   1.0312500000000000       0.28125000000000000        0.0000000000000000     
   1.0625000000000000       0.28125000000000000        0.0000000000000000     
   1.0937500000000000       0.28125000000000000        0.0000000000000000     
   1.1250000000000000       0.28125000000000000        0.0000000000000000     
   1.0000000000000000       0.31250000000000000        0.0000000000000000     
   1.0312500000000000       0.31250000000000000        0.0000000000000000     
   1.0625000000000000       0.31250000000000000        0.0000000000000000     
   1.0937500000000000       0.31250000000000000        0.0000000000000000     
   1.1250000000000000       0.31250000000000000        0.0000000000000000     
   1.0000000000000000       0.34375000000000000        0.0000000000000000     
   1.0312500000000000       0.34375000000000000        0.0000000000000000     
   1.0625000000000000       0.34375000000000000        0.0000000000000000     
   1.0937500000000000       0.34375000000000000        0.0000000000000000     
   1.1250000000000000       0.34375000000000000        0.0000000000000000     
   1.0000000000000000       0.37500000000000000        0.0000000000000000     
   1.0312500000000000       0.37500000000000000        0.0000000000000000     
   1.0625000000000000       0.37500000000000000        0.0000000000000000     
   1.0937500000000000       0.37500000000000000        0.0000000000000000     
   1.1250000000000000       0.37500000000000000        0.0000000000000000     
   1.1250000000000000       0.25000000000000000        0.0000000000000000     
   1.1562500000000000       0.25000000000000000        0.0000000000000000     
   1.1875000000000000       0.25000000000000000        0.0000000000000000     
   1.2187500000000000       0.25000000000000000        0.0000000000000000     
   1.2500000000000000       0.25000000000000000        0.0000000000000000     
   1.1250000000000000       0.28125000000000000        0.0000000000000000     
   1.1562500000000000       0.28125000000000000        0.0000000000000000     
   1.1875000000000000       0.28125000000000000        0.0000000000000000     
   1.2187500000000000       0.28125000000000000        0.0000000000000000     
   1.2500000000000000       0.28125000000000000        0.0000000000000000     
   1.1250000000000000       0.31250000000000000        0.0000000000000000     
   1.1562500000000000       0.31250000000000000        0.0000000000000000     
   1.1875000000000000       0.31250000000000000        0.0000000000000000     
   1.2187500000000000       0.31250000000000000        0.0000000000000000     
   1.2500000000000000       0.31250000000000000        0.0000000000000000     
   1.1250000000000000       0.34375000000000000        0.0000000000000000     
   1.1562500000000000       0.34375000000000000        0.0000000000000000     
   1.1875000000000000       0.34375000000000000        0.0000000000000000     
   1.2187500000000000       0.34375000000000000        0.0000000000000000     
   1.2500000000000000       0.34375000000000000        0.0000000000000000     
   1.1250000000000000       0.37500000000000000        0.0000000000000000     
   1.1562500000000000       0.37500000000000000        0.0000000000000000     
   1.1875000000000000       0.37500000000000000        0.0000000000000000     
   1.2187500000000000       0.37500000000000000        0.0000000000000000     
   1.2500000000000000       0.37500000000000000        0.0000000000000000     
   1.2500000000000000       0.25000000000000000        0.0000000000000000     
   1.2812500000000000       0.25000000000000000        0.0000000000000000     
   1.3125000000000000       0.25000000000000000        0.0000000000000000     
   1.3437500000000000       0.25000000000000000        0.0000000000000000     
   1.3750000000000000       0.25000000000000000        0.0000000000000000     
   1.2500000000000000       0.28125000000000000        0.0000000000000000     
   1.2812500000000000       0.28125000000000000        0.0000000000000000     
   1.3125000000000000       0.28125000000000000        0.0000000000000000     
   1.3437500000000000       0.28125000000000000        0.0000000000000000     
   1.3750000000000000       0.28125000000000000        0.0000000000000000     
   1.2500000000000000       0.31250000000000000        0.0000000000000000     
   1.2812500000000000       0.31250000000000000        0.0000000000000000     
   1.3125000000000000       0.31250000000000000        0.0000000000000000     
   1.3437500000000000       0.31250000000000000        0.0000000000000000     
   1.3750000000000000       0.31250000000000000        0.0000000000000000     
   1.2500000000000000       0.34375000000000000        0.0000000000000000     
   1.2812500000000000       0.34375000000000000        0.0000000000000000     
   1.3125000000000000       0.34375000000000000        0.0000000000000000     
   1.3437500000000000       0.34375000000000000        0.0000000000000000     
   1.3750000000000000       0.34375000000000000        0.0000000000000000     
   1.2500000000000000       0.37500000000000000        0.0000000000000000     
   1.2812500000000000       0.37500000000000000        0.0000000000000000     
   1.3125000000000000       0.37500000000000000        0.0000000000000000     
   1.3437500000000000       0.37500000000000000        0.0000000000000000     
   1.3750000000000000       0.37500000000000000        0.0000000000000000     
   1.3750000000000000       0.25000000000000000        0.0000000000000000     
   1.4062500000000000       0.25000000000000000        0.0000000000000000     
   1.4375000000000000       0.25000000000000000        0.0000000000000000     
   1.4687500000000000       0.25000000000000000        0.0000000000000000     
   1.5000000000000000       0.25000000000000000        0.0000000000000000     
   1.3750000000000000       0.28125000000000000        0.0000000000000000     
   1.4062500000000000       0.28125000000000000        0.0000000000000000     
   1.4375000000000000       0.28125000000000000        0.0000000000000000     
   1.4687500000000000       0.28125000000000000        0.0000000000000000     
   1.5000000000000000       0.28125000000000000        0.0000000000000000     
   1.3750000000000000       0.31250000000000000        0.0000000000000000     
   1.4062500000000000       0.31250000000000000        0.0000000000000000     
   1.4375000000000000       0.31250000000000000        0.0000000000000000     
   1.4687500000000000       0.31250000000000000        0.0000000000000000     
   1.5000000000000000       0.31250000000000000        0.0000000000000000     
   1.3750000000000000       0.34375000000000000        0.0000000000000000     
   1.4062500000000000       0.34375000000000000        0.0000000000000000     
   1.4375000000000000       0.34375000000000000        0.0000000000000000     
   1.4687500000000000       0.34375000000000000        0.0000000000000000     
   1.5000000000000000       0.34375000000000000        0.0000000000000000     
   1.3750000000000000       0.37500000000000000        0.0000000000000000     
   1.4062500000000000       0.37500000000000000        0.0000000000000000     
   1.4375000000000000       0.37500000000000000        0.0000000000000000     
   1.4687500000000000       0.37500000000000000        0.0000000000000000     
   1.5000000000000000       0.37500000000000000        0.0000000000000000     
  0.50000000000000000       0.37500000000000000        0.0000000000000000     
  0.53125000000000000       0.37500000000000000        0.0000000000000000     
  0.56250000000000000       0.37500000000000000        0.0000000000000000     
  0.59375000000000000       0.37500000000000000        0.0000000000000000     
  0.62500000000000000       0.37500000000000000        0.0000000000000000     
  0.50000000000000000       0.40625000000000000        0.0000000000000000     
  0.53125000000000000       0.40625000000000000        0.0000000000000000     
  0.56250000000000000       0.40625000000000000        0.0000000000000000     
  0.59375000000000000       0.40625000000000000        0.0000000000000000     
  0.62500000000000000       0.40625000000000000        0.0000000000000000     
  0.50000000000000000       0.43750000000000000        0.0000000000000000     
  0.53125000000000000       0.43750000000000000        0.0000000000000000     
  0.56250000000000000       0.43750000000000000        0.0000000000000000     
  0.59375000000000000       0.43750000000000000        0.0000000000000000     
  0.62500000000000000       0.43750000000000000        0.0000000000000000     
  0.50000000000000000       0.46875000000000000        0.0000000000000000     
  0.53125000000000000       0.46875000000000000        0.0000000000000000     
  0.56250000000000000       0.46875000000000000        0.0000000000000000     
  0.59375000000000000       0.46875000000000000        0.0000000000000000     
  0.62500000000000000       0.46875000000000000        0.0000000000000000     
  0.50000000000000000       0.50000000000000000        0.0000000000000000     
  0.53125000000000000       0.50000000000000000        0.0000000000000000     
  0.56250000000000000       0.50000000000000000        0.0000000000000000     
  0.59375000000000000       0.50000000000000000        0.0000000000000000     
  0.62500000000000000       0.50000000000000000        0.0000000000000000     
  0.62500000000000000       0.37500000000000000        0.0000000000000000     
  0.65625000000000000       0.37500000000000000        0.0000000000000000     
  0.68750000000000000       0.37500000000000000        0.0000000000000000     
  0.71875000000000000       0.37500000000000000        0.0000000000000000     
  0.75000000000000000       0.37500000000000000        0.0000000000000000     
  0.62500000000000000       0.40625000000000000        0.0000000000000000     
  0.65625000000000000       0.40625000000000000        0.0000000000000000     
  0.68750000000000000       0.40625000000000000        0.0000000000000000     
  0.71875000000000000       0.40625000000000000        0.0000000000000000     
  0.75000000000000000       0.40625000000000000        0.0000000000000000     
  0.62500000000000000       0.43750000000000000        0.0000000000000000     
  0.65625000000000000       0.43750000000000000        0.0000000000000000     
  0.68750000000000000       0.43750000000000000        0.0000000000000000     
  0.71875000000000000       0.43750000000000000        0.0000000000000000     
  0.75000000000000000       0.43750000000000000        0.0000000000000000     
  0.62500000000000000       0.46875000000000000        0.0000000000000000     
  0.65625000000000000       0.46875000000000000        0.0000000000000000     
  0.68750000000000000       0.46875000000000000        0.0000000000000000     
  0.71875000000000000       0.46875000000000000        0.0000000000000000     
  0.75000000000000000       0.46875000000000000        0.0000000000000000     
  0.62500000000000000       0.50000000000000000        0.0000000000000000     
  0.65625000000000000       0.50000000000000000        0.0000000000000000     
  0.68750000000000000       0.50000000000000000        0.0000000000000000     
  0.71875000000000000       0.50000000000000000        0.0000000000000000     
  0.75000000000000000       0.50000000000000000        0.0000000000000000     
  0.75000000000000000       0.37500000000000000        0.0000000000000000     
  0.78125000000000000       0.37500000000000000        0.0000000000000000     
  0.81250000000000000       0.37500000000000000        0.0000000000000000     
  0.84375000000000000       0.37500000000000000        0.0000000000000000     
  0.87500000000000000       0.37500000000000000        0.0000000000000000     
  0.75000000000000000       0.40625000000000000        0.0000000000000000     
  0.78125000000000000       0.40625000000000000        0.0000000000000000     
  0.81250000000000000       0.40625000000000000        0.0000000000000000     
  0.84375000000000000       0.40625000000000000        0.0000000000000000     
  0.87500000000000000       0.40625000000000000        0.0000000000000000     
  0.75000000000000000       0.43750000000000000        0.0000000000000000     
  0.78125000000000000       0.43750000000000000        0.0000000000000000     
  0.81250000000000000       0.43750000000000000        0.0000000000000000     
  0.84375000000000000       0.43750000000000000        0.0000000000000000     
  0.87500000000000000       0.43750000000000000        0.0000000000000000     
  0.75000000000000000       0.46875000000000000        0.0000000000000000     
  0.78125000000000000       0.46875000000000000        0.0000000000000000     
  0.81250000000000000       0.46875000000000000        0.0000000000000000     
  0.84375000000000000       0.46875000000000000        0.0000000000000000     
  0.87500000000000000       0.46875000000000000        0.0000000000000000     
  0.75000000000000000       0.50000000000000000        0.0000000000000000     
  0.78125000000000000       0.50000000000000000        0.0000000000000000     
  0.81250000000000000       0.50000000000000000        0.0000000000000000     
  0.84375000000000000       0.50000000000000000        0.0000000000000000     
  0.87500000000000000       0.50000000000000000        0.0000000000000000     
  0.87500000000000000       0.37500000000000000        0.0000000000000000     
  0.90625000000000000       0.37500000000000000        0.0000000000000000     
  0.93750000000000000       0.37500000000000000        0.0000000000000000     
  0.96875000000000000       0.37500000000000000        0.0000000000000000     
   1.0000000000000000       0.37500000000000000        0.0000000000000000     
  0.87500000000000000       0.40625000000000000        0.0000000000000000     
  0.90625000000000000       0.40625000000000000        0.0000000000000000     
  0.93750000000000000       0.40625000000000000        0.0000000000000000     
  0.96875000000000000       0.40625000000000000        0.0000000000000000     
   1.0000000000000000       0.40625000000000000        0.0000000000000000     
  0.87500000000000000       0.43750000000000000        0.0000000000000000     
  0.90625000000000000       0.43750000000000000        0.0000000000000000     
  0.93750000000000000       0.43750000000000000        0.0000000000000000     
  0.96875000000000000       0.43750000000000000        0.0000000000000000     
   1.0000000000000000       0.43750000000000000        0.0000000000000000     
  0.87500000000000000       0.46875000000000000        0.0000000000000000     
  0.90625000000000000       0.46875000000000000        0.0000000000000000     
  0.93750000000000000       0.46875000000000000        0.0000000000000000     
  0.96875000000000000       0.46875000000000000        0.0000000000000000     
   1.0000000000000000       0.46875000000000000        0.0000000000000000     
  0.87500000000000000       0.50000000000000000        0.0000000000000000     
  0.90625000000000000       0.50000000000000000        0.0000000000000000     
  0.93750000000000000       0.50000000000000000        0.0000000000000000     
  0.96875000000000000       0.50000000000000000        0.0000000000000000     
   1.0000000000000000       0.50000000000000000        0.0000000000000000     
   1.0000000000000000       0.37500000000000000        0.0000000000000000     
   1.0312500000000000       0.37500000000000000        0.0000000000000000     
   1.0625000000000000       0.37500000000000000        0.0000000000000000     
   1.0937500000000000       0.37500000000000000        0.0000000000000000     
   1.1250000000000000       0.37500000000000000        0.0000000000000000     
   1.0000000000000000       0.40625000000000000        0.0000000000000000     
   1.0312500000000000       0.40625000000000000        0.0000000000000000     
   1.0625000000000000       0.40625000000000000        0.0000000000000000     
   1.0937500000000000       0.40625000000000000        0.0000000000000000     
   1.1250000000000000       0.40625000000000000        0.0000000000000000     
   1.0000000000000000       0.43750000000000000        0.0000000000000000     
   1.0312500000000000       0.43750000000000000        0.0000000000000000     
   1.0625000000000000       0.43750000000000000        0.0000000000000000     
   1.0937500000000000       0.43750000000000000        0.0000000000000000     
   1.1250000000000000       0.43750000000000000        0.0000000000000000     
   1.0000000000000000       0.46875000000000000        0.0000000000000000     
   1.0312500000000000       0.46875000000000000        0.0000000000000000     
   1.0625000000000000       0.46875000000000000        0.0000000000000000     
   1.0937500000000000       0.46875000000000000        0.0000000000000000     
   1.1250000000000000       0.46875000000000000        0.0000000000000000     
   1.0000000000000000       0.50000000000000000        0.0000000000000000     
   1.0312500000000000       0.50000000000000000        0.0000000000000000     
   1.0625000000000000       0.50000000000000000        0.0000000000000000     
   1.0937500000000000       0.50000000000000000        0.0000000000000000     
   1.1250000000000000       0.50000000000000000        0.0000000000000000     
   1.1250000000000000       0.37500000000000000        0.0000000000000000     
   1.1562500000000000       0.37500000000000000        0.0000000000000000     
   1.1875000000000000       0.37500000000000000        0.0000000000000000     
   1.2187500000000000       0.37500000000000000        0.0000000000000000     
   1.2500000000000000       0.37500000000000000        0.0000000000000000     
   1.1250000000000000       0.40625000000000000        0.0000000000000000     
   1.1562500000000000       0.40625000000000000        0.0000000000000000     
   1.1875000000000000       0.40625000000000000        0.0000000000000000     
   1.2187500000000000       0.40625000000000000        0.0000000000000000     
   1.2500000000000000       0.40625000000000000        0.0000000000000000     
   1.1250000000000000       0.43750000000000000        0.0000000000000000     
   1.1562500000000000       0.43750000000000000        0.0000000000000000     
   1.1875000000000000       0.43750000000000000        0.0000000000000000     
   1.2187500000000000       0.43750000000000000        0.0000000000000000     
   1.2500000000000000       0.43750000000000000        0.0000000000000000     
   1.1250000000000000       0.46875000000000000        0.0000000000000000     
   1.1562500000000000       0.46875000000000000        0.0000000000000000     
   1.1875000000000000       0.46875000000000000        0.0000000000000000     
   1.2187500000000000       0.46875000000000000        0.0000000000000000     
   1.2500000000000000       0.46875000000000000        0.0000000000000000     
   1.1250000000000000       0.50000000000000000        0.0000000000000000     
   1.1562500000000000       0.50000000000000000        0.0000000000000000     
   1.1875000000000000       0.50000000000000000        0.0000000000000000     
   1.2187500000000000       0.50000000000000000        0.0000000000000000     
   1.2500000000000000       0.50000000000000000        0.0000000000000000     
   1.2500000000000000       0.37500000000000000        0.0000000000000000     
   1.2812500000000000       0.37500000000000000        0.0000000000000000     
   1.3125000000000000       0.37500000000000000        0.0000000000000000     
   1.3437500000000000       0.37500000000000000        0.0000000000000000     
   1.3750000000000000       0.37500000000000000        0.0000000000000000     
   1.2500000000000000       0.40625000000000000        0.0000000000000000     
   1.2812500000000000       0.40625000000000000        0.0000000000000000     
   1.3125000000000000       0.40625000000000000        0.0000000000000000     
   1.3437500000000000       0.40625000000000000        0.0000000000000000     
   1.3750000000000000       0.40625000000000000        0.0000000000000000     
   1.2500000000000000       0.43750000000000000        0.0000000000000000     
   1.2812500000000000       0.43750000000000000        0.0000000000000000     
   1.3125000000000000       0.43750000000000000        0.0000000000000000     
   1.3437500000000000       0.43750000000000000        0.0000000000000000     
   1.3750000000000000       0.43750000000000000        0.0000000000000000     
   1.2500000000000000       0.46875000000000000        0.0000000000000000     
   1.2812500000000000       0.46875000000000000        0.0000000000000000     
   1.3125000000000000       0.46875000000000000        0.0000000000000000     
   1.3437500000000000       0.46875000000000000        0.0000000000000000     
   1.3750000000000000       0.46875000000000000        0.0000000000000000     
   1.2500000000000000       0.50000000000000000        0.0000000000000000     
   1.2812500000000000       0.50000000000000000        0.0000000000000000     
   1.3125000000000000       0.50000000000000000        0.0000000000000000     
   1.3437500000000000       0.50000000000000000        0.0000000000000000     
   1.3750000000000000       0.50000000000000000        0.0000000000000000     
   1.3750000000000000       0.37500000000000000        0.0000000000000000     
   1.4062500000000000       0.37500000000000000        0.0000000000000000     
   1.4375000000000000       0.37500000000000000        0.0000000000000000     
   1.4687500000000000       0.37500000000000000        0.0000000000000000     
   1.5000000000000000       0.37500000000000000        0.0000000000000000     
   1.3750000000000000       0.40625000000000000        0.0000000000000000     
   1.4062500000000000       0.40625000000000000        0.0000000000000000     
   1.4375000000000000       0.40625000000000000        0.0000000000000000     
   1.4687500000000000       0.40625000000000000        0.0000000000000000     
   1.5000000000000000       0.40625000000000000        0.0000000000000000     
   1.3750000000000000       0.43750000000000000        0.0000000000000000     
   1.4062500000000000       0.43750000000000000        0.0000000000000000     
   1.4375000000000000       0.43750000000000000        0.0000000000000000     
   1.4687500000000000       0.43750000000000000        0.0000000000000000     
   1.5000000000000000       0.43750000000000000        0.0000000000000000     
   1.3750000000000000       0.46875000000000000        0.0000000000000000     
   1.4062500000000000       0.46875000000000000        0.0000000000000000     
   1.4375000000000000       0.46875000000000000        0.0000000000000000     
   1.4687500000000000       0.46875000000000000        0.0000000000000000     
   1.5000000000000000       0.46875000000000000        0.0000000000000000     
   1.3750000000000000       0.50000000000000000        0.0000000000000000     
   1.4062500000000000       0.50000000000000000        0.0000000000000000     
   1.4375000000000000       0.50000000000000000        0.0000000000000000     
   1.4687500000000000       0.50000000000000000        0.0000000000000000     
   1.5000000000000000       0.50000000000000000        0.0000000000000000     
  0.50000000000000000       0.50000000000000000        0.0000000000000000     
  0.53125000000000000       0.50000000000000000        0.0000000000000000     
  0.56250000000000000       0.50000000000000000        0.0000000000000000     
  0.59375000000000000       0.50000000000000000        0.0000000000000000     
  0.62500000000000000       0.50000000000000000        0.0000000000000000     
  0.50000000000000000       0.53125000000000000        0.0000000000000000     
  0.53125000000000000       0.53125000000000000        0.0000000000000000     
  0.56250000000000000       0.53125000000000000        0.0000000000000000     
  0.59375000000000000       0.53125000000000000        0.0000000000000000     
  0.62500000000000000       0.53125000000000000        0.0000000000000000     
  0.50000000000000000       0.56250000000000000        0.0000000000000000     
  0.53125000000000000       0.56250000000000000        0.0000000000000000     
  0.56250000000000000       0.56250000000000000        0.0000000000000000     
  0.59375000000000000       0.56250000000000000        0.0000000000000000     
  0.62500000000000000       0.56250000000000000        0.0000000000000000     
  0.50000000000000000       0.59375000000000000        0.0000000000000000     
  0.53125000000000000       0.59375000000000000        0.0000000000000000     
  0.56250000000000000       0.59375000000000000        0.0000000000000000     
  0.59375000000000000       0.59375000000000000        0.0000000000000000     
  0.62500000000000000       0.59375000000000000        0.0000000000000000     
  0.50000000000000000       0.62500000000000000        0.0000000000000000     
  0.53125000000000000       0.62500000000000000        0.0000000000000000     
  0.56250000000000000       0.62500000000000000        0.0000000000000000     
  0.59375000000000000       0.62500000000000000        0.0000000000000000     
  0.62500000000000000       0.62500000000000000        0.0000000000000000     
  0.62500000000000000       0.50000000000000000        0.0000000000000000     
  0.65625000000000000       0.50000000000000000        0.0000000000000000     
  0.68750000000000000       0.50000000000000000        0.0000000000000000     
  0.71875000000000000       0.50000000000000000        0.0000000000000000     
  0.75000000000000000       0.50000000000000000        0.0000000000000000     
  0.62500000000000000       0.53125000000000000        0.0000000000000000     
  0.65625000000000000       0.53125000000000000        0.0000000000000000     
  0.68750000000000000       0.53125000000000000        0.0000000000000000     
  0.71875000000000000       0.53125000000000000        0.0000000000000000     
  0.75000000000000000       0.53125000000000000        0.0000000000000000     
  0.62500000000000000       0.56250000000000000        0.0000000000000000     
  0.65625000000000000       0.56250000000000000        0.0000000000000000     
  0.68750000000000000       0.56250000000000000        0.0000000000000000     
  0.71875000000000000       0.56250000000000000        0.0000000000000000     
  0.75000000000000000       0.56250000000000000        0.0000000000000000     
  0.62500000000000000       0.59375000000000000        0.0000000000000000     
  0.65625000000000000       0.59375000000000000        0.0000000000000000     
  0.68750000000000000       0.59375000000000000        0.0000000000000000     
  0.71875000000000000       0.59375000000000000        0.0000000000000000     
  0.75000000000000000       0.59375000000000000        0.0000000000000000     
  0.62500000000000000       0.62500000000000000        0.0000000000000000     
  0.65625000000000000       0.62500000000000000        0.0000000000000000     
  0.68750000000000000       0.62500000000000000        0.0000000000000000     
  0.71875000000000000       0.62500000000000000        0.0000000000000000     
  0.75000000000000000       0.62500000000000000        0.0000000000000000     
  0.75000000000000000       0.50000000000000000        0.0000000000000000     
  0.78125000000000000       0.50000000000000000        0.0000000000000000     
  0.81250000000000000       0.50000000000000000        0.0000000000000000     
  0.84375000000000000       0.50000000000000000        0.0000000000000000     
  0.87500000000000000       0.50000000000000000        0.0000000000000000     
  0.75000000000000000       0.53125000000000000        0.0000000000000000     
  0.78125000000000000       0.53125000000000000        0.0000000000000000     
  0.81250000000000000       0.53125000000000000        0.0000000000000000     
  0.84375000000000000       0.53125000000000000        0.0000000000000000     
  0.87500000000000000       0.53125000000000000        0.0000000000000000     
  0.75000000000000000       0.56250000000000000        0.0000000000000000     
  0.78125000000000000       0.56250000000000000        0.0000000000000000     
  0.81250000000000000       0.56250000000000000        0.0000000000000000     
  0.84375000000000000       0.56250000000000000        0.0000000000000000     
  0.87500000000000000       0.56250000000000000        0.0000000000000000     
  0.75000000000000000       0.59375000000000000        0.0000000000000000     
  0.78125000000000000       0.59375000000000000        0.0000000000000000     
  0.81250000000000000       0.59375000000000000        0.0000000000000000     
  0.84375000000000000       0.59375000000000000        0.0000000000000000     
  0.87500000000000000       0.59375000000000000        0.0000000000000000     
  0.75000000000000000       0.62500000000000000        0.0000000000000000     
  0.78125000000000000       0.62500000000000000        0.0000000000000000     
  0.81250000000000000       0.62500000000000000        0.0000000000000000     
  0.84375000000000000       0.62500000000000000        0.0000000000000000     
  0.87500000000000000       0.62500000000000000        0.0000000000000000     
  0.87500000000000000       0.50000000000000000        0.0000000000000000     
  0.90625000000000000       0.50000000000000000        0.0000000000000000     
  0.93750000000000000       0.50000000000000000        0.0000000000000000     
  0.96875000000000000       0.50000000000000000        0.0000000000000000     
   1.0000000000000000       0.50000000000000000        0.0000000000000000     
  0.87500000000000000       0.53125000000000000        0.0000000000000000     
  0.90625000000000000       0.53125000000000000        0.0000000000000000     
  0.93750000000000000       0.53125000000000000        0.0000000000000000     
  0.96875000000000000       0.53125000000000000        0.0000000000000000     
   1.0000000000000000       0.53125000000000000        0.0000000000000000     
  0.87500000000000000       0.56250000000000000        0.0000000000000000     
  0.90625000000000000       0.56250000000000000        0.0000000000000000     
  0.93750000000000000       0.56250000000000000        0.0000000000000000     
  0.96875000000000000       0.56250000000000000        0.0000000000000000     
   1.0000000000000000       0.56250000000000000        0.0000000000000000     
  0.87500000000000000       0.59375000000000000        0.0000000000000000     
  0.90625000000000000       0.59375000000000000        0.0000000000000000     
  0.93750000000000000       0.59375000000000000        0.0000000000000000     
  0.96875000000000000       0.59375000000000000        0.0000000000000000     
   1.0000000000000000       0.59375000000000000        0.0000000000000000     
  0.87500000000000000       0.62500000000000000        0.0000000000000000     
  0.90625000000000000       0.62500000000000000        0.0000000000000000     
  0.93750000000000000       0.62500000000000000        0.0000000000000000     
  0.96875000000000000       0.62500000000000000        0.0000000000000000     
   1.0000000000000000       0.62500000000000000        0.0000000000000000     
   1.0000000000000000       0.50000000000000000        0.0000000000000000     
   1.0312500000000000       0.50000000000000000        0.0000000000000000     
   1.0625000000000000       0.50000000000000000        0.0000000000000000     
   1.0937500000000000       0.50000000000000000        0.0000000000000000     
   1.1250000000000000       0.50000000000000000        0.0000000000000000     
   1.0000000000000000       0.53125000000000000        0.0000000000000000     
   1.0312500000000000       0.53125000000000000        0.0000000000000000     
   1.0625000000000000       0.53125000000000000        0.0000000000000000     
   1.0937500000000000       0.53125000000000000        0.0000000000000000     
   1.1250000000000000       0.53125000000000000        0.0000000000000000     
   1.0000000000000000       0.56250000000000000        0.0000000000000000     
   1.0312500000000000       0.56250000000000000        0.0000000000000000     
   1.0625000000000000       0.56250000000000000        0.0000000000000000     
   1.0937500000000000       0.56250000000000000        0.0000000000000000     
   1.1250000000000000       0.56250000000000000        0.0000000000000000     
   1.0000000000000000       0.59375000000000000        0.0000000000000000     
   1.0312500000000000       0.59375000000000000        0.0000000000000000     
   1.0625000000000000       0.59375000000000000        0.0000000000000000     
   1.0937500000000000       0.59375000000000000        0.0000000000000000     
   1.1250000000000000       0.59375000000000000        0.0000000000000000     
   1.0000000000000000       0.62500000000000000        0.0000000000000000     
   1.0312500000000000       0.62500000000000000        0.0000000000000000     
   1.0625000000000000       0.62500000000000000        0.0000000000000000     
   1.0937500000000000       0.62500000000000000        0.0000000000000000     
   1.1250000000000000       0.62500000000000000        0.0000000000000000     
   1.1250000000000000       0.50000000000000000        0.0000000000000000     
   1.1562500000000000       0.50000000000000000        0.0000000000000000     
   1.1875000000000000       0.50000000000000000        0.0000000000000000     
   1.2187500000000000       0.50000000000000000        0.0000000000000000     
   1.2500000000000000       0.50000000000000000        0.0000000000000000     
   1.1250000000000000       0.53125000000000000        0.0000000000000000     
   1.1562500000000000       0.53125000000000000        0.0000000000000000     
   1.1875000000000000       0.53125000000000000        0.0000000000000000     
   1.2187500000000000       0.53125000000000000        0.0000000000000000     
   1.2500000000000000       0.53125000000000000        0.0000000000000000     
   1.1250000000000000       0.56250000000000000        0.0000000000000000     
   1.1562500000000000       0.56250000000000000        0.0000000000000000     
   1.1875000000000000       0.56250000000000000        0.0000000000000000     
   1.2187500000000000       0.56250000000000000        0.0000000000000000     
   1.2500000000000000       0.56250000000000000        0.0000000000000000     
   1.1250000000000000       0.59375000000000000        0.0000000000000000     
   1.1562500000000000       0.59375000000000000        0.0000000000000000     
   1.1875000000000000       0.59375000000000000        0.0000000000000000     
   1.2187500000000000       0.59375000000000000        0.0000000000000000     
   1.2500000000000000       0.59375000000000000        0.0000000000000000     
   1.1250000000000000       0.62500000000000000        0.0000000000000000     
   1.1562500000000000       0.62500000000000000        0.0000000000000000     
   1.1875000000000000       0.62500000000000000        0.0000000000000000     
   1.2187500000000000       0.62500000000000000        0.0000000000000000     
   1.2500000000000000       0.62500000000000000        0.0000000000000000     
   1.2500000000000000       0.50000000000000000        0.0000000000000000     
   1.2812500000000000       0.50000000000000000        0.0000000000000000     
   1.3125000000000000       0.50000000000000000        0.0000000000000000     
   1.3437500000000000       0.50000000000000000        0.0000000000000000     
   1.3750000000000000       0.50000000000000000        0.0000000000000000     
   1.2500000000000000       0.53125000000000000        0.0000000000000000     
   1.2812500000000000       0.53125000000000000        0.0000000000000000     
   1.3125000000000000       0.53125000000000000        0.0000000000000000     
   1.3437500000000000       0.53125000000000000        0.0000000000000000     
   1.3750000000000000       0.53125000000000000        0.0000000000000000     
   1.2500000000000000       0.56250000000000000        0.0000000000000000     
   1.2812500000000000       0.56250000000000000        0.0000000000000000     
   1.3125000000000000       0.56250000000000000        0.0000000000000000     
   1.3437500000000000       0.56250000000000000        0.0000000000000000     
   1.3750000000000000       0.56250000000000000        0.0000000000000000     
   1.2500000000000000       0.59375000000000000        0.0000000000000000     
   1.2812500000000000       0.59375000000000000        0.0000000000000000     
   1.3125000000000000       0.59375000000000000        0.0000000000000000     
   1.3437500000000000       0.59375000000000000        0.0000000000000000     
   1.3750000000000000       0.59375000000000000        0.0000000000000000     
   1.2500000000000000       0.62500000000000000        0.0000000000000000     
   1.2812500000000000       0.62500000000000000        0.0000000000000000     
   1.3125000000000000       0.62500000000000000        0.0000000000000000     
   1.3437500000000000       0.62500000000000000        0.0000000000000000     
   1.3750000000000000       0.62500000000000000        0.0000000000000000     
   1.3750000000000000       0.50000000000000000        0.0000000000000000     
   1.4062500000000000       0.50000000000000000        0.0000000000000000     
   1.4375000000000000       0.50000000000000000        0.0000000000000000     
   1.4687500000000000       0.50000000000000000        0.0000000000000000     
   1.5000000000000000       0.50000000000000000        0.0000000000000000     
   1.3750000000000000       0.53125000000000000        0.0000000000000000     
   1.4062500000000000       0.53125000000000000        0.0000000000000000     
   1.4375000000000000       0.53125000000000000        0.0000000000000000     
   1.4687500000000000       0.53125000000000000        0.0000000000000000     
   1.5000000000000000       0.53125000000000000        0.0000000000000000     
   1.3750000000000000       0.56250000000000000        0.0000000000000000     
   1.4062500000000000       0.56250000000000000        0.0000000000000000     
   1.4375000000000000       0.56250000000000000        0.0000000000000000     
   1.4687500000000000       0.56250000000000000        0.0000000000000000     
   1.5000000000000000       0.56250000000000000        0.0000000000000000     
   1.3750000000000000       0.59375000000000000        0.0000000000000000     
   1.4062500000000000       0.59375000000000000        0.0000000000000000     
   1.4375000000000000       0.59375000000000000        0.0000000000000000     
   1.4687500000000000       0.59375000000000000        0.0000000000000000     
   1.5000000000000000       0.59375000000000000        0.0000000000000000     
   1.3750000000000000       0.62500000000000000        0.0000000000000000     
   1.4062500000000000       0.62500000000000000        0.0000000000000000     
   1.4375000000000000       0.62500000000000000        0.0000000000000000     
   1.4687500000000000       0.62500000000000000        0.0000000000000000     
   1.5000000000000000       0.62500000000000000        0.0000000000000000     
  0.50000000000000000       0.62500000000000000        0.0000000000000000     
  0.53125000000000000       0.62500000000000000        0.0000000000000000     
  0.56250000000000000       0.62500000000000000        0.0000000000000000     
  0.59375000000000000       0.62500000000000000        0.0000000000000000     
  0.62500000000000000       0.62500000000000000        0.0000000000000000     
  0.50000000000000000       0.65625000000000000        0.0000000000000000     
  0.53125000000000000       0.65625000000000000        0.0000000000000000     
  0.56250000000000000       0.65625000000000000        0.0000000000000000     
  0.59375000000000000       0.65625000000000000        0.0000000000000000     
  0.62500000000000000       0.65625000000000000        0.0000000000000000     
  0.50000000000000000       0.68750000000000000        0.0000000000000000     
  0.53125000000000000       0.68750000000000000        0.0000000000000000     
  0.56250000000000000       0.68750000000000000        0.0000000000000000     
  0.59375000000000000       0.68750000000000000        0.0000000000000000     
  0.62500000000000000       0.68750000000000000        0.0000000000000000     
  0.50000000000000000       0.71875000000000000        0.0000000000000000     
  0.53125000000000000       0.71875000000000000        0.0000000000000000     
  0.56250000000000000       0.71875000000000000        0.0000000000000000     
  0.59375000000000000       0.71875000000000000        0.0000000000000000     
  0.62500000000000000       0.71875000000000000        0.0000000000000000     
  0.50000000000000000       0.75000000000000000        0.0000000000000000     
  0.53125000000000000       0.75000000000000000        0.0000000000000000     
  0.56250000000000000       0.75000000000000000        0.0000000000000000     
  0.59375000000000000       0.75000000000000000        0.0000000000000000     
  0.62500000000000000       0.75000000000000000        0.0000000000000000     
  0.62500000000000000       0.62500000000000000        0.0000000000000000     
  0.65625000000000000       0.62500000000000000        0.0000000000000000     
  0.68750000000000000       0.62500000000000000        0.0000000000000000     
  0.71875000000000000       0.62500000000000000        0.0000000000000000     
  0.75000000000000000       0.62500000000000000        0.0000000000000000     
  0.62500000000000000       0.65625000000000000        0.0000000000000000     
  0.65625000000000000       0.65625000000000000        0.0000000000000000     
  0.68750000000000000       0.65625000000000000        0.0000000000000000     
  0.71875000000000000       0.65625000000000000        0.0000000000000000     
  0.75000000000000000       0.65625000000000000        0.0000000000000000     
  0.62500000000000000       0.68750000000000000        0.0000000000000000     
  0.65625000000000000       0.68750000000000000        0.0000000000000000     
  0.68750000000000000       0.68750000000000000        0.0000000000000000     
  0.71875000000000000       0.68750000000000000        0.0000000000000000     
  0.75000000000000000       0.68750000000000000        0.0000000000000000     
  0.62500000000000000       0.71875000000000000        0.0000000000000000     
  0.65625000000000000       0.71875000000000000        0.0000000000000000     
  0.68750000000000000       0.71875000000000000        0.0000000000000000     
  0.71875000000000000       0.71875000000000000        0.0000000000000000     
  0.75000000000000000       0.71875000000000000        0.0000000000000000     
  0.62500000000000000       0.75000000000000000        0.0000000000000000     
  0.65625000000000000       0.75000000000000000        0.0000000000000000     
  0.68750000000000000       0.75000000000000000        0.0000000000000000     
  0.71875000000000000       0.75000000000000000        0.0000000000000000     
  0.75000000000000000       0.75000000000000000        0.0000000000000000     
  0.75000000000000000       0.62500000000000000        0.0000000000000000     
  0.78125000000000000       0.62500000000000000        0.0000000000000000     
  0.81250000000000000       0.62500000000000000        0.0000000000000000     
  0.84375000000000000       0.62500000000000000        0.0000000000000000     
  0.87500000000000000       0.62500000000000000        0.0000000000000000     
  0.75000000000000000       0.65625000000000000        0.0000000000000000     
  0.78125000000000000       0.65625000000000000        0.0000000000000000     
  0.81250000000000000       0.65625000000000000        0.0000000000000000     
  0.84375000000000000       0.65625000000000000        0.0000000000000000     
  0.87500000000000000       0.65625000000000000        0.0000000000000000     
  0.75000000000000000       0.68750000000000000        0.0000000000000000     
  0.78125000000000000       0.68750000000000000        0.0000000000000000     
  0.81250000000000000       0.68750000000000000        0.0000000000000000     
  0.84375000000000000       0.68750000000000000        0.0000000000000000     
  0.87500000000000000       0.68750000000000000        0.0000000000000000     
  0.75000000000000000       0.71875000000000000        0.0000000000000000     
  0.78125000000000000       0.71875000000000000        0.0000000000000000     
  0.81250000000000000       0.71875000000000000        0.0000000000000000     
  0.84375000000000000       0.71875000000000000        0.0000000000000000     
  0.87500000000000000       0.71875000000000000        0.0000000000000000     
  0.75000000000000000       0.75000000000000000        0.0000000000000000     
  0.78125000000000000       0.75000000000000000        0.0000000000000000     
  0.81250000000000000       0.75000000000000000        0.0000000000000000     
  0.84375000000000000       0.75000000000000000        0.0000000000000000     
  0.87500000000000000       0.75000000000000000        0.0000000000000000     
  0.87500000000000000       0.62500000000000000        0.0000000000000000     
  0.90625000000000000       0.62500000000000000        0.0000000000000000     
  0.93750000000000000       0.62500000000000000        0.0000000000000000     
  0.96875000000000000       0.62500000000000000        0.0000000000000000     
   1.0000000000000000       0.62500000000000000        0.0000000000000000     
  0.87500000000000000       0.65625000000000000        0.0000000000000000     
  0.90625000000000000       0.65625000000000000        0.0000000000000000     
  0.93750000000000000       0.65625000000000000        0.0000000000000000     
  0.96875000000000000       0.65625000000000000        0.0000000000000000     
   1.0000000000000000       0.65625000000000000        0.0000000000000000     
  0.87500000000000000       0.68750000000000000        0.0000000000000000     
  0.90625000000000000       0.68750000000000000        0.0000000000000000     
  0.93750000000000000       0.68750000000000000        0.0000000000000000     
  0.96875000000000000       0.68750000000000000        0.0000000000000000     
   1.0000000000000000       0.68750000000000000        0.0000000000000000     
  0.87500000000000000       0.71875000000000000        0.0000000000000000     
  0.90625000000000000       0.71875000000000000        0.0000000000000000     
  0.93750000000000000       0.71875000000000000        0.0000000000000000     
  0.96875000000000000       0.71875000000000000        0.0000000000000000     
   1.0000000000000000       0.71875000000000000        0.0000000000000000     
  0.87500000000000000       0.75000000000000000        0.0000000000000000     
  0.90625000000000000       0.75000000000000000        0.0000000000000000     
  0.93750000000000000       0.75000000000000000        0.0000000000000000     
  0.96875000000000000       0.75000000000000000        0.0000000000000000     
   1.0000000000000000       0.75000000000000000        0.0000000000000000     
   1.0000000000000000       0.62500000000000000        0.0000000000000000     
   1.0312500000000000       0.62500000000000000        0.0000000000000000     
   1.0625000000000000       0.62500000000000000        0.0000000000000000     
   1.0937500000000000       0.62500000000000000        0.0000000000000000     
   1.1250000000000000       0.62500000000000000        0.0000000000000000     
   1.0000000000000000       0.65625000000000000        0.0000000000000000     
   1.0312500000000000       0.65625000000000000        0.0000000000000000     
   1.0625000000000000       0.65625000000000000        0.0000000000000000     
   1.0937500000000000       0.65625000000000000        0.0000000000000000     
   1.1250000000000000       0.65625000000000000        0.0000000000000000     
   1.0000000000000000       0.68750000000000000        0.0000000000000000     
   1.0312500000000000       0.68750000000000000        0.0000000000000000     
   1.0625000000000000       0.68750000000000000        0.0000000000000000     
   1.0937500000000000       0.68750000000000000        0.0000000000000000     
   1.1250000000000000       0.68750000000000000        0.0000000000000000     
   1.0000000000000000       0.71875000000000000        0.0000000000000000     
   1.0312500000000000       0.71875000000000000        0.0000000000000000     
   1.0625000000000000       0.71875000000000000        0.0000000000000000     
   1.0937500000000000       0.71875000000000000        0.0000000000000000     
   1.1250000000000000       0.71875000000000000        0.0000000000000000     
   1.0000000000000000       0.75000000000000000        0.0000000000000000     
   1.0312500000000000       0.75000000000000000        0.0000000000000000     
   1.0625000000000000       0.75000000000000000        0.0000000000000000     
   1.0937500000000000       0.75000000000000000        0.0000000000000000     
   1.1250000000000000       0.75000000000000000        0.0000000000000000     
   1.1250000000000000       0.62500000000000000        0.0000000000000000     
   1.1562500000000000       0.62500000000000000        0.0000000000000000     
   1.1875000000000000       0.62500000000000000        0.0000000000000000     
   1.2187500000000000       0.62500000000000000        0.0000000000000000     
   1.2500000000000000       0.62500000000000000        0.0000000000000000     
   1.1250000000000000       0.65625000000000000        0.0000000000000000     
   1.1562500000000000       0.65625000000000000        0.0000000000000000     
   1.1875000000000000       0.65625000000000000        0.0000000000000000     
   1.2187500000000000       0.65625000000000000        0.0000000000000000     
   1.2500000000000000       0.65625000000000000        0.0000000000000000     
   1.1250000000000000       0.68750000000000000        0.0000000000000000     
   1.1562500000000000       0.68750000000000000        0.0000000000000000     
   1.1875000000000000       0.68750000000000000        0.0000000000000000     
   1.2187500000000000       0.68750000000000000        0.0000000000000000     
   1.2500000000000000       0.68750000000000000        0.0000000000000000     
   1.1250000000000000       0.71875000000000000        0.0000000000000000     
   1.1562500000000000       0.71875000000000000        0.0000000000000000     
   1.1875000000000000       0.71875000000000000        0.0000000000000000     
   1.2187500000000000       0.71875000000000000        0.0000000000000000     
   1.2500000000000000       0.71875000000000000        0.0000000000000000     
   1.1250000000000000       0.75000000000000000        0.0000000000000000     
   1.1562500000000000       0.75000000000000000        0.0000000000000000     
   1.1875000000000000       0.75000000000000000        0.0000000000000000     
   1.2187500000000000       0.75000000000000000        0.0000000000000000     
   1.2500000000000000       0.75000000000000000        0.0000000000000000     
   1.2500000000000000       0.62500000000000000        0.0000000000000000     
   1.2812500000000000       0.62500000000000000        0.0000000000000000     
   1.3125000000000000       0.62500000000000000        0.0000000000000000     
   1.3437500000000000       0.62500000000000000        0.0000000000000000     
   1.3750000000000000       0.62500000000000000        0.0000000000000000     
   1.2500000000000000       0.65625000000000000        0.0000000000000000     
   1.2812500000000000       0.65625000000000000        0.0000000000000000     
   1.3125000000000000       0.65625000000000000        0.0000000000000000     
   1.3437500000000000       0.65625000000000000        0.0000000000000000     
   1.3750000000000000       0.65625000000000000        0.0000000000000000     
   1.2500000000000000       0.68750000000000000        0.0000000000000000     
   1.2812500000000000       0.68750000000000000        0.0000000000000000     
   1.3125000000000000       0.68750000000000000        0.0000000000000000     
   1.3437500000000000       0.68750000000000000        0.0000000000000000     
   1.3750000000000000       0.68750000000000000        0.0000000000000000     
   1.2500000000000000       0.71875000000000000        0.0000000000000000     
   1.2812500000000000       0.71875000000000000        0.0000000000000000     
   1.3125000000000000       0.71875000000000000        0.0000000000000000     
   1.3437500000000000       0.71875000000000000        0.0000000000000000     
   1.3750000000000000       0.71875000000000000        0.0000000000000000     
   1.2500000000000000       0.75000000000000000        0.0000000000000000     
   1.2812500000000000       0.75000000000000000        0.0000000000000000     
   1.3125000000000000       0.75000000000000000        0.0000000000000000     
   1.3437500000000000       0.75000000000000000        0.0000000000000000     
   1.3750000000000000       0.75000000000000000        0.0000000000000000     
   1.3750000000000000       0.62500000000000000        0.0000000000000000     
   1.4062500000000000       0.62500000000000000        0.0000000000000000     
   1.4375000000000000       0.62500000000000000        0.0000000000000000     
   1.4687500000000000       0.62500000000000000        0.0000000000000000     
   1.5000000000000000       0.62500000000000000        0.0000000000000000     
   1.3750000000000000       0.65625000000000000        0.0000000000000000     
   1.4062500000000000       0.65625000000000000        0.0000000000000000     
   1.4375000000000000       0.65625000000000000        0.0000000000000000     
   1.4687500000000000       0.65625000000000000        0.0000000000000000     
   1.5000000000000000       0.65625000000000000        0.0000000000000000     
   1.3750000000000000       0.68750000000000000        0.0000000000000000     
   1.4062500000000000       0.68750000000000000        0.0000000000000000     
   1.4375000000000000       0.68750000000000000        0.0000000000000000     
   1.4687500000000000       0.68750000000000000        0.0000000000000000     
   1.5000000000000000       0.68750000000000000        0.0000000000000000     
   1.3750000000000000       0.71875000000000000        0.0000000000000000     
   1.4062500000000000       0.71875000000000000        0.0000000000000000     
   1.4375000000000000       0.71875000000000000        0.0000000000000000     
   1.4687500000000000       0.71875000000000000        0.0000000000000000     
   1.5000000000000000       0.71875000000000000        0.0000000000000000     
   1.3750000000000000       0.75000000000000000        0.0000000000000000     
   1.4062500000000000       0.75000000000000000        0.0000000000000000     
   1.4375000000000000       0.75000000000000000        0.0000000000000000     
   1.4687500000000000       0.75000000000000000        0.0000000000000000     
   1.5000000000000000       0.75000000000000000        0.0000000000000000     
  0.50000000000000000       0.75000000000000000        0.0000000000000000     
  0.53125000000000000       0.75000000000000000        0.0000000000000000     
  0.56250000000000000       0.75000000000000000        0.0000000000000000     
  0.59375000000000000       0.75000000000000000        0.0000000000000000     
  0.62500000000000000       0.75000000000000000        0.0000000000000000     
  0.50000000000000000       0.78125000000000000        0.0000000000000000     
  0.53125000000000000       0.78125000000000000        0.0000000000000000     
  0.56250000000000000       0.78125000000000000        0.0000000000000000     
  0.59375000000000000       0.78125000000000000        0.0000000000000000     
  0.62500000000000000       0.78125000000000000        0.0000000000000000     
  0.50000000000000000       0.81250000000000000        0.0000000000000000     
  0.53125000000000000       0.81250000000000000        0.0000000000000000     
  0.56250000000000000       0.81250000000000000        0.0000000000000000     
  0.59375000000000000       0.81250000000000000        0.0000000000000000     
  0.62500000000000000       0.81250000000000000        0.0000000000000000     
  0.50000000000000000       0.84375000000000000        0.0000000000000000     
  0.53125000000000000       0.84375000000000000        0.0000000000000000     
  0.56250000000000000       0.84375000000000000        0.0000000000000000     
  0.59375000000000000       0.84375000000000000        0.0000000000000000     
  0.62500000000000000       0.84375000000000000        0.0000000000000000     
  0.50000000000000000       0.87500000000000000        0.0000000000000000     
  0.53125000000000000       0.87500000000000000        0.0000000000000000     
  0.56250000000000000       0.87500000000000000        0.0000000000000000     
  0.59375000000000000       0.87500000000000000        0.0000000000000000     
  0.62500000000000000       0.87500000000000000        0.0000000000000000     
  0.62500000000000000       0.75000000000000000        0.0000000000000000     
  0.65625000000000000       0.75000000000000000        0.0000000000000000     
  0.68750000000000000       0.75000000000000000        0.0000000000000000     
  0.71875000000000000       0.75000000000000000        0.0000000000000000     
  0.75000000000000000       0.75000000000000000        0.0000000000000000     
  0.62500000000000000       0.78125000000000000        0.0000000000000000     
  0.65625000000000000       0.78125000000000000        0.0000000000000000     
  0.68750000000000000       0.78125000000000000        0.0000000000000000     
  0.71875000000000000       0.78125000000000000        0.0000000000000000     
  0.75000000000000000       0.78125000000000000        0.0000000000000000     
  0.62500000000000000       0.81250000000000000        0.0000000000000000     
  0.65625000000000000       0.81250000000000000        0.0000000000000000     
  0.68750000000000000       0.81250000000000000        0.0000000000000000     
  0.71875000000000000       0.81250000000000000        0.0000000000000000     
  0.75000000000000000       0.81250000000000000        0.0000000000000000     
  0.62500000000000000       0.84375000000000000        0.0000000000000000     
  0.65625000000000000       0.84375000000000000        0.0000000000000000     
  0.68750000000000000       0.84375000000000000        0.0000000000000000     
  0.71875000000000000       0.84375000000000000        0.0000000000000000     
  0.75000000000000000       0.84375000000000000        0.0000000000000000     
  0.62500000000000000       0.87500000000000000        0.0000000000000000     
  0.65625000000000000       0.87500000000000000        0.0000000000000000     
  0.68750000000000000       0.87500000000000000        0.0000000000000000     
  0.71875000000000000       0.87500000000000000        0.0000000000000000     
  0.75000000000000000       0.87500000000000000        0.0000000000000000     
  0.75000000000000000       0.75000000000000000        0.0000000000000000     
  0.78125000000000000       0.75000000000000000        0.0000000000000000     
  0.81250000000000000       0.75000000000000000        0.0000000000000000     
  0.84375000000000000       0.75000000000000000        0.0000000000000000     
  0.87500000000000000       0.75000000000000000        0.0000000000000000     
  0.75000000000000000       0.78125000000000000        0.0000000000000000     
  0.78125000000000000       0.78125000000000000        0.0000000000000000     
  0.81250000000000000       0.78125000000000000        0.0000000000000000     
  0.84375000000000000       0.78125000000000000        0.0000000000000000     
  0.87500000000000000       0.78125000000000000        0.0000000000000000     
  0.75000000000000000       0.81250000000000000        0.0000000000000000     
  0.78125000000000000       0.81250000000000000        0.0000000000000000     
  0.81250000000000000       0.81250000000000000        0.0000000000000000     
  0.84375000000000000       0.81250000000000000        0.0000000000000000     
  0.87500000000000000       0.81250000000000000        0.0000000000000000     
  0.75000000000000000       0.84375000000000000        0.0000000000000000     
  0.78125000000000000       0.84375000000000000        0.0000000000000000     
  0.81250000000000000       0.84375000000000000        0.0000000000000000     
  0.84375000000000000       0.84375000000000000        0.0000000000000000     
  0.87500000000000000       0.84375000000000000        0.0000000000000000     
  0.75000000000000000       0.87500000000000000        0.0000000000000000     
  0.78125000000000000       0.87500000000000000        0.0000000000000000     
  0.81250000000000000       0.87500000000000000        0.0000000000000000     
  0.84375000000000000       0.87500000000000000        0.0000000000000000     
  0.87500000000000000       0.87500000000000000        0.0000000000000000     
  0.87500000000000000       0.75000000000000000        0.0000000000000000     
  0.90625000000000000       0.75000000000000000        0.0000000000000000     
  0.93750000000000000       0.75000000000000000        0.0000000000000000     
  0.96875000000000000       0.75000000000000000        0.0000000000000000     
   1.0000000000000000       0.75000000000000000        0.0000000000000000     
  0.87500000000000000       0.78125000000000000        0.0000000000000000     
  0.90625000000000000       0.78125000000000000        0.0000000000000000     
  0.93750000000000000       0.78125000000000000        0.0000000000000000     
  0.96875000000000000       0.78125000000000000        0.0000000000000000     
   1.0000000000000000       0.78125000000000000        0.0000000000000000     
  0.87500000000000000       0.81250000000000000        0.0000000000000000     
  0.90625000000000000       0.81250000000000000        0.0000000000000000     
  0.93750000000000000       0.81250000000000000        0.0000000000000000     
  0.96875000000000000       0.81250000000000000        0.0000000000000000     
   1.0000000000000000       0.81250000000000000        0.0000000000000000     
  0.87500000000000000       0.84375000000000000        0.0000000000000000     
  0.90625000000000000       0.84375000000000000        0.0000000000000000     
  0.93750000000000000       0.84375000000000000        0.0000000000000000     
  0.96875000000000000       0.84375000000000000        0.0000000000000000     
   1.0000000000000000       0.84375000000000000        0.0000000000000000     
  0.87500000000000000       0.87500000000000000        0.0000000000000000     
  0.90625000000000000       0.87500000000000000        0.0000000000000000     
  0.93750000000000000       0.87500000000000000        0.0000000000000000     
  0.96875000000000000       0.87500000000000000        0.0000000000000000     
   1.0000000000000000       0.87500000000000000        0.0000000000000000     
   1.0000000000000000       0.75000000000000000        0.0000000000000000     
   1.0312500000000000       0.75000000000000000        0.0000000000000000     
   1.0625000000000000       0.75000000000000000        0.0000000000000000     
   1.0937500000000000       0.75000000000000000        0.0000000000000000     
   1.1250000000000000       0.75000000000000000        0.0000000000000000     
   1.0000000000000000       0.78125000000000000        0.0000000000000000     
   1.0312500000000000       0.78125000000000000        0.0000000000000000     
   1.0625000000000000       0.78125000000000000        0.0000000000000000     
   1.0937500000000000       0.78125000000000000        0.0000000000000000     
   1.1250000000000000       0.78125000000000000        0.0000000000000000     
   1.0000000000000000       0.81250000000000000        0.0000000000000000     
   1.0312500000000000       0.81250000000000000        0.0000000000000000     
   1.0625000000000000       0.81250000000000000        0.0000000000000000     
   1.0937500000000000       0.81250000000000000        0.0000000000000000     
   1.1250000000000000       0.81250000000000000        0.0000000000000000     
   1.0000000000000000       0.84375000000000000        0.0000000000000000     
   1.0312500000000000       0.84375000000000000        0.0000000000000000     
   1.0625000000000000       0.84375000000000000        0.0000000000000000     
   1.0937500000000000       0.84375000000000000        0.0000000000000000     
   1.1250000000000000       0.84375000000000000        0.0000000000000000     
   1.0000000000000000       0.87500000000000000        0.0000000000000000     
   1.0312500000000000       0.87500000000000000        0.0000000000000000     
   1.0625000000000000       0.87500000000000000        0.0000000000000000     
   1.0937500000000000       0.87500000000000000        0.0000000000000000     
   1.1250000000000000       0.87500000000000000        0.0000000000000000     
   1.1250000000000000       0.75000000000000000        0.0000000000000000     
   1.1562500000000000       0.75000000000000000        0.0000000000000000     
   1.1875000000000000       0.75000000000000000        0.0000000000000000     
   1.2187500000000000       0.75000000000000000        0.0000000000000000     
   1.2500000000000000       0.75000000000000000        0.0000000000000000     
   1.1250000000000000       0.78125000000000000        0.0000000000000000     
   1.1562500000000000       0.78125000000000000        0.0000000000000000     
   1.1875000000000000       0.78125000000000000        0.0000000000000000     
   1.2187500000000000       0.78125000000000000        0.0000000000000000     
   1.2500000000000000       0.78125000000000000        0.0000000000000000     
   1.1250000000000000       0.81250000000000000        0.0000000000000000     
   1.1562500000000000       0.81250000000000000        0.0000000000000000     
   1.1875000000000000       0.81250000000000000        0.0000000000000000     
   1.2187500000000000       0.81250000000000000        0.0000000000000000     
   1.2500000000000000       0.81250000000000000        0.0000000000000000     
   1.1250000000000000       0.84375000000000000        0.0000000000000000     
   1.1562500000000000       0.84375000000000000        0.0000000000000000     
   1.1875000000000000       0.84375000000000000        0.0000000000000000     
   1.2187500000000000       0.84375000000000000        0.0000000000000000     
   1.2500000000000000       0.84375000000000000        0.0000000000000000     
   1.1250000000000000       0.87500000000000000        0.0000000000000000     
   1.1562500000000000       0.87500000000000000        0.0000000000000000     
   1.1875000000000000       0.87500000000000000        0.0000000000000000     
   1.2187500000000000       0.87500000000000000        0.0000000000000000     
   1.2500000000000000       0.87500000000000000        0.0000000000000000     
   1.2500000000000000       0.75000000000000000        0.0000000000000000     
   1.2812500000000000       0.75000000000000000        0.0000000000000000     
   1.3125000000000000       0.75000000000000000        0.0000000000000000     
   1.3437500000000000       0.75000000000000000        0.0000000000000000     
   1.3750000000000000       0.75000000000000000        0.0000000000000000     
   1.2500000000000000       0.78125000000000000        0.0000000000000000     
   1.2812500000000000       0.78125000000000000        0.0000000000000000     
   1.3125000000000000       0.78125000000000000        0.0000000000000000     
   1.3437500000000000       0.78125000000000000        0.0000000000000000     
   1.3750000000000000       0.78125000000000000        0.0000000000000000     
   1.2500000000000000       0.81250000000000000        0.0000000000000000     
   1.2812500000000000       0.81250000000000000        0.0000000000000000     
   1.3125000000000000       0.81250000000000000        0.0000000000000000     
   1.3437500000000000       0.81250000000000000        0.0000000000000000     
   1.3750000000000000       0.81250000000000000        0.0000000000000000     
   1.2500000000000000       0.84375000000000000        0.0000000000000000     
   1.2812500000000000       0.84375000000000000        0.0000000000000000     
   1.3125000000000000       0.84375000000000000        0.0000000000000000     
   1.3437500000000000       0.84375000000000000        0.0000000000000000     
   1.3750000000000000       0.84375000000000000        0.0000000000000000     
   1.2500000000000000       0.87500000000000000        0.0000000000000000     
   1.2812500000000000       0.87500000000000000        0.0000000000000000     
   1.3125000000000000       0.87500000000000000        0.0000000000000000     
   1.3437500000000000       0.87500000000000000        0.0000000000000000     
   1.3750000000000000       0.87500000000000000        0.0000000000000000     
   1.3750000000000000       0.75000000000000000        0.0000000000000000     
   1.4062500000000000       0.75000000000000000        0.0000000000000000     
   1.4375000000000000       0.75000000000000000        0.0000000000000000     
   1.4687500000000000       0.75000000000000000        0.0000000000000000     
   1.5000000000000000       0.75000000000000000        0.0000000000000000     
   1.3750000000000000       0.78125000000000000        0.0000000000000000     
   1.4062500000000000       0.78125000000000000        0.0000000000000000     
   1.4375000000000000       0.78125000000000000        0.0000000000000000     
   1.4687500000000000       0.78125000000000000        0.0000000000000000     
   1.5000000000000000       0.78125000000000000        0.0000000000000000     
   1.3750000000000000       0.81250000000000000        0.0000000000000000     
   1.4062500000000000       0.81250000000000000        0.0000000000000000     
   1.4375000000000000       0.81250000000000000        0.0000000000000000     
   1.4687500000000000       0.81250000000000000        0.0000000000000000     
   1.5000000000000000       0.81250000000000000        0.0000000000000000     
   1.3750000000000000       0.84375000000000000        0.0000000000000000     
   1.4062500000000000       0.84375000000000000        0.0000000000000000     
   1.4375000000000000       0.84375000000000000        0.0000000000000000     
   1.4687500000000000       0.84375000000000000        0.0000000000000000     
   1.5000000000000000       0.84375000000000000        0.0000000000000000     
   1.3750000000000000       0.87500000000000000        0.0000000000000000     
   1.4062500000000000       0.87500000000000000        0.0000000000000000     
   1.4375000000000000       0.87500000000000000        0.0000000000000000     
   1.4687500000000000       0.87500000000000000        0.0000000000000000     
   1.5000000000000000       0.87500000000000000        0.0000000000000000     
  0.50000000000000000       0.87500000000000000        0.0000000000000000     
  0.53125000000000000       0.87500000000000000        0.0000000000000000     
  0.56250000000000000       0.87500000000000000        0.0000000000000000     
  0.59375000000000000       0.87500000000000000        0.0000000000000000     
  0.62500000000000000       0.87500000000000000        0.0000000000000000     
  0.50000000000000000       0.90625000000000000        0.0000000000000000     
  0.53125000000000000       0.90625000000000000        0.0000000000000000     
  0.56250000000000000       0.90625000000000000        0.0000000000000000     
  0.59375000000000000       0.90625000000000000        0.0000000000000000     
  0.62500000000000000       0.90625000000000000        0.0000000000000000     
  0.50000000000000000       0.93750000000000000        0.0000000000000000     
  0.53125000000000000       0.93750000000000000        0.0000000000000000     
  0.56250000000000000       0.93750000000000000        0.0000000000000000     
  0.59375000000000000       0.93750000000000000        0.0000000000000000     
  0.62500000000000000       0.93750000000000000        0.0000000000000000     
  0.50000000000000000       0.96875000000000000        0.0000000000000000     
  0.53125000000000000       0.96875000000000000        0.0000000000000000     
  0.56250000000000000       0.96875000000000000        0.0000000000000000     
  0.59375000000000000       0.96875000000000000        0.0000000000000000     
  0.62500000000000000       0.96875000000000000        0.0000000000000000     
  0.50000000000000000        1.0000000000000000        0.0000000000000000     
  0.53125000000000000        1.0000000000000000        0.0000000000000000     
  0.56250000000000000        1.0000000000000000        0.0000000000000000     
  0.59375000000000000        1.0000000000000000        0.0000000000000000     
  0.62500000000000000        1.0000000000000000        0.0000000000000000     
  0.62500000000000000       0.87500000000000000        0.0000000000000000     
  0.65625000000000000       0.87500000000000000        0.0000000000000000     
  0.68750000000000000       0.87500000000000000        0.0000000000000000     
  0.71875000000000000       0.87500000000000000        0.0000000000000000     
  0.75000000000000000       0.87500000000000000        0.0000000000000000     
  0.62500000000000000       0.90625000000000000        0.0000000000000000     
  0.65625000000000000       0.90625000000000000        0.0000000000000000     
  0.68750000000000000       0.90625000000000000        0.0000000000000000     
  0.71875000000000000       0.90625000000000000        0.0000000000000000     
  0.75000000000000000       0.90625000000000000        0.0000000000000000     
  0.62500000000000000       0.93750000000000000        0.0000000000000000     
  0.65625000000000000       0.93750000000000000        0.0000000000000000     
  0.68750000000000000       0.93750000000000000        0.0000000000000000     
  0.71875000000000000       0.93750000000000000        0.0000000000000000     
  0.75000000000000000       0.93750000000000000        0.0000000000000000     
  0.62500000000000000       0.96875000000000000        0.0000000000000000     
  0.65625000000000000       0.96875000000000000        0.0000000000000000     
  0.68750000000000000       0.96875000000000000        0.0000000000000000     
  0.71875000000000000       0.96875000000000000        0.0000000000000000     
  0.75000000000000000       0.96875000000000000        0.0000000000000000     
  0.62500000000000000        1.0000000000000000        0.0000000000000000     
  0.65625000000000000        1.0000000000000000        0.0000000000000000     
  0.68750000000000000        1.0000000000000000        0.0000000000000000     
  0.71875000000000000        1.0000000000000000        0.0000000000000000     
  0.75000000000000000        1.0000000000000000        0.0000000000000000     
  0.75000000000000000       0.87500000000000000        0.0000000000000000     
  0.78125000000000000       0.87500000000000000        0.0000000000000000     
  0.81250000000000000       0.87500000000000000        0.0000000000000000     
  0.84375000000000000       0.87500000000000000        0.0000000000000000     
  0.87500000000000000       0.87500000000000000        0.0000000000000000     
  0.75000000000000000       0.90625000000000000        0.0000000000000000     
  0.78125000000000000       0.90625000000000000        0.0000000000000000     
  0.81250000000000000       0.90625000000000000        0.0000000000000000     
  0.84375000000000000       0.90625000000000000        0.0000000000000000     
  0.87500000000000000       0.90625000000000000        0.0000000000000000     
  0.75000000000000000       0.93750000000000000        0.0000000000000000     
  0.78125000000000000       0.93750000000000000        0.0000000000000000     
  0.81250000000000000       0.93750000000000000        0.0000000000000000     
  0.84375000000000000       0.93750000000000000        0.0000000000000000     
  0.87500000000000000       0.93750000000000000        0.0000000000000000     
  0.75000000000000000       0.96875000000000000        0.0000000000000000     
  0.78125000000000000       0.96875000000000000        0.0000000000000000     
  0.81250000000000000       0.96875000000000000        0.0000000000000000     
  0.84375000000000000       0.96875000000000000        0.0000000000000000     
  0.87500000000000000       0.96875000000000000        0.0000000000000000     
  0.75000000000000000        1.0000000000000000        0.0000000000000000     
  0.78125000000000000        1.0000000000000000        0.0000000000000000     
  0.81250000000000000        1.0000000000000000        0.0000000000000000     
  0.84375000000000000        1.0000000000000000        0.0000000000000000     
  0.87500000000000000        1.0000000000000000        0.0000000000000000     
  0.87500000000000000       0.87500000000000000        0.0000000000000000     
  0.90625000000000000       0.87500000000000000        0.0000000000000000     
  0.93750000000000000       0.87500000000000000        0.0000000000000000     
  0.96875000000000000       0.87500000000000000        0.0000000000000000     
   1.0000000000000000       0.87500000000000000        0.0000000000000000     
  0.87500000000000000       0.90625000000000000        0.0000000000000000     
  0.90625000000000000       0.90625000000000000        0.0000000000000000     
  0.93750000000000000       0.90625000000000000        0.0000000000000000     
  0.96875000000000000       0.90625000000000000        0.0000000000000000     
   1.0000000000000000       0.90625000000000000        0.0000000000000000     
  0.87500000000000000       0.93750000000000000        0.0000000000000000     
  0.90625000000000000       0.93750000000000000        0.0000000000000000     
  0.93750000000000000       0.93750000000000000        0.0000000000000000     
  0.96875000000000000       0.93750000000000000        0.0000000000000000     
   1.0000000000000000       0.93750000000000000        0.0000000000000000     
  0.87500000000000000       0.96875000000000000        0.0000000000000000     
  0.90625000000000000       0.96875000000000000        0.0000000000000000     
  0.93750000000000000       0.96875000000000000        0.0000000000000000     
  0.96875000000000000       0.96875000000000000        0.0000000000000000     
   1.0000000000000000       0.96875000000000000        0.0000000000000000     
  0.87500000000000000        1.0000000000000000        0.0000000000000000     
  0.90625000000000000        1.0000000000000000        0.0000000000000000     
  0.93750000000000000        1.0000000000000000        0.0000000000000000     
  0.96875000000000000        1.0000000000000000        0.0000000000000000     
   1.0000000000000000        1.0000000000000000        0.0000000000000000     
   1.0000000000000000       0.87500000000000000        0.0000000000000000     
   1.0312500000000000       0.87500000000000000        0.0000000000000000     
   1.0625000000000000       0.87500000000000000        0.0000000000000000     
   1.0937500000000000       0.87500000000000000        0.0000000000000000     
   1.1250000000000000       0.87500000000000000        0.0000000000000000     
   1.0000000000000000       0.90625000000000000        0.0000000000000000     
   1.0312500000000000       0.90625000000000000        0.0000000000000000     
   1.0625000000000000       0.90625000000000000        0.0000000000000000     
   1.0937500000000000       0.90625000000000000        0.0000000000000000     
   1.1250000000000000       0.90625000000000000        0.0000000000000000     
   1.0000000000000000       0.93750000000000000        0.0000000000000000     
   1.0312500000000000       0.93750000000000000        0.0000000000000000     
   1.0625000000000000       0.93750000000000000        0.0000000000000000     
   1.0937500000000000       0.93750000000000000        0.0000000000000000     
   1.1250000000000000       0.93750000000000000        0.0000000000000000     
   1.0000000000000000       0.96875000000000000        0.0000000000000000     
   1.0312500000000000       0.96875000000000000        0.0000000000000000     
   1.0625000000000000       0.96875000000000000        0.0000000000000000     
   1.0937500000000000       0.96875000000000000        0.0000000000000000     
   1.1250000000000000       0.96875000000000000        0.0000000000000000     
   1.0000000000000000        1.0000000000000000        0.0000000000000000     
   1.0312500000000000        1.0000000000000000        0.0000000000000000     
   1.0625000000000000        1.0000000000000000        0.0000000000000000     
   1.0937500000000000        1.0000000000000000        0.0000000000000000     
   1.1250000000000000        1.0000000000000000        0.0000000000000000     
   1.1250000000000000       0.87500000000000000        0.0000000000000000     
   1.1562500000000000       0.87500000000000000        0.0000000000000000     
   1.1875000000000000       0.87500000000000000        0.0000000000000000     
   1.2187500000000000       0.87500000000000000        0.0000000000000000     
   1.2500000000000000       0.87500000000000000        0.0000000000000000     
   1.1250000000000000       0.90625000000000000        0.0000000000000000     
   1.1562500000000000       0.90625000000000000        0.0000000000000000     
   1.1875000000000000       0.90625000000000000        0.0000000000000000     
   1.2187500000000000       0.90625000000000000        0.0000000000000000     
   1.2500000000000000       0.90625000000000000        0.0000000000000000     
   1.1250000000000000       0.93750000000000000        0.0000000000000000     
   1.1562500000000000       0.93750000000000000        0.0000000000000000     
   1.1875000000000000       0.93750000000000000        0.0000000000000000     
   1.2187500000000000       0.93750000000000000        0.0000000000000000     
   1.2500000000000000       0.93750000000000000        0.0000000000000000     
   1.1250000000000000       0.96875000000000000        0.0000000000000000     
   1.1562500000000000       0.96875000000000000        0.0000000000000000     
   1.1875000000000000       0.96875000000000000        0.0000000000000000     
   1.2187500000000000       0.96875000000000000        0.0000000000000000     
   1.2500000000000000       0.96875000000000000        0.0000000000000000     
   1.1250000000000000        1.0000000000000000        0.0000000000000000     
   1.1562500000000000        1.0000000000000000        0.0000000000000000     
   1.1875000000000000        1.0000000000000000        0.0000000000000000     
   1.2187500000000000        1.0000000000000000        0.0000000000000000     
   1.2500000000000000        1.0000000000000000        0.0000000000000000     
   1.2500000000000000       0.87500000000000000        0.0000000000000000     
   1.2812500000000000       0.87500000000000000        0.0000000000000000     
   1.3125000000000000       0.87500000000000000        0.0000000000000000     
   1.3437500000000000       0.87500000000000000        0.0000000000000000     
   1.3750000000000000       0.87500000000000000        0.0000000000000000     
   1.2500000000000000       0.90625000000000000        0.0000000000000000     
   1.2812500000000000       0.90625000000000000        0.0000000000000000     
   1.3125000000000000       0.90625000000000000        0.0000000000000000     
   1.3437500000000000       0.90625000000000000        0.0000000000000000     
   1.3750000000000000       0.90625000000000000        0.0000000000000000     
   1.2500000000000000       0.93750000000000000        0.0000000000000000     
   1.2812500000000000       0.93750000000000000        0.0000000000000000     
   1.3125000000000000       0.93750000000000000        0.0000000000000000     
   1.3437500000000000       0.93750000000000000        0.0000000000000000     
   1.3750000000000000       0.93750000000000000        0.0000000000000000     
   1.2500000000000000       0.96875000000000000        0.0000000000000000     
   1.2812500000000000       0.96875000000000000        0.0000000000000000     
   1.3125000000000000       0.96875000000000000        0.0000000000000000     
   1.3437500000000000       0.96875000000000000        0.0000000000000000     
   1.3750000000000000       0.96875000000000000        0.0000000000000000     
   1.2500000000000000        1.0000000000000000        0.0000000000000000     
   1.2812500000000000        1.0000000000000000        0.0000000000000000     
   1.3125000000000000        1.0000000000000000        0.0000000000000000     
   1.3437500000000000        1.0000000000000000        0.0000000000000000     
   1.3750000000000000        1.0000000000000000        0.0000000000000000     
   1.3750000000000000       0.87500000000000000        0.0000000000000000     
   1.4062500000000000       0.87500000000000000        0.0000000000000000     
   1.4375000000000000       0.87500000000000000        0.0000000000000000     
   1.4687500000000000       0.87500000000000000        0.0000000000000000     
   1.5000000000000000       0.87500000000000000        0.0000000000000000     
   1.3750000000000000       0.90625000000000000        0.0000000000000000     
   1.4062500000000000       0.90625000000000000        0.0000000000000000     
   1.4375000000000000       0.90625000000000000        0.0000000000000000     
   1.4687500000000000       0.90625000000000000        0.0000000000000000     
   1.5000000000000000       0.90625000000000000        0.0000000000000000     
   1.3750000000000000       0.93750000000000000        0.0000000000000000     
   1.4062500000000000       0.93750000000000000        0.0000000000000000     
   1.4375000000000000       0.93750000000000000        0.0000000000000000     
   1.4687500000000000       0.93750000000000000        0.0000000000000000     
   1.5000000000000000       0.93750000000000000        0.0000000000000000     
   1.3750000000000000       0.96875000000000000        0.0000000000000000     
   1.4062500000000000       0.96875000000000000        0.0000000000000000     
   1.4375000000000000       0.96875000000000000        0.0000000000000000     
   1.4687500000000000       0.96875000000000000        0.0000000000000000     
   1.5000000000000000       0.96875000000000000        0.0000000000000000     
   1.3750000000000000        1.0000000000000000        0.0000000000000000     
   1.4062500000000000        1.0000000000000000        0.0000000000000000     
   1.4375000000000000        1.0000000000000000        0.0000000000000000     
   1.4687500000000000        1.0000000000000000        0.0000000000000000     
   1.5000000000000000        1.0000000000000000        0.0000000000000000     
 </DataArray>
 </Points>
 <Cells>
 <DataArray  type="Int32"  Name="connectivity"  format="ascii">
           0           1           6           5
           1           2           7           6
           2           3           8           7
           3           4           9           8
           5           6          11          10
           6           7          12          11
           7           8          13          12
           8           9          14          13
          10          11          16          15
          11          12          17          16
          12          13          18          17
          13          14          19          18
          15          16          21          20
          16          17          22          21
          17          18          23          22
          18          19          24          23
          25          26          31          30
          26          27          32          31
          27          28          33          32
          28          29          34          33
          30          31          36          35
          31          32          37          36
          32          33          38          37
          33          34          39          38
          35          36          41          40
          36          37          42          41
          37          38          43          42
          38          39          44          43
          40          41          46          45
          41          42          47          46
          42          43          48          47
          43          44          49          48
          50          51          56          55
          51          52          57          56
          52          53          58          57
          53          54          59          58
          55          56          61          60
          56          57          62          61
          57          58          63          62
          58          59          64          63
          60          61          66          65
          61          62          67          66
          62          63          68          67
          63          64          69          68
          65          66          71          70
          66          67          72          71
          67          68          73          72
          68          69          74          73
          75          76          81          80
          76          77          82          81
          77          78          83          82
          78          79          84          83
          80          81          86          85
          81          82          87          86
          82          83          88          87
          83          84          89          88
          85          86          91          90
          86          87          92          91
          87          88          93          92
          88          89          94          93
          90          91          96          95
          91          92          97          96
          92          93          98          97
          93          94          99          98
         100         101         106         105
         101         102         107         106
         102         103         108         107
         103         104         109         108
         105         106         111         110
         106         107         112         111
         107         108         113         112
         108         109         114         113
         110         111         116         115
         111         112         117         116
         112         113         118         117
         113         114         119         118
         115         116         121         120
         116         117         122         121
         117         118         123         122
         118         119         124         123
         125         126         131         130
         126         127         132         131
         127         128         133         132
         128         129         134         133
         130         131         136         135
         131         132         137         136
         132         133         138         137
         133         134         139         138
         135         136         141         140
         136         137         142         141
         137         138         143         142
         138         139         144         143
         140         141         146         145
         141         142         147         146
         142         143         148         147
         143         144         149         148
         150         151         156         155
         151         152         157         156
         152         153         158         157
         153         154         159         158
         155         156         161         160
         156         157         162         161
         157         158         163         162
         158         159         164         163
         160         161         166         165
         161         162         167         166
         162         163         168         167
         163         164         169         168
         165         166         171         170
         166         167         172         171
         167         168         173         172
         168         169         174         173
         175         176         181         180
         176         177         182         181
         177         178         183         182
         178         179         184         183
         180         181         186         185
         181         182         187         186
         182         183         188         187
         183         184         189         188
         185         186         191         190
         186         187         192         191
         187         188         193         192
         188         189         194         193
         190         191         196         195
         191         192         197         196
         192         193         198         197
         193         194         199         198
         200         201         206         205
         201         202         207         206
         202         203         208         207
         203         204         209         208
         205         206         211         210
         206         207         212         211
         207         208         213         212
         208         209         214         213
         210         211         216         215
         211         212         217         216
         212         213         218         217
         213         214         219         218
         215         216         221         220
         216         217         222         221
         217         218         223         222
         218         219         224         223
         225         226         231         230
         226         227         232         231
         227         228         233         232
         228         229         234         233
         230         231         236         235
         231         232         237         236
         232         233         238         237
         233         234         239         238
         235         236         241         240
         236         237         242         241
         237         238         243         242
         238         239         244         243
         240         241         246         245
         241         242         247         246
         242         243         248         247
         243         244         249         248
         250         251         256         255
         251         252         257         256
         252         253         258         257
         253         254         259         258
         255         256         261         260
         256         257         262         261
         257         258         263         262
         258         259         264         263
         260         261         266         265
         261         262         267         266
         262         263         268         267
         263         264         269         268
         265         266         271         270
         266         267         272         271
         267         268         273         272
         268         269         274         273
         275         276         281         280
         276         277         282         281
         277         278         283         282
         278         279         284         283
         280         281         286         285
         281         282         287         286
         282         283         288         287
         283         284         289         288
         285         286         291         290
         286         287         292         291
         287         288         293         292
         288         289         294         293
         290         291         296         295
         291         292         297         296
         292         293         298         297
         293         294         299         298
         300         301         306         305
         301         302         307         306
         302         303         308         307
         303         304         309         308
         305         306         311         310
         306         307         312         311
         307         308         313         312
         308         309         314         313
         310         311         316         315
         311         312         317         316
         312         313         318         317
         313         314         319         318
         315         316         321         320
         316         317         322         321
         317         318         323         322
         318         319         324         323
         325         326         331         330
         326         327         332         331
         327         328         333         332
         328         329         334         333
         330         331         336         335
         331         332         337         336
         332         333         338         337
         333         334         339         338
         335         336         341         340
         336         337         342         341
         337         338         343         342
         338         339         344         343
         340         341         346         345
         341         342         347         346
         342         343         348         347
         343         344         349         348
         350         351         356         355
         351         352         357         356
         352         353         358         357
         353         354         359         358
         355         356         361         360
         356         357         362         361
         357         358         363         362
         358         359         364         363
         360         361         366         365
         361         362         367         366
         362         363         368         367
         363         364         369         368
         365         366         371         370
         366         367         372         371
         367         368         373         372
         368         369         374         373
         375         376         381         380
         376         377         382         381
         377         378         383         382
         378         379         384         383
         380         381         386         385
         381         382         387         386
         382         383         388         387
         383         384         389         388
         385         386         391         390
         386         387         392         391
         387         388         393         392
         388         389         394         393
         390         391         396         395
         391         392         397         396
         392         393         398         397
         393         394         399         398
         400         401         406         405
         401         402         407         406
         402         403         408         407
         403         404         409         408
         405         406         411         410
         406         407         412         411
         407         408         413         412
         408         409         414         413
         410         411         416         415
         411         412         417         416
         412         413         418         417
         413         414         419         418
         415         416         421         420
         416         417         422         421
         417         418         423         422
         418         419         424         423
         425         426         431         430
         426         427         432         431
         427         428         433         432
         428         429         434         433
         430         431         436         435
         431         432         437         436
         432         433         438         437
         433         434         439         438
         435         436         441         440
         436         437         442         441
         437         438         443         442
         438         439         444         443
         440         441         446         445
         441         442         447         446
         442         443         448         447
         443         444         449         448
         450         451         456         455
         451         452         457         456
         452         453         458         457
         453         454         459         458
         455         456         461         460
         456         457         462         461
         457         458         463         462
         458         459         464         463
         460         461         466         465
         461         462         467         466
         462         463         468         467
         463         464         469         468
         465         466         471         470
         466         467         472         471
         467         468         473         472
         468         469         474         473
         475         476         481         480
         476         477         482         481
         477         478         483         482
         478         479         484         483
         480         481         486         485
         481         482         487         486
         482         483         488         487
         483         484         489         488
         485         486         491         490
         486         487         492         491
         487         488         493         492
         488         489         494         493
         490         491         496         495
         491         492         497         496
         492         493         498         497
         493         494         499         498
         500         501         506         505
         501         502         507         506
         502         503         508         507
         503         504         509         508
         505         506         511         510
         506         507         512         511
         507         508         513         512
         508         509         514         513
         510         511         516         515
         511         512         517         516
         512         513         518         517
         513         514         519         518
         515         516         521         520
         516         517         522         521
         517         518         523         522
         518         519         524         523
         525         526         531         530
         526         527         532         531
         527         528         533         532
         528         529         534         533
         530         531         536         535
         531         532         537         536
         532         533         538         537
         533         534         539         538
         535         536         541         540
         536         537         542         541
         537         538         543         542
         538         539         544         543
         540         541         546         545
         541         542         547         546
         542         543         548         547
         543         544         549         548
         550         551         556         555
         551         552         557         556
         552         553         558         557
         553         554         559         558
         555         556         561         560
         556         557         562         561
         557         558         563         562
         558         559         564         563
         560         561         566         565
         561         562         567         566
         562         563         568         567
         563         564         569         568
         565         566         571         570
         566         567         572         571
         567         568         573         572
         568         569         574         573
         575         576         581         580
         576         577         582         581
         577         578         583         582
         578         579         584         583
         580         581         586         585
         581         582         587         586
         582         583         588         587
         583         584         589         588
         585         586         591         590
         586         587         592         591
         587         588         593         592
         588         589         594         593
         590         591         596         595
         591         592         597         596
         592         593         598         597
         593         594         599         598
         600         601         606         605
         601         602         607         606
         602         603         608         607
         603         604         609         608
         605         606         611         610
         606         607         612         611
         607         608         613         612
         608         609         614         613
         610         611         616         615
         611         612         617         616
         612         613         618         617
         613         614         619         618
         615         616         621         620
         616         617         622         621
         617         618         623         622
         618         619         624         623
         625         626         631         630
         626         627         632         631
         627         628         633         632
         628         629         634         633
         630         631         636         635
         631         632         637         636
         632         633         638         637
         633         634         639         638
         635         636         641         640
         636         637         642         641
         637         638         643         642
         638         639         644         643
         640         641         646         645
         641         642         647         646
         642         643         648         647
         643         644         649         648
         650         651         656         655
         651         652         657         656
         652         653         658         657
         653         654         659         658
         655         656         661         660
         656         657         662         661
         657         658         663         662
         658         659         664         663
         660         661         666         665
         661         662         667         666
         662         663         668         667
         663         664         669         668
         665         666         671         670
         666         667         672         671
         667         668         673         672
         668         669         674         673
         675         676         681         680
         676         677         682         681
         677         678         683         682
         678         679         684         683
         680         681         686         685
         681         682         687         686
         682         683         688         687
         683         684         689         688
         685         686         691         690
         686         687         692         691
         687         688         693         692
         688         689         694         693
         690         691         696         695
         691         692         697         696
         692         693         698         697
         693         694         699         698
         700         701         706         705
         701         702         707         706
         702         703         708         707
         703         704         709         708
         705         706         711         710
         706         707         712         711
         707         708         713         712
         708         709         714         713
         710         711         716         715
         711         712         717         716
         712         713         718         717
         713         714         719         718
         715         716         721         720
         716         717         722         721
         717         718         723         722
         718         719         724         723
         725         726         731         730
         726         727         732         731
         727         728         733         732
         728         729         734         733
         730         731         736         735
         731         732         737         736
         732         733         738         737
         733         734         739         738
         735         736         741         740
         736         737         742         741
         737         738         743         742
         738         739         744         743
         740         741         746         745
         741         742         747         746
         742         743         748         747
         743         744         749         748
         750         751         756         755
         751         752         757         756
         752         753         758         757
         753         754         759         758
         755         756         761         760
         756         757         762         761
         757         758         763         762
         758         759         764         763
         760         761         766         765
         761         762         767         766
         762         763         768         767
         763         764         769         768
         765         766         771         770
         766         767         772         771
         767         768         773         772
         768         769         774         773
         775         776         781         780
         776         777         782         781
         777         778         783         782
         778         779         784         783
         780         781         786         785
         781         782         787         786
         782         783         788         787
         783         784         789         788
         785         786         791         790
         786         787         792         791
         787         788         793         792
         788         789         794         793
         790         791         796         795
         791         792         797         796
         792         793         798         797
         793         794         799         798
         800         801         806         805
         801         802         807         806
         802         803         808         807
         803         804         809         808
         805         806         811         810
         806         807         812         811
         807         808         813         812
         808         809         814         813
         810         811         816         815
         811         812         817         816
         812         813         818         817
         813         814         819         818
         815         816         821         820
         816         817         822         821
         817         818         823         822
         818         819         824         823
         825         826         831         830
         826         827         832         831
         827         828         833         832
         828         829         834         833
         830         831         836         835
         831         832         837         836
         832         833         838         837
         833         834         839         838
         835         836         841         840
         836         837         842         841
         837         838         843         842
         838         839         844         843
         840         841         846         845
         841         842         847         846
         842         843         848         847
         843         844         849         848
         850         851         856         855
         851         852         857         856
         852         853         858         857
         853         854         859         858
         855         856         861         860
         856         857         862         861
         857         858         863         862
         858         859         864         863
         860         861         866         865
         861         862         867         866
         862         863         868         867
         863         864         869         868
         865         866         871         870
         866         867         872         871
         867         868         873         872
         868         869         874         873
         875         876         881         880
         876         877         882         881
         877         878         883         882
         878         879         884         883
         880         881         886         885
         881         882         887         886
         882         883         888         887
         883         884         889         888
         885         886         891         890
         886         887         892         891
         887         888         893         892
         888         889         894         893
         890         891         896         895
         891         892         897         896
         892         893         898         897
         893         894         899         898
         900         901         906         905
         901         902         907         906
         902         903         908         907
         903         904         909         908
         905         906         911         910
         906         907         912         911
         907         908         913         912
         908         909         914         913
         910         911         916         915
         911         912         917         916
         912         913         918         917
         913         914         919         918
         915         916         921         920
         916         917         922         921
         917         918         923         922
         918         919         924         923
         925         926         931         930
         926         927         932         931
         927         928         933         932
         928         929         934         933
         930         931         936         935
         931         932         937         936
         932         933         938         937
         933         934         939         938
         935         936         941         940
         936         937         942         941
         937         938         943         942
         938         939         944         943
         940         941         946         945
         941         942         947         946
         942         943         948         947
         943         944         949         948
         950         951         956         955
         951         952         957         956
         952         953         958         957
         953         954         959         958
         955         956         961         960
         956         957         962         961
         957         958         963         962
         958         959         964         963
         960         961         966         965
         961         962         967         966
         962         963         968         967
         963         964         969         968
         965         966         971         970
         966         967         972         971
         967         968         973         972
         968         969         974         973
         975         976         981         980
         976         977         982         981
         977         978         983         982
         978         979         984         983
         980         981         986         985
         981         982         987         986
         982         983         988         987
         983         984         989         988
         985         986         991         990
         986         987         992         991
         987         988         993         992
         988         989         994         993
         990         991         996         995
         991         992         997         996
         992         993         998         997
         993         994         999         998
        1000        1001        1006        1005
        1001        1002        1007        1006
        1002        1003        1008        1007
        1003        1004        1009        1008
        1005        1006        1011        1010
        1006        1007        1012        1011
        1007        1008        1013        1012
        1008        1009        1014        1013
        1010        1011        1016        1015
        1011        1012        1017        1016
        1012        1013        1018        1017
        1013        1014        1019        1018
        1015        1016        1021        1020
        1016        1017        1022        1021
        1017        1018        1023        1022
        1018        1019        1024        1023
        1025        1026        1031        1030
        1026        1027        1032        1031
        1027        1028        1033        1032
        1028        1029        1034        1033
        1030        1031        1036        1035
        1031        1032        1037        1036
        1032        1033        1038        1037
        1033        1034        1039        1038
        1035        1036        1041        1040
        1036        1037        1042        1041
        1037        1038        1043        1042
        1038        1039        1044        1043
        1040        1041        1046        1045
        1041        1042        1047        1046
        1042        1043        1048        1047
        1043        1044        1049        1048
        1050        1051        1056        1055
        1051        1052        1057        1056
        1052        1053        1058        1057
        1053        1054        1059        1058
        1055        1056        1061        1060
        1056        1057        1062        1061
        1057        1058        1063        1062
        1058        1059        1064        1063
        1060        1061        1066        1065
        1061        1062        1067        1066
        1062        1063        1068        1067
        1063        1064        1069        1068
        1065        1066        1071        1070
        1066        1067        1072        1071
        1067        1068        1073        1072
        1068        1069        1074        1073
        1075        1076        1081        1080
        1076        1077        1082        1081
        1077        1078        1083        1082
        1078        1079        1084        1083
        1080        1081        1086        1085
        1081        1082        1087        1086
        1082        1083        1088        1087
        1083        1084        1089        1088
        1085        1086        1091        1090
        1086        1087        1092        1091
        1087        1088        1093        1092
        1088        1089        1094        1093
        1090        1091        1096        1095
        1091        1092        1097        1096
        1092        1093        1098        1097
        1093        1094        1099        1098
        1100        1101        1106        1105
        1101        1102        1107        1106
        1102        1103        1108        1107
        1103        1104        1109        1108
        1105        1106        1111        1110
        1106        1107        1112        1111
        1107        1108        1113        1112
        1108        1109        1114        1113
        1110        1111        1116        1115
        1111        1112        1117        1116
        1112        1113        1118        1117
        1113        1114        1119        1118
        1115        1116        1121        1120
        1116        1117        1122        1121
        1117        1118        1123        1122
        1118        1119        1124        1123
        1125        1126        1131        1130
        1126        1127        1132        1131
        1127        1128        1133        1132
        1128        1129        1134        1133
        1130        1131        1136        1135
        1131        1132        1137        1136
        1132        1133        1138        1137
        1133        1134        1139        1138
        1135        1136        1141        1140
        1136        1137        1142        1141
        1137        1138        1143        1142
        1138        1139        1144        1143
        1140        1141        1146        1145
        1141        1142        1147        1146
        1142        1143        1148        1147
        1143        1144        1149        1148
        1150        1151        1156        1155
        1151        1152        1157        1156
        1152        1153        1158        1157
        1153        1154        1159        1158
        1155        1156        1161        1160
        1156        1157        1162        1161
        1157        1158        1163        1162
        1158        1159        1164        1163
        1160        1161        1166        1165
        1161        1162        1167        1166
        1162        1163        1168        1167
        1163        1164        1169        1168
        1165        1166        1171        1170
        1166        1167        1172        1171
        1167        1168        1173        1172
        1168        1169        1174        1173
        1175        1176        1181        1180
        1176        1177        1182        1181
        1177        1178        1183        1182
        1178        1179        1184        1183
        1180        1181        1186        1185
        1181        1182        1187        1186
        1182        1183        1188        1187
        1183        1184        1189        1188
        1185        1186        1191        1190
        1186        1187        1192        1191
        1187        1188        1193        1192
        1188        1189        1194        1193
        1190        1191        1196        1195
        1191        1192        1197        1196
        1192        1193        1198        1197
        1193        1194        1199        1198
        1200        1201        1206        1205
        1201        1202        1207        1206
        1202        1203        1208        1207
        1203        1204        1209        1208
        1205        1206        1211        1210
        1206        1207        1212        1211
        1207        1208        1213        1212
        1208        1209        1214        1213
        1210        1211        1216        1215
        1211        1212        1217        1216
        1212        1213        1218        1217
        1213        1214        1219        1218
        1215        1216        1221        1220
        1216        1217        1222        1221
        1217        1218        1223        1222
        1218        1219        1224        1223
        1225        1226        1231        1230
        1226        1227        1232        1231
        1227        1228        1233        1232
        1228        1229        1234        1233
        1230        1231        1236        1235
        1231        1232        1237        1236
        1232        1233        1238        1237
        1233        1234        1239        1238
        1235        1236        1241        1240
        1236        1237        1242        1241
        1237        1238        1243        1242
        1238        1239        1244        1243
        1240        1241        1246        1245
        1241        1242        1247        1246
        1242        1243        1248        1247
        1243        1244        1249        1248
        1250        1251        1256        1255
        1251        1252        1257        1256
        1252        1253        1258        1257
        1253        1254        1259        1258
        1255        1256        1261        1260
        1256        1257        1262        1261
        1257        1258        1263        1262
        1258        1259        1264        1263
        1260        1261        1266        1265
        1261        1262        1267        1266
        1262        1263        1268        1267
        1263        1264        1269        1268
        1265        1266        1271        1270
        1266        1267        1272        1271
        1267        1268        1273        1272
        1268        1269        1274        1273
        1275        1276        1281        1280
        1276        1277        1282        1281
        1277        1278        1283        1282
        1278        1279        1284        1283
        1280        1281        1286        1285
        1281        1282        1287        1286
        1282        1283        1288        1287
        1283        1284        1289        1288
        1285        1286        1291        1290
        1286        1287        1292        1291
        1287        1288        1293        1292
        1288        1289        1294        1293
        1290        1291        1296        1295
        1291        1292        1297        1296
        1292        1293        1298        1297
        1293        1294        1299        1298
        1300        1301        1306        1305
        1301        1302        1307        1306
        1302        1303        1308        1307
        1303        1304        1309        1308
        1305        1306        1311        1310
        1306        1307        1312        1311
        1307        1308        1313        1312
        1308        1309        1314        1313
        1310        1311        1316        1315
        1311        1312        1317        1316
        1312        1313        1318        1317
        1313        1314        1319        1318
        1315        1316        1321        1320
        1316        1317        1322        1321
        1317        1318        1323        1322
        1318        1319        1324        1323
        1325        1326        1331        1330
        1326        1327        1332        1331
        1327        1328        1333        1332
        1328        1329        1334        1333
        1330        1331        1336        1335
        1331        1332        1337        1336
        1332        1333        1338        1337
        1333        1334        1339        1338
        1335        1336        1341        1340
        1336        1337        1342        1341
        1337        1338        1343        1342
        1338        1339        1344        1343
        1340        1341        1346        1345
        1341        1342        1347        1346
        1342        1343        1348        1347
        1343        1344        1349        1348
        1350        1351        1356        1355
        1351        1352        1357        1356
        1352        1353        1358        1357
        1353        1354        1359        1358
        1355        1356        1361        1360
        1356        1357        1362        1361
        1357        1358        1363        1362
        1358        1359        1364        1363
        1360        1361        1366        1365
        1361        1362        1367        1366
        1362        1363        1368        1367
        1363        1364        1369        1368
        1365        1366        1371        1370
        1366        1367        1372        1371
        1367        1368        1373        1372
        1368        1369        1374        1373
        1375        1376        1381        1380
        1376        1377        1382        1381
        1377        1378        1383        1382
        1378        1379        1384        1383
        1380        1381        1386        1385
        1381        1382        1387        1386
        1382        1383        1388        1387
        1383        1384        1389        1388
        1385        1386        1391        1390
        1386        1387        1392        1391
        1387        1388        1393        1392
        1388        1389        1394        1393
        1390        1391        1396        1395
        1391        1392        1397        1396
        1392        1393        1398        1397
        1393        1394        1399        1398
        1400        1401        1406        1405
        1401        1402        1407        1406
        1402        1403        1408        1407
        1403        1404        1409        1408
        1405        1406        1411        1410
        1406        1407        1412        1411
        1407        1408        1413        1412
        1408        1409        1414        1413
        1410        1411        1416        1415
        1411        1412        1417        1416
        1412        1413        1418        1417
        1413        1414        1419        1418
        1415        1416        1421        1420
        1416        1417        1422        1421
        1417        1418        1423        1422
        1418        1419        1424        1423
        1425        1426        1431        1430
        1426        1427        1432        1431
        1427        1428        1433        1432
        1428        1429        1434        1433
        1430        1431        1436        1435
        1431        1432        1437        1436
        1432        1433        1438        1437
        1433        1434        1439        1438
        1435        1436        1441        1440
        1436        1437        1442        1441
        1437        1438        1443        1442
        1438        1439        1444        1443
        1440        1441        1446        1445
        1441        1442        1447        1446
        1442        1443        1448        1447
        1443        1444        1449        1448
        1450        1451        1456        1455
        1451        1452        1457        1456
        1452        1453        1458        1457
        1453        1454        1459        1458
        1455        1456        1461        1460
        1456        1457        1462        1461
        1457        1458        1463        1462
        1458        1459        1464        1463
        1460        1461        1466        1465
        1461        1462        1467        1466
        1462        1463        1468        1467
        1463        1464        1469        1468
        1465        1466        1471        1470
        1466        1467        1472        1471
        1467        1468        1473        1472
        1468        1469        1474        1473
        1475        1476        1481        1480
        1476        1477        1482        1481
        1477        1478        1483        1482
        1478        1479        1484        1483
        1480        1481        1486        1485
        1481        1482        1487        1486
        1482        1483        1488        1487
        1483        1484        1489        1488
        1485        1486        1491        1490
        1486        1487        1492        1491
        1487        1488        1493        1492
        1488        1489        1494        1493
        1490        1491        1496        1495
        1491        1492        1497        1496
        1492        1493        1498        1497
        1493        1494        1499        1498
        1500        1501        1506        1505
        1501        1502        1507        1506
        1502        1503        1508        1507
        1503        1504        1509        1508
        1505        1506        1511        1510
        1506        1507        1512        1511
        1507        1508        1513        1512
        1508        1509        1514        1513
        1510        1511        1516        1515
        1511        1512        1517        1516
        1512        1513        1518        1517
        1513        1514        1519        1518
        1515        1516        1521        1520
        1516        1517        1522        1521
        1517        1518        1523        1522
        1518        1519        1524        1523
        1525        1526        1531        1530
        1526        1527        1532        1531
        1527        1528        1533        1532
        1528        1529        1534        1533
        1530        1531        1536        1535
        1531        1532        1537        1536
        1532        1533        1538        1537
        1533        1534        1539        1538
        1535        1536        1541        1540
        1536        1537        1542        1541
        1537        1538        1543        1542
        1538        1539        1544        1543
        1540        1541        1546        1545
        1541        1542        1547        1546
        1542        1543        1548        1547
        1543        1544        1549        1548
        1550        1551        1556        1555
        1551        1552        1557        1556
        1552        1553        1558        1557
        1553        1554        1559        1558
        1555        1556        1561        1560
        1556        1557        1562        1561
        1557        1558        1563        1562
        1558        1559        1564        1563
        1560        1561        1566        1565
        1561        1562        1567        1566
        1562        1563        1568        1567
        1563        1564        1569        1568
        1565        1566        1571        1570
        1566        1567        1572        1571
        1567        1568        1573        1572
        1568        1569        1574        1573
        1575        1576        1581        1580
        1576        1577        1582        1581
        1577        1578        1583        1582
        1578        1579        1584        1583
        1580        1581        1586        1585
        1581        1582        1587        1586
        1582        1583        1588        1587
        1583        1584        1589        1588
        1585        1586        1591        1590
        1586        1587        1592        1591
        1587        1588        1593        1592
        1588        1589        1594        1593
        1590        1591        1596        1595
        1591        1592        1597        1596
        1592        1593        1598        1597
        1593        1594        1599        1598
 </DataArray>
 <DataArray  type="Int32"  Name="offsets"  format="ascii"> 
           4
           8
          12
          16
          20
          24
          28
          32
          36
          40
          44
          48
          52
          56
          60
          64
          68
          72
          76
          80
          84
          88
          92
          96
         100
         104
         108
         112
         116
         120
         124
         128
         132
         136
         140
         144
         148
         152
         156
         160
         164
         168
         172
         176
         180
         184
         188
         192
         196
         200
         204
         208
         212
         216
         220
         224
         228
         232
         236
         240
         244
         248
         252
         256
         260
         264
         268
         272
         276
         280
         284
         288
         292
         296
         300
         304
         308
         312
         316
         320
         324
         328
         332
         336
         340
         344
         348
         352
         356
         360
         364
         368
         372
         376
         380
         384
         388
         392
         396
         400
         404
         408
         412
         416
         420
         424
         428
         432
         436
         440
         444
         448
         452
         456
         460
         464
         468
         472
         476
         480
         484
         488
         492
         496
         500
         504
         508
         512
         516
         520
         524
         528
         532
         536
         540
         544
         548
         552
         556
         560
         564
         568
         572
         576
         580
         584
         588
         592
         596
         600
         604
         608
         612
         616
         620
         624
         628
         632
         636
         640
         644
         648
         652
         656
         660
         664
         668
         672
         676
         680
         684
         688
         692
         696
         700
         704
         708
         712
         716
         720
         724
         728
         732
         736
         740
         744
         748
         752
         756
         760
         764
         768
         772
         776
         780
         784
         788
         792
         796
         800
         804
         808
         812
         816
         820
         824
         828
         832
         836
         840
         844
         848
         852
         856
         860
         864
         868
         872
         876
         880
         884
         888
         892
         896
         900
         904
         908
         912
         916
         920
         924
         928
         932
         936
         940
         944
         948
         952
         956
         960
         964
         968
         972
         976
         980
         984
         988
         992
         996
        1000
        1004
        1008
        1012
        1016
        1020
        1024
        1028
        1032
        1036
        1040
        1044
        1048
        1052
        1056
        1060
        1064
        1068
        1072
        1076
        1080
        1084
        1088
        1092
        1096
        1100
        1104
        1108
        1112
        1116
        1120
        1124
        1128
        1132
        1136
        1140
        1144
        1148
        1152
        1156
        1160
        1164
        1168
        1172
        1176
        1180
        1184
        1188
        1192
        1196
        1200
        1204
        1208
        1212
        1216
        1220
        1224
        1228
        1232
        1236
        1240
        1244
        1248
        1252
        1256
        1260
        1264
        1268
        1272
        1276
        1280
        1284
        1288
        1292
        1296
        1300
        1304
        1308
        1312
        1316
        1320
        1324
        1328
        1332
        1336
        1340
        1344
        1348
        1352
        1356
        1360
        1364
        1368
        1372
        1376
        1380
        1384
        1388
        1392
        1396
        1400
        1404
        1408
        1412
        1416
        1420
        1424
        1428
        1432
        1436
        1440
        1444
        1448
        1452
        1456
        1460
        1464
        1468
        1472
        1476
        1480
        1484
        1488
        1492
        1496
        1500
        1504
        1508
        1512
        1516
        1520
        1524
        1528
        1532
        1536
        1540
        1544
        1548
        1552
        1556
        1560
        1564
        1568
        1572
        1576
        1580
        1584
        1588
        1592
        1596
        1600
        1604
        1608
        1612
        1616
        1620
        1624
        1628
        1632
        1636
        1640
        1644
        1648
        1652
        1656
        1660
        1664
        1668
        1672
        1676
        1680
        1684
        1688
        1692
        1696
        1700
        1704
        1708
        1712
        1716
        1720
        1724
        1728
        1732
        1736
        1740
        1744
        1748
        1752
        1756
        1760
        1764
        1768
        1772
        1776
        1780
        1784
        1788
        1792
        1796
        1800
        1804
        1808
        1812
        1816
        1820
        1824
        1828
        1832
        1836
        1840
        1844
        1848
        1852
        1856
        1860
        1864
        1868
        1872
        1876
        1880
        1884
        1888
        1892
        1896
        1900
        1904
        1908
        1912
        1916
        1920
        1924
        1928
        1932
        1936
        1940
        1944
        1948
        1952
        1956
        1960
        1964
        1968
        1972
        1976
        1980
        1984
        1988
        1992
        1996
        2000
        2004
        2008
        2012
        2016
        2020
        2024
        2028
        2032
        2036
        2040
        2044
        2048
        2052
        2056
        2060
        2064
        2068
        2072
        2076
        2080
        2084
        2088
        2092
        2096
        2100
        2104
        2108
        2112
        2116
        2120
        2124
        2128
        2132
        2136
        2140
        2144
        2148
        2152
        2156
        2160
        2164
        2168
        2172
        2176
        2180
        2184
        2188
        2192
        2196
        2200
        2204
        2208
        2212
        2216
        2220
        2224
        2228
        2232
        2236
        2240
        2244
        2248
        2252
        2256
        2260
        2264
        2268
        2272
        2276
        2280
        2284
        2288
        2292
        2296
        2300
        2304
        2308
        2312
        2316
        2320
        2324
        2328
        2332
        2336
        2340
        2344
        2348
        2352
        2356
        2360
        2364
        2368
        2372
        2376
        2380
        2384
        2388
        2392
        2396
        2400
        2404
        2408
        2412
        2416
        2420
        2424
        2428
        2432
        2436
        2440
        2444
        2448
        2452
        2456
        2460
        2464
        2468
        2472
        2476
        2480
        2484
        2488
        2492
        2496
        2500
        2504
        2508
        2512
        2516
        2520
        2524
        2528
        2532
        2536
        2540
        2544
        2548
        2552
        2556
        2560
        2564
        2568
        2572
        2576
        2580
        2584
        2588
        2592
        2596
        2600
        2604
        2608
        2612
        2616
        2620
        2624
        2628
        2632
        2636
        2640
        2644
        2648
        2652
        2656
        2660
        2664
        2668
        2672
        2676
        2680
        2684
        2688
        2692
        2696
        2700
        2704
        2708
        2712
        2716
        2720
        2724
        2728
        2732
        2736
        2740
        2744
        2748
        2752
        2756
        2760
        2764
        2768
        2772
        2776
        2780
        2784
        2788
        2792
        2796
        2800
        2804
        2808
        2812
        2816
        2820
        2824
        2828
        2832
        2836
        2840
        2844
        2848
        2852
        2856
        2860
        2864
        2868
        2872
        2876
        2880
        2884
        2888
        2892
        2896
        2900
        2904
        2908
        2912
        2916
        2920
        2924
        2928
        2932
        2936
        2940
        2944
        2948
        2952
        2956
        2960
        2964
        2968
        2972
        2976
        2980
        2984
        2988
        2992
        2996
        3000
        3004
        3008
        3012
        3016
        3020
        3024
        3028
        3032
        3036
        3040
        3044
        3048
        3052
        3056
        3060
        3064
        3068
        3072
        3076
        3080
        3084
        3088
        3092
        3096
        3100
        3104
        3108
        3112
        3116
        3120
        3124
        3128
        3132
        3136
        3140
        3144
        3148
        3152
        3156
        3160
        3164
        3168
        3172
        3176
        3180
        3184
        3188
        3192
        3196
        3200
        3204
        3208
        3212
        3216
        3220
        3224
        3228
        3232
        3236
        3240
        3244
        3248
        3252
        3256
        3260
        3264
        3268
        3272
        3276
        3280
        3284
        3288
        3292
        3296
        3300
        3304
        3308
        3312
        3316
        3320
        3324
        3328
        3332
        3336
        3340
        3344
        3348
        3352
        3356
        3360
        3364
        3368
        3372
        3376
        3380
        3384
        3388
        3392
        3396
        3400
        3404
        3408
        3412
        3416
        3420
        3424
        3428
        3432
        3436
        3440
        3444
        3448
        3452
        3456
        3460
        3464
        3468
        3472
        3476
        3480
        3484
        3488
        3492
        3496
        3500
        3504
        3508
        3512
        3516
        3520
        3524
        3528
        3532
        3536
        3540
        3544
        3548
        3552
        3556
        3560
        3564
        3568
        3572
        3576
        3580
        3584
        3588
        3592
        3596
        3600
        3604
        3608
        3612
        3616
        3620
        3624
        3628
        3632
        3636
        3640
        3644
        3648
        3652
        3656
        3660
        3664
        3668
        3672
        3676
        3680
        3684
        3688
        3692
        3696
        3700
        3704
        3708
        3712
        3716
        3720
        3724
        3728
        3732
        3736
        3740
        3744
        3748
        3752
        3756
        3760
        3764
        3768
        3772
        3776
        3780
        3784
        3788
        3792
        3796
        3800
        3804
        3808
        3812
        3816
        3820
        3824
        3828
        3832
        3836
        3840
        3844
        3848
        3852
        3856
        3860
        3864
        3868
        3872
        3876
        3880
        3884
        3888
        3892
        3896
        3900
        3904
        3908
        3912
        3916
        3920
        3924
        3928
        3932
        3936
        3940
        3944
        3948
        3952
        3956
        3960
        3964
        3968
        3972
        3976
        3980
        3984
        3988
        3992
        3996
        4000
        4004
        4008
        4012
        4016
        4020
        4024
        4028
        4032
        4036
        4040
        4044
        4048
        4052
        4056
        4060
        4064
        4068
        4072
        4076
        4080
        4084
        4088
        4092
        4096
 </DataArray>
 <DataArray  type="UInt8"  Name="types"  format="ascii">
 9
 9
 9
 9
 9
 9
 9
 9
 9
 9
 9
 9
 9
 9
 9
 9
 9
 9
 9
 9
 9
 9
 9
 9
 9
 9
 9
 9
 9
 9
 9
 9
 9
 9
 9
 9
 9
 9
 9
 9
 9
 9
 9
 9
 9
 9
 9
 9
 9
 9
 9
 9
 9
 9
 9
 9
 9
 9
 9
 9
 9
 9
 9
 9
 9
 9
 9
 9
 9
 9
 9
 9
 9
 9
 9
 9
 9
 9
 9
 9
 9
 9
 9
 9
 9
 9
 9
 9
 9
 9
 9
 9
 9
 9
 9
 9
 9
 9
 9
 9
 9
 9
 9
 9
 9
 9
 9
 9
 9
 9
 9
 9
 9
 9
 9
 9
 9
 9
 9
 9
 9
 9
 9
 9
 9
 9
 9
 9
 9
 9
 9
 9
 9
 9
 9
 9
 9
 9
 9
 9
 9
 9
 9
 9
 9
 9
 9
 9
 9
 9
 9
 9
 9
 9
 9
 9
 9
 9
 9
 9
 9
 9
 9
 9
 9
 9
 9
 9
 9
 9
 9
 9
 9
 9
 9
 9
 9
 9
 9
 9
 9
 9
 9
 9
 9
 9
 9
 9
 9
 9
 9
 9
 9
 9
 9
 9
 9
 9
 9
 9
 9
 9
 9
 9
 9
 9
 9
 9
 9
 9
 9
 9
 9
 9
 9
 9
 9
 9
 9
 9
 9
 9
 9
 9
 9
 9
 9
 9
 9
 9
 9
 9
 9
 9
 9
 9
 9
 9
 9
 9
 9
 9
 9
 9
 9
 9
 9
 9
 9
 9
 9
 9
 9
 9
 9
 9
 9
 9
 9
 9
 9
 9
 9
 9
 9
 9
 9
 9
 9
 9
 9
 9
 9
 9
 9
 9
 9
 9
 9
 9
 9
 9
 9
 9
 9
 9
 9
 9
 9
 9
 9
 9
 9
 9
 9
 9
 9
 9
 9
 9
 9
 9
 9
 9
 9
 9
 9
 9
 9
 9
 9
 9
 9
 9
 9
 9
 9
 9
 9
 9
 9
 9
 9
 9
 9
 9
 9
 9
 9
 9
 9
 9
 9
 9
 9
 9
 9
 9
 9
 9
 9
 9
 9
 9
 9
 9
 9
 9
 9
 9
 9
 9
 9
 9
 9
 9
 9
 9
 9
 9
 9
 9
 9
 9
 9
 9
 9
 9
 9
 9
 9
 9
 9
 9
 9
 9
 9
 9
 9
 9
 9
 9
 9
 9
 9
 9
 9
 9
 9
 9
 9
 9
 9
 9
 9
 9
 9
 9
 9
 9
 9
 9
 9
 9
 9
 9
 9
 9
 9
 9
 9
 9
 9
 9
 9
 9
 9
 9
 9
 9
 9
 9
 9
 9
 9
 9
 9
 9
 9
 9
 9
 9
 9
 9
 9
 9
 9
 9
 9
 9
 9
 9
 9
 9
 9
 9
 9
 9
 9
 9
 9
 9
 9
 9
 9
 9
 9
 9
 9
 9
 9
 9
 9
 9
 9
 9
 9
 9
 9
 9
 9
 9
 9
 9
 9
 9
 9
 9
 9
 9
 9
 9
 9
 9
 9
 9
 9
 9
 9
 9
 9
 9
 9
 9
 9
 9
 9
 9
 9
 9
 9
 9
 9
 9
 9
 9
 9
 9
 9
 9
 9
 9
 9
 9
 9
 9
 9
 9
 9
 9
 9
 9
 9
 9
 9
 9
 9
 9
 9
 9
 9
 9
 9
 9
 9
 9
 9
 9
 9
 9
 9
 9
 9
 9
 9
 9
 9
 9
 9
 9
 9
 9
 9
 9
 9
 9
 9
 9
 9
 9
 9
 9
 9
 9
 9
 9
 9
 9
 9
 9
 9
 9
 9
 9
 9
 9
 9
 9
 9
 9
 9
 9
 9
 9
 9
 9
 9
 9
 9
 9
 9
 9
 9
 9
 9
 9
 9
 9
 9
 9
 9
 9
 9
 9
 9
 9
 9
 9
 9
 9
 9
 9
 9
 9
 9
 9
 9
 9
 9
 9
 9
 9
 9
 9
 9
 9
 9
 9
 9
 9
 9
 9
 9
 9
 9
 9
 9
 9
 9
 9
 9
 9
 9
 9
 9
 9
 9
 9
 9
 9
 9
 9
 9
 9
 9
 9
 9
 9
 9
 9
 9
 9
 9
 9
 9
 9
 9
 9
 9
 9
 9
 9
 9
 9
 9
 9
 9
 9
 9
 9
 9
 9
 9
 9
 9
 9
 9
 9
 9
 9
 9
 9
 9
 9
 9
 9
 9
 9
 9
 9
 9
 9
 9
 9
 9
 9
 9
 9
 9
 9
 9
 9
 9
 9
 9
 9
 9
 9
 9
 9
 9
 9
 9
 9
 9
 9
 9
 9
 9
 9
 9
 9
 9
 9
 9
 9
 9
 9
 9
 9
 9
 9
 9
 9
 9
 9
 9
 9
 9
 9
 9
 9
 9
 9
 9
 9
 9
 9
 9
 9
 9
 9
 9
 9
 9
 9
 9
 9
 9
 9
 9
 9
 9
 9
 9
 9
 9
 9
 9
 9
 9
 9
 9
 9
 9
 9
 9
 9
 9
 9
 9
 9
 9
 9
 9
 9
 9
 9
 9
 9
 9
 9
 9
 9
 9
 9
 9
 9
 9
 9
 9
 9
 9
 9
 9
 9
 9
 9
 9
 9
 9
 9
 9
 9
 9
 9
 9
 9
 9
 9
 9
 9
 9
 9
 9
 9
 9
 9
 9
 9
 9
 9
 9
 9
 9
 9
 9
 9
 9
 9
 9
 9
 9
 9
 9
 9
 9
 9
 9
 9
 9
 9
 9
 9
 9
 9
 9
 9
 9
 9
 9
 9
 9
 9
 9
 9
 9
 9
 9
 9
 9
 9
 9
 9
 9
 9
 9
 9
 9
 9
 9
 9
 9
 9
 9
 9
 9
 9
 9
 9
 9
 9
 9
 9
 9
 9
 9
 9
 9
 9
 9
 9
 9
 9
 9
 9
 9
 9
 9
 9
 9
 9
 9
 9
 9
 9
 9
 9
 9
 9
 9
 9
 9
 9
 9
 9
 9
 9
 9
 9
 9
 9
 9
 9
 9
 9
 9
 9
 9
 9
 9
 9
 9
 9
 9
 9
 9
 9
 9
 9
 9
 9
 9
 9
 9
 9
 9
 9
 9
 9
 9
 9
 9
 9
 9
 9
 9
 9
 9
 9
 9
 9
 9
 9
 9
 9
 9
 9
 9
 9
 9
 9
 9
 9
 9
 9
 9
 9
 9
 9
 9
 9
 9
 9
 9
 9
 9
 9
 9
 9
 9
 9
 9
 9
 9
 9
 9
 9
 9
 9
 9
 9
 9
 9
 </DataArray>
 </Cells> 
 <PointData>
 <DataArray  type="Float64" Name="disp" NumberOfComponents="3" format="ascii">
   6.4777012743892248E-002   6.2762450310298812E-002   0.0000000000000000     
   6.8400971396888249E-002   6.8164780228471611E-002   0.0000000000000000     
   7.1707354578847096E-002   7.3740058167218014E-002   0.0000000000000000     
   7.4696162289768775E-002   7.9488284126537981E-002   0.0000000000000000     
   7.7367394529653286E-002   8.5409458106431524E-002   0.0000000000000000     
   5.9977940664850959E-002   6.1881437807293924E-002   0.0000000000000000     
   6.3017232673057144E-002   6.7292648591906090E-002   0.0000000000000000     
   6.5897121798854916E-002   7.2884516042472550E-002   0.0000000000000000     
   6.8617608042244288E-002   7.8657040158993288E-002   0.0000000000000000     
   7.1178691403225289E-002   8.4610220941468292E-002   0.0000000000000000     
   5.5229285319217579E-002   6.1046386181695708E-002   0.0000000000000000     
   5.7834445839589479E-002   6.6473209552498441E-002   0.0000000000000000     
   6.0380671763752440E-002   7.2084949234002715E-002   0.0000000000000000     
   6.2867963091706461E-002   7.7881605226208545E-002   0.0000000000000000     
   6.5296319823451521E-002   8.3863177529115929E-002   0.0000000000000000     
   5.0531046706992121E-002   6.0257295433504152E-002   0.0000000000000000     
   5.2852610896485290E-002   6.5706463110248650E-002   0.0000000000000000     
   5.5158004473539676E-002   7.1341357741808498E-002   0.0000000000000000     
   5.7447227438155245E-002   7.7161979328183791E-002   0.0000000000000000     
   5.9720279790332037E-002   8.3168327869374448E-002   0.0000000000000000     
   4.5883224828174578E-002   5.9514165562719275E-002   0.0000000000000000     
   4.8071727843744569E-002   6.4992409265156703E-002   0.0000000000000000     
   5.0229119928216596E-002   7.0653741565889938E-002   0.0000000000000000     
   5.2355401081590668E-002   7.6498162464918987E-002   0.0000000000000000     
   5.4450571303866796E-002   8.2525671962243835E-002   0.0000000000000000     
   7.7367394529653286E-002   8.5409458106431524E-002   0.0000000000000000     
   7.9867338885841160E-002   9.1500563043455732E-002   0.0000000000000000     
   8.2342282945672890E-002   9.7758581874167666E-002   0.0000000000000000     
   8.4792226709148502E-002  0.10418351459856730        0.0000000000000000     
   8.7217170176267969E-002  0.11077536121665466        0.0000000000000000     
   7.1178691403225289E-002   8.4610220941468292E-002   0.0000000000000000     
   7.3633645291313332E-002   9.0735698644559035E-002   0.0000000000000000     
   7.6035743116023902E-002   9.7025113522926906E-002   0.0000000000000000     
   7.8384984877356970E-002  0.10347846557657196        0.0000000000000000     
   8.0681370575312578E-002  0.11009575480549416        0.0000000000000000     
   6.5296319823451521E-002   8.3863177529115929E-002   0.0000000000000000     
   6.7660844292356276E-002   9.0018443024370953E-002   0.0000000000000000     
   6.9956638831789278E-002   9.6336178593619731E-002   0.0000000000000000     
   7.2183703441750555E-002  0.10281638423686223        0.0000000000000000     
   7.4342038122240092E-002  0.10945905995409852        0.0000000000000000     
   5.9720279790332037E-002   8.3168327869374448E-002   0.0000000000000000     
   6.1948935888969985E-002   8.9348796182891557E-002   0.0000000000000000     
   6.4104970092969046E-002   9.5691777086246141E-002   0.0000000000000000     
   6.6188382402329216E-002  0.10219727057943818        0.0000000000000000     
   6.8199172817050499E-002  0.10886527666246770        0.0000000000000000     
   5.4450571303866796E-002   8.2525671962243835E-002   0.0000000000000000     
   5.6497920081154458E-002   8.8726758120120777E-002   0.0000000000000000     
   5.8480736899563186E-002   9.5091909000806066E-002   0.0000000000000000     
   6.0399021759092959E-002  0.10162112460429973        0.0000000000000000     
   6.2252774659743791E-002  0.10831440493060174        0.0000000000000000     
   8.7217170176267969E-002  0.11077536121665466        0.0000000000000000     
   8.9567286492489809E-002  0.11751042618983341        0.0000000000000000     
   9.1792748803272553E-002  0.12436501397950721        0.0000000000000000     
   9.3893557108616188E-002  0.13133912458567606        0.0000000000000000     
   9.5869711408520714E-002  0.13843275800833998        0.0000000000000000     
   8.0681370575312578E-002  0.11009575480549416        0.0000000000000000     
   8.2889929253773226E-002  0.11685569955785904        0.0000000000000000     
   8.4975689956621456E-002  0.12373701818183205        0.0000000000000000     
   8.6938652683857240E-002  0.13073971067741325        0.0000000000000000     
   8.8778817435480620E-002  0.13786377704460262        0.0000000000000000     
   7.4342038122240092E-002  0.10945905995409852        0.0000000000000000     
   7.6406663735417171E-002  0.11624413858281969        0.0000000000000000     
   7.8352601143441086E-002  0.12315155296051704        0.0000000000000000     
   8.0179850346311851E-002  0.13018130308719048        0.0000000000000000     
   8.1888411344029424E-002  0.13733338896284006        0.0000000000000000     
   6.8199172817050499E-002  0.10886527666246770        0.0000000000000000     
   7.0117489937421673E-002  0.11567574326471546        0.0000000000000000     
   7.1923482363731500E-002  0.12260861831556209        0.0000000000000000     
   7.3617150095979980E-002  0.12966390181500773        0.0000000000000000     
   7.5198493134167155E-002  0.13684159376305230        0.0000000000000000     
   6.2252774659743791E-002  0.10831440493060174        0.0000000000000000     
   6.4022407859786690E-002  0.11515051360354625        0.0000000000000000     
   6.5688333617492642E-002  0.12210821424696734        0.0000000000000000     
   6.7250551932861682E-002  0.12918750686086505        0.0000000000000000     
   6.8709062805893770E-002  0.13638839144523943        0.0000000000000000     
   9.5869711408520714E-002  0.13843275800833998        0.0000000000000000     
   9.7741833700288216E-002  0.14564696842389308        0.0000000000000000     
   9.9530545981220769E-002  0.15298281000872946        0.0000000000000000     
  0.10123584825131840       0.16044028276284916        0.0000000000000000     
  0.10285774051058109       0.16801938668625219        0.0000000000000000     
   8.8778817435480620E-002  0.13786377704460262        0.0000000000000000     
   9.0522407251165629E-002  0.14510815854137868        0.0000000000000000     
   9.2195645170586343E-002  0.15247179642572012        0.0000000000000000     
   9.3798531193742790E-002  0.15995469069762680        0.0000000000000000     
   9.5331065320634928E-002  0.16755684135709886        0.0000000000000000     
   8.1888411344029424E-002  0.13733338896284006        0.0000000000000000     
   8.3507139473297270E-002  0.14460549341346107        0.0000000000000000     
   8.5064890070818786E-002  0.15199529926504887        0.0000000000000000     
   8.6561663136593969E-002  0.15950280651760340        0.0000000000000000     
   8.7997458670622836E-002  0.16712801517112469        0.0000000000000000     
   7.5198493134167155E-002  0.13684159376305230        0.0000000000000000     
   7.6696030366683127E-002  0.14413897304014020        0.0000000000000000     
   7.8138280681918068E-002  0.15155331852671572        0.0000000000000000     
   7.9525244079871965E-002  0.15908463022277894        0.0000000000000000     
   8.0856920560544859E-002  0.16673290812832978        0.0000000000000000     
   6.8709062805893770E-002  0.13638839144523943        0.0000000000000000     
   7.0089079931323198E-002  0.14370859742141606        0.0000000000000000     
   7.1415817003884205E-002  0.15114585421072074        0.0000000000000000     
   7.2689274023576791E-002  0.15870016181315338        0.0000000000000000     
   7.3909450990400971E-002  0.16637152022871404        0.0000000000000000     
  0.10285774051058109       0.16801938668625219        0.0000000000000000     
  0.10439629236878915       0.17570060164236811        0.0000000000000000     
  0.10585157343572291       0.18346440749462650        0.0000000000000000     
  0.10722358371138228       0.19131080424302738        0.0000000000000000     
  0.10851232319576737       0.19923979188757074        0.0000000000000000     
   9.5331065320634928E-002  0.16755684135709886        0.0000000000000000     
   9.6785154104785678E-002  0.17526088259022074        0.0000000000000000     
   9.8152704099717977E-002  0.18304944858307706        0.0000000000000000     
   9.9433715305431797E-002  0.19092253933566775        0.0000000000000000     
  0.10062818772192716       0.19888015484799290        0.0000000000000000     
   8.7997458670622836E-002  0.16712801517112469        0.0000000000000000     
   8.9359203910014298E-002  0.17485501133118042        0.0000000000000000     
   9.0633826091877187E-002  0.18266788110333823        0.0000000000000000     
   9.1821325216211586E-002  0.19056662448759804        0.0000000000000000     
   9.2921701283017424E-002  0.19855124148395992        0.0000000000000000     
   8.0856920560544859E-002  0.16673290812832978        0.0000000000000000     
   8.2118441784474958E-002  0.17448298786524716        0.0000000000000000     
   8.3294939412200564E-002  0.18231970505540998        0.0000000000000000     
   8.4386413443721636E-002  0.19024305969881819        0.0000000000000000     
   8.5392863879038175E-002  0.19825305179547181        0.0000000000000000     
   7.3909450990400971E-002  0.16637152022871404        0.0000000000000000     
   7.5062867728167712E-002  0.17414481219242098        0.0000000000000000     
   7.6136044060688024E-002  0.18200492043929234        0.0000000000000000     
   7.7128979987961949E-002  0.18995184496932821        0.0000000000000000     
   7.8041675509989417E-002  0.19798558578252856        0.0000000000000000     
  0.10851232319576737       0.19923979188757074        0.0000000000000000     
  0.10972160239827219       0.20725261755395888        0.0000000000000000     
  0.11085523182829085       0.21535052836789409        0.0000000000000000     
  0.11191321148582334       0.22353352432937637        0.0000000000000000     
  0.11289554137086964       0.23180160543840578        0.0000000000000000     
  0.10062818772192716       0.19888015484799290        0.0000000000000000     
  0.10174320184991738       0.20692011014458631        0.0000000000000000     
  0.10278583819011580       0.21504022024998179        0.0000000000000000     
  0.10375609674252245       0.22324048516417941        0.0000000000000000     
  0.10465397750713729       0.23152090488717911        0.0000000000000000     
   9.2921701283017424E-002  0.19855124148395992        0.0000000000000000     
   9.3943171577329662E-002  0.20661730412750803        0.0000000000000000     
   9.4893953384183230E-002  0.21476038445332643        0.0000000000000000     
   9.5774046703578128E-002  0.22298048246141522        0.0000000000000000     
   9.6583451535514342E-002  0.23127759815177429        0.0000000000000000     
   8.5392863879038175E-002  0.19825305179547181        0.0000000000000000     
   8.6321511580509061E-002  0.20634419950272403        0.0000000000000000     
   8.7179577410493134E-002  0.21451102097792804        0.0000000000000000     
   8.7967061368990365E-002  0.22275351622108380        0.0000000000000000     
   8.8683963456000769E-002  0.23107168523219135        0.0000000000000000     
   7.8041675509989417E-002  0.19798558578252856        0.0000000000000000     
   7.8878221859455575E-002  0.20610079627023431        0.0000000000000000     
   7.9642710269045486E-002  0.21429212982378654        0.0000000000000000     
   8.0335140738759164E-002  0.22255958644318516        0.0000000000000000     
   8.0955513268596596E-002  0.23090316612843020        0.0000000000000000     
  0.11289554137086964       0.23180160543840578        0.0000000000000000     
  0.11383045309490475       0.24016899188753460        0.0000000000000000     
  0.11474617826940356       0.24864990386931521        0.0000000000000000     
  0.11564271689436614       0.25724434138374752        0.0000000000000000     
  0.11652006896979246       0.26595230443083162        0.0000000000000000     
  0.10465397750713729       0.23152090488717911        0.0000000000000000     
  0.10548398155810562       0.23990317478224982        0.0000000000000000     
  0.10625060996957277       0.24840899021266036        0.0000000000000000     
  0.10695386274153873       0.25703835117841067        0.0000000000000000     
  0.10759373987400345       0.26579125767950096        0.0000000000000000     
   9.6583451535514342E-002  0.23127759815177429        0.0000000000000000     
   9.7312170774118342E-002  0.23967690462740901        0.0000000000000000     
   9.7950207313516599E-002  0.24820357499132459        0.0000000000000000     
   9.8497561153709126E-002  0.25685760924352097        0.0000000000000000     
   9.8954232294695896E-002  0.26563900738399826        0.0000000000000000     
   8.8683963456000769E-002  0.23107168523219135        0.0000000000000000     
   8.9315020742942827E-002  0.23949018142301218        0.0000000000000000     
   8.9844970301235033E-002  0.24803365820530784        0.0000000000000000     
   9.0273812130877346E-002  0.25670211557907835        0.0000000000000000     
   9.0601546231869834E-002  0.26549555354432364        0.0000000000000000     
   8.0955513268596596E-002  0.23090316612843020        0.0000000000000000     
   8.1492531464579118E-002  0.23934300516905932        0.0000000000000000     
   8.1934898932728054E-002  0.24789923985461021        0.0000000000000000     
   8.2282615673043444E-002  0.25657187018508276        0.0000000000000000     
   8.2535681685525233E-002  0.26536089616047703        0.0000000000000000     
  0.11652006896979246       0.26595230443083162        0.0000000000000000     
  0.11731877096765587       0.27493941109202186        0.0000000000000000     
  0.11797935935992974       0.28437127944877250        0.0000000000000000     
  0.11850183414661407       0.29424790950108354        0.0000000000000000     
  0.11888619532770886       0.30456930124895504        0.0000000000000000     
  0.10759373987400345       0.26579125767950096        0.0000000000000000     
  0.10815143566411883       0.27480054044772317        0.0000000000000000     
  0.10860814440903681       0.28419903021486981        0.0000000000000000     
  0.10896386610875730       0.29398672698094058        0.0000000000000000     
  0.10921860076328037       0.30416363074593566        0.0000000000000000     
   9.8954232294695896E-002  0.26563900738399826        0.0000000000000000     
   9.9331388955810923E-002  0.27464647839341338        0.0000000000000000     
   9.9640199356388182E-002  0.28397873125242323        0.0000000000000000     
   9.9880663496427671E-002  0.29363576596102781        0.0000000000000000     
  0.10005278137592938       0.30361758251922710        0.0000000000000000     
   9.0601546231869834E-002  0.26549555354432364        0.0000000000000000     
   9.0858630842732102E-002  0.27447722492909221        0.0000000000000000     
   9.1075524201983879E-002  0.28371038256143266        0.0000000000000000     
   9.1252226309625137E-002  0.29319502644134510        0.0000000000000000     
   9.1388737165655889E-002  0.30293115656882935        0.0000000000000000     
   8.2535681685525233E-002  0.26536089616047703        0.0000000000000000     
   8.2733161324882398E-002  0.27429278005475999        0.0000000000000000     
   8.2914118945823900E-002  0.28339398414189848        0.0000000000000000     
   8.3078554548349740E-002  0.29266450842189251        0.0000000000000000     
   8.3226468132459902E-002  0.30210435289474225        0.0000000000000000     
   4.5883224828174578E-002   5.9514165562719275E-002   0.0000000000000000     
   4.8071727843744569E-002   6.4992409265156703E-002   0.0000000000000000     
   5.0229119928216596E-002   7.0653741565889938E-002   0.0000000000000000     
   5.2355401081590668E-002   7.6498162464918987E-002   0.0000000000000000     
   5.4450571303866796E-002   8.2525671962243835E-002   0.0000000000000000     
   4.1357335792618050E-002   5.8827481015663055E-002   0.0000000000000000     
   4.3464520959329123E-002   6.4335145735708116E-002   0.0000000000000000     
   4.5505498333593311E-002   7.0022313759146942E-002   0.0000000000000000     
   4.7480267915410636E-002   7.5888985085979549E-002   0.0000000000000000     
   4.9388829704781083E-002   8.1935159716205894E-002   0.0000000000000000     
   3.7024895710175650E-002   5.8207726238657477E-002   0.0000000000000000     
   3.9003714521200765E-002   6.3738770240388376E-002   0.0000000000000000     
   4.0898619895479889E-002   6.9447287374479499E-002   0.0000000000000000     
   4.2709611833013035E-002   7.5333277640930840E-002   0.0000000000000000     
   4.4436690333800204E-002   8.1396741039742412E-002   0.0000000000000000     
   3.2885904580847371E-002   5.7654901231702568E-002   0.0000000000000000     
   3.4689308529359503E-002   6.3203282779197498E-002   0.0000000000000000     
   3.6408484613876337E-002   6.8928662411887581E-002   0.0000000000000000     
   3.8043432834397886E-002   7.4831040129772916E-002   0.0000000000000000     
   3.9594153190924138E-002   8.0910415932853405E-002   0.0000000000000000     
   2.8940362404633206E-002   5.7169005994798301E-002   0.0000000000000000     
   3.0521302983805336E-002   6.2728683352135439E-002   0.0000000000000000     
   3.2035092488782661E-002   6.8466438871371257E-002   0.0000000000000000     
   3.3481730919565182E-002   7.4382272552505735E-002   0.0000000000000000     
   3.4861218276152899E-002   8.0476184395538872E-002   0.0000000000000000     
   5.4450571303866796E-002   8.2525671962243835E-002   0.0000000000000000     
   5.6497920081154458E-002   8.8726758120120777E-002   0.0000000000000000     
   5.8480736899563186E-002   9.5091909000806066E-002   0.0000000000000000     
   6.0399021759092959E-002  0.10162112460429973        0.0000000000000000     
   6.2252774659743791E-002  0.10831440493060174        0.0000000000000000     
   4.9388829704781083E-002   8.1935159716205894E-002   0.0000000000000000     
   5.1238299494491484E-002   8.8154162383299664E-002   0.0000000000000000     
   5.3035793077328662E-002   9.4539317820734589E-002   0.0000000000000000     
   5.4781310453292598E-002  0.10109062602851061        0.0000000000000000     
   5.6474851622383304E-002  0.10780808700662775        0.0000000000000000     
   4.4436690333800204E-002   8.1396741039742412E-002   0.0000000000000000     
   4.6100576754562833E-002   8.7632842519669324E-002   0.0000000000000000     
   4.7721992452022403E-002   9.4036747029466711E-002   0.0000000000000000     
   4.9300937426178901E-002  0.10060845456913453        0.0000000000000000     
   5.0837411677032325E-002  0.10734796513867283        0.0000000000000000     
   3.9594153190924138E-002   8.0910415932853405E-002   0.0000000000000000     
   4.1084751861368507E-002   8.7162798529229701E-002   0.0000000000000000     
   4.2539335023644431E-002   9.3584196627002403E-002   0.0000000000000000     
   4.3957902677751889E-002  0.10017461022617151        0.0000000000000000     
   4.5340454823690875E-002  0.10693403932673702        0.0000000000000000     
   3.4861218276152899E-002   8.0476184395538872E-002   0.0000000000000000     
   3.6190824814908512E-002   8.6744030411980810E-002   0.0000000000000000     
   3.7487820792194725E-002   9.3181666613341707E-002   0.0000000000000000     
   3.8752206208011536E-002   9.9789092999621520E-002   0.0000000000000000     
   3.9983981062358946E-002  0.10656630957082032        0.0000000000000000     
   6.2252774659743791E-002  0.10831440493060174        0.0000000000000000     
   6.4022407859786690E-002  0.11515051360354625        0.0000000000000000     
   6.5688333617492642E-002  0.12210821424696734        0.0000000000000000     
   6.7250551932861682E-002  0.12918750686086505        0.0000000000000000     
   6.8709062805893770E-002  0.13638839144523943        0.0000000000000000     
   5.6474851622383304E-002  0.10780808700662775        0.0000000000000000     
   5.8095203877033132E-002  0.11466885329597862        0.0000000000000000     
   5.9621154509674437E-002  0.12165007743745594        0.0000000000000000     
   6.1052703520307200E-002  0.12875175943105968        0.0000000000000000     
   6.2389850908931441E-002  0.13597389927678985        0.0000000000000000     
   5.0837411677032325E-002  0.10734796513867283        0.0000000000000000     
   5.2309664363681882E-002  0.11423116603867919        0.0000000000000000     
   5.3695944645226708E-002  0.12123394456975119        0.0000000000000000     
   5.4996252521666858E-002  0.12835630073188886        0.0000000000000000     
   5.6210587993002305E-002  0.13559823452509212        0.0000000000000000     
   4.5340454823690875E-002  0.10693403932673702        0.0000000000000000     
   4.6665789319732920E-002  0.11383745183164790        0.0000000000000000     
   4.7912704024149516E-002  0.12085981564385304        0.0000000000000000     
   4.9081198936940656E-002  0.12800113076335251        0.0000000000000000     
   5.0171274058106341E-002  0.13526139719014624        0.0000000000000000     
   3.9983981062358946E-002  0.10656630957082032        0.0000000000000000     
   4.1163578745186266E-002  0.11348771067488474        0.0000000000000000     
   4.2271432646442814E-002  0.12052769065976153        0.0000000000000000     
   4.3307542766128589E-002  0.12768624952545068        0.0000000000000000     
   4.4271909104243577E-002  0.13496338727195220        0.0000000000000000     
   6.8709062805893770E-002  0.13638839144523943        0.0000000000000000     
   7.0089079931323198E-002  0.14370859742141606        0.0000000000000000     
   7.1415817003884205E-002  0.15114585421072074        0.0000000000000000     
   7.2689274023576791E-002  0.15870016181315338        0.0000000000000000     
   7.3909450990400971E-002  0.16637152022871404        0.0000000000000000     
   6.2389850908931441E-002  0.13597389927678985        0.0000000000000000     
   6.3653603348556867E-002  0.14331505314033707        0.0000000000000000     
   6.4864967512193200E-002  0.15077377718739216        0.0000000000000000     
   6.6023943399840468E-002  0.15835007141795499        0.0000000000000000     
   6.7130531011498601E-002  0.16604393583202562        0.0000000000000000     
   5.6210587993002305E-002  0.13559823452509212        0.0000000000000000     
   5.7356915799723553E-002  0.14295902677995173        0.0000000000000000     
   5.8453200682321106E-002  0.15043795832705834        0.0000000000000000     
   5.9499442640795007E-002  0.15803502916641199        0.0000000000000000     
   6.0495641675145213E-002  0.16575023929801261        0.0000000000000000     
   5.0171274058106341E-002  0.13526139719014624        0.0000000000000000     
   5.1199017284823234E-002  0.14264051834025995        0.0000000000000000     
   5.2180516514267923E-002  0.15013839762971931        0.0000000000000000     
   5.3115771746440443E-002  0.15775503505852431        0.0000000000000000     
   5.4004782981340795E-002  0.16549043062667496        0.0000000000000000     
   4.4271909104243577E-002  0.13496338727195220        0.0000000000000000     
   4.5179907803855890E-002  0.14235952782126177        0.0000000000000000     
   4.6046915008033623E-002  0.14987509509537505        0.0000000000000000     
   4.6872930716776784E-002  0.15751008909429201        0.0000000000000000     
   4.7657954930085351E-002  0.16526450981801269        0.0000000000000000     
   7.3909450990400971E-002  0.16637152022871404        0.0000000000000000     
   7.5062867728167712E-002  0.17414481219242098        0.0000000000000000     
   7.6136044060688024E-002  0.18200492043929234        0.0000000000000000     
   7.7128979987961949E-002  0.18995184496932821        0.0000000000000000     
   7.8041675509989417E-002  0.19798558578252856        0.0000000000000000     
   6.7130531011498601E-002  0.16604393583202562        0.0000000000000000     
   6.8173786515093496E-002  0.17383994771021788        0.0000000000000000     
   6.9142766078550980E-002  0.18172268433314548        0.0000000000000000     
   7.0037469701871052E-002  0.18969214570080853        0.0000000000000000     
   7.0857897385053728E-002  0.19774833181320695        0.0000000000000000     
   6.0495641675145213E-002  0.16575023929801261        0.0000000000000000     
   6.1432502919253257E-002  0.17356785781615389        0.0000000000000000     
   6.2300731507000683E-002  0.18147215381512954        0.0000000000000000     
   6.3100327438387505E-002  0.18946312729493950        0.0000000000000000     
   6.3831290713413674E-002  0.19754077825558380        0.0000000000000000     
   5.4004782981340795E-002  0.16549043062667496        0.0000000000000000     
   5.4839016940647023E-002  0.17332854251022908        0.0000000000000000     
   5.5609940346037175E-002  0.18125332888524442        0.0000000000000000     
   5.6317553197511250E-002  0.18926478975172115        0.0000000000000000     
   5.6961855495069248E-002  0.19736292510965911        0.0000000000000000     
   4.7657954930085351E-002  0.16526450981801269        0.0000000000000000     
   4.8393328579274759E-002  0.17312200179244333        0.0000000000000000     
   4.9070392595660407E-002  0.18106620954349026        0.0000000000000000     
   4.9689146979242316E-002  0.18909713307115344        0.0000000000000000     
   5.0249591730020471E-002  0.19721477237543286        0.0000000000000000     
   7.8041675509989417E-002  0.19798558578252856        0.0000000000000000     
   7.8878221859455575E-002  0.20610079627023431        0.0000000000000000     
   7.9642710269045486E-002  0.21429212982378654        0.0000000000000000     
   8.0335140738759164E-002  0.22255958644318516        0.0000000000000000     
   8.0955513268596596E-002  0.23090316612843020        0.0000000000000000     
   7.0857897385053728E-002  0.19774833181320695        0.0000000000000000     
   7.1604681964909780E-002  0.20588631310223182        0.0000000000000000     
   7.2278456278250011E-002  0.21410115999977428        0.0000000000000000     
   7.2879220325074434E-002  0.22239287250583428        0.0000000000000000     
   7.3406974105383022E-002  0.23076145062041181        0.0000000000000000     
   6.3831290713413674E-002  0.19754077825558380        0.0000000000000000     
   6.4492271447612298E-002  0.20569996867090948        0.0000000000000000     
   6.5081919756516435E-002  0.21393556051476356        0.0000000000000000     
   6.5600235640126098E-002  0.22224755378714608        0.0000000000000000     
   6.6047219098441273E-002  0.23063594848805705        0.0000000000000000     
   5.6961855495069248E-002  0.19736292510965911        0.0000000000000000     
   5.7540990307563114E-002  0.20554176297626719        0.0000000000000000     
   5.8053100703844750E-002  0.21379533136875437        0.0000000000000000     
   5.8498186683914169E-002  0.22212363028712062        0.0000000000000000     
   5.8876248247771365E-002  0.23052665973136588        0.0000000000000000     
   5.0249591730020471E-002  0.19721477237543286        0.0000000000000000     
   5.0750838544762242E-002  0.20541169601830511        0.0000000000000000     
   5.1191999120234949E-002  0.21368047256174677        0.0000000000000000     
   5.1573073456438641E-002  0.22202110200575784        0.0000000000000000     
   5.1894061553373283E-002  0.23043358435033826        0.0000000000000000     
   8.0955513268596596E-002  0.23090316612843020        0.0000000000000000     
   8.1492531464579118E-002  0.23934300516905932        0.0000000000000000     
   8.1934898932728054E-002  0.24789923985461021        0.0000000000000000     
   8.2282615673043444E-002  0.25657187018508276        0.0000000000000000     
   8.2535681685525233E-002  0.26536089616047703        0.0000000000000000     
   7.3406974105383022E-002  0.23076145062041181        0.0000000000000000     
   7.3858047448856309E-002  0.23922035559806432        0.0000000000000000     
   7.4228770185174833E-002  0.24778304869334922        0.0000000000000000     
   7.4519142314338579E-002  0.25644952990626646        0.0000000000000000     
   7.4729163836347562E-002  0.26521979923681616        0.0000000000000000     
   6.6047219098441273E-002  0.23063594848805705        0.0000000000000000     
   6.6424913205603536E-002  0.23910721244254096        0.0000000000000000     
   6.6735361035754476E-002  0.24766781347564262        0.0000000000000000     
   6.6978562588894050E-002  0.25631775158736186        0.0000000000000000     
   6.7154517865022273E-002  0.26505702677769882        0.0000000000000000     
   5.8876248247771365E-002  0.23052665973136588        0.0000000000000000     
   5.9193128734820806E-002  0.23900357570248937        0.0000000000000000     
   5.9454671484466953E-002  0.24755353420149034        0.0000000000000000     
   5.9660876496709828E-002  0.25617653522836892        0.0000000000000000     
   5.9811743771549394E-002  0.26487257878312498        0.0000000000000000     
   5.1894061553373283E-002  0.23043358435033826        0.0000000000000000     
   5.2162694036508112E-002  0.23890944537790940        0.0000000000000000     
   5.2386701531312314E-002  0.24744021087089249        0.0000000000000000     
   5.2566084037785912E-002  0.25602588082928751        0.0000000000000000     
   5.2700841555928898E-002  0.26466645525309446        0.0000000000000000     
   8.2535681685525233E-002  0.26536089616047703        0.0000000000000000     
   8.2733161324882398E-002  0.27429278005475999        0.0000000000000000     
   8.2914118945823900E-002  0.28339398414189848        0.0000000000000000     
   8.3078554548349740E-002  0.29266450842189251        0.0000000000000000     
   8.3226468132459902E-002  0.30210435289474225        0.0000000000000000     
   7.4729163836347562E-002  0.26521979923681616        0.0000000000000000     
   7.4899841137812020E-002  0.27408749484828510        0.0000000000000000     
   7.5072180605342209E-002  0.28304625490396007        0.0000000000000000     
   7.5246182238938142E-002  0.29209607940384102        0.0000000000000000     
   7.5421846038599805E-002  0.30123696834792812        0.0000000000000000     
   6.7154517865022273E-002  0.26505702677769882        0.0000000000000000     
   6.7303531017071178E-002  0.27385572038753625        0.0000000000000000     
   6.7465906197972769E-002  0.28268391375775714        0.0000000000000000     
   6.7641643407727048E-002  0.29154160688836150        0.0000000000000000     
   6.7830742646333986E-002  0.30042879977934922        0.0000000000000000     
   5.9811743771549394E-002  0.26487257878312498        0.0000000000000000     
   5.9944230962659904E-002  0.27359745667251351        0.0000000000000000     
   6.0095295723715580E-002  0.28230696070328987        0.0000000000000000     
   6.0264938054716437E-002  0.29100109087545373        0.0000000000000000     
   6.0453157955662452E-002  0.29967984718900548        0.0000000000000000     
   5.2700841555928898E-002  0.26466645525309446        0.0000000000000000     
   5.2821940974578173E-002  0.27331270370321686        0.0000000000000000     
   5.2960349182570657E-002  0.28191539574055802        0.0000000000000000     
   5.3116066179906322E-002  0.29047453136511803        0.0000000000000000     
   5.3289091966585198E-002  0.29899011057689684        0.0000000000000000     
   2.8940362404633206E-002   5.7169005994798301E-002   0.0000000000000000     
   3.0521302983805336E-002   6.2728683352135439E-002   0.0000000000000000     
   3.2035092488782661E-002   6.8466438871371257E-002   0.0000000000000000     
   3.3481730919565182E-002   7.4382272552505735E-002   0.0000000000000000     
   3.4861218276152899E-002   8.0476184395538872E-002   0.0000000000000000     
   2.5119722546018537E-002   5.6741284654362824E-002   0.0000000000000000     
   2.6465039997836816E-002   6.2309222707805909E-002   0.0000000000000000     
   2.7765426578471447E-002   6.8056986247393994E-002   0.0000000000000000     
   2.9020882287922423E-002   7.3984575273127060E-002   0.0000000000000000     
   3.0231407126189748E-002   8.0091989785005174E-002   0.0000000000000000     
   2.1355438369488725E-002   5.6362981336814291E-002   0.0000000000000000     
   2.2485861684752511E-002   6.1939151594812544E-002   0.0000000000000000     
   2.3586469941215306E-002   6.7696674034419368E-002   0.0000000000000000     
   2.4657263138877113E-002   7.3635548655634750E-002   0.0000000000000000     
   2.5698241277737933E-002   7.9755775458458716E-002   0.0000000000000000     
   1.7647509875043769E-002   5.6034096042152683E-002   0.0000000000000000     
   1.8583768044552411E-002   6.1618470013155353E-002   0.0000000000000000     
   1.9498222577014234E-002   6.7385502232447367E-002   0.0000000000000000     
   2.0390873472429252E-002   7.3335192700028737E-002   0.0000000000000000     
   2.1261720730797462E-002   7.9467541415899484E-002   0.0000000000000000     
   1.3995937062683671E-002   5.5754628770378026E-002   0.0000000000000000     
   1.4758759077236514E-002   6.1347177962834336E-002   0.0000000000000000     
   1.5500684485868239E-002   6.7123470841478003E-002   0.0000000000000000     
   1.6221713288578847E-002   7.3083507406309076E-002   0.0000000000000000     
   1.6921845485368337E-002   7.9227287657327478E-002   0.0000000000000000     
   3.4861218276152899E-002   8.0476184395538872E-002   0.0000000000000000     
   3.6190824814908512E-002   8.6744030411980810E-002   0.0000000000000000     
   3.7487820792194725E-002   9.3181666613341707E-002   0.0000000000000000     
   3.8752206208011536E-002   9.9789092999621520E-002   0.0000000000000000     
   3.9983981062358946E-002  0.10656630957082032        0.0000000000000000     
   3.0231407126189748E-002   8.0091989785005174E-002   0.0000000000000000     
   3.1404254067323410E-002   8.6374415850318909E-002   0.0000000000000000     
   3.2546676085373413E-002   9.2827039536358888E-002   0.0000000000000000     
   3.3658673180339764E-002   9.9449860843125182E-002   0.0000000000000000     
   3.4740245352222462E-002  0.10624287977061768        0.0000000000000000     
   2.5698241277737933E-002   7.9755775458458716E-002   0.0000000000000000     
   2.6710498070753756E-002   8.6051832526640226E-002   0.0000000000000000     
   2.7695127230880613E-002   9.2518197943928321E-002   0.0000000000000000     
   2.8652128758118484E-002   9.9154871710322917E-002   0.0000000000000000     
   2.9581502652467364E-002  0.10596185382582410        0.0000000000000000     
   2.1261720730797462E-002   7.9467541415899484E-002   0.0000000000000000     
   2.2109556825199574E-002   8.5776280440944805E-002   0.0000000000000000     
   2.2933174228716310E-002   9.2255141836049923E-002   0.0000000000000000     
   2.3732572941347667E-002   9.8904125601214879E-002   0.0000000000000000     
   2.4507752963093651E-002  0.10572323173643960        0.0000000000000000     
   1.6921845485368337E-002   7.9227287657327478E-002   0.0000000000000000     
   1.7601430330660844E-002   8.5547759593232603E-002   0.0000000000000000     
   1.8260817078880512E-002   9.2037871212723749E-002   0.0000000000000000     
   1.8900005730027335E-002   9.8697622515800942E-002   0.0000000000000000     
   1.9518996284101312E-002  0.10552701350246417        0.0000000000000000     
   3.9983981062358946E-002  0.10656630957082032        0.0000000000000000     
   4.1163578745186266E-002  0.11348771067488474        0.0000000000000000     
   4.2271432646442814E-002  0.12052769065976153        0.0000000000000000     
   4.3307542766128589E-002  0.12768624952545068        0.0000000000000000     
   4.4271909104243577E-002  0.13496338727195220        0.0000000000000000     
   3.4740245352222462E-002  0.10624287977061768        0.0000000000000000     
   3.5774133678001543E-002  0.11318017876955928        0.0000000000000000     
   3.6743079234657042E-002  0.12023584029067284        0.0000000000000000     
   3.7647082022188971E-002  0.12740986433395834        0.0000000000000000     
   3.8486142040597311E-002  0.13470225089941576        0.0000000000000000     
   2.9581502652467364E-002  0.10596185382582410        0.0000000000000000     
   3.0468555156138381E-002  0.11291309231684110        0.0000000000000000     
   3.1298592511342635E-002  0.11998253520978318        0.0000000000000000     
   3.2071614718080128E-002  0.12717018250465034        0.0000000000000000     
   3.2787621776350862E-002  0.13447603420144263        0.0000000000000000     
   2.4507752963093651E-002  0.10572323173643960        0.0000000000000000     
   2.5246843179596776E-002  0.11268645131673016        0.0000000000000000     
   2.5937972476499586E-002  0.11976777541709256        0.0000000000000000     
   2.6581140853802070E-002  0.12696720403752676        0.0000000000000000     
   2.7176348311504228E-002  0.13428473717803280        0.0000000000000000     
   1.9518996284101312E-002  0.10552701350246417        0.0000000000000000     
   2.0108997748376736E-002  0.11250025576922650        0.0000000000000000     
   2.0661219130127896E-002  0.11959156091260094        0.0000000000000000     
   2.1175660429354787E-002  0.12680092893258754        0.0000000000000000     
   2.1652321646057418E-002  0.13412835982918625        0.0000000000000000     
   4.4271909104243577E-002  0.13496338727195220        0.0000000000000000     
   4.5179907803855890E-002  0.14235952782126177        0.0000000000000000     
   4.6046915008033623E-002  0.14987509509537505        0.0000000000000000     
   4.6872930716776784E-002  0.15751008909429201        0.0000000000000000     
   4.7657954930085351E-002  0.16526450981801269        0.0000000000000000     
   3.8486142040597311E-002  0.13470225089941576        0.0000000000000000     
   3.9275106486193666E-002  0.14211386955321495        0.0000000000000000     
   4.0028822555289625E-002  0.14964558986152576        0.0000000000000000     
   4.0747290247885176E-002  0.15729741182434814        0.0000000000000000     
   4.1430509563980346E-002  0.16506933544168217        0.0000000000000000     
   3.2787621776350862E-002  0.13447603420144263        0.0000000000000000     
   3.3460132461208644E-002  0.14190135786637731        0.0000000000000000     
   3.4102665547707314E-002  0.14944742106567174        0.0000000000000000     
   3.4715221035846837E-002  0.15711422379932591        0.0000000000000000     
   3.5297798925627226E-002  0.16490176606733978        0.0000000000000000     
   2.7176348311504228E-002  0.13428473717803280        0.0000000000000000     
   2.7734985728900843E-002  0.14172199276074876        0.0000000000000000     
   2.8268443985286676E-002  0.14928058870781291        0.0000000000000000     
   2.8776723080661731E-002  0.15696052501922514        0.0000000000000000     
   2.9259823015026012E-002  0.16476180169498553        0.0000000000000000     
   2.1652321646057418E-002  0.13412835982918625        0.0000000000000000     
   2.2099666289270247E-002  0.14157577423632939        0.0000000000000000     
   2.2526157868027735E-002  0.14914509278794932        0.0000000000000000     
   2.2931796382329887E-002  0.15683631548404597        0.0000000000000000     
   2.3316581832176698E-002  0.16464944232461934        0.0000000000000000     
   4.7657954930085351E-002  0.16526450981801269        0.0000000000000000     
   4.8393328579274759E-002  0.17312200179244333        0.0000000000000000     
   4.9070392595660407E-002  0.18106620954349026        0.0000000000000000     
   4.9689146979242316E-002  0.18909713307115344        0.0000000000000000     
   5.0249591730020471E-002  0.19721477237543286        0.0000000000000000     
   4.1430509563980346E-002  0.16506933544168217        0.0000000000000000     
   4.2069578292109930E-002  0.17294465225933700        0.0000000000000000     
   4.2655594220808779E-002  0.18090665382312179        0.0000000000000000     
   4.3188557350076894E-002  0.18895534013303664        0.0000000000000000     
   4.3668467679914266E-002  0.19709071118908139        0.0000000000000000     
   3.5297798925627226E-002  0.16490176606733978        0.0000000000000000     
   3.5841906536125998E-002  0.17279291050745016        0.0000000000000000     
   3.6339051186420640E-002  0.18077051975739389        0.0000000000000000     
   3.6789232876511160E-002  0.18883459381717083        0.0000000000000000     
   3.7192451606397552E-002  0.19698513268678106        0.0000000000000000     
   2.9259823015026012E-002  0.16476180169498553        0.0000000000000000     
   2.9710313311322952E-002  0.17266677653678300        0.0000000000000000     
   3.0120763492495994E-002  0.18065780734630649        0.0000000000000000     
   3.0491173558545120E-002  0.18873489412355615        0.0000000000000000     
   3.0821543509470344E-002  0.19689803686853186        0.0000000000000000     
   2.3316581832176698E-002  0.16464944232461934        0.0000000000000000     
   2.3674798617700804E-002  0.17256625034733530        0.0000000000000000     
   2.4000731139034830E-002  0.18056851658985967        0.0000000000000000     
   2.4294379396178775E-002  0.18865624105219247        0.0000000000000000     
   2.4555743389132641E-002  0.19682942373433376        0.0000000000000000     
   5.0249591730020471E-002  0.19721477237543286        0.0000000000000000     
   5.0750838544762242E-002  0.20541169601830511        0.0000000000000000     
   5.1191999120234949E-002  0.21368047256174677        0.0000000000000000     
   5.1573073456438641E-002  0.22202110200575784        0.0000000000000000     
   5.1894061553373283E-002  0.23043358435033826        0.0000000000000000     
   4.3668467679914266E-002  0.19709071118908139        0.0000000000000000     
   4.4095884851394547E-002  0.20530361063422067        0.0000000000000000     
   4.4471368505591420E-002  0.21358488211141888        0.0000000000000000     
   4.4794918642504865E-002  0.22193452562067598        0.0000000000000000     
   4.5066535262134902E-002  0.23035254116199205        0.0000000000000000     
   3.7192451606397552E-002  0.19698513268678106        0.0000000000000000     
   3.7550197919644965E-002  0.20521134966121146        0.0000000000000000     
   3.7863962359818523E-002  0.21350245803544887        0.0000000000000000     
   3.8133744926918234E-002  0.22185845780949337        0.0000000000000000     
   3.8359545620944097E-002  0.23027934898334493        0.0000000000000000     
   3.0821543509470344E-002  0.19689803686853186        0.0000000000000000     
   3.1113777749513457E-002  0.20513491309927745        0.0000000000000000     
   3.1369780682916251E-002  0.21343320033383686        0.0000000000000000     
   3.1589552309678720E-002  0.22179289857220996        0.0000000000000000     
   3.1773092629800867E-002  0.23021400781439680        0.0000000000000000     
   2.4555743389132641E-002  0.19682942373433376        0.0000000000000000     
   2.4786624341000048E-002  0.20507430094841869        0.0000000000000000     
   2.4988823474884618E-002  0.21337710900658269        0.0000000000000000     
   2.5162340790786334E-002  0.22173784790882572        0.0000000000000000     
   2.5307176288705213E-002  0.23015651765514783        0.0000000000000000     
   5.1894061553373283E-002  0.23043358435033826        0.0000000000000000     
   5.2162694036508112E-002  0.23890944537790940        0.0000000000000000     
   5.2386701531312314E-002  0.24744021087089249        0.0000000000000000     
   5.2566084037785912E-002  0.25602588082928751        0.0000000000000000     
   5.2700841555928898E-002  0.26466645525309446        0.0000000000000000     
   4.5066535262134902E-002  0.23035254116199205        0.0000000000000000     
   4.5294537106244280E-002  0.23882340294526661        0.0000000000000000     
   4.5487242916595741E-002  0.24733158518039927        0.0000000000000000     
   4.5644652693189312E-002  0.25587708786739000        0.0000000000000000     
   4.5766766436024980E-002  0.26445991100623883        0.0000000000000000     
   3.8359545620944097E-002  0.23027934898334493        0.0000000000000000     
   3.8549585939608159E-002  0.23874402988102647        0.0000000000000000     
   3.8712087380622484E-002  0.24723139882656103        0.0000000000000000     
   3.8847049943987043E-002  0.25574145581994862        0.0000000000000000     
   3.8954473629701850E-002  0.26427420086118925        0.0000000000000000     
   3.1773092629800867E-002  0.23021400781439680        0.0000000000000000     
   3.1927840536599777E-002  0.23867132618518894        0.0000000000000000     
   3.2061234923392516E-002  0.24713965180937780        0.0000000000000000     
   3.2173275790179090E-002  0.25561898468696337        0.0000000000000000     
   3.2263963136959492E-002  0.26410932481794580        0.0000000000000000     
   2.5307176288705213E-002  0.23015651765514783        0.0000000000000000     
   2.5429300897219103E-002  0.23860529185775409        0.0000000000000000     
   2.5534685544905854E-002  0.24705634412884958        0.0000000000000000     
   2.5623330231765461E-002  0.25550967446843431        0.0000000000000000     
   2.5695234957797929E-002  0.26396528287650833        0.0000000000000000     
   5.2700841555928898E-002  0.26466645525309446        0.0000000000000000     
   5.2821940974578173E-002  0.27331270370321686        0.0000000000000000     
   5.2960349182570657E-002  0.28191539574055802        0.0000000000000000     
   5.3116066179906322E-002  0.29047453136511803        0.0000000000000000     
   5.3289091966585198E-002  0.29899011057689684        0.0000000000000000     
   4.5766766436024980E-002  0.26445991100623883        0.0000000000000000     
   4.5877899260019679E-002  0.27303016908598304        0.0000000000000000     
   4.6002366280090357E-002  0.28153797659565982        0.0000000000000000     
   4.6140167496236999E-002  0.28998333353526928        0.0000000000000000     
   4.6291302908459606E-002  0.29836623990481143        0.0000000000000000     
   3.8954473629701850E-002  0.26427420086118925        0.0000000000000000     
   3.9053344026178119E-002  0.27277856042714888        0.0000000000000000     
   3.9162646721827080E-002  0.28120346099469345        0.0000000000000000     
   3.9282381716648739E-002  0.28954890256382287        0.0000000000000000     
   3.9412549010643068E-002  0.29781488513453741        0.0000000000000000     
   3.2263963136959492E-002  0.26410932481794580        0.0000000000000000     
   3.2348275273053499E-002  0.27255787772671441        0.0000000000000000     
   3.2441190507780847E-002  0.28091184893765869        0.0000000000000000     
   3.2542708841141535E-002  0.28917123845077880        0.0000000000000000     
   3.2652830273135577E-002  0.29733604626607474        0.0000000000000000     
   2.5695234957797929E-002  0.26396528287650833        0.0000000000000000     
   2.5762693000645799E-002  0.27236812098467955        0.0000000000000000     
   2.5837997637951627E-002  0.28066314042455576        0.0000000000000000     
   2.5921148869715412E-002  0.28885034119613701        0.0000000000000000     
   2.6012146695937145E-002  0.29692972329942335        0.0000000000000000     
   1.3995937062683671E-002   5.5754628770378026E-002   0.0000000000000000     
   1.4758759077236514E-002   6.1347177962834336E-002   0.0000000000000000     
   1.5500684485868239E-002   6.7123470841478003E-002   0.0000000000000000     
   1.6221713288578847E-002   7.3083507406309076E-002   0.0000000000000000     
   1.6921845485368337E-002   7.9227287657327478E-002   0.0000000000000000     
   1.0405724085970250E-002   5.5537524931003834E-002   0.0000000000000000     
   1.0998573083682430E-002   6.1136997499334753E-002   0.0000000000000000     
   1.1569669132327709E-002   6.6920716295341132E-002   0.0000000000000000     
   1.2119012231906085E-002   7.2888681319022972E-002   0.0000000000000000     
   1.2646602382417556E-002   7.9040892570380245E-002   0.0000000000000000     
   6.8818750984653235E-003   5.5395729933543650E-002   0.0000000000000000     
   7.2909483647677683E-003   6.0999650678141906E-002   0.0000000000000000     
   7.6809899809430491E-003   6.6787375027866608E-002   0.0000000000000000     
   8.0519999469911667E-003   7.2758902982717741E-002   0.0000000000000000     
   8.4039782629121221E-003   7.8914234542695347E-002   0.0000000000000000     
   3.4243901001688947E-003   5.5329243777997493E-002   0.0000000000000000     
   3.6358849204925249E-003   6.0935137499255741E-002   0.0000000000000000     
   3.8346470317142589E-003   6.6723447039054362E-002   0.0000000000000000     
   4.0206764338340962E-003   7.2694172397393383E-002   0.0000000000000000     
   4.1939731268520368E-003   7.8847313574272757E-002   0.0000000000000000     
   3.3269091080961183E-005   5.5338066464365357E-002   0.0000000000000000     
   3.3382750856701671E-005   6.0943457962676320E-002   0.0000000000000000     
   3.0640284641338784E-005   6.6728932328904506E-002   0.0000000000000000     
   2.5041692434870760E-005   7.2694489563049886E-002   0.0000000000000000     
   1.6586974237298765E-005   7.8840129665112502E-002   0.0000000000000000     
   1.6921845485368337E-002   7.9227287657327478E-002   0.0000000000000000     
   1.7601430330660844E-002   8.5547759593232603E-002   0.0000000000000000     
   1.8260817078880512E-002   9.2037871212723749E-002   0.0000000000000000     
   1.8900005730027335E-002   9.8697622515800942E-002   0.0000000000000000     
   1.9518996284101312E-002  0.10552701350246417        0.0000000000000000     
   1.2646602382417556E-002   7.9040892570380245E-002   0.0000000000000000     
   1.3155564028741580E-002   8.5369998013869519E-002   0.0000000000000000     
   1.3649021615757616E-002   9.1868645613947253E-002   0.0000000000000000     
   1.4126975143465666E-002   9.8536835370613515E-002   0.0000000000000000     
   1.4589424611865725E-002  0.10537456728386826        0.0000000000000000     
   8.4039782629121221E-003   7.8914234542695347E-002   0.0000000000000000     
   8.7414033610457853E-003   8.5246723733221397E-002   0.0000000000000000     
   9.0687536737320291E-003   9.1749724579717945E-002   0.0000000000000000     
   9.3860292009708534E-003   9.8423237082184908E-002   0.0000000000000000     
   9.6932299427622583E-003  0.10526726124062238        0.0000000000000000     
   4.1939731268520368E-003   7.8847313574272757E-002   0.0000000000000000     
   4.3589483275734602E-003   8.5177936751288291E-002   0.0000000000000000     
   4.5200132528037474E-003   9.1681108110035756E-002   0.0000000000000000     
   4.6771679025428975E-003   9.8356827650515177E-002   0.0000000000000000     
   4.8304122767909123E-003  0.10520509537272650        0.0000000000000000     
   1.6586974237298765E-005   7.8840129665112502E-002   0.0000000000000000     
   8.1989283246051807E-006   8.5163637068070175E-002   0.0000000000000000     
   2.8003529727714136E-006   9.1662796204900754E-002   0.0000000000000000     
   3.9124818179754497E-007   9.8337607075604225E-002   0.0000000000000000     
   9.7161395168484863E-007  0.10518806968018062        0.0000000000000000     
   1.9518996284101312E-002  0.10552701350246417        0.0000000000000000     
   2.0108997748376736E-002  0.11250025576922650        0.0000000000000000     
   2.0661219130127896E-002  0.11959156091260094        0.0000000000000000     
   2.1175660429354787E-002  0.12680092893258754        0.0000000000000000     
   2.1652321646057418E-002  0.13412835982918625        0.0000000000000000     
   1.4589424611865725E-002  0.10537456728386826        0.0000000000000000     
   1.5030423206603648E-002  0.11235601864837258        0.0000000000000000     
   1.5444024113325286E-002  0.11945536675878751        0.0000000000000000     
   1.5830227332030638E-002  0.12667261161511309        0.0000000000000000     
   1.6189032862719707E-002  0.13400775321734926        0.0000000000000000     
   9.6932299427622583E-003  0.10526726124062238        0.0000000000000000     
   9.9865238984029117E-003  0.11225525292821099        0.0000000000000000     
   1.0262079067189483E-002  0.11936066801813149        0.0000000000000000     
   1.0519895449121968E-002  0.12658350651038383        0.0000000000000000     
   1.0759973044200372E-002  0.13392376840496803        0.0000000000000000     
   4.8304122767909123E-003  0.10520509537272650        0.0000000000000000     
   4.9772998237745296E-003  0.11219795860874175        0.0000000000000000     
   5.1153839917204855E-003  0.11930746469063280        0.0000000000000000     
   5.2446647806287834E-003  0.12653361361839977        0.0000000000000000     
   5.3651421904994208E-003  0.13387640539204257        0.0000000000000000     
   9.7161395168484863E-007  0.10518806968018062        0.0000000000000000     
   2.7509827184959198E-006  0.11218413568996477        0.0000000000000000     
   3.9388869182933536E-006  0.11929575677629152        0.0000000000000000     
   4.5353265510780175E-006  0.12652293293916089        0.0000000000000000     
   4.5403016168494778E-006  0.13386566417857287        0.0000000000000000     
   2.1652321646057418E-002  0.13412835982918625        0.0000000000000000     
   2.2099666289270247E-002  0.14157577423632939        0.0000000000000000     
   2.2526157868027735E-002  0.14914509278794932        0.0000000000000000     
   2.2931796382329887E-002  0.15683631548404597        0.0000000000000000     
   2.3316581832176698E-002  0.16464944232461934        0.0000000000000000     
   1.6189032862719707E-002  0.13400775321734926        0.0000000000000000     
   1.6525895747325721E-002  0.14146304937422030        0.0000000000000000     
   1.6846271027781915E-002  0.14904075789445045        0.0000000000000000     
   1.7150158704088290E-002  0.15674087877803974        0.0000000000000000     
   1.7437558776244845E-002  0.16456341202498811        0.0000000000000000     
   1.0759973044200372E-002  0.13392376840496803        0.0000000000000000     
   1.0985395708076122E-002  0.14138416525552253        0.0000000000000000     
   1.1199247296400648E-002  0.14896740861568583        0.0000000000000000     
   1.1401527809173946E-002  0.15667349848545786        0.0000000000000000     
   1.1592237246396020E-002  0.16450243486483870        0.0000000000000000     
   5.3651421904994208E-003  0.13387640539204257        0.0000000000000000     
   5.4781661715214520E-003  0.14133912188023615        0.0000000000000000     
   5.5850866738839291E-003  0.14892504495165540        0.0000000000000000     
   5.6859036975868511E-003  0.15663417460630039        0.0000000000000000     
   5.7806172426302198E-003  0.16446651084417105        0.0000000000000000     
   4.5403016168494778E-006  0.13386566417857287        0.0000000000000000     
   4.2071376617116695E-006  0.14132791924836113        0.0000000000000000     
   3.7891602317632151E-006  0.14891366690235927        0.0000000000000000     
   3.2863693270098338E-006  0.15662290714056729        0.0000000000000000     
   2.6987649474467280E-006  0.16445563996298521        0.0000000000000000     
   2.3316581832176698E-002  0.16464944232461934        0.0000000000000000     
   2.3674798617700804E-002  0.17256625034733530        0.0000000000000000     
   2.4000731139034830E-002  0.18056851658985967        0.0000000000000000     
   2.4294379396178775E-002  0.18865624105219247        0.0000000000000000     
   2.4555743389132641E-002  0.19682942373433376        0.0000000000000000     
   1.7437558776244845E-002  0.16456341202498811        0.0000000000000000     
   1.7704650105840103E-002  0.17248959542042624        0.0000000000000000     
   1.7947611554462586E-002  0.18050066674948462        0.0000000000000000     
   1.8166443122112290E-002  0.18859662601216332        0.0000000000000000     
   1.8361144808789219E-002  0.19677747320846231        0.0000000000000000     
   1.1592237246396020E-002  0.16450243486483870        0.0000000000000000     
   1.1769155426321417E-002  0.17243507523737475        0.0000000000000000     
   1.1930062167204689E-002  0.18045227708661249        0.0000000000000000     
   1.2074957469045836E-002  0.18855404041255197        0.0000000000000000     
   1.2203841331844854E-002  0.19674036521519311        0.0000000000000000     
   5.7806172426302198E-003  0.16446651084417105        0.0000000000000000     
   5.8683145791447464E-003  0.17240268979818094        0.0000000000000000     
   5.9480829772611430E-003  0.18042334760124334        0.0000000000000000     
   6.0199224369794115E-003  0.18852848425335844        0.0000000000000000     
   6.0838329582995499E-003  0.19671809975452612        0.0000000000000000     
   2.6987649474467280E-006  0.16445563996298521        0.0000000000000000     
   2.1275643100880128E-006  0.17239243910284460        0.0000000000000000     
   1.6739846319442251E-006  0.18041387829337716        0.0000000000000000     
   1.3380259130163139E-006  0.18851995753458270        0.0000000000000000     
   1.1196881533042519E-006  0.19671067682646132        0.0000000000000000     
   2.4555743389132641E-002  0.19682942373433376        0.0000000000000000     
   2.4786624341000048E-002  0.20507430094841869        0.0000000000000000     
   2.4988823474884618E-002  0.21337710900658269        0.0000000000000000     
   2.5162340790786334E-002  0.22173784790882572        0.0000000000000000     
   2.5307176288705213E-002  0.23015651765514783        0.0000000000000000     
   1.8361144808789219E-002  0.19677747320846231        0.0000000000000000     
   1.8533130950122344E-002  0.20502820358367305        0.0000000000000000     
   1.8683815881740635E-002  0.21333381238308682        0.0000000000000000     
   1.8813199603644089E-002  0.22169429960670381        0.0000000000000000     
   1.8921282115832706E-002  0.23010966525452392        0.0000000000000000     
   1.2203841331844854E-002  0.19674036521519311        0.0000000000000000     
   1.2317690832897949E-002  0.20499531138007820        0.0000000000000000     
   1.2417483049501321E-002  0.21330293879274961        0.0000000000000000     
   1.2503217981654970E-002  0.22166324745320726        0.0000000000000000     
   1.2574895629358894E-002  0.23007623736145116        0.0000000000000000     
   6.0838329582995499E-003  0.19671809975452612        0.0000000000000000     
   6.1403039893268719E-003  0.20497562433763433        0.0000000000000000     
   6.1898249781666840E-003  0.21328448823557097        0.0000000000000000     
   6.2323959248189904E-003  0.22164469144833601        0.0000000000000000     
   6.2680168292837887E-003  0.23005623397592953        0.0000000000000000     
   1.1196881533042519E-006  0.19671067682646132        0.0000000000000000     
   9.7041940910497920E-007  0.20496914245634132        0.0000000000000000     
   8.4166773671933912E-007  0.21327846071155096        0.0000000000000000     
   7.3343313614592214E-007  0.22163863159209016        0.0000000000000000     
   6.4571560738592090E-007  0.23004965509795894        0.0000000000000000     
   2.5307176288705213E-002  0.23015651765514783        0.0000000000000000     
   2.5429300897219103E-002  0.23860529185775409        0.0000000000000000     
   2.5534685544905854E-002  0.24705634412884958        0.0000000000000000     
   2.5623330231765461E-002  0.25550967446843431        0.0000000000000000     
   2.5695234957797929E-002  0.26396528287650833        0.0000000000000000     
   1.8921282115832706E-002  0.23010966525452392        0.0000000000000000     
   1.9012303040131268E-002  0.23855043752796318        0.0000000000000000     
   1.9090501998364557E-002  0.24698714462843746        0.0000000000000000     
   1.9155878990532570E-002  0.25541978655594694        0.0000000000000000     
   1.9208434016635304E-002  0.26384836331049144        0.0000000000000000     
   1.2574895629358894E-002  0.23007623736145116        0.0000000000000000     
   1.2635182984001372E-002  0.23851127382505757        0.0000000000000000     
   1.2686747036970682E-002  0.24693772215160276        0.0000000000000000     
   1.2729587788266817E-002  0.25535558234108674        0.0000000000000000     
   1.2763705237889788E-002  0.26376485439350944        0.0000000000000000     
   6.2680168292837887E-003  0.23005623397592953        0.0000000000000000     
   6.2979407288294223E-003  0.23848780074903733        0.0000000000000000     
   6.3234206607242303E-003  0.24690807669834541        0.0000000000000000     
   6.3444566249682161E-003  0.25531706182385377        0.0000000000000000     
   6.3610486215613772E-003  0.26371475612556239        0.0000000000000000     
   6.4571560738592090E-007  0.23004965509795894        0.0000000000000000     
   5.7627461541457162E-007  0.23848001829990237        0.0000000000000000     
   5.2286962520407473E-007  0.24689820826866540        0.0000000000000000     
   4.8550063675865864E-007  0.25530422500424804        0.0000000000000000     
   4.6416765007431179E-007  0.26369806850665028        0.0000000000000000     
   2.5695234957797929E-002  0.26396528287650833        0.0000000000000000     
   2.5762693000645799E-002  0.27236812098467955        0.0000000000000000     
   2.5837997637951627E-002  0.28066314042455576        0.0000000000000000     
   2.5921148869715412E-002  0.28885034119613701        0.0000000000000000     
   2.6012146695937145E-002  0.29692972329942335        0.0000000000000000     
   1.9208434016635304E-002  0.26384836331049144        0.0000000000000000     
   1.9258173553649893E-002  0.27221561888649709        0.0000000000000000     
   1.9315104078553458E-002  0.28046429727838990        0.0000000000000000     
   1.9379225591345996E-002  0.28859439848616980        0.0000000000000000     
   1.9450538092027517E-002  0.29660592250983686        0.0000000000000000     
   1.2763705237889788E-002  0.26376485439350944        0.0000000000000000     
   1.2796293276760618E-002  0.27210670011761978        0.0000000000000000     
   1.2834545795800342E-002  0.28032228132216636        0.0000000000000000     
   1.2878462795008951E-002  0.28841159800714944        0.0000000000000000     
   1.2928044274386458E-002  0.29637465017256881        0.0000000000000000     
   6.3610486215613772E-003  0.26371475612556239        0.0000000000000000     
   6.3770521699779772E-003  0.27204136467804757        0.0000000000000000     
   6.3963227896922754E-003  0.28023709255588541        0.0000000000000000     
   6.4188604807042735E-003  0.28830193975907598        0.0000000000000000     
   6.4446652430139679E-003  0.29623590628761926        0.0000000000000000     
   4.6416765007431179E-007  0.26369806850665028        0.0000000000000000     
   4.5023330197012032E-007  0.27201961256778046        0.0000000000000000     
   4.3506022926636297E-007  0.28020873097954674        0.0000000000000000     
   4.1864843195759164E-007  0.28826542374194930        0.0000000000000000     
   4.0099791004648971E-007  0.29618969085498809        0.0000000000000000     
   3.3269091080961183E-005   5.5338066464365357E-002   0.0000000000000000     
   3.3382750856701671E-005   6.0943457962676320E-002   0.0000000000000000     
   3.0640284641338784E-005   6.6728932328904506E-002   0.0000000000000000     
   2.5041692434870760E-005   7.2694489563049886E-002   0.0000000000000000     
   1.6586974237298765E-005   7.8840129665112502E-002   0.0000000000000000     
  -3.3629024950710311E-003   5.5400995617843396E-002   0.0000000000000000     
  -3.5741821607844114E-003   6.1004256644647453E-002   0.0000000000000000     
  -3.7779967102535483E-003   6.6785594120874286E-002   0.0000000000000000     
  -3.9743461434784428E-003   7.2745008046523868E-002   0.0000000000000000     
  -4.1632304604590940E-003   7.8882498421596212E-002   0.0000000000000000     
  -6.8355392245596346E-003   5.5496828863627751E-002   0.0000000000000000     
  -7.2444338310755224E-003   6.1097178121413027E-002   0.0000000000000000     
  -7.6382304029482357E-003   6.6875195638421078E-002   0.0000000000000000     
  -8.0169289401777789E-003   7.2830881414651924E-002   0.0000000000000000     
  -8.3805294427641459E-003   7.8964235450105530E-002   0.0000000000000000     
  -1.0384641097384852E-002   5.5625566201718435E-002   0.0000000000000000     
  -1.0977372260016636E-002   6.1222222392973036E-002   0.0000000000000000     
  -1.1550060793442731E-002   6.6997736881544895E-002   0.0000000000000000     
  -1.2102706697663135E-002   7.2952109667434040E-002   0.0000000000000000     
  -1.2635309972677852E-002   7.9085340750640484E-002   0.0000000000000000     
  -1.4010208113546682E-002   5.5787207632115449E-002   0.0000000000000000     
  -1.4772997447607746E-002   6.1379389459327444E-002   0.0000000000000000     
  -1.5513487881737023E-002   6.7153217850245708E-002   0.0000000000000000     
  -1.6231679415934515E-002   7.3108692804870243E-002   0.0000000000000000     
  -1.6927572050200217E-002   7.9245814323201033E-002   0.0000000000000000     
   1.6586974237298765E-005   7.8840129665112502E-002   0.0000000000000000     
   8.1989283246051807E-006   8.5163637068070175E-002   0.0000000000000000     
   2.8003529727714136E-006   9.1662796204900754E-002   0.0000000000000000     
   3.9124818179754497E-007   9.8337607075604225E-002   0.0000000000000000     
   9.7161395168484863E-007  0.10518806968018062        0.0000000000000000     
  -4.1632304604590940E-003   7.8882498421596212E-002   0.0000000000000000     
  -4.3436746600824241E-003   8.5198102681879370E-002   0.0000000000000000     
  -4.5147037412353562E-003   9.1691858263161383E-002   0.0000000000000000     
  -4.6763177039178894E-003   9.8363765165442305E-002   0.0000000000000000     
  -4.8285165481300255E-003  0.10521382338872205        0.0000000000000000     
  -8.3805294427641459E-003   7.8964235450105530E-002   0.0000000000000000     
  -8.7295022610292712E-003   8.5275611591028200E-002   0.0000000000000000     
  -9.0643177452950918E-003   9.1765363683666154E-002   0.0000000000000000     
  -9.3849758955616095E-003   9.8433491728019462E-002   0.0000000000000000     
  -9.6914767118288225E-003  0.10527999572408808        0.0000000000000000     
  -1.2635309972677852E-002   7.9085340750640484E-002   0.0000000000000000     
  -1.3149283874515937E-002   8.5396163795516664E-002   0.0000000000000000     
  -1.3646041659206437E-002   9.1883312466415110E-002   0.0000000000000000     
  -1.4125583326749361E-002   9.8546786763335795E-002   0.0000000000000000     
  -1.4587908877144702E-002  0.10538658668627870        0.0000000000000000     
  -1.6927572050200217E-002   7.9245814323201033E-002   0.0000000000000000     
  -1.7603019500542418E-002   8.5559759295344776E-002   0.0000000000000000     
  -1.8259875482969392E-002   9.2045704611408180E-002   0.0000000000000000     
  -1.8898139997481141E-002   9.8703650271391233E-002   0.0000000000000000     
  -1.9517813044077667E-002  0.10553359627529393        0.0000000000000000     
   9.7161395168484863E-007  0.10518806968018062        0.0000000000000000     
   2.7509827184959198E-006  0.11218413568996477        0.0000000000000000     
   3.9388869182933536E-006  0.11929575677629152        0.0000000000000000     
   4.5353265510780175E-006  0.12652293293916089        0.0000000000000000     
   4.5403016168494778E-006  0.13386566417857287        0.0000000000000000     
  -4.8285165481300255E-003  0.10521382338872205        0.0000000000000000     
  -4.9721457644794874E-003  0.11221031839256561        0.0000000000000000     
  -5.1080508435740026E-003  0.11932153563653794        0.0000000000000000     
  -5.2362317854135684E-003  0.12654747512063896        0.0000000000000000     
  -5.3566885899981849E-003  0.13388813684486878        0.0000000000000000     
  -9.6914767118288225E-003  0.10527999572408808        0.0000000000000000     
  -9.9824135575337231E-003  0.11227304093722977        0.0000000000000000     
  -1.0256379796113308E-002  0.11938079263280232        0.0000000000000000     
  -1.0513375427567577E-002  0.12660325081080578        0.0000000000000000     
  -1.0753400451896529E-002  0.13394041547124003        0.0000000000000000     
  -1.4587908877144702E-002  0.10538658668627870        0.0000000000000000     
  -1.5028052396444209E-002  0.11237230332395724        0.0000000000000000     
  -1.5441047970699626E-002  0.11947352776508473        0.0000000000000000     
  -1.5826895599910948E-002  0.12669026000966122        0.0000000000000000     
  -1.6185595284078175E-002  0.13402250005768665        0.0000000000000000     
  -1.9517813044077667E-002  0.10553359627529393        0.0000000000000000     
  -2.0109062281210951E-002  0.11250810555274800        0.0000000000000000     
  -2.0662055367332954E-002  0.11959974103338515        0.0000000000000000     
  -2.1176792302443685E-002  0.12680850271720537        0.0000000000000000     
  -2.1653273086543138E-002  0.13413439060420868        0.0000000000000000     
   4.5403016168494778E-006  0.13386566417857287        0.0000000000000000     
   4.2071376617116695E-006  0.14132791924836113        0.0000000000000000     
   3.7891602317632151E-006  0.14891366690235927        0.0000000000000000     
   3.2863693270098338E-006  0.15662290714056729        0.0000000000000000     
   2.6987649474467280E-006  0.16445563996298521        0.0000000000000000     
  -5.3566885899981849E-003  0.13388813684486878        0.0000000000000000     
  -5.4703119213119740E-003  0.14134796292076104        0.0000000000000000     
  -5.5779924433390499E-003  0.14893139545984946        0.0000000000000000     
  -5.6797301560794133E-003  0.15663843446213405        0.0000000000000000     
  -5.7755250595330626E-003  0.16446907992761478        0.0000000000000000     
  -1.0753400451896529E-002  0.13394041547124003        0.0000000000000000     
  -1.0979221533208470E-002  0.14139665845829943        0.0000000000000000     
  -1.1193605335611709E-002  0.14897635161617812        0.0000000000000000     
  -1.1396551859106242E-002  0.15667949494487615        0.0000000000000000     
  -1.1588061103692072E-002  0.16450608844439354        0.0000000000000000     
  -1.6185595284078175E-002  0.13402250005768665        0.0000000000000000     
  -1.6522521698027780E-002  0.14147400586097630        0.0000000000000000     
  -1.6843049516586214E-002  0.14904853537134527        0.0000000000000000     
  -1.7147178739753480E-002  0.15674608858879366        0.0000000000000000     
  -1.7434909367529582E-002  0.16456666551332136        0.0000000000000000     
  -2.1653273086543138E-002  0.13413439060420868        0.0000000000000000     
  -2.2100212415769902E-002  0.14158000512879168        0.0000000000000000     
  -2.2526324986262565E-002  0.14914794672535095        0.0000000000000000     
  -2.2931610798021126E-002  0.15683821539388648        0.0000000000000000     
  -2.3316069851045593E-002  0.16465081113439833        0.0000000000000000     
   2.6987649474467280E-006  0.16445563996298521        0.0000000000000000     
   2.1275643100880128E-006  0.17239243910284460        0.0000000000000000     
   1.6739846319442251E-006  0.18041387829337716        0.0000000000000000     
   1.3380259130163139E-006  0.18851995753458270        0.0000000000000000     
   1.1196881533042519E-006  0.19671067682646132        0.0000000000000000     
  -5.7755250595330626E-003  0.16446907992761478        0.0000000000000000     
  -5.8642769419215736E-003  0.17240398237710081        0.0000000000000000     
  -5.9448855914665142E-003  0.18042379233140102        0.0000000000000000     
  -6.0173510081678871E-003  0.18852850979051550        0.0000000000000000     
  -6.0816731920256871E-003  0.19671813475444416        0.0000000000000000     
  -1.1588061103692072E-002  0.16450608844439354        0.0000000000000000     
  -1.1765770263289250E-002  0.17243697884668421        0.0000000000000000     
  -1.1927316531817840E-002  0.18045301288370219        0.0000000000000000     
  -1.2072699909277831E-002  0.18855419055544745        0.0000000000000000     
  -1.2201920395669228E-002  0.19674051186191999        0.0000000000000000     
  -1.7434909367529582E-002  0.16456666551332136        0.0000000000000000     
  -1.7702352399792953E-002  0.17249142851159485        0.0000000000000000     
  -1.7945618836422029E-002  0.18050153995028065        0.0000000000000000     
  -1.8164708677416819E-002  0.18859699982937858        0.0000000000000000     
  -1.8359621922777323E-002  0.19677780814888876        0.0000000000000000     
  -2.3316069851045593E-002  0.16465081113439833        0.0000000000000000     
  -2.3674023351432670E-002  0.17256733137183283        0.0000000000000000     
  -2.3999792505279095E-002  0.18056937353113636        0.0000000000000000     
  -2.4293377312584859E-002  0.18865693761230892        0.0000000000000000     
  -2.4554777773349964E-002  0.19683002361535049        0.0000000000000000     
   1.1196881533042519E-006  0.19671067682646132        0.0000000000000000     
   9.7041940910497920E-007  0.20496914245634132        0.0000000000000000     
   8.4166773671933912E-007  0.21327846071155096        0.0000000000000000     
   7.3343313614592214E-007  0.22163863159209016        0.0000000000000000     
   6.4571560738592090E-007  0.23004965509795894        0.0000000000000000     
  -6.0816731920256871E-003  0.19671813475444416        0.0000000000000000     
  -6.1384288395785894E-003  0.20497583883925502        0.0000000000000000     
  -6.1881946473652579E-003  0.21328479366101577        0.0000000000000000     
  -6.2309706153856909E-003  0.22164499921972655        0.0000000000000000     
  -6.2667567436398945E-003  0.23005645551538725        0.0000000000000000     
  -1.2201920395669228E-002  0.19674051186191999        0.0000000000000000     
  -1.2316012750359455E-002  0.20499568658943101        0.0000000000000000     
  -1.2416011732715931E-002  0.21330342452429177        0.0000000000000000     
  -1.2501917342738656E-002  0.22166372566650214        0.0000000000000000     
  -1.2573729580427630E-002  0.23007659001606223        0.0000000000000000     
  -1.8359621922777323E-002  0.19677780814888876        0.0000000000000000     
  -1.8531781312933492E-002  0.20502868570686941        0.0000000000000000     
  -1.8682609588315309E-002  0.21333435330137882        0.0000000000000000     
  -1.8812106748922752E-002  0.22169481093241697        0.0000000000000000     
  -1.8920272794755832E-002  0.23011005859998379        0.0000000000000000     
  -2.4554777773349964E-002  0.19683002361535049        0.0000000000000000     
  -2.4785734527300703E-002  0.20507483619157016        0.0000000000000000     
  -2.4987988214163374E-002  0.21337757999227697        0.0000000000000000     
  -2.5161538833937971E-002  0.22173825501747094        0.0000000000000000     
  -2.5306386386624490E-002  0.23015686126715199        0.0000000000000000     
   6.4571560738592090E-007  0.23004965509795894        0.0000000000000000     
   5.7627461541457162E-007  0.23848001829990237        0.0000000000000000     
   5.2286962520407473E-007  0.24689820826866540        0.0000000000000000     
   4.8550063675865864E-007  0.25530422500424804        0.0000000000000000     
   4.6416765007431179E-007  0.26369806850665028        0.0000000000000000     
  -6.2667567436398945E-003  0.23005645551538725        0.0000000000000000     
  -6.2968111840182601E-003  0.23848791311788436        0.0000000000000000     
  -6.3223920884111877E-003  0.24690812259710421        0.0000000000000000     
  -6.3434994568186808E-003  0.25531708395304670        0.0000000000000000     
  -6.3601332892407377E-003  0.26371479718571200        0.0000000000000000     
  -1.2573729580427630E-002  0.23007659001606223        0.0000000000000000     
  -1.2634122452449209E-002  0.23851147184321494        0.0000000000000000     
  -1.2685769965469744E-002  0.24693782541820319        0.0000000000000000     
  -1.2728672119489227E-002  0.25535565074102706        0.0000000000000000     
  -1.2762828914507671E-002  0.26376494781168647        0.0000000000000000     
  -1.8920272794755832E-002  0.23011005859998379        0.0000000000000000     
  -1.9011357530677439E-002  0.23855069447589408        0.0000000000000000     
  -1.9089610761550458E-002  0.24698731673196250        0.0000000000000000     
  -1.9155032487374886E-002  0.25541992536818903        0.0000000000000000     
  -1.9207622708150730E-002  0.26384852038457363        0.0000000000000000     
  -2.5306386386624490E-002  0.23015686126715199        0.0000000000000000     
  -2.5428516418702942E-002  0.23860558101592180        0.0000000000000000     
  -2.5533914476653329E-002  0.24705659653838200        0.0000000000000000     
  -2.5622580560475651E-002  0.25550990783453253        0.0000000000000000     
  -2.5694514670169907E-002  0.26396551490437348        0.0000000000000000     
   4.6416765007431179E-007  0.26369806850665028        0.0000000000000000     
   4.5023330197012032E-007  0.27201961256778046        0.0000000000000000     
   4.3506022926636297E-007  0.28020873097954674        0.0000000000000000     
   4.1864843195759164E-007  0.28826542374194930        0.0000000000000000     
   4.0099791004648971E-007  0.29618969085498809        0.0000000000000000     
  -6.3601332892407377E-003  0.26371479718571200        0.0000000000000000     
  -6.3761648556693168E-003  0.27204143941132802        0.0000000000000000     
  -6.3954654260963842E-003  0.28023718774612300        0.0000000000000000     
  -6.4180350005219409E-003  0.28830204219009675        0.0000000000000000     
  -6.4438735789459790E-003  0.29623600274324946        0.0000000000000000     
  -1.2762828914507671E-002  0.26376494781168647        0.0000000000000000     
  -1.2795445419337801E-002  0.27210684083320003        0.0000000000000000     
  -1.2833726702792368E-002  0.28032245400858635        0.0000000000000000     
  -1.2877672764871360E-002  0.28841178733784539        0.0000000000000000     
  -1.2927283605574786E-002  0.29637484082097731        0.0000000000000000     
  -1.9207622708150730E-002  0.26384852038457363        0.0000000000000000     
  -1.9257391457703492E-002  0.27221581683339618        0.0000000000000000     
  -1.9314348769858689E-002  0.28046452976693675        0.0000000000000000     
  -1.9378494644616311E-002  0.28859465918519533        0.0000000000000000     
  -1.9449829081976368E-002  0.29660620508817181        0.0000000000000000     
  -2.5694514670169907E-002  0.26396551490437348        0.0000000000000000     
  -2.5762002970766376E-002  0.27236836741191678        0.0000000000000000     
  -2.5837331627295335E-002  0.28066341502117442        0.0000000000000000     
  -2.5920500639756792E-002  0.28885065773214641        0.0000000000000000     
  -2.6011510008150732E-002  0.29693009554483274        0.0000000000000000     
  -1.4010208113546682E-002   5.5787207632115449E-002   0.0000000000000000     
  -1.4772997447607746E-002   6.1379389459327444E-002   0.0000000000000000     
  -1.5513487881737023E-002   6.7153217850245708E-002   0.0000000000000000     
  -1.6231679415934515E-002   7.3108692804870243E-002   0.0000000000000000     
  -1.6927572050200217E-002   7.9245814323201033E-002   0.0000000000000000     
  -1.7692658298409235E-002   5.6005597299256360E-002   0.0000000000000000     
  -1.8628958627611932E-002   6.1591984622142895E-002   0.0000000000000000     
  -1.9539364524119755E-002   6.7362650784291822E-002   0.0000000000000000     
  -2.0423875987932699E-002   7.3317595785703155E-002   0.0000000000000000     
  -2.1282493019050767E-002   7.9456819626376907E-002   0.0000000000000000     
  -2.1412409677336618E-002   5.6304579347578737E-002   0.0000000000000000     
  -2.2542905033792263E-002   6.1883313183085931E-002   0.0000000000000000     
  -2.3638543576879549E-002   6.7647047923451498E-002   0.0000000000000000     
  -2.4699325306598470E-002   7.3595783568675452E-002   0.0000000000000000     
  -2.5725250222949022E-002   7.9729520118757807E-002   0.0000000000000000     
  -2.5169462250328827E-002   5.6684153777082587E-002   0.0000000000000000     
  -2.6514836666148744E-002   6.2253375142156564E-002   0.0000000000000000     
  -2.7811025040016403E-002   6.8006409267724735E-002   0.0000000000000000     
  -2.9058027371931815E-002   7.3943256153787135E-002   0.0000000000000000     
  -3.0255843661894977E-002   8.0063915800343707E-002   0.0000000000000000     
  -2.8963816017385874E-002   5.7144320587767888E-002   0.0000000000000000     
  -3.0544753524681369E-002   6.2702170499354795E-002   0.0000000000000000     
  -3.2056808913530334E-002   6.8440734817111562E-002   0.0000000000000000     
  -3.3499982183932756E-002   7.4360013541038161E-002   0.0000000000000000     
  -3.4874273335888634E-002   8.0460006671134648E-002   0.0000000000000000     
  -1.6927572050200217E-002   7.9245814323201033E-002   0.0000000000000000     
  -1.7603019500542418E-002   8.5559759295344776E-002   0.0000000000000000     
  -1.8259875482969392E-002   9.2045704611408180E-002   0.0000000000000000     
  -1.8898139997481141E-002   9.8703650271391233E-002   0.0000000000000000     
  -1.9517813044077667E-002  0.10553359627529393        0.0000000000000000     
  -2.1282493019050767E-002   7.9456819626376907E-002   0.0000000000000000     
  -2.2118278697402047E-002   8.5771999612498873E-002   0.0000000000000000     
  -2.2934296102914638E-002   9.2254813050254847E-002   0.0000000000000000     
  -2.3730545235588537E-002   9.8905259939644899E-002   0.0000000000000000     
  -2.4507026095423746E-002  0.10572334028066895        0.0000000000000000     
  -2.5725250222949022E-002   7.9729520118757807E-002   0.0000000000000000     
  -2.6722631023388170E-002   8.6038486268965264E-002   0.0000000000000000     
  -2.7697780405372865E-002   9.2512910714564606E-002   0.0000000000000000     
  -2.8650698368903126E-002   9.9152793455555832E-002   0.0000000000000000     
  -2.9581384913978947E-002  0.10595813449193893        0.0000000000000000     
  -3.0255843661894977E-002   8.0063915800343707E-002   0.0000000000000000     
  -3.1416076478500775E-002   8.6359219264743978E-002   0.0000000000000000     
  -3.2550328390344080E-002   9.2819997604337429E-002   0.0000000000000000     
  -3.3658599397424924E-002   9.9446250819124046E-002   0.0000000000000000     
  -3.4740889499743272E-002  0.10623797890910389        0.0000000000000000     
  -3.4874273335888634E-002   8.0460006671134648E-002   0.0000000000000000     
  -3.6198615062739851E-002   8.6734198599835000E-002   0.0000000000000000     
  -3.7491940057828271E-002   9.3176073719573330E-002   0.0000000000000000     
  -3.8754248321153900E-002   9.9785632030349583E-002   0.0000000000000000     
  -3.9985539852716717E-002  0.10656287353216382        0.0000000000000000     
  -1.9517813044077667E-002  0.10553359627529393        0.0000000000000000     
  -2.0109062281210951E-002  0.11250810555274800        0.0000000000000000     
  -2.0662055367332954E-002  0.11959974103338515        0.0000000000000000     
  -2.1176792302443685E-002  0.12680850271720537        0.0000000000000000     
  -2.1653273086543138E-002  0.13413439060420868        0.0000000000000000     
  -2.4507026095423746E-002  0.10572334028066895        0.0000000000000000     
  -2.5249107506706024E-002  0.11268461883323024        0.0000000000000000     
  -2.5942158293721155E-002  0.11976466035723199        0.0000000000000000     
  -2.6586178456469128E-002  0.12696346485267418        0.0000000000000000     
  -2.7181167994949955E-002  0.13428103231955688        0.0000000000000000     
  -2.9581384913978947E-002  0.10595813449193893        0.0000000000000000     
  -3.0471852367801526E-002  0.11290601437503214        0.0000000000000000     
  -3.1304113057572094E-002  0.11997351365615373        0.0000000000000000     
  -3.2078166983290649E-002  0.12716063233530367        0.0000000000000000     
  -3.2794014144957188E-002  0.13446737041248200        0.0000000000000000     
  -3.4740889499743272E-002  0.10623797890910389        0.0000000000000000     
  -3.5777296864497446E-002  0.11317229217815369        0.0000000000000000     
  -3.6747919658885762E-002  0.12022630093015033        0.0000000000000000     
  -3.7652757882908235E-002  0.12740000516509381        0.0000000000000000     
  -3.8491811536564821E-002  0.13469340488298409        0.0000000000000000     
  -3.9985539852716717E-002  0.10656287353216382        0.0000000000000000     
  -4.1165440996793798E-002  0.11348345224259490        0.0000000000000000     
  -4.2273578097662183E-002  0.12052302217922183        0.0000000000000000     
  -4.3309951155321866E-002  0.12768158334204457        0.0000000000000000     
  -4.4274560169772874E-002  0.13495913573106311        0.0000000000000000     
  -2.1653273086543138E-002  0.13413439060420868        0.0000000000000000     
  -2.2100212415769902E-002  0.14158000512879168        0.0000000000000000     
  -2.2526324986262565E-002  0.14914794672535095        0.0000000000000000     
  -2.2931610798021126E-002  0.15683821539388648        0.0000000000000000     
  -2.3316069851045593E-002  0.16465081113439833        0.0000000000000000     
  -2.7181167994949955E-002  0.13428103231955688        0.0000000000000000     
  -2.7739031717976599E-002  0.14171874454557290        0.0000000000000000     
  -2.8271674434362022E-002  0.14927798331841532        0.0000000000000000     
  -2.8779096144106238E-002  0.15695874863808407        0.0000000000000000     
  -2.9261296847209232E-002  0.16476104050457915        0.0000000000000000     
  -3.2794014144957188E-002  0.13446737041248200        0.0000000000000000     
  -3.3465717636189614E-002  0.14189431239514741        0.0000000000000000     
  -3.4107340550605832E-002  0.14944204279075865        0.0000000000000000     
  -3.4718882888205842E-002  0.15711056159931569        0.0000000000000000     
  -3.5300344648989651E-002  0.16489986882081856        0.0000000000000000     
  -3.8491811536564821E-002  0.13469340488298409        0.0000000000000000     
  -3.9280270170408943E-002  0.14210670867751513        0.0000000000000000     
  -4.0033323334993987E-002  0.14964012514238093        0.0000000000000000     
  -4.0750971030319945E-002  0.15729365427758138        0.0000000000000000     
  -4.1433213256386839E-002  0.16506729608311657        0.0000000000000000     
  -4.4274560169772874E-002  0.13495913573106311        0.0000000000000000     
  -4.5182689320634600E-002  0.14235593339267610        0.0000000000000000     
  -4.6049622787526501E-002  0.14987223037328209        0.0000000000000000     
  -4.6875360570448554E-002  0.15750802667288111        0.0000000000000000     
  -4.7659902669400775E-002  0.16526332229147317        0.0000000000000000     
  -2.3316069851045593E-002  0.16465081113439833        0.0000000000000000     
  -2.3674023351432670E-002  0.17256733137183283        0.0000000000000000     
  -2.3999792505279095E-002  0.18056937353113636        0.0000000000000000     
  -2.4293377312584859E-002  0.18865693761230892        0.0000000000000000     
  -2.4554777773349964E-002  0.19683002361535049        0.0000000000000000     
  -2.9261296847209232E-002  0.16476104050457915        0.0000000000000000     
  -2.9710979616928077E-002  0.17266694493131143        0.0000000000000000     
  -3.0120847526519823E-002  0.18065854793169167        0.0000000000000000     
  -3.0490900575984466E-002  0.18873584950571987        0.0000000000000000     
  -3.0821138765322015E-002  0.19689884965339610        0.0000000000000000     
  -3.5300344648989651E-002  0.16489986882081856        0.0000000000000000     
  -3.5843417694998839E-002  0.17279252669394402        0.0000000000000000     
  -3.6339793888275025E-002  0.18077109745736886        0.0000000000000000     
  -3.6789473228818183E-002  0.18883558111109300        0.0000000000000000     
  -3.7192455716628346E-002  0.19698597765511647        0.0000000000000000     
  -4.1433213256386839E-002  0.16506729608311657        0.0000000000000000     
  -4.2071337585644970E-002  0.17294407665973069        0.0000000000000000     
  -4.2656631590544690E-002  0.18090702210816786        0.0000000000000000     
  -4.3189095271086025E-002  0.18895613242842818        0.0000000000000000     
  -4.3668728627268942E-002  0.19709140762051158        0.0000000000000000     
  -4.7659902669400775E-002  0.16526332229147317        0.0000000000000000     
  -4.8394739288866451E-002  0.17312159482867137        0.0000000000000000     
  -4.9071360633328842E-002  0.18106632188408878        0.0000000000000000     
  -4.9689766702787963E-002  0.18909750345772547        0.0000000000000000     
  -5.0249957497243813E-002  0.19721513954958142        0.0000000000000000     
  -2.4554777773349964E-002  0.19683002361535049        0.0000000000000000     
  -2.4785734527300703E-002  0.20507483619157016        0.0000000000000000     
  -2.4987988214163374E-002  0.21337757999227697        0.0000000000000000     
  -2.5161538833937971E-002  0.22173825501747094        0.0000000000000000     
  -2.5306386386624490E-002  0.23015686126715199        0.0000000000000000     
  -3.0821138765322015E-002  0.19689884965339610        0.0000000000000000     
  -3.1113348875548681E-002  0.20513545063160202        0.0000000000000000     
  -3.1369317687680670E-002  0.21343355469721922        0.0000000000000000     
  -3.1589045201717986E-002  0.22179316185024781        0.0000000000000000     
  -3.1772531417660628E-002  0.23021427209068773        0.0000000000000000     
  -3.7192455716628346E-002  0.19698597765511647        0.0000000000000000     
  -3.7550100839765010E-002  0.20521184161503356        0.0000000000000000     
  -3.7863768086287733E-002  0.21350272751643851        0.0000000000000000     
  -3.8133457456196486E-002  0.22185863535933129        0.0000000000000000     
  -3.8359168949491297E-002  0.23027956514371192        0.0000000000000000     
  -4.3668728627268942E-002  0.19709140762051158        0.0000000000000000     
  -4.4095990419949702E-002  0.20530400914186481        0.0000000000000000     
  -4.4471339409984538E-002  0.21358509844993476        0.0000000000000000     
  -4.4794775597373451E-002  0.22193467554472135        0.0000000000000000     
  -4.5066298982116448E-002  0.23035274042622458        0.0000000000000000     
  -5.0249957497243813E-002  0.19721513954958142        0.0000000000000000     
  -5.0751017616102748E-002  0.20541195321209585        0.0000000000000000     
  -5.1192031658771106E-002  0.21368066749770803        0.0000000000000000     
  -5.1572999625248903E-002  0.22202128240641800        0.0000000000000000     
  -5.1893921515536123E-002  0.23043379793822572        0.0000000000000000     
  -2.5306386386624490E-002  0.23015686126715199        0.0000000000000000     
  -2.5428516418702942E-002  0.23860558101592180        0.0000000000000000     
  -2.5533914476653329E-002  0.24705659653838200        0.0000000000000000     
  -2.5622580560475651E-002  0.25550990783453253        0.0000000000000000     
  -2.5694514670169907E-002  0.26396551490437348        0.0000000000000000     
  -3.1772531417660628E-002  0.23021427209068773        0.0000000000000000     
  -3.1927231710288398E-002  0.23867162793637256        0.0000000000000000     
  -3.2060601454381082E-002  0.24713997190513590        0.0000000000000000     
  -3.2172640649938682E-002  0.25561930399697785        0.0000000000000000     
  -3.2263349296961195E-002  0.26410962421189821        0.0000000000000000     
  -3.8359168949491297E-002  0.23027956514371192        0.0000000000000000     
  -3.8549135999196488E-002  0.23874433171032086        0.0000000000000000     
  -3.8711592038336434E-002  0.24723174989989849        0.0000000000000000     
  -3.8846537066911137E-002  0.25574181971244481        0.0000000000000000     
  -3.8953971084920588E-002  0.26427454114795984        0.0000000000000000     
  -4.5066298982116448E-002  0.23035274042622458        0.0000000000000000     
  -4.5294229285427208E-002  0.23882369233776665        0.0000000000000000     
  -4.5486886228519395E-002  0.24733193052266961        0.0000000000000000     
  -4.5644269811393016E-002  0.25587745498093356        0.0000000000000000     
  -4.5766380034048072E-002  0.26446026571255848        0.0000000000000000     
  -5.1893921515536123E-002  0.23043379793822572        0.0000000000000000     
  -5.2162511568980538E-002  0.23890970981870990        0.0000000000000000     
  -5.2386484024929944E-002  0.24744051377344936        0.0000000000000000     
  -5.2565838883384307E-002  0.25602620980244412        0.0000000000000000     
  -5.2700576144343654E-002  0.26466679790569408        0.0000000000000000     
  -2.5694514670169907E-002  0.26396551490437348        0.0000000000000000     
  -2.5762002970766376E-002  0.27236836741191678        0.0000000000000000     
  -2.5837331627295335E-002  0.28066341502117442        0.0000000000000000     
  -2.5920500639756792E-002  0.28885065773214641        0.0000000000000000     
  -2.6011510008150732E-002  0.29693009554483274        0.0000000000000000     
  -3.2263349296961195E-002  0.26410962421189821        0.0000000000000000     
  -3.2347689922507278E-002  0.27255816445485614        0.0000000000000000     
  -3.2440625053635597E-002  0.28091215663081059        0.0000000000000000     
  -3.2542154690346145E-002  0.28917160073976167        0.0000000000000000     
  -3.2652278832638923E-002  0.29733649678170926        0.0000000000000000     
  -3.8953971084920588E-002  0.26427454114795984        0.0000000000000000     
  -3.9052862276907040E-002  0.27277887984830884        0.0000000000000000     
  -3.9162178827412762E-002  0.28120380145535695        0.0000000000000000     
  -3.9281920736437756E-002  0.28954930596910405        0.0000000000000000     
  -3.9412088003982000E-002  0.29781539338955043        0.0000000000000000     
  -4.5766380034048072E-002  0.26446026571255848        0.0000000000000000     
  -4.5877520033965648E-002  0.27303051359227487        0.0000000000000000     
  -4.6001992948626814E-002  0.28153834949481332        0.0000000000000000     
  -4.6139798778031593E-002  0.28998377342017373        0.0000000000000000     
  -4.6290937522179963E-002  0.29836678536835620        0.0000000000000000     
  -5.2700576144343654E-002  0.26466679790569408        0.0000000000000000     
  -5.2821663193683088E-002  0.27331306568675429        0.0000000000000000     
  -5.2960067417277761E-002  0.28191580074917977        0.0000000000000000     
  -5.3115788815127671E-002  0.29047500309297053        0.0000000000000000     
  -5.3288827387232805E-002  0.29899067271812657        0.0000000000000000     
  -2.8963816017385874E-002   5.7144320587767888E-002   0.0000000000000000     
  -3.0544753524681369E-002   6.2702170499354795E-002   0.0000000000000000     
  -3.2056808913530334E-002   6.8440734817111562E-002   0.0000000000000000     
  -3.3499982183932756E-002   7.4360013541038161E-002   0.0000000000000000     
  -3.4874273335888634E-002   8.0460006671134648E-002   0.0000000000000000     
  -3.2880533164729372E-002   5.7667909116138061E-002   0.0000000000000000     
  -3.4683878440423303E-002   6.3212095194296380E-002   0.0000000000000000     
  -3.6403952593850486E-002   6.8933822105531950E-002   0.0000000000000000     
  -3.8040755625010914E-002   7.4833089849844811E-002   0.0000000000000000     
  -3.9594287533904579E-002   8.0909898427234894E-002   0.0000000000000000     
  -3.7004675878580966E-002   5.8237748698696482E-002   0.0000000000000000     
  -3.8983434244407721E-002   6.3765545166597049E-002   0.0000000000000000     
  -4.0880513477406039E-002   6.9469468666905967E-002   0.0000000000000000     
  -4.2695913577575934E-002   7.5349519199623238E-002   0.0000000000000000     
  -4.4429634544917385E-002   8.1405696764748833E-002   0.0000000000000000     
  -4.1336244158940640E-002   5.8853839335443157E-002   0.0000000000000000     
  -4.3443420936634600E-002   6.4362520416256827E-002   0.0000000000000000     
  -4.5486491564196992E-002   7.0047674501233601E-002   0.0000000000000000     
  -4.7465456041627815E-002   7.5909301590373443E-002   0.0000000000000000     
  -4.9380314368927057E-002   8.1947401683676424E-002   0.0000000000000000     
  -4.5875238005808401E-002   5.9516181026378075E-002   0.0000000000000000     
  -4.8063838517103961E-002   6.5003020943275688E-002   0.0000000000000000     
  -5.0221886854223345E-002   7.0668439608514835E-002   0.0000000000000000     
  -5.2349383017166552E-002   7.6512437022095495E-002   0.0000000000000000     
  -5.4446327005933590E-002   8.2535013184017694E-002   0.0000000000000000     
  -3.4874273335888634E-002   8.0460006671134648E-002   0.0000000000000000     
  -3.6198615062739851E-002   8.6734198599835000E-002   0.0000000000000000     
  -3.7491940057828271E-002   9.3176073719573330E-002   0.0000000000000000     
  -3.8754248321153900E-002   9.9785632030349583E-002   0.0000000000000000     
  -3.9985539852716717E-002  0.10656287353216382        0.0000000000000000     
  -3.9594287533904579E-002   8.0909898427234894E-002   0.0000000000000000     
  -4.1087483050128631E-002   8.7160523044832808E-002   0.0000000000000000     
  -4.2543276903280212E-002   9.3581238909769091E-002   0.0000000000000000     
  -4.3961669093359301E-002  0.10017204602204369        0.0000000000000000     
  -4.5342659620365898E-002  0.10693294438165662        0.0000000000000000     
  -4.4429634544917385E-002   8.1405696764748833E-002   0.0000000000000000     
  -4.6099916714690325E-002   8.7635291370331894E-002   0.0000000000000000     
  -4.7725000422154648E-002   9.4035593024421479E-002   0.0000000000000000     
  -4.9304885667310352E-002  0.10060660172701762        0.0000000000000000     
  -5.0839572450157432E-002  0.10734831747812028        0.0000000000000000     
  -4.9380314368927057E-002   8.1947401683676424E-002   0.0000000000000000     
  -5.1235916056424913E-002   8.8158503576332231E-002   0.0000000000000000     
  -5.3037110614451592E-002   9.4539136063530538E-002   0.0000000000000000     
  -5.4783898043007040E-002  0.10108929914527137        0.0000000000000000     
  -5.6476278342091318E-002  0.10780899282155473        0.0000000000000000     
  -5.4446327005933590E-002   8.2535013184017694E-002   0.0000000000000000     
  -5.6495481075332414E-002   8.8730159662833819E-002   0.0000000000000000     
  -5.8479607480171024E-002   9.5091868027096238E-002   0.0000000000000000     
  -6.0398706220449391E-002  0.10162013827680499        0.0000000000000000     
  -6.2252777296167544E-002  0.10831497041196003        0.0000000000000000     
  -3.9985539852716717E-002  0.10656287353216382        0.0000000000000000     
  -4.1165440996793798E-002  0.11348345224259490        0.0000000000000000     
  -4.2273578097662183E-002  0.12052302217922183        0.0000000000000000     
  -4.3309951155321866E-002  0.12768158334204457        0.0000000000000000     
  -4.4274560169772874E-002  0.13495913573106311        0.0000000000000000     
  -4.5342659620365898E-002  0.10693294438165662        0.0000000000000000     
  -4.6666124247639412E-002  0.11383802284243648        0.0000000000000000     
  -4.7911938738519178E-002  0.12086137025821171        0.0000000000000000     
  -4.9080103093005228E-002  0.12800298662898235        0.0000000000000000     
  -5.0170617311097537E-002  0.13526287195474843        0.0000000000000000     
  -5.0839572450157432E-002  0.10734831747812028        0.0000000000000000     
  -5.2309186099983120E-002  0.11423453225175907        0.0000000000000000     
  -5.3693851946074615E-002  0.12123903802196348        0.0000000000000000     
  -5.4993569988431926E-002  0.12836183478873353        0.0000000000000000     
  -5.6208340227055030E-002  0.13560292255206929        0.0000000000000000     
  -5.6476278342091318E-002  0.10780899282155473        0.0000000000000000     
  -5.8094626553824948E-002  0.11467298047056267        0.0000000000000000     
  -5.9619317720328496E-002  0.12165602547047714        0.0000000000000000     
  -6.1050351841601964E-002  0.12875812782129814        0.0000000000000000     
  -6.2387728917645345E-002  0.13597928752302571        0.0000000000000000     
  -6.2252777296167544E-002  0.10831497041196003        0.0000000000000000     
  -6.4022445609164869E-002  0.11515336749884730        0.0000000000000000     
  -6.5688336061280800E-002  0.12211233260375266        0.0000000000000000     
  -6.7250448652515352E-002  0.12919186572667613        0.0000000000000000     
  -6.8708783382868496E-002  0.13639196686761770        0.0000000000000000     
  -4.4274560169772874E-002  0.13495913573106311        0.0000000000000000     
  -4.5182689320634600E-002  0.14235593339267610        0.0000000000000000     
  -4.6049622787526501E-002  0.14987223037328209        0.0000000000000000     
  -4.6875360570448554E-002  0.15750802667288111        0.0000000000000000     
  -4.7659902669400775E-002  0.16526332229147317        0.0000000000000000     
  -5.0170617311097537E-002  0.13526287195474843        0.0000000000000000     
  -5.1199076085132779E-002  0.14264135383815940        0.0000000000000000     
  -5.2181074107447607E-002  0.15013875988186487        0.0000000000000000     
  -5.3116611378042015E-002  0.15775509008586472        0.0000000000000000     
  -5.4005687896916024E-002  0.16549034445015909        0.0000000000000000     
  -5.6208340227055030E-002  0.13560292255206929        0.0000000000000000     
  -5.7355531462169665E-002  0.14296233731149421        0.0000000000000000     
  -5.8452512494001560E-002  0.15044011506653179        0.0000000000000000     
  -5.9499283322550695E-002  0.15803625581718209        0.0000000000000000     
  -6.0495843947817075E-002  0.16575075956344504        0.0000000000000000     
  -6.2387728917645345E-002  0.13597928752302571        0.0000000000000000     
  -6.3652055451745279E-002  0.14331888381268043        0.0000000000000000     
  -6.4863937947188338E-002  0.15077629592728292        0.0000000000000000     
  -6.6023376403974585E-002  0.15835152386683310        0.0000000000000000     
  -6.7130370822103949E-002  0.16604456763133107        0.0000000000000000     
  -6.8708783382868496E-002  0.13639196686761770        0.0000000000000000     
  -7.0088648053859587E-002  0.14371099334171814        0.0000000000000000     
  -7.1415350467007976E-002  0.15114730246411820        0.0000000000000000     
  -7.2688890622313665E-002  0.15870089423481790        0.0000000000000000     
  -7.3909268519776625E-002  0.16637176865381720        0.0000000000000000     
  -4.7659902669400775E-002  0.16526332229147317        0.0000000000000000     
  -4.8394739288866451E-002  0.17312159482867137        0.0000000000000000     
  -4.9071360633328842E-002  0.18106632188408878        0.0000000000000000     
  -4.9689766702787963E-002  0.18909750345772547        0.0000000000000000     
  -5.0249957497243813E-002  0.19721513954958142        0.0000000000000000     
  -5.4005687896916024E-002  0.16549034445015909        0.0000000000000000     
  -5.4839856901620548E-002  0.17332841931164497        0.0000000000000000     
  -5.5610671629706517E-002  0.18125321100721947        0.0000000000000000     
  -5.6318132081173942E-002  0.18926471953688259        0.0000000000000000     
  -5.6962238256022812E-002  0.19736294490063439        0.0000000000000000     
  -6.0495843947817075E-002  0.16575075956344504        0.0000000000000000     
  -6.1432924520864511E-002  0.17356788821953043        0.0000000000000000     
  -6.2301255192756769E-002  0.18147190369964783        0.0000000000000000     
  -6.3100835963493862E-002  0.18946280600379733        0.0000000000000000     
  -6.3831666833075784E-002  0.19754059513197886        0.0000000000000000     
  -6.7130370822103949E-002  0.16604456763133107        0.0000000000000000     
  -6.8173942146598346E-002  0.17384000155232771        0.0000000000000000     
  -6.9143111322479606E-002  0.18172239996137388        0.0000000000000000     
  -7.0037878349747729E-002  0.18969176285846956        0.0000000000000000     
  -7.0858243228402742E-002  0.19774809024361484        0.0000000000000000     
  -7.3909268519776625E-002  0.16637176865381720        0.0000000000000000     
  -7.5062909778822018E-002  0.17414475931003681        0.0000000000000000     
  -7.6136240018875020E-002  0.18200469979239758        0.0000000000000000     
  -7.7129259239935549E-002  0.18995159010089935        0.0000000000000000     
  -7.8041967442003674E-002  0.19798543023554233        0.0000000000000000     
  -5.0249957497243813E-002  0.19721513954958142        0.0000000000000000     
  -5.0751017616102748E-002  0.20541195321209585        0.0000000000000000     
  -5.1192031658771106E-002  0.21368066749770803        0.0000000000000000     
  -5.1572999625248903E-002  0.22202128240641800        0.0000000000000000     
  -5.1893921515536123E-002  0.23043379793822572        0.0000000000000000     
  -5.6962238256022812E-002  0.19736294490063439        0.0000000000000000     
  -5.7541181547670614E-002  0.20554187947534064        0.0000000000000000     
  -5.8053153349534814E-002  0.21379551563786711        0.0000000000000000     
  -5.8498153661615405E-002  0.22212385338821394        0.0000000000000000     
  -5.8876182483912395E-002  0.23052689272638102        0.0000000000000000     
  -6.3831666833075784E-002  0.19754059513197886        0.0000000000000000     
  -6.4492481334099766E-002  0.20569999358121310        0.0000000000000000     
  -6.5082012999163025E-002  0.21393572384852080        0.0000000000000000     
  -6.5600261828265560E-002  0.22224778593390185        0.0000000000000000     
  -6.6047227821407387E-002  0.23063617983735629        0.0000000000000000     
  -7.0858243228402742E-002  0.19774809024361484        0.0000000000000000     
  -7.1604916975390218E-002  0.20588629552971344        0.0000000000000000     
  -7.2278610607655752E-002  0.21410129212966905        0.0000000000000000     
  -7.2879324125199374E-002  0.22239308004348179        0.0000000000000000     
  -7.3407057528021027E-002  0.23076165927115161        0.0000000000000000     
  -7.8041967442003674E-002  0.19798543023554233        0.0000000000000000     
  -7.8878488471541955E-002  0.20610078532084145        0.0000000000000000     
  -7.9642946175013010E-002  0.21429222048131191        0.0000000000000000     
  -8.0335340552416826E-002  0.22255973571695370        0.0000000000000000     
  -8.0955671603753401E-002  0.23090333102776683        0.0000000000000000     
  -5.1893921515536123E-002  0.23043379793822572        0.0000000000000000     
  -5.2162511568980538E-002  0.23890970981870990        0.0000000000000000     
  -5.2386484024929944E-002  0.24744051377344936        0.0000000000000000     
  -5.2565838883384307E-002  0.25602620980244412        0.0000000000000000     
  -5.2700576144343654E-002  0.26466679790569408        0.0000000000000000     
  -5.8876182483912395E-002  0.23052689272638102        0.0000000000000000     
  -5.9193052890133081E-002  0.23900381080619904        0.0000000000000000     
  -5.9454577953984775E-002  0.24755378478149856        0.0000000000000000     
  -5.9660757675467462E-002  0.25617681465227948        0.0000000000000000     
  -5.9811592054581128E-002  0.26487290041854200        0.0000000000000000     
  -6.6047227821407387E-002  0.23063617983735629        0.0000000000000000     
  -6.6424923289161386E-002  0.23910742195328230        0.0000000000000000     
  -6.6735360542100552E-002  0.24766802867607790        0.0000000000000000     
  -6.6978539580224872E-002  0.25631800000574306        0.0000000000000000     
  -6.7154460403534316E-002  0.26505733594227787        0.0000000000000000     
  -7.3407057528021027E-002  0.23076165927115161        0.0000000000000000     
  -7.3858122766065445E-002  0.23922054325995973        0.0000000000000000     
  -7.4228831789277278E-002  0.24778324545718741        0.0000000000000000     
  -7.4519184597656524E-002  0.25644976586283474        0.0000000000000000     
  -7.4729181191203170E-002  0.26522010447690153        0.0000000000000000     
  -8.0955671603753401E-002  0.23090333102776683        0.0000000000000000     
  -8.1492651320845252E-002  0.23934317472623129        0.0000000000000000     
  -8.1934991695514936E-002  0.24789943512482715        0.0000000000000000     
  -8.2282692727762438E-002  0.25657211222355442        0.0000000000000000     
  -8.2535754417587731E-002  0.26536120602241303        0.0000000000000000     
  -5.2700576144343654E-002  0.26466679790569408        0.0000000000000000     
  -5.2821663193683088E-002  0.27331306568675429        0.0000000000000000     
  -5.2960067417277761E-002  0.28191580074917977        0.0000000000000000     
  -5.3115788815127671E-002  0.29047500309297053        0.0000000000000000     
  -5.3288827387232805E-002  0.29899067271812657        0.0000000000000000     
  -5.9811592054581128E-002  0.26487290041854200        0.0000000000000000     
  -5.9944050791866973E-002  0.27359783037283725        0.0000000000000000     
  -6.0095103587866169E-002  0.28230739280771655        0.0000000000000000     
  -6.0264750442578702E-002  0.29100158772317974        0.0000000000000000     
  -6.0452991356004571E-002  0.29968041511922694        0.0000000000000000     
  -6.7154460403534316E-002  0.26505733594227787        0.0000000000000000     
  -6.7303441864324881E-002  0.27385610189161408        0.0000000000000000     
  -6.7465802814892589E-002  0.28268436325968371        0.0000000000000000     
  -6.7641543255237371E-002  0.29154212004648661        0.0000000000000000     
  -6.7830663185359297E-002  0.30042937225202276        0.0000000000000000     
  -7.4729181191203170E-002  0.26522010447690153        0.0000000000000000     
  -7.4899836411056811E-002  0.27408788024308472        0.0000000000000000     
  -7.5072165098356999E-002  0.28304671210508126        0.0000000000000000     
  -7.5246167253103721E-002  0.29209660006289107        0.0000000000000000     
  -7.5421842875296990E-002  0.30123754411651404        0.0000000000000000     
  -8.2535754417587731E-002  0.26536120602241303        0.0000000000000000     
  -8.2733234432062763E-002  0.27429316542724924        0.0000000000000000     
  -8.2914190438259414E-002  0.28339443934390929        0.0000000000000000     
  -8.3078622436177696E-002  0.29266502777239312        0.0000000000000000     
  -8.3226530425817638E-002  0.30210493071270073        0.0000000000000000     
  -4.5875238005808401E-002   5.9516181026378075E-002   0.0000000000000000     
  -4.8063838517103961E-002   6.5003020943275688E-002   0.0000000000000000     
  -5.0221886854223345E-002   7.0668439608514835E-002   0.0000000000000000     
  -5.2349383017166552E-002   7.6512437022095495E-002   0.0000000000000000     
  -5.4446327005933590E-002   8.2535013184017694E-002   0.0000000000000000     
  -5.0537918596849661E-002   6.0236317770669456E-002   0.0000000000000000     
  -5.2859676700699812E-002   6.5698016024521896E-002   0.0000000000000000     
  -5.5164193084631469E-002   7.1341097333457837E-002   0.0000000000000000     
  -5.7451467748644638E-002   7.7165561697477236E-002   0.0000000000000000     
  -5.9721500692739307E-002   8.3171409116580164E-002   0.0000000000000000     
  -5.5240547109729823E-002   6.1025793567485484E-002   0.0000000000000000     
  -5.7845925202306185E-002   6.6458474936863673E-002   0.0000000000000000     
  -6.0390903992567739E-002   7.2074981020770729E-002   0.0000000000000000     
  -6.2875483480514527E-002   7.7875311819206608E-002   0.0000000000000000     
  -6.5299663666146535E-002   8.3859467332171353E-002   0.0000000000000000     
  -5.9983123544448909E-002   6.1884608416826165E-002   0.0000000000000000     
  -6.3022584021923053E-002   6.7284397680301047E-002   0.0000000000000000     
  -6.5902019578032170E-002   7.2870090670453525E-002   0.0000000000000000     
  -6.8621430212776210E-002   7.8641687387283624E-002   0.0000000000000000     
  -7.1180815926155244E-002   8.4599187830791303E-002   0.0000000000000000     
  -6.4765647901006890E-002   6.2812762318691498E-002   0.0000000000000000     
  -6.8389653159550451E-002   6.8175784254833977E-002   0.0000000000000000     
  -7.1697539841024727E-002   7.3726426282506224E-002   0.0000000000000000     
  -7.4689307945429731E-002   7.9464688401708242E-002   0.0000000000000000     
  -7.7364957472765478E-002   8.5390570612439987E-002   0.0000000000000000     
  -5.4446327005933590E-002   8.2535013184017694E-002   0.0000000000000000     
  -5.6495481075332414E-002   8.8730159662833819E-002   0.0000000000000000     
  -5.8479607480171024E-002   9.5091868027096238E-002   0.0000000000000000     
  -6.0398706220449391E-002  0.10162013827680499        0.0000000000000000     
  -6.2252777296167544E-002  0.10831497041196003        0.0000000000000000     
  -5.9721500692739307E-002   8.3171409116580164E-002   0.0000000000000000     
  -6.1947342521913175E-002   8.9349676320566770E-002   0.0000000000000000     
  -6.4102043841163941E-002   9.5691400039237276E-002   0.0000000000000000     
  -6.6185604650491614E-002  0.10219658027259168        0.0000000000000000     
  -6.8198024949896185E-002  0.10886521702063007        0.0000000000000000     
  -6.5299663666146535E-002   8.3859467332171353E-002   0.0000000000000000     
  -6.7660231146667527E-002   9.0016470240261187E-002   0.0000000000000000     
  -6.9953972519281343E-002   9.6335343224072348E-002   0.0000000000000000     
  -7.2180887783987957E-002  0.10281608628360485        0.0000000000000000     
  -7.4340976940787368E-002  0.10945869941885869        0.0000000000000000     
  -7.1180815926155244E-002   8.4599187830791303E-002   0.0000000000000000     
  -7.3634146949595483E-002   9.0730541421917082E-002   0.0000000000000000     
  -7.6035393514523208E-002   9.7023697581601440E-002   0.0000000000000000     
  -7.8384555620938379E-002  0.10347865630984442        0.0000000000000000     
  -8.0681633268841049E-002  0.11009541760664597        0.0000000000000000     
  -7.7364957472765478E-002   8.5390570612439987E-002   0.0000000000000000     
  -7.9869089930697038E-002   9.1491889865534443E-002   0.0000000000000000     
  -8.2346306826889523E-002   9.7756463111824579E-002   0.0000000000000000     
  -8.4796608161342935E-002  0.10418429035131038        0.0000000000000000     
  -8.7219993934057258E-002  0.11077537158399187        0.0000000000000000     
  -6.2252777296167544E-002  0.10831497041196003        0.0000000000000000     
  -6.4022445609164869E-002  0.11515336749884730        0.0000000000000000     
  -6.5688336061280800E-002  0.12211233260375266        0.0000000000000000     
  -6.7250448652515352E-002  0.12919186572667613        0.0000000000000000     
  -6.8708783382868496E-002  0.13639196686761770        0.0000000000000000     
  -6.8198024949896185E-002  0.10886521702063007        0.0000000000000000     
  -7.0118297571971647E-002  0.11567656542875605        0.0000000000000000     
  -7.1925415349311947E-002  0.12260988064237344        0.0000000000000000     
  -7.3619378281917086E-002  0.12966516266148226        0.0000000000000000     
  -7.5200186369787092E-002  0.13684241148608248        0.0000000000000000     
  -7.4340976940787368E-002  0.10945869941885869        0.0000000000000000     
  -7.6407836748213998E-002  0.11624344635243197        0.0000000000000000     
  -7.8355063964802282E-002  0.12315059080692282        0.0000000000000000     
  -8.0182658590552194E-002  0.13018013278233120        0.0000000000000000     
  -8.1890620625463761E-002  0.13733207227865721        0.0000000000000000     
  -8.0681633268841049E-002  0.11009541760664597        0.0000000000000000     
  -8.2891063137891935E-002  0.11685401026987510        0.0000000000000000     
  -8.4977281907751834E-002  0.12373446309740077        0.0000000000000000     
  -8.6940289578420663E-002  0.13073677608922302        0.0000000000000000     
  -8.8780086149898491E-002  0.13786094924534184        0.0000000000000000     
  -8.7219993934057258E-002  0.11077537158399187        0.0000000000000000     
  -8.9567976741005473E-002  0.11750825718108537        0.0000000000000000     
  -9.1792069178160560E-002  0.12436149751380733        0.0000000000000000     
  -9.3892271245522504E-002  0.13133509258215767        0.0000000000000000     
  -9.5868582943091307E-002  0.13842904238613646        0.0000000000000000     
  -6.8708783382868496E-002  0.13639196686761770        0.0000000000000000     
  -7.0088648053859587E-002  0.14371099334171814        0.0000000000000000     
  -7.1415350467007976E-002  0.15114730246411820        0.0000000000000000     
  -7.2688890622313665E-002  0.15870089423481790        0.0000000000000000     
  -7.3909268519776625E-002  0.16637176865381720        0.0000000000000000     
  -7.5200186369787092E-002  0.13684241148608248        0.0000000000000000     
  -7.6696902119389176E-002  0.14413922445739891        0.0000000000000000     
  -7.8138588037190634E-002  0.15155319891665636        0.0000000000000000     
  -7.9525244123191466E-002  0.15908433486385487        0.0000000000000000     
  -8.0856870377391643E-002  0.16673263229899443        0.0000000000000000     
  -8.1890620625463761E-002  0.13733207227865721        0.0000000000000000     
  -8.3508410499210650E-002  0.14460413571851427        0.0000000000000000     
  -8.5065488641466597E-002  0.15199404952451612        0.0000000000000000     
  -8.6561855052231546E-002  0.15950181369666269        0.0000000000000000     
  -8.7997509731505510E-002  0.16712742823495397        0.0000000000000000     
  -8.8780086149898491E-002  0.13786094924534184        0.0000000000000000     
  -9.0523173193323953E-002  0.14510572712506428        0.0000000000000000     
  -9.2196052279835752E-002  0.15246985428769741        0.0000000000000000     
  -9.3798723409433862E-002  0.15995333073324125        0.0000000000000000     
  -9.5331186582118255E-002  0.16755615646169580        0.0000000000000000     
  -9.5868582943091307E-002  0.13842904238613646        0.0000000000000000     
  -9.7741190201729139E-002  0.14564399867704891        0.0000000000000000     
  -9.9530278952298185E-002  0.15298061320620029        0.0000000000000000     
 -0.10123584919479842       0.16043888597359060        0.0000000000000000     
 -0.10285790092922983       0.16801881697921983        0.0000000000000000     
  -7.3909268519776625E-002  0.16637176865381720        0.0000000000000000     
  -7.5062909778822018E-002  0.17414475931003681        0.0000000000000000     
  -7.6136240018875020E-002  0.18200469979239758        0.0000000000000000     
  -7.7129259239935549E-002  0.18995159010089935        0.0000000000000000     
  -7.8041967442003674E-002  0.19798543023554233        0.0000000000000000     
  -8.0856870377391643E-002  0.16673263229899443        0.0000000000000000     
  -8.2118468485404994E-002  0.17448281691032666        0.0000000000000000     
  -8.3295040132845333E-002  0.18231961438610317        0.0000000000000000     
  -8.4386585319712687E-002  0.19024302472632412        0.0000000000000000     
  -8.5393104046007015E-002  0.19825304793098930        0.0000000000000000     
  -8.7997509731505510E-002  0.16712742823495397        0.0000000000000000     
  -8.9359259334216609E-002  0.17485482977086603        0.0000000000000000     
  -9.0633910515292945E-002  0.18266795493587507        0.0000000000000000     
  -9.1821463274734463E-002  0.19056680372998092        0.0000000000000000     
  -9.2921917612541205E-002  0.19855137615318377        0.0000000000000000     
  -9.5331186582118255E-002  0.16755615646169580        0.0000000000000000     
  -9.6785282325256933E-002  0.17526079789165502        0.0000000000000000     
  -9.8152851166217803E-002  0.18304972144171308        0.0000000000000000     
  -9.9433893105000934E-002  0.19092292711186995        0.0000000000000000     
 -0.10062840814160630       0.19888041490212566        0.0000000000000000     
 -0.10285790092922983       0.16801881697921983        0.0000000000000000     
 -0.10439653745852587       0.17570072127269354        0.0000000000000000     
 -0.10585186208561995       0.18346491390361735        0.0000000000000000     
 -0.10722387481051206       0.19131139487199120        0.0000000000000000     
 -0.10851257563320220       0.19924016417781509        0.0000000000000000     
  -7.8041967442003674E-002  0.19798543023554233        0.0000000000000000     
  -7.8878488471541955E-002  0.20610078532084145        0.0000000000000000     
  -7.9642946175013010E-002  0.21429222048131191        0.0000000000000000     
  -8.0335340552416826E-002  0.22255973571695370        0.0000000000000000     
  -8.0955671603753401E-002  0.23090333102776683        0.0000000000000000     
  -8.5393104046007015E-002  0.19825304793098930        0.0000000000000000     
  -8.6321800748356270E-002  0.20634421698410604        0.0000000000000000     
  -8.7179879863388390E-002  0.21451106486968152        0.0000000000000000     
  -8.7967341391103349E-002  0.22275359158771568        0.0000000000000000     
  -8.8684185331501172E-002  0.23107179713820863        0.0000000000000000     
  -9.2921917612541205E-002  0.19855137615318377        0.0000000000000000     
  -9.3943458731634469E-002  0.20661734454901595        0.0000000000000000     
  -9.4894271834935540E-002  0.21476038126100996        0.0000000000000000     
  -9.5774356922444404E-002  0.22298048628916586        0.0000000000000000     
  -9.6583713994161061E-002  0.23127765963348362        0.0000000000000000     
 -0.10062840814160630       0.19888041490212566        0.0000000000000000     
 -0.10174346242137655       0.20692016801557112        0.0000000000000000     
 -0.10278612208965446       0.21504016965529729        0.0000000000000000     
 -0.10375638714643996       0.22324041982130421        0.0000000000000000     
 -0.10465425759173311       0.23152091851359177        0.0000000000000000     
 -0.10851257563320220       0.19924016417781509        0.0000000000000000     
 -0.10972181181758252       0.20725268738377167        0.0000000000000000     
 -0.11085543062754513       0.21535043005254351        0.0000000000000000     
 -0.11191343206309005       0.22353339218413071        0.0000000000000000     
 -0.11289581612421729       0.23180157377853317        0.0000000000000000     
  -8.0955671603753401E-002  0.23090333102776683        0.0000000000000000     
  -8.1492651320845252E-002  0.23934317472623129        0.0000000000000000     
  -8.1934991695514936E-002  0.24789943512482715        0.0000000000000000     
  -8.2282692727762438E-002  0.25657211222355442        0.0000000000000000     
  -8.2535754417587731E-002  0.26536120602241303        0.0000000000000000     
  -8.8684185331501172E-002  0.23107179713820863        0.0000000000000000     
  -8.9315179494057206E-002  0.23949033561259303        0.0000000000000000     
  -8.9845091688246781E-002  0.24803386110230169        0.0000000000000000     
  -9.0273921914069938E-002  0.25670237360733456        0.0000000000000000     
  -9.0601670171526677E-002  0.26549587312769168        0.0000000000000000     
  -9.6583713994161061E-002  0.23127765963348362        0.0000000000000000     
  -9.7312377826257609E-002  0.23967704517954094        0.0000000000000000     
  -9.7950383194906052E-002  0.24820378681291561        0.0000000000000000     
  -9.8497730100106387E-002  0.25685788453360753        0.0000000000000000     
  -9.8954418541858616E-002  0.26563933834161679        0.0000000000000000     
 -0.10465425759173311       0.23152091851359177        0.0000000000000000     
 -0.10548424631744649       0.23990330342707508        0.0000000000000000     
 -0.10625086621549271       0.24840921225666887        0.0000000000000000     
 -0.10695411728587173       0.25703864500237333        0.0000000000000000     
 -0.10759399952858363       0.26579160166418830        0.0000000000000000     
 -0.11289581612421729       0.23180157377853317        0.0000000000000000     
 -0.11383078496762385       0.24016911035519534        0.0000000000000000     
 -0.11474654075000676       0.24865013743356154        0.0000000000000000     
 -0.11564308347136604       0.25724465501363181        0.0000000000000000     
 -0.11652041313170167       0.26595266309540616        0.0000000000000000     
  -8.2535754417587731E-002  0.26536120602241303        0.0000000000000000     
  -8.2733234432062763E-002  0.27429316542724924        0.0000000000000000     
  -8.2914190438259414E-002  0.28339443934390929        0.0000000000000000     
  -8.3078622436177696E-002  0.29266502777239312        0.0000000000000000     
  -8.3226530425817638E-002  0.30210493071270073        0.0000000000000000     
  -9.0601670171526677E-002  0.26549587312769168        0.0000000000000000     
  -9.0858775134537106E-002  0.27447760927732801        0.0000000000000000     
  -9.1075675477021362E-002  0.28371083167019856        0.0000000000000000     
  -9.1252371198979471E-002  0.29319554030630329        0.0000000000000000     
  -9.1388862300411405E-002  0.30293173518564231        0.0000000000000000     
  -9.8954418541858616E-002  0.26563933834161679        0.0000000000000000     
  -9.9331597725674139E-002  0.27464686362654145        0.0000000000000000     
  -9.9640416857064290E-002  0.28397917577798004        0.0000000000000000     
  -9.9880875936029054E-002  0.29363627479593218        0.0000000000000000     
 -0.10005297496256844       0.30361816068039815        0.0000000000000000     
 -0.10759399952858363       0.26579160166418830        0.0000000000000000     
 -0.10815170220547393       0.27480092847488968        0.0000000000000000     
 -0.10860841457838823       0.28419947166725357        0.0000000000000000     
 -0.10896413664732650       0.29398723124127973        0.0000000000000000     
 -0.10921886841228876       0.30416420719696841        0.0000000000000000     
 -0.11652041313170167       0.26595266309540616        0.0000000000000000     
 -0.11731908857393646       0.27493980382237260        0.0000000000000000     
 -0.11797966864099314       0.28437171933801925        0.0000000000000000     
 -0.11850215333287178       0.29424840964234600        0.0000000000000000     
 -0.11888654264957234       0.30456987473535291        0.0000000000000000     
 </DataArray>
 <DataArray  type="Float64" Name="stress" NumberOfComponents="3" format="ascii">
   7408981463.2132616        487027990.88419366        363009572.04241049     
   6742422935.0697269        297649245.04357433        3388991.5914447471     
   6081835277.1698132        128173400.01505327       -218121011.74438256     
   5427218489.5135555       -21399544.201300621       -301520437.96506375     
   4778572572.1009216       -151069587.60556889       -246809287.07060912     
   6037627421.7914619        163866663.07845926        403952299.78907275     
   5709056630.7291393        88809140.284482241        161188681.06332639     
   5384273606.2128258        26377505.977160692        13923231.504933473     
   5063278348.2425060       -23428239.843497276       -37844048.886120066     
   4746070856.8181705       -60608097.177527189        5886839.8901747484     
   5044760887.7177706       -45748412.522846699        451139620.81664467     
   4932428096.7429867       -43009633.368266344        322686009.50221807     
   4821699968.6165438       -34921978.052510262        247118159.40733564     
   4712576503.3384562       -21485446.575577021        224436070.53199613     
   4605057700.9087191       -2700038.9374783039        254639742.87621042     
   4430381860.9922132       -141817235.91971207        504571535.12513888     
   4412537333.1112309       -97807075.914698601        487880976.90810114     
   4394114364.3809624       -55725052.073982239        481463771.96281624     
   4375112954.8014040       -15571164.397569418        485319920.28928900     
   4355533104.3725567        22654587.114548922        499449421.88749743     
   4194490341.6147690       -124339807.11214018        564248042.71453881     
   4149384339.8338952       -75583187.354809523        656773583.28098917     
   4101516793.5060906       -36031716.087240934        716960069.17138493     
   4050887702.6313548       -5685393.3094480038        744807500.38574052     
   3997497067.2096810        15455780.978565216        740315876.92404103     
   4778572572.1009216       -151069587.60556889       -246809287.07060912     
   4749032590.4903574       -89534296.294876575       -139996067.77487496     
   4717130675.3225393       -35872116.841696501       -58177347.544910654     
   4682866826.5974712        9916950.7539844513       -1353126.3807188021     
   4646241044.3151464        47832906.492144823        30476595.717703164     
   4746070856.8181705       -60608097.177527189        5886839.8901747484     
   4654856130.5387411       -26378379.159761906        76946949.405688643     
   4562235008.5759363        3163353.2467818260        131860732.84774925     
   4468207490.9297609        28017100.042069197        170628190.21636745     
   4372773577.6002274        48182861.226171494        193249321.51151702     
   4605057700.9087191       -2700038.9374783039        254639742.87621042     
   4477448724.2241793        11808254.066475391        291061536.79770321     
   4349388889.7301521        24813687.705478668        320185177.63807058     
   4220878197.4266496        36316261.979560375        342010665.39729595     
   4091916647.3136606        46315976.888694525        356538000.07538396     
   4355533104.3725567        22654587.114548922        499449421.88749743     
   4216810371.5466752        25025603.383820057        502347694.40118080     
   4078592318.7851906        29078886.534431934        506795986.82604086     
   3940878946.0881157        34814436.566404343        512794299.16209048     
   3803670253.4554482        42232253.479728699        520342631.40932167     
   3997497067.2096810        15455780.978565216        740315876.92404103     
   3872941072.5062199        13273668.792273045        710805422.21610403     
   3749845295.7410522        15958949.733631849        691693160.41167307     
   3628209736.9141731        23511623.802620888        682979091.51073933     
   3508034396.0255909        35931690.999269247        684663215.51331055     
   4646241044.3151464        47832906.492144823        30476595.717703164     
   4398902453.5273266        21156572.009720325        15081808.637111668     
   4153016929.7018852       -676205.93144106865        225477.81034199821     
   3908584472.8387942       -17665427.331432104       -14092396.762582781     
   3665605082.9380875       -29811092.190144062       -27871815.081685729     
   4372773577.6002274        48182861.226171494        193249321.51151702     
   4129511840.9193044        23217449.542628527        177467305.57486066     
   3887140351.0016351        1219527.0699210167        163888046.66686040     
   3645659107.8471899       -17810906.192027092        152511544.78751844     
   3405068111.4560013       -33873850.243122101        143337799.93683195     
   4091916647.3136606        46315976.888694525        356538000.07538396     
   3857486909.8105693        24488031.525330782        339712131.71702778     
   3623384598.8715858        3751508.0423383713        326753321.16214788     
   3389609714.4967175       -15893593.560275555        317661568.41074657     
   3156162256.6859741       -34447273.282472253        312436873.46282119     
   3803670253.4554482        42232253.479728699        520342631.40932167     
   3582827660.2011032        24968317.957796335        501816287.06361079     
   3361749673.3117480        6919736.9858417511        488821301.29619366     
   3140436292.7873755       -11913489.436168432        481357674.10708183     
   2918887518.6279945       -31531361.308220029        479425405.49627775     
   3508034396.0255909        35931690.999269247        684663215.51331055     
   3305534092.0909157        24658308.840057254        663779771.61459982     
   3102235574.3221006        10724213.900370598        650091987.06900883     
   2898138842.7191486       -5870593.8197578192        643599861.87654221     
   2693243897.2820697       -25126114.320331335        644303396.03720808     
   3665605082.9380875       -29811092.190144062       -27871815.081685729     
   3509491217.7361732       -16366573.519599915       -34323533.209807284     
   3351614742.3540711       -8797422.1163725853       -29772182.097078573     
   3191975656.7918077       -7103637.9803478718       -14217761.743506650     
   3030573961.0493321       -11285221.111674190        12339727.850924503     
   3405068111.4560013       -33873850.243122101        143337799.93683195     
   3274955849.1176810       -17329255.279411554        137843133.83134121     
   3143599879.8835764       -4930349.9682981968        140631229.23549557     
   3011000203.7536712        3322865.6901423931        151702086.14929125     
   2877156820.7279954        7430391.6960136890        171055704.57271928     
   3156162256.6859741       -34447273.282472253        312436873.46282119     
   3044279289.4077926       -17134294.366615176        308504646.54509443     
   2931671518.5182204       -2237327.4887232780        310134873.40579194     
   2818338944.0172586        10243627.351202726        317327554.04494250     
   2704281565.9049077        20308570.153163195        330082688.46251512     
   2918887518.6279945       -31531361.308220029        479425405.49627775     
   2817461538.6065011       -15781690.781252980        477661004.93144363     
   2715829658.2580175       -718354.67760872841        478738750.41383982     
   2613991877.5825429        13658647.002752066        482658641.94346005     
   2511948196.5800791        27349314.259796977        489420679.52031076     
   2693243897.2820697       -25126114.320331335        644303396.03720808     
   2594502596.7138152       -13271444.523319006        645312208.99040234     
   2496074299.1029758       -373431.53491902351        646442860.25960720     
   2397959004.4495306        13567924.644802690        647695349.84484315     
   2300156712.7535043        28552624.015900254        649069677.74609208     
   3030573961.0493321       -11285221.111674190        12339727.850924503     
   2869289307.3455019       -15967669.302082777        13866908.726874076     
   2709413871.9510751       -15952723.127800226        11989883.256110415     
   2550947654.8660173       -11240382.588953853        6708651.4386360813     
   2393890656.0903816       -1830647.6853775978       -1976786.7255566102     
   2877156820.7279954        7430391.6960136890        171055704.57271928     
   2709058481.6458049        950845.75356853008        168191544.81354001     
   2541999068.0541172       -2065615.2205220461        163905009.82203132     
   2375978579.9529338       -1618991.2262654305        158196099.59820658     
   2210997017.3422451        2290717.7362849712        151064814.14205366     
   2704281565.9049077        20308570.153163195        330082688.46251512     
   2535031916.0569153        13730638.842448950        322395179.77948540     
   2366450898.8805294        9381483.1037670374        315267126.97852665     
   2198538514.3757544        7261102.9371275902        308698530.05964500     
   2031294762.5426004        7369498.3425418139        302689389.02284515     
   2511948196.5800791        27349314.259796977        489420679.52031076     
   2347209610.5788422        22371709.964580774        476477813.62472022     
   2182769364.4303226        18388571.845090628        466076234.72561318     
   2018627458.1345243        15399899.901338696        458215942.82296491     
   1854783891.6914480        13405694.133323073        452896937.91679406     
   2300156712.7535043        28552624.015900254        649069677.74609208     
   2145591565.2115846        26874059.119957089        630439446.34924531     
   1990954464.7034864        24955651.003413558        616332333.06327283     
   1836245411.2292266        22797399.666326761        606748337.88816583     
   1681464404.7887845        20399305.108637571        601687460.82391262     
   2393890656.0903816       -1830647.6853775978       -1976786.7255566102     
   2251773646.6408525        8604531.3943858147       -9022114.0258592498     
   2105968373.1973782        6745497.1609668732       -13066830.710763464     
   1956474835.7599175       -7407750.3857189417       -14110936.780289749     
   1803293034.3284948       -33855211.245622396       -12154432.234427854     
   2210997017.3422451        2290717.7362849712        151064814.14205366     
   2075136464.4431422        12640049.940111160        140911229.92482105     
   1936722691.7641461        14478649.544271231        132589504.79463819     
   1795755699.3052778        7806516.5488628149        126099638.75154741     
   1652235487.0664802       -7376349.0462989807        121441631.79553203     
   2031294762.5426004        7369498.3425418139        302689389.02284515     
   1898351376.1130097        16631196.646109819        290751766.13841230     
   1763989814.1176105        21165643.063661098        279477250.81274021     
   1628210076.5563872        20972837.595115304        268865843.04582310     
   1491012163.4293442        16052780.240521133        258917542.83767179     
   1854783891.6914480        13405694.133323073        452896937.91679406     
   1721418381.6504641        20577971.512384534        440499494.61493570     
   1587769740.2577441        26806477.719013572        427596407.34351254     
   1453837967.5132680        32091212.753126264        414187676.10252875     
   1319623063.4170642        36432176.614794731        400273300.89198530     
   1681464404.7887845        20399305.108637571        601687460.82391262     
   1544337481.0555005        24480374.538947165        590154415.35437143     
   1408062470.1845450        31401153.510362923        576946974.38695443     
   1272639372.1759236        41161642.022875428        562065137.92166495     
   1138068187.0296354        53761840.076510429        545508905.95848823     
   1803293034.3284948       -33855211.245622396       -12154432.234427854     
   1771550822.2205024       -16868667.906880736       -7128146.0309914080     
   1748113661.4042563        27801379.737681866       -40967168.205511361     
   1732981551.8797526        100154931.68805689       -113671498.75800563     
   1726154493.6469970        200191987.94424856       -225241137.68844095     
   1652235487.0664802       -7376349.0462989807        121441631.79553203     
   1528622014.3097749       -13817165.427640557        136542647.88732943     
   1409388153.0049067       -5659276.9694902897        125245085.63960642     
   1294533903.1518636        17097316.328069508        87548945.052395642     
   1184059264.7506809        54452614.465164661        23454226.125678539     
   1491012163.4293442        16052780.240521133        258917542.83767179     
   1311146658.7051983       -3129627.2565782666        279513609.00459808     
   1131735325.5930054       -20798129.380493045        286177826.87048537     
   952778164.09275329       -36952726.131270468        278910196.43532830     
   774275174.20444965       -51593417.508880407        257710717.69912651     
   1319623063.4170642        36432176.614794731        400273300.89198530     
   1119124755.4067936        15193946.606347203        421784737.32083946     
   915155179.16858208       -17615177.495233119        441831055.48711389     
   707714334.70241582       -61995195.689985454        460412255.39080352     
   496802222.00831133       -117946107.97789106        477528337.03191000     
   1138068187.0296354        53761840.076510429        545508905.95848823     
   952556304.41455197        41153556.161131561        563356032.83606577     
   759647713.73163295        3889578.6862790287        592204771.48951542     
   559342414.98086393       -58030092.348062336        632055121.91883266     
   351640408.16224843       -144605456.94189236        682907084.12402320     
   1726154493.6469970        200191987.94424856       -225241137.68844095     
   1456378471.9769425        184865658.15047294       -97101852.687617391     
   1154245510.8709180        61682863.570151687        60110255.642393976     
   819755610.32893836       -169356395.79671389        246395187.30162388     
   452908770.35096931       -508252119.95017743        461752942.29007232     
   1184059264.7506809        54452614.465164661        23454226.125678539     
   977432677.39866614        12014412.555453062        155221116.37803909     
   732834446.48827600       -156995934.54883280        312748257.11106604     
   450264572.01952171       -452578426.84766507        496035648.32474542     
   129723053.99238992       -874733064.34110057        705083290.01908350     
   774275174.20444965       -51593417.508880407        257710717.69912651     
   621333527.31745231       -123982839.69046801        386554725.06025207     
   424805532.74968541       -341660087.47461510        537846410.05348039     
   184691190.50114745       -704625160.86135030        711585772.67878664     
  -99009499.428153276       -1212878059.8505864        907772812.93622243     
   496802222.00831133       -117946107.97789106        477528337.03191000     
   388081021.73331010       -223126098.58728427        596898973.35899496     
   230158769.65515766       -492309595.20715857        735404714.46961844     
   23035465.773830116       -925496597.83764184        893045560.36379683     
  -233288889.91066340       -1522687106.4786756        1069821511.0415251     
   351640408.16224843       -144605456.94189236        682907084.12402320     
   277675160.64625371       -285415364.13492149        786253861.27426040     
   148894157.20468932       -608944457.74651086        905423170.35950267     
  -34702602.162447929       -1115192737.7766683        1040415011.3797241     
  -273115117.45513707       -1804160204.2253537        1191229384.3349352     
   4194490341.6147690       -124339807.11214018        564248042.71453881     
   4149384339.8338952       -75583187.354809523        656773583.28098917     
   4101516793.5060906       -36031716.087240934        716960069.17138493     
   4050887702.6313548       -5685393.3094480038        744807500.38574052     
   3997497067.2096810        15455780.978565216        740315876.92404103     
   4102308214.8400521       -23489286.647303820        730152745.36520767     
   3979327472.7505159       -9695221.9524326324        785287170.80865252     
   3854569528.2549992       -1825165.2775163651        820925286.47435570     
   3728034381.3534956        120883.37743997574        837067092.36232984     
   3599722032.0460014       -3857075.9875586033        833712588.47257125     
   3892512130.3997169        42077046.517847538        891021658.82986343     
   3728350204.8538609        31916623.205954313        909913368.31473577     
   3563395419.0429602        19113332.343918562        922151512.92018604     
   3397647772.9670172        3667173.9317438602        927736092.64621735     
   3231107266.6260352       -14421852.030570269        926667107.49283290     
   3565102088.2937770        72359192.383316755        1046854783.1085055     
   3396452536.1439219        49252348.120356679        1030652175.7992405     
   3227994465.8699713        26783776.777072549        1020638748.5088710     
   3059727877.4719214        4953478.3534617424        1016814501.2373976     
   2891652770.9497743       -16238547.150472760        1019179433.9848210     
   3120078088.5222297        67357150.949105382        1197652118.2011395     
   2983634466.6207099        42311952.790777802        1147503593.2621741     
   2848366668.7360344        21186168.021939874        1116386993.2404106     
   2714274694.8682065        3979796.6425942183        1104302318.1358716     
   2581358545.0172286       -9307161.3472536802        1111249567.9485426     
   3997497067.2096810        15455780.978565216        740315876.92404103     
   3872941072.5062199        13273668.792273045        710805422.21610403     
   3749845295.7410522        15958949.733631849        691693160.41167307     
   3628209736.9141731        23511623.802620888        682979091.51073933     
   3508034396.0255909        35931690.999269247        684663215.51331055     
   3599722032.0460014       -3857075.9875586033        833712588.47257125     
   3501139719.4677496        182939.40694308281        814823918.00753367     
   3403740519.4542065        8166663.3504717350        804080934.52436090     
   3307524432.0053716        20094095.843032956        801483638.02304828     
   3212491457.1212535        35965236.884634972        807032028.50359869     
   3231107266.6260352       -14421852.030570269        926667107.49283290     
   3152062904.9683075       -6090428.4166884422        918076931.66817653     
   3073924550.5017090        5261019.1676200628        915379936.90374625     
   2996692203.2262316        19632490.722340345        918576123.19954002     
   2920365863.1418829        37023986.247480869        927665490.55555511     
   2891652770.9497743       -16238547.150472760        1019179433.9848210     
   2825710629.0078945       -5546434.6786029339        1020564463.1980370     
   2760397388.8835578        7242017.1850737333        1025590167.5498364     
   2695713050.5767570        22126808.440539598        1034256547.0402151     
   2631657614.0875020        39107939.087822080        1046563601.6691864     
   2581358545.0172286       -9307161.3472536802        1111249567.9485426     
   2522082891.5865102        1814920.6211843491        1122286512.5971103     
   2463159034.5997477        14109657.402819514        1134711626.4626217     
   2404586974.0569468        27577048.997650743        1148524909.5450807     
   2346366709.9581003        42217095.405670285        1163726361.8444867     
   3508034396.0255909        35931690.999269247        684663215.51331055     
   3305534092.0909157        24658308.840057254        663779771.61459982     
   3102235574.3221006        10724213.900370598        650091987.06900883     
   2898138842.7191486       -5870593.8197578192        643599861.87654221     
   2693243897.2820697       -25126114.320331335        644303396.03720808     
   3212491457.1212535        35965236.884634972        807032028.50359869     
   3028218322.1074400        25891834.359860778        786183483.59018123     
   2843307681.8734651        13693414.434517264        771883260.11635256     
   2657759536.4193068       -630022.89141368866        764131358.08211291     
   2471573885.7449808       -17078477.617912769        762927777.48747826     
   2920365863.1418829        37023986.247480869        927665490.55555511     
   2752470360.1531401        27595702.288421273        907039338.01038647     
   2584098060.5581822        16578096.308655620        892314168.99128211     
   2415248964.3570180        3971168.3081994057        883489983.49823236     
   2245923071.5496416       -10225081.712965608        880566781.53124261     
   2631657614.0875020        39107939.087822080        1046563601.6691864     
   2478290206.2280059        29769912.625725985        1026347334.8752266     
   2324606710.3762670        19378259.522809744        1011384713.6937985     
   2170607126.5322800        7932979.7790695429        1001675738.1248914     
   2016291454.6960442       -4565926.6054912806        997220408.16851830     
   2346366709.9581003        42217095.405670285        1163726361.8444867     
   2205677860.3320484        32414465.371790528        1144107474.1846960     
   2064833631.3277147        22093904.076972842        1129094894.2238963     
   1923834022.9450972        11255411.521213889        1118688621.9620919     
   1782679035.1841953       -101012.29549896717        1112888657.3992863     
   2693243897.2820697       -25126114.320331335        644303396.03720808     
   2594502596.7138152       -13271444.523319006        645312208.99040234     
   2496074299.1029758       -373431.53491902351        646442860.25960720     
   2397959004.4495306        13567924.644802690        647695349.84484315     
   2300156712.7535043        28552624.015900254        649069677.74609208     
   2471573885.7449808       -17078477.617912769        762927777.48747826     
   2373885268.5599680       -7422235.2377640009        763463549.17021728     
   2276541137.0741467        3382292.8063697815        765194568.38946760     
   2179541491.2875276        15335106.514507890        768120835.14524114     
   2082886331.2001064        28436205.886634946        772242349.43753862     
   2245923071.5496416       -10225081.712965608        880566781.53124261     
   2152354021.2349949       -1847201.7035617828        880666241.80895329     
   2059160939.3613434        7783906.4424862862        883034358.84367752     
   1966343825.9286730        18668242.725144267        887671132.63541698     
   1873902680.9369931        30805807.144444942        894576563.18416953     
   2016291454.6960442       -4565926.6054912806        997220408.16851830     
   1929908854.7389078        3453656.0793138742        996920286.90661359     
   1843933705.9645522        12831409.373389721        999962231.62222731     
   1758366008.3729770        23567333.276734829        1006346242.3153486     
   1673205761.9641819        35661427.789344072        1016072318.9859874     
   1782679035.1841953       -101012.29549896717        1112888657.3992863     
   1706549769.0717049        8480338.1108579636        1112225684.4631982     
   1630859436.8837864        18524801.599115908        1115978186.7251241     
   1555608038.6204336        30032378.169265032        1124146164.1850626     
   1480795574.2816610        43003067.821336806        1136729616.8430088     
   2300156712.7535043        28552624.015900254        649069677.74609208     
   2145591565.2115846        26874059.119957089        630439446.34924531     
   1990954464.7034864        24955651.003413558        616332333.06327283     
   1836245411.2292266        22797399.666326761        606748337.88816583     
   1681464404.7887845        20399305.108637571        601687460.82391262     
   2082886331.2001064        28436205.886634946        772242349.43753862     
   1940200883.5223863        28184063.840314746        756326286.35276747     
   1797471507.1951256        27785492.962213039        744696161.31813943     
   1654698202.2183335        27240493.252328575        737351974.33365929     
   1511880968.5919991        26549064.710632920        734293725.39931786     
   1873902680.9369931        30805807.144444942        894576563.18416953     
   1742419275.8071263        31776790.752880573        881407363.44755375     
   1610919966.3443496        32694759.918300331        872286921.70035374     
   1479404752.5486767        33559714.640714467        867215237.94256556     
   1347873634.4200888        34371654.920097470        866192312.17419660     
   1673205761.9641819        35661427.789344072        1016072318.9859874     
   1552246742.0658009        37652239.857603431        1005682677.6335957     
   1431299842.1511562        39683451.871649563        999104614.20989370     
   1310365062.2202413        41755063.831460178        996338128.71487808     
   1189442402.2730482        43867075.737013042        997383221.14856553     
   1480795574.2816610        43003067.821336806        1136729616.8430088     
   1369683282.2984216        45810411.154543400        1129152228.9109046     
   1258611134.6155410        48751568.822278857        1125149238.8467720     
   1147579131.2330282        51826540.824570894        1124720646.6506059     
   1036587272.1508771        55035327.161402762        1127866452.3224099     
   1681464404.7887845        20399305.108637571        601687460.82391262     
   1544337481.0555005        24480374.538947165        590154415.35437143     
   1408062470.1845450        31401153.510362923        576946974.38695443     
   1272639372.1759236        41161642.022875428        562065137.92166495     
   1138068187.0296354        53761840.076510429        545508905.95848823     
   1511880968.5919991        26549064.710632920        734293725.39931786     
   1371756251.4976687        26732380.097444952        726231793.74426758     
   1231719631.6037898        27209352.819104314        718437744.39632571     
   1091771108.9103608        27979982.875604749        710911577.35549879     
   951910683.41739571        29044270.266960919        703653292.62178683     
   1347873634.4200888        34371654.920097470        866192312.17419660     
   1210300489.1218126        32322025.810522199        860710376.06145167     
   1072051625.3621192        28020001.829552829        857438600.06080651     
   933127043.14100218        21465582.977175474        856376984.17225790     
   793526742.45847011        12658769.253412366        857525528.39580655     
   1189442402.2730482        43867075.737013042        997383221.14856553     
   1059970193.9279439        41249311.678205609        993590162.30593157     
   929058451.45953345        33833100.541729331        993949541.38038683     
   796707174.86783373        21618442.327616572        998461358.37192976     
   662916364.15284061        4605337.0358525813        1007125613.2805593     
   1036587272.1508771        55035327.161402762        1127866452.3224099     
   920765365.91604376        53514237.700466245        1124871152.4777038     
   802740109.89604688        44648648.955653816        1127970568.3550820     
   682511504.09086919        28438560.926910013        1137164699.9545281     
   560079548.50052798        4883973.6142878234        1152453547.2760503     
   1138068187.0296354        53761840.076510429        545508905.95848823     
   952556304.41455197        41153556.161131561        563356032.83606577     
   759647713.73163295        3889578.6862790287        592204771.48951542     
   559342414.98086393       -58030092.348062336        632055121.91883266     
   351640408.16224843       -144605456.94189236        682907084.12402320     
   951910683.41739571        29044270.266960919        703653292.62178683     
   792325199.29984629        11336542.332340270        721469469.77052820     
   624176124.96739042       -34916486.318632424        749404213.37671363     
   447463460.42001283       -109714815.68602341        787457523.44033682     
   262187205.65772349       -213058445.76976472        835629399.96140850     
   793526742.45847011        12658769.253412366        857525528.39580655     
   657344670.21436441       -10905298.687655568        873949393.31080520     
   511432125.60828137       -66904274.502008885        899608779.36481011     
   355789108.64020365       -155338158.18965816        934503686.55781484     
   190415619.31014565       -276206949.75058627        978634114.88984251     
   662916364.15284061        4605337.0358525813        1007125613.2805593     
   547614717.15810061       -25571966.898900151        1020795803.4568974     
   421415715.65429902       -92073785.863848090        1042818469.4538022     
   284319359.64144474       -194900119.85897142        1073193611.2712842     
   136325649.11953008       -334050968.88429582        1111921228.9093511     
   560079548.50052798        4883973.6142878234        1152453547.2760503     
   463135340.13105398       -32663462.301376224        1162008700.2087977     
   354126895.10545331       -110425020.40413468        1179033283.6436903     
   233054213.42372027       -228400700.69399300        1203527297.5807307     
   99917295.085861504       -386590503.17094791        1235490742.0199180     
   351640408.16224843       -144605456.94189236        682907084.12402320     
   277675160.64625371       -285415364.13492149        786253861.27426040     
   148894157.20468932       -608944457.74651086        905423170.35950267     
  -34702602.162447929       -1115192737.7766683        1040415011.3797241     
  -273115117.45513707       -1804160204.2253537        1191229384.3349352     
   262187205.65772349       -213058445.76976472        835629399.96140850     
   223541663.81807631       -352514781.38930571        884981671.13821518     
   140645259.83338219       -639473990.82564223        945368052.07563293     
   13497993.703661621       -1073936074.0787611        1016788542.7736851     
  -157900134.57108903       -1655901031.1486304        1099243143.2323587     
   190415619.31014565       -276206949.75058627        978634114.88984251     
   173408576.93435335       -418414075.66039371        986317589.50383437     
   122715566.19405583       -672907762.78520584        1000246751.7040867     
   38336587.089260757       -1039688011.1250105        1020421601.4905818     
  -79728360.380031705       -1518754820.6798177        1046842138.8633455     
   136325649.11953008       -334050968.88429582        1111921228.9093511     
   127275899.99510697       -483113246.94813198        1090261616.3711600     
   95105076.286721617       -709245773.62515855        1070059269.2448505     
   39813177.994367719       -1012448548.9154191        1051314187.5304325     
  -38599794.881953359       -1392721572.8188987        1034026371.2278788     
   99917295.085861504       -386590503.17094791        1235490742.0199180     
   85143633.000332117       -546612295.25250876        1196813751.7401640     
   57813790.111367375       -748488023.34552073        1154805604.6979249     
   17927766.418976426       -992217687.44996166        1109466300.8931797     
  -34514438.076856971       -1277801287.5658607        1060795840.3259745     
   3120078088.5222297        67357150.949105382        1197652118.2011395     
   2983634466.6207099        42311952.790777802        1147503593.2621741     
   2848366668.7360344        21186168.021939874        1116386993.2404106     
   2714274694.8682065        3979796.6425942183        1104302318.1358716     
   2581358545.0172286       -9307161.3472536802        1111249567.9485426     
   2630778068.4923253        15449748.883051395        1244723662.3741553     
   2541198598.9514289        4409092.6554446220        1211173031.6227672     
   2452655302.6813574       -3177652.6694052219        1191408006.5552578     
   2365148179.6821127       -7310487.0914989710        1185428587.1716123     
   2278677229.9536958       -7989410.6108404398        1193234773.4718397     
   2192708682.8998933       -21088462.851765871        1291855629.5679371     
   2135003882.1957812       -22621422.205798626        1274739967.1337819     
   2078195604.0164769       -21165973.143812060        1266163591.1501532     
   2022283848.3619761       -16722115.665806770        1266126501.6170518     
   1967268615.2322819       -9289849.7717846632        1274628698.5344782     
   1805869931.7449241       -42257484.255341768        1339048019.7824907     
   1765050316.3537657       -38779591.792951226        1338204399.7952073     
   1724987572.7413876       -32778793.401282787        1340653747.0251055     
   1685681700.9077969       -24255089.080328345        1346396061.4721880     
   1647132700.8529930       -13208478.830089688        1355431343.1364546     
   1470261815.0274277       -48057315.327675760        1386300833.0178134     
   1431337901.4253798       -44065416.106018305        1401566329.6070445     
   1393031208.8560948       -38016113.441813827        1414878474.1801105     
   1355341737.3195763       -29909407.335059285        1426237266.7370210     
   1318269486.8158183       -19745297.785767257        1435642707.2777708     
   2581358545.0172286       -9307161.3472536802        1111249567.9485426     
   2522082891.5865102        1814920.6211843491        1122286512.5971103     
   2463159034.5997477        14109657.402819514        1134711626.4626217     
   2404586974.0569468        27577048.997650743        1148524909.5450807     
   2346366709.9581003        42217095.405670285        1163726361.8444867     
   2278677229.9536958       -7989410.6108404398        1193234773.4718397     
   2223412318.5035620        2513725.6241170168        1201743879.5811603     
   2168311397.4776340        13563496.606428623        1212092836.2432482     
   2113374466.8759215        25159902.336117864        1224281643.4581077     
   2058601526.6984146        37302942.813168645        1238310301.2257454     
   1967268615.2322819       -9289849.7717846632        1274628698.5344782     
   1917304963.8650877        981496.16038012505        1280390859.0815103     
   1867317496.9023559        11173456.774088383        1288444551.5171402     
   1817306214.3440847        21286032.069338441        1298789775.8413649     
   1767271116.1902807        31319222.046135902        1311426532.0541840     
   1647132700.8529930       -13208478.830089688        1355431343.1364546     
   1603760827.6710923       -2781767.7700073123        1358227451.0981643     
   1560177332.8739085        6939537.9057989120        1363766772.2842929     
   1516382216.4614418        15955438.197322011        1372049306.6948442     
   1472375478.4336891        24265933.104567647        1383075054.3298144     
   1318269486.8158183       -19745297.785767257        1435642707.2777708     
   1282779909.9215729       -8776066.1670518517        1435253655.6311169     
   1246890905.3922956        861740.00155752897        1438059498.5447083     
   1210602473.2279871        9168120.7200605869        1444060236.0185454     
   1173914613.4286468        16143075.988460720        1453255868.0526233     
   2346366709.9581003        42217095.405670285        1163726361.8444867     
   2205677860.3320484        32414465.371790528        1144107474.1846960     
   2064833631.3277147        22093904.076972842        1129094894.2238963     
   1923834022.9450972        11255411.521213889        1118688621.9620919     
   1782679035.1841953       -101012.29549896717        1112888657.3992863     
   2058601526.6984146        37302942.813168645        1238310301.2257454     
   1931022461.5611322        27673114.746456385        1217699789.9103839     
   1803324880.0287480        17648232.029409289        1202527543.1257374     
   1675508782.1012754        7228294.6620693207        1192793560.8718052     
   1547574167.7787092       -3586697.3555908203        1188497843.1485808     
   1767271116.1902807        31319222.046135902        1311426532.0541840     
   1655178855.0609546        22575301.802323878        1289867403.8969755     
   1543004940.5197279        13559203.518832922        1274578497.1022034     
   1430749372.5665934        4270927.1956600547        1265559811.6698618     
   1318412151.2015564       -5289527.1671928763        1262811347.5999541     
   1472375478.4336891        24265933.104567647        1383075054.3298144     
   1378147040.8315260        17121026.539420903        1360610316.1444786     
   1283873812.8006506        9826818.5452362299        1345247756.1532984     
   1189555794.3410602        2383309.1220020056        1336987374.3562691     
   1095192985.4527545       -5209501.7302879691        1335829170.7533913     
   1173914613.4286468        16143075.988460720        1453255868.0526233     
   1099927018.8728452        11310288.957749009        1429928526.6528876     
   1025931496.8715184        6451077.1086229682        1414535320.2790217     
   951928047.42466617        1565440.4410767555        1407076248.9310305     
   877916670.53229129       -3346621.0448780060        1407551312.6089041     
   1782679035.1841953       -101012.29549896717        1112888657.3992863     
   1706549769.0717049        8480338.1108579636        1112225684.4631982     
   1630859436.8837864        18524801.599115908        1115978186.7251241     
   1555608038.6204336        30032378.169265032        1124146164.1850626     
   1480795574.2816610        43003067.821336806        1136729616.8430088     
   1547574167.7787092       -3586697.3555908203        1188497843.1485808     
   1482439941.8658147        4888825.8706484437        1190238874.8785579     
   1417721198.5376940        14749291.046130180        1196046576.2979267     
   1353417937.7943337        25994698.170815647        1205920947.4066951     
   1289530159.6357455        38625047.244735360        1219861988.2048657     
   1318412151.2015564       -5289527.1671928763        1262811347.5999541     
   1263276378.3207986        2781192.7287062407        1266929024.0995507     
   1208532636.6850038        12158683.441157699        1274764564.7799265     
   1154180926.2941709        22842944.970143795        1286317969.6410904     
   1100221247.1483028        34833977.315685749        1301589238.6830316     
   1095192985.4527545       -5209501.7302879691        1335829170.7533913     
   1049059078.4366554        2157438.6850267053        1342296132.1261752     
   1003293751.3257177        10752978.784203529        1352132152.1711237     
   957897004.11994290        20577118.567257524        1365337230.8882446     
   912868836.81932592        31629858.034177572        1381911368.2775297     
   877916670.53229129       -3346621.0448780060        1407551312.6089041     
   839788042.21338665        3017563.7396094799        1416340198.9584315     
   802004542.45984161        10532177.075289756        1428149338.4715149     
   764566171.27164769        19197218.962142199        1442978731.1481533     
   727472928.64881527        29012689.400202602        1460828376.9883485     
   1480795574.2816610        43003067.821336806        1136729616.8430088     
   1369683282.2984216        45810411.154543400        1129152228.9109046     
   1258611134.6155410        48751568.822278857        1125149238.8467720     
   1147579131.2330282        51826540.824570894        1124720646.6506059     
   1036587272.1508771        55035327.161402762        1127866452.3224099     
   1289530159.6357455        38625047.244735360        1219861988.2048657     
   1188245033.4915152        40545876.454036534        1213254032.5997024     
   1086880480.4972777        42201949.496656239        1210835617.6467118     
   985436500.65304387        43593266.372616172        1212606743.3458960     
   883913093.95881593        44719827.081924379        1218567409.6972389     
   1100221247.1483028        34833977.315685749        1301589238.6830316     
   1010520837.6550757        36395557.644663095        1295811215.7293959     
   920621430.16148555        37293811.305768073        1294837876.2121294     
   830523024.66753685        37528738.299007952        1298669220.1312339     
   740225621.17323232        37100338.624395967        1307305247.4867058     
   912868836.81932592        31629858.034177572        1381911368.2775297     
   836510694.78910744        33359454.726441026        1376823778.2999897     
   759833983.60816622        34027154.249625236        1377156014.5430241     
   682838703.27650666        33632956.603751153        1382908077.0066288     
   605524853.79412460        32176861.788800329        1394079965.6907990     
   727472928.64881527        29012689.400202602        1460828376.9883485     
   666214604.89360726        31437567.699346036        1456291720.3114841     
   604518140.83732557        32401978.328244269        1457790032.6393957     
   542383536.47994804        31905921.286820322        1465323313.9720814     
   479810791.82149881        29949396.575162560        1478891564.3095367     
   1036587272.1508771        55035327.161402762        1127866452.3224099     
   920765365.91604376        53514237.700466245        1124871152.4777038     
   802740109.89604688        44648648.955653816        1127970568.3550820     
   682511504.09086919        28438560.926910013        1137164699.9545281     
   560079548.50052798        4883973.6142878234        1152453547.2760503     
   883913093.95881593        44719827.081924379        1218567409.6972389     
   783609936.05176270        42750478.005627811        1216072725.1274505     
   681103577.90342605        33437128.125058800        1219524268.0758982     
   576394019.51383150        16779777.440289974        1228922038.5425649     
   469481260.88294947       -7221574.0487625301        1244266036.5274575     
   740225621.17323232        37100338.624395967        1307305247.4867058     
   655016959.58295012        34555454.329406619        1305311352.6597142     
   567605247.29529476        24667067.709844768        1309115197.1471078     
   477990484.31026191        7435178.7656905353        1318716780.9488702     
   386172670.62785172       -17140212.503058732        1334116104.0650053     
   605524853.79412460        32176861.788800329        1394079965.6907990     
   534986436.50961512        28929166.671830326        1392587035.0744927     
   462245118.07164001        18338467.709963247        1396743355.5687089     
   387300898.48017579        404764.90313935280        1406548927.1734531     
   310153777.73523712       -24871941.748601571        1422003749.8887184     
   479810791.82149881        29949396.575162560        1478891564.3095367     
   423518366.83176970        25871615.032924265        1477899772.3717833     
   365023190.23246425        14451328.125428751        1482408743.3407035     
   304325262.02357101       -4311464.1473565698        1492418477.2163029     
   241424582.20509219       -30416761.785430238        1507928973.9985735     
   560079548.50052798        4883973.6142878234        1152453547.2760503     
   463135340.13105398       -32663462.301376224        1162008700.2087977     
   354126895.10545331       -110425020.40413468        1179033283.6436903     
   233054213.42372027       -228400700.69399300        1203527297.5807307     
   99917295.085861504       -386590503.17094791        1235490742.0199180     
   469481260.88294947       -7221574.0487625301        1244266036.5274575     
   391472181.51661688       -41357222.552637026        1242807109.4796114     
   303267137.03272086       -109479421.44838659        1247656900.2216218     
   204866127.43128958       -211588170.73592043        1258815408.7534852     
   96269152.712292984       -347683470.41534162        1276282635.0752072     
   386172670.62785172       -17140212.503058732        1334116104.0650053     
   323782398.22953367       -48858970.205699950        1323822747.1649089     
   253064432.25223807       -108336706.50493611        1318677395.3423791     
   174018772.69597185       -195573421.40074036        1318680048.5974107     
   86645419.560730577       -310569114.89312667        1323830706.9300091     
   310153777.73523712       -24871941.748601571        1422003749.8887184     
   260065990.26981327       -55168705.260553241        1405055613.2647116     
   203518780.76399940       -106996875.57380617        1392094769.0059741     
   140512149.21777976       -180356452.68840939        1383121217.1125162     
   71046095.631170541       -275247436.60431439        1378134957.5843165     
   241424582.20509219       -30416761.785430238        1507928973.9985735     
   200322957.63745314       -60286427.717191756        1486505707.7789931     
   154630182.56798947       -105459928.65504089        1467909021.2123930     
   104346256.99670510       -165937264.59895483        1452138914.2987776     
   49471180.923607320       -241718435.54891640        1439195387.0381424     
   99917295.085861504       -386590503.17094791        1235490742.0199180     
   85143633.000332117       -546612295.25250876        1196813751.7401640     
   57813790.111367375       -748488023.34552073        1154805604.6979249     
   17927766.418976426       -992217687.44996166        1109466300.8931797     
  -34514438.076856971       -1277801287.5658607        1060795840.3259745     
   96269152.712292984       -347683470.41534162        1276282635.0752072     
   79497348.126576930       -488928340.58726948        1221957652.0692730     
   51362966.988590240       -668048465.93343568        1165093657.3080869     
   11866009.298362136       -885043846.45374656        1105690650.7916219     
  -38993524.944135606       -1139914482.1482790        1043748632.5199115     
   86645419.560730577       -310569114.89312667        1323830706.9300091     
   70138743.924015790       -432358081.72070855        1255250269.4909480     
   43463095.986220390       -588043622.88522029        1184922965.3038359     
   6618475.7473483384       -777625738.38666439        1112848794.3686781     
  -40395116.792612731       -1001104428.2250569        1039027756.6854852     
   71046095.631170541       -275247436.60431439        1378134957.5843165     
   57067820.392666817       -376901518.65275228        1296691604.0051603     
   34114177.104249358       -508473494.20090258        1214293528.6851735     
   2185165.7659408152       -669963363.24869394        1130940731.6243577     
  -38719213.622284114       -861371125.79619300        1046633212.8227237     
   49471180.923607320       -241718435.54891640        1439195387.0381424     
   40284577.532523483       -322558651.38343436        1346281655.6119225     
   23316210.342691332       -429338079.88044113        1253205347.4520910     
  -1433920.6458584368       -562056721.03983581        1159966462.5586545     
  -33965815.433140188       -720714574.86168444        1066565000.9316245     
   1470261815.0274277       -48057315.327675760        1386300833.0178134     
   1431337901.4253798       -44065416.106018305        1401566329.6070445     
   1393031208.8560948       -38016113.441813827        1414878474.1801105     
   1355341737.3195763       -29909407.335059285        1426237266.7370210     
   1318269486.8158183       -19745297.785767257        1435642707.2777708     
   1160208837.0366142        3519767.7499933839        1440235179.6066663     
   1117911413.7491634        1747230.8200066686        1445679009.9206986     
   1075632953.8182609        37905.078514039516        1451811439.2971151     
   1033373457.2439033       -1608209.4744958282        1458632467.7359123     
   991132924.02609015       -3191112.8390251994        1466142095.2370956     
   817259432.26038015        45227922.792034626        1492690670.1299717     
   779136930.94050765        39955479.206303924        1487614866.8798881     
   740435135.30096388        32752054.555002511        1485869613.7707307     
   701154045.34174657        23617648.838122368        1487454910.8024962     
   661293661.06285679        12552262.055666924        1492370757.9751902     
   441413600.69872749        77067149.798451245        1543667304.5877290     
   415014452.99940956        70559329.052864760        1527373900.4846110     
   387437753.30420244        60126334.987646893        1517052997.6009552     
   358683501.61310351        45768167.602791488        1512704595.9367702     
   328751697.92611516        27484826.898302406        1514328695.4920528     
   32671342.351655103        99037448.769241884        1593165082.9799380     
   25543979.925871704        93558780.359697014        1564956110.7348592     
   16640807.827981019        82160746.376463264        1545361590.7877889     
   5961826.0579789262        64843346.819522746        1534381523.1387308     
  -6492965.3841313254        41606581.688889757        1532015907.7876828     
   1318269486.8158183       -19745297.785767257        1435642707.2777708     
   1282779909.9215729       -8776066.1670518517        1435253655.6311169     
   1246890905.3922956        861740.00155752897        1438059498.5447083     
   1210602473.2279871        9168120.7200605869        1444060236.0185454     
   1173914613.4286468        16143075.988460720        1453255868.0526233     
   991132924.02609015       -3191112.8390251994        1466142095.2370956     
   962224325.62993097       -327127.92176365852        1465006550.3822591     
   933591692.12027156        3456739.9504991770        1467608843.6660414     
   905235023.49711096        8160490.7777580023        1473948975.0884418     
   877154319.76045096        13784124.560017049        1484026944.6494606     
   661293661.06285679        12552262.055666924        1492370757.9751902     
   640517308.53156316        7776380.4815068245        1491276677.8539584     
   620692313.40830076        6171690.2674498558        1494463379.4497166     
   601818675.69307053        7738191.4134992957        1501930862.7624662     
   583896395.38587224        12475883.919656903        1513679127.7922096     
   328751697.92611516        27484826.898302406        1514328695.4920528     
   317658858.62646949        15534459.042756185        1514064038.0462112     
   308192769.25638551        9006590.9524173290        1518623105.8957336     
   300353429.81586719        7901222.6272968203        1528005899.0406220     
   294140840.30491114        12218354.067382917        1542212417.4808741     
  -6492965.3841313254        41606581.688889757        1532015907.7876828     
  -6351024.0853491435        22947107.761991419        1533368630.9590178     
  -3906940.3354724329        11961442.005407834        1540088023.0040927     
   839285.86549878470        8649584.4191396236        1552174083.9229028     
   7887654.5175657682        13011535.003190281        1569626813.7154536     
   1173914613.4286468        16143075.988460720        1453255868.0526233     
   1099927018.8728452        11310288.957749009        1429928526.6528876     
   1025931496.8715184        6451077.1086229682        1414535320.2790217     
   951928047.42466617        1565440.4410767555        1407076248.9310305     
   877916670.53229129       -3346621.0448780060        1407551312.6089041     
   877154319.76045096        13784124.560017049        1484026944.6494606     
   824016157.35024154        12002119.830211103        1461535615.3644629     
   770675611.87110758        9545504.8706563115        1446444149.0961540     
   717132683.32305348        6414279.6813679636        1438752545.8445227     
   663387371.70607388        2608444.2623309195        1438460805.6095750     
   583896395.38587224        12475883.919656903        1513679127.7922096     
   550081173.66642642        13286714.054304779        1491796945.7279923     
   515869113.25465959        12774748.547881812        1476780354.6712697     
   481260214.15057236        10939987.400391966        1468629354.6220396     
   446254476.35416472        7782430.6118339598        1467343945.5803008     
   294140840.30491114        12218354.067382917        1542212417.4808741     
   278122067.82140267        15164071.630040094        1520712517.7434735     
   261512001.02217424        16138808.140299499        1505543937.0043733     
   244310639.90722865        15142563.598167203        1496706675.2635779     
   226517984.47656092        12175338.003627770        1494200732.5210886     
   7887654.5175657682        13011535.003190281        1569626813.7154536     
   8138839.8151651146        17634192.557404555        1548282331.4109020     
   7604275.1736463439        19637683.647891071        1532734896.0954659     
   6283960.5930158580        19022008.274672568        1522984507.7691424     
   4177896.0732645099        15787166.437717162        1519031166.4319317     
   877916670.53229129       -3346621.0448780060        1407551312.6089041     
   839788042.21338665        3017563.7396094799        1416340198.9584315     
   802004542.45984161        10532177.075289756        1428149338.4715149     
   764566171.27164769        19197218.962142199        1442978731.1481533     
   727472928.64881527        29012689.400202602        1460828376.9883485     
   663387371.70607388        2608444.2623309195        1438460805.6095750     
   632709068.11795831        5868098.8607897758        1446917204.6426146     
   602329007.56064081        10121896.895246059        1458800799.5787148     
   572247190.03411698        15369838.365678370        1474111590.4178684     
   542463615.53839159        21611923.272108108        1492849577.1600804     
   446254476.35416472        7782430.6118339598        1467343945.5803008     
   424189191.03827292        8286363.0867030323        1475413157.5065360     
   402375263.21861666        9628153.8823549449        1487316508.0753303     
   380812692.89519447        11807802.998786852        1503053997.2866821     
   359501480.06801069        14825310.436016411        1522625625.1405966     
   226517984.47656092        12175338.003627770        1494200732.5210886     
   214228410.97432765        10272356.417333297        1501828057.5501943     
   202143309.43376818        9050948.0366167352        1513696463.9613662     
   190262679.85488501        8511112.8614876643        1529805951.7545969     
   178586522.23767912        8652850.8919511959        1550156520.9298897     
   4177896.0732645099        15787166.437717162        1519031166.4319317     
   2826727.9261215050        11826078.852678629        1526161904.7735918     
   1633146.2060980364        8390279.3580378555        1537940667.2368178     
   597150.91318321507        5479767.9537588907        1554367453.8216081     
  -281257.95261042332        3094544.6398852579        1575442264.5279622     
   727472928.64881527        29012689.400202602        1460828376.9883485     
   666214604.89360726        31437567.699346036        1456291720.3114841     
   604518140.83732557        32401978.328244269        1457790032.6393957     
   542383536.47994804        31905921.286820322        1465323313.9720814     
   479810791.82149881        29949396.575162560        1478891564.3095367     
   542463615.53839159        21611923.272108108        1492849577.1600804     
   496562896.06636047        23040763.257771730        1488595027.6124728     
   450378372.18253857        23523588.537464797        1490348905.8117986     
   403910043.88691127        23060399.111142963        1498111211.7580600     
   357157911.17948759        21651194.978828833        1511881945.4512613     
   359501480.06801069        14825310.436016411        1522625625.1405966     
   328882532.71391666        15235362.458645001        1518833241.2597351     
   298134116.83731145        15213852.739567459        1521022743.8679700     
   267256232.43818253        14760781.278744861        1529194132.9653063     
   236248879.51653883        13876148.076207176        1543347408.5517461     
   178586522.23767912        8652850.8919511959        1550156520.9298897     
   163173514.83627239        8021365.3019547760        1547006361.2532728     
   147785374.80163243        7472770.9345141277        1549811546.8079164     
   132422102.13376157        7007067.7896356806        1558572077.5938272     
   117083696.83265714        6624255.8673122898        1573287953.6110041     
  -281257.95261042332        3094544.6398852579        1575442264.5279622     
  -564157.56657083891        1398771.7877048659        1573114387.5930827     
  -667853.92448205408        300343.12235514214        1576715314.6316385     
  -592347.02634573891       -200741.35616982731        1586245045.6436198     
  -337636.87216017756       -104481.64786328253        1601703580.6290317     
   479810791.82149881        29949396.575162560        1478891564.3095367     
   423518366.83176970        25871615.032924265        1477899772.3717833     
   365023190.23246425        14451328.125428751        1482408743.3407035     
   304325262.02357101       -4311464.1473565698        1492418477.2163029     
   241424582.20509219       -30416761.785430238        1507928973.9985735     
   357157911.17948759        21651194.978828833        1511881945.4512613     
   315401356.42998910        18790421.322112247        1509195938.4082856     
   271983390.98564488        10391612.015908480        1511909759.1313915     
   226904014.84644005       -3545232.9398318678        1520023407.6205747     
   180163228.01238003       -23020113.545085572        1533536883.8758283     
   236248879.51653883        13876148.076207176        1543347408.5517461     
   208739808.89128128        12145866.470247045        1539598750.8040762     
   180110668.48589712        6682018.9305280447        1541148985.6818788     
   150361458.30037728       -2515394.5429737940        1547998113.1851537     
   119492178.33472793       -15446373.950242877        1560146133.3139060     
   117083696.83265714        6624255.8673122898        1573287953.6110041     
   103533724.21563266        5937950.4772804342        1569108209.5591419     
   89405022.733209863        3322548.8692499064        1570126422.9921570     
   74697592.385377154       -1221948.9568100460        1576342593.9100485     
   59411433.172144443       -7695543.0008729286        1587756722.3128088     
  -337636.87216017756       -104481.64786328253        1601703580.6290317     
  -216897.59694562398        166673.34325158648        1597724314.6734920     
  -133546.27240921510        313201.83210389141        1598842071.0622346     
  -87582.898551682971        335103.81869466172        1605056849.7952452     
  -79007.475374674570        232379.30301632558        1616368650.8725367     
   241424582.20509219       -30416761.785430238        1507928973.9985735     
   200322957.63745314       -60286427.717191756        1486505707.7789931     
   154630182.56798947       -105459928.65504089        1467909021.2123930     
   104346256.99670510       -165937264.59895483        1452138914.2987776     
   49471180.923607320       -241718435.54891640        1439195387.0381424     
   180163228.01238003       -23020113.545085572        1533536883.8758283     
   148762520.67471257       -45628555.186215810        1507702693.1799946     
   113922838.39359581       -79700246.638841063        1484828499.7102437     
   75644181.169027865       -125235187.90297234        1464914303.4665754     
   33926549.001001440       -182233378.97863054        1447960104.4489899     
   119492178.33472793       -15446373.950242877        1560146133.3139060     
   98173581.293045133       -30679233.380897939        1531245222.9599202     
   74568184.866272643       -53534757.428520113        1505437727.4051054     
   48675989.054416075       -84012946.093090221        1482723646.6494801     
   20496993.857467636       -122113799.37462975        1463102980.6930356     
   59411433.172144443       -7695543.0008729286        1587756722.3128088     
   48556139.492439009       -15438462.301284995        1557133297.1187563     
   36566221.986019343       -26963461.024078190        1529736704.2969787     
   23441680.652876500       -42270539.169283092        1505566943.8474867     
   9182515.4930083007       -61359696.736903273        1484624015.7702773     
  -79007.475374674570        232379.30301632558        1616368650.8725367     
  -89804.727090736618        93758.052680840119        1585366915.6565087     
  -83050.247165498964        13642.574480938616        1557725430.3858635     
  -58744.035588072853       -7967.1315443075509        1533444195.0606015     
  -16886.092378497240        28928.934538305213        1512523209.6807222     
   49471180.923607320       -241718435.54891640        1439195387.0381424     
   40284577.532523483       -322558651.38343436        1346281655.6119225     
   23316210.342691332       -429338079.88044113        1253205347.4520910     
  -1433920.6458584368       -562056721.03983581        1159966462.5586545     
  -33965815.433140188       -720714574.86168444        1066565000.9316245     
   33926549.001001440       -182233378.97863054        1447960104.4489899     
   29795659.041989043       -242025334.66478869        1347520336.2510448     
   19826961.208933219       -321276649.93109709        1246274864.3155980     
   4020455.5018364191       -419987324.77753800        1144223688.6426587     
  -17623858.079299510       -538157359.20411205        1041366809.2322240     
   20496993.857467636       -122113799.37462975        1463102980.6930356     
   19584311.605124846       -161408746.63001528        1357405124.3021669     
   14777777.403417349       -213683200.38328040        1250258437.1699035     
   6077391.2523621768       -278937160.63437414        1141662919.2962482     
  -6516846.8480539024       -357170627.38333148        1031618570.6811929     
   9182515.4930083007       -61359696.736903273        1484624015.7702773     
   9650535.2219159231       -80708887.279151946        1375936019.7652943     
   8168658.9261509702       -106557731.23697554        1265156066.0150187     
   4736886.6057182550       -138906228.61035633        1152284154.5194407     
  -644781.73938833177       -177754379.39931822        1037320285.2785889     
  -16886.092378497240        28928.934538305213        1512523209.6807222     
  -5670.1076335983598        74243.387809203647        1403113022.6404145     
  -394.22288094204850        99757.507774708502        1290967750.8509221     
  -1058.4381023880633        105471.29449563423        1176087394.3122544     
  -7662.7533111812954        91384.747918463632        1058471953.0243877     
   32671342.351655103        99037448.769241884        1593165082.9799380     
   25543979.925871704        93558780.359697014        1564956110.7348592     
   16640807.827981019        82160746.376463264        1545361590.7877889     
   5961826.0579789262        64843346.819522746        1534381523.1387308     
  -6492965.3841313254        41606581.688889757        1532015907.7876828     
  -403406482.17208201        31389958.640270114        1535866075.7703812     
  -389251693.25169778        30795844.411729738        1516350247.7902768     
  -375861088.18185967        27654450.681366906        1503463648.3520606     
  -363234666.96256948        21965777.449180275        1497206277.4557307     
  -351372429.59382725        13729824.715165615        1497578135.1012926     
  -807577395.17795622       -26685458.033342838        1477399995.3356140     
  -777812522.78603828       -24096638.443267226        1467757541.7456422     
  -747800208.42310834       -20683012.283145159        1462759092.9414315     
  -717540452.08916295       -16444579.552977383        1462404648.9229875     
  -687033253.78420520       -11381340.252764791        1466694209.6903071     
  -1179841396.6659625       -75188801.251595378        1417766841.6756387     
  -1140138508.6771510       -71118668.205294967        1419177992.6009495     
  -1099176552.8957641       -62851642.517079413        1423247924.5559022     
  -1056955529.3218018       -50387724.186946154        1429976637.5404952     
  -1013475437.9552658       -33726913.214899123        1439364131.5547328     
  -1520198486.6361065       -114120071.01448923        1356966614.7904515     
  -1476229650.9250343       -110270244.87435728        1370611600.3562009     
  -1429990121.5998299       -98851440.020439923        1384930143.1954718     
  -1381479898.6604860       -79863656.452729404        1399922243.3082590     
  -1330698982.1070077       -53306894.171237886        1415587900.6945679     
  -6492965.3841313254        41606581.688889757        1532015907.7876828     
  -6351024.0853491435        22947107.761991419        1533368630.9590178     
  -3906940.3354724329        11961442.005407834        1540088023.0040927     
   839285.86549878470        8649584.4191396236        1552174083.9229028     
   7887654.5175657682        13011535.003190281        1569626813.7154536     
  -351372429.59382725        13729824.715165615        1497578135.1012926     
  -335346908.71791142        6891469.4243363142        1503381656.2010987     
  -318459217.79956585        2927014.2749385685        1513308696.1089442     
  -300709356.83878493        1836459.2669925988        1527359254.8248320     
  -282097325.83557290        3619804.4004831761        1545533332.3487604     
  -687033253.78420520       -11381340.252764791        1466694209.6903071     
  -658676010.66172111       -7464134.1067030430        1475268560.9084775     
  -630896569.90546715       -5472935.8480726779        1486723280.8689921     
  -603694931.51544166       -5407745.4768728912        1501058369.5718534     
  -577071095.49164689       -7268562.9931061566        1518273827.0170553     
  -1013475437.9552658       -33726913.214899123        1439364131.5547328     
  -976338329.91677415       -20119702.831107020        1449029345.0811646     
  -941218996.65317488       -13238408.363622665        1460331777.2842398     
  -908117438.16446972       -13083029.812449813        1473271428.1639619     
  -877033654.45065427       -19653567.177578032        1487848297.7203338     
  -1330698982.1070077       -53306894.171237886        1415587900.6945679     
  -1288333866.4830742       -31075236.748893440        1424664008.7191505     
  -1249426498.0426931       -20369403.271721721        1434134185.3546815     
  -1213976876.7858694       -21189393.739741385        1443998430.6011627     
  -1181985002.7125952       -33535208.152926683        1454256744.4585967     
   7887654.5175657682        13011535.003190281        1569626813.7154536     
   8138839.8151651146        17634192.557404555        1548282331.4109020     
   7604275.1736463439        19637683.647891071        1532734896.0954659     
   6283960.5930158580        19022008.274672568        1522984507.7691424     
   4177896.0732645099        15787166.437717162        1519031166.4319317     
  -282097325.83557290        3619804.4004831761        1545533332.3487604     
  -266756277.37790662        5322154.1610367000        1522171461.2542760     
  -251683794.96879953        6129283.7597244084        1505294047.4000337     
  -236879878.60824060        6041193.1965868920        1494901090.7860382     
  -222344528.29623845        5057882.4715913534        1490992591.4122849     
  -577071095.49164689       -7268562.9931061566        1518273827.0170553     
  -544676154.58497047       -7897312.2395437658        1493497948.3382902     
  -512032595.83628458       -7697335.3459506631        1475893937.1509008     
  -479140419.24559224       -6668632.3123340309        1465461793.4548879     
  -445999624.81289095       -4811203.1386876702        1462201517.2502501     
  -877033654.45065427       -19653567.177578032        1487848297.7203338     
  -825620791.80601776       -22024206.644311816        1462261792.6629455     
  -773442127.42881203       -21842173.669145167        1444534565.3480630     
  -720497661.31903434       -19107468.252072096        1434666615.7756896     
  -666787393.47668564       -13820090.393095165        1432657943.9458220     
  -1181985002.7125952       -33535208.152926683        1454256744.4585967     
  -1109590189.0410533       -37058529.053276241        1428462994.2282407     
  -1035912389.7463773       -36305231.209843516        1411215931.9915230     
  -960951604.82857442       -31275314.622655153        1402515557.7484462     
  -884707834.28763187       -21968779.291668117        1402361871.4990070     
   4177896.0732645099        15787166.437717162        1519031166.4319317     
   2826727.9261215050        11826078.852678629        1526161904.7735918     
   1633146.2060980364        8390279.3580378555        1537940667.2368178     
   597150.91318321507        5479767.9537588907        1554367453.8216081     
  -281257.95261042332        3094544.6398852579        1575442264.5279622     
  -222344528.29623845        5057882.4715913534        1490992591.4122849     
  -211708578.84066159        2477067.8885555714        1499014133.2100272     
  -201086052.52407503       -148490.49111413956        1511289986.0416784     
  -190476949.34648210       -2818792.6674302369        1527820149.9072413     
  -179881269.30788156       -5533838.6403862983        1548604624.8067183     
  -445999624.81289095       -4811203.1386876702        1462201517.2502501     
  -424501452.29074144       -6349213.0805631876        1470914351.3436084     
  -403187712.47368765       -8501998.7060909420        1483487783.3832307     
  -382058405.36174017       -11269560.015303746        1499921813.3691106     
  -361113530.95488626       -14651897.008164600        1520216441.3012514     
  -666787393.47668564       -13820090.393095165        1432657943.9458220     
  -635551892.42411470       -14652764.054666638        1441862559.1743429     
  -604671833.64274669       -16670245.286911905        1454534059.2614713     
  -574147217.13258410       -19872534.089843065        1470672444.2072084     
  -543978042.89363098       -24259630.463471532        1490277714.0115564     
  -884707834.28763187       -21968779.291668117        1402361871.4990070     
  -844859899.24078059       -22433585.033754528        1411858756.7022295     
  -805538416.03124189       -24653230.233548641        1424428813.6764076     
  -766743384.65902495       -28627714.891081005        1440072042.4215453     
  -728474805.12411332       -34357039.006299794        1458788442.9376385     
  -281257.95261042332        3094544.6398852579        1575442264.5279622     
  -564157.56657083891        1398771.7877048659        1573114387.5930827     
  -667853.92448205408        300343.12235514214        1576715314.6316385     
  -592347.02634573891       -200741.35616982731        1586245045.6436198     
  -337636.87216017756       -104481.64786328253        1601703580.6290317     
  -179881269.30788156       -5533838.6403862983        1548604624.8067183     
  -164569960.91243133       -6612834.1877293661        1545900766.5920684     
  -149099276.46466330       -7160576.2273436636        1549121315.8024244     
  -133469215.96457197       -7177064.7592154741        1558266272.4377811     
  -117679779.41216245       -6662299.7833592147        1573335636.4981346     
  -361113530.95488626       -14651897.008164600        1520216441.3012514     
  -330220576.11695915       -15117883.720743835        1517113470.0691471     
  -299188072.43044370       -15118707.604694739        1519930509.7136159     
  -268016019.89533925       -14654368.660013214        1528667560.2346621     
  -236704418.51164302       -13724866.886695303        1543324621.6322782     
  -543978042.89363098       -24259630.463471532        1490277714.0115564     
  -497516003.18016720       -24116376.811382324        1486752498.0243108     
  -450934241.82183939       -23574051.009747475        1489142896.3652089     
  -404232758.81865036       -22632653.058575898        1497448909.0342569     
  -357411554.17060614       -21292182.957884505        1511670536.0314474     
  -728474805.12411332       -34357039.006299794        1458788442.9376385     
  -666456242.10203934       -33608313.459593415        1454817850.4575622     
  -604337784.63883960       -32526606.442469895        1456758475.7572048     
  -542119432.73450971       -31111917.954911798        1464610318.8365657     
  -479801186.38904649       -29364247.996910185        1478373379.6956496     
  -337636.87216017756       -104481.64786328253        1601703580.6290317     
  -216897.59694562398        166673.34325158648        1597724314.6734920     
  -133546.27240921510        313201.83210389141        1598842071.0622346     
  -87582.898551682971        335103.81869466172        1605056849.7952452     
  -79007.475374674570        232379.30301632558        1616368650.8725367     
  -117679779.41216245       -6662299.7833592147        1573335636.4981346     
  -103973501.97380024       -5709682.8260458224        1569111041.2811236     
  -89725853.522495270       -2952495.8255878352        1570082577.2377484     
  -74936834.058237985        1609261.2180438414        1576250244.3680115     
  -59606443.581033468        7975588.3048322834        1587614042.6719105     
  -236704418.51164302       -13724866.886695303        1543324621.6322782     
  -209129434.82624200       -12005837.538027696        1539529915.9446824     
  -180434321.16426939       -6553041.6007851511        1541030450.2600884     
  -150619077.52571696        2633520.9250554293        1547826224.5784988     
  -119683703.91058844        15553850.039482713        1559917238.8999062     
  -357411554.17060614       -21292182.957884505        1511670536.0314474     
  -315684696.15426505       -18721790.792673141        1508980938.6641705     
  -272258949.19772631       -10488435.493471071        1511685690.1292613     
  -227134313.30098596        3407882.9397365749        1519784790.4267151     
  -180310788.46404272        22967164.506955035        1533278239.5565372     
  -479801186.38904649       -29364247.996910185        1478373379.6956496     
  -423639285.95787823       -25857542.590015590        1477464109.4395890     
  -365199737.62288117       -14758677.503694668        1482048296.8452578     
  -304482541.38405412        3932347.2620625496        1492125941.9126558     
  -241487697.24139029        30215531.707272679        1507697044.6417818     
  -79007.475374674570        232379.30301632558        1616368650.8725367     
  -89804.727090736618        93758.052680840119        1585366915.6565087     
  -83050.247165498964        13642.574480938616        1557725430.3858635     
  -58744.035588072853       -7967.1315443075509        1533444195.0606015     
  -16886.092378497240        28928.934538305213        1512523209.6807222     
  -59606443.581033468        7975588.3048322834        1587614042.6719105     
  -48737703.853215374        15574090.424095232        1557034469.4100730     
  -36715387.715953022        27017847.241506401        1529678030.7941253     
  -23539495.169244289        42306858.757069752        1505544726.8240635     
  -9210026.2130990326        61441124.970759027        1484634557.4998908     
  -119683703.91058844        15553850.039482713        1559917238.8999062     
  -98327185.201789349        30771948.128786482        1531085189.7163589     
  -74681065.405744895        53622049.842245549        1505339159.8792019     
  -48745344.522462063        84104155.179829076        1482679149.3884385     
  -20520022.551939748        122218264.14154701        1463105158.2440732     
  -180310788.46404272        22967164.506955035        1533278239.5565372     
  -148858248.77281576        45687331.166746162        1507519076.5753696     
  -113980083.31654677        79826250.376677543        1484708817.6411026     
  -75676292.095246747        125383922.13671148        1464847462.7537303     
  -33946875.108903885        182360346.44688964        1447935011.9132695     
  -241487697.24139029        30215531.707272679        1507697044.6417818     
  -200330894.56630391        60320239.537940681        1486336129.9870973     
  -154612441.44835880        105630448.84480643        1467787004.0798171     
  -104332337.88759953        166146159.62771845        1452049666.9199429     
  -49490583.883990735        241867371.88679546        1439124118.5074759     
  -16886.092378497240        28928.934538305213        1512523209.6807222     
  -5670.1076335983598        74243.387809203647        1403113022.6404145     
  -394.22288094204850        99757.507774708502        1290967750.8509221     
  -1058.4381023880633        105471.29449563423        1176087394.3122544     
  -7662.7533111812954        91384.747918463632        1058471953.0243877     
  -9210026.2130990326        61441124.970759027        1484634557.4998908     
  -9667154.8797684908        80838988.338843301        1375936581.3309119     
  -8179238.1265156716        106720336.44000319        1265147451.9681511     
  -4746275.9533374533        139085169.27424675        1152267169.4116054     
   631731.63977506757        177933486.84160531        1037295733.6612817     
  -20520022.551939748        122218264.14154701        1463105158.2440732     
  -19605691.426018193        161520617.75763628        1357395542.7196498     
  -14795329.360263586        213809741.17317024        1250238705.5568521     
  -6088936.3546666205        279085634.38817936        1141634646.7556744     
   6513487.5907734334        357348297.40266579        1031583366.3161134     
  -33946875.108903885        182360346.44688964        1447935011.9132695     
  -29821279.746379048        242119131.64419928        1347489906.8066337     
  -19848667.924108729        321367971.70732856        1246241511.6170251     
  -4029039.6420879364        420106866.63629282        1144189826.3444304     
   17637605.099686384        538335816.43110061        1041334850.9888793     
  -49490583.883990735        241867371.88679546        1439124118.5074759     
  -40313919.840855911        322634529.99852079        1346219673.5918624     
  -23339253.818066806        429395028.04242963        1253155870.1486776     
   1433414.1843840182        562148866.01854849        1159932708.1779153     
   34004084.166510701        720896043.92690897        1066550187.6795841     
  -1520198486.6361065       -114120071.01448923        1356966614.7904515     
  -1476229650.9250343       -110270244.87435728        1370611600.3562009     
  -1429990121.5998299       -98851440.020439923        1384930143.1954718     
  -1381479898.6604860       -79863656.452729404        1399922243.3082590     
  -1330698982.1070077       -53306894.171237886        1415587900.6945679     
  -1839068388.3547649       -55043669.661672592        1324170181.9276526     
  -1788690048.6150060       -52840239.776362598        1324484639.5757353     
  -1737250115.1919436       -47098164.280024529        1329435865.2619393     
  -1684748588.0855718       -37817443.172660530        1339023858.9862635     
  -1631185467.2958925       -24998076.454267859        1353248620.7487099     
  -2207241054.5214524       -10758097.643264532        1290706269.8719029     
  -2139129751.4255776       -6804026.2145479918        1276279583.0163534     
  -2071165954.5772219       -3341642.2775619030        1270452874.9635248     
  -2003349663.9763865       -370945.83231043816        1273226145.7134197     
  -1935680879.6230710        2108063.1212106943        1284599395.2660384     
  -2624716485.1361771        18736645.040732145        1256574878.6232047     
  -2527548759.3567452        27838395.811090469        1225996430.6780531     
  -2431737639.7556663        32418125.986951113        1207981172.3002284     
  -2337283126.3329325        32475835.568321943        1202529103.4897282     
  -2244185219.0885468        28011524.555198550        1209640224.2465510     
  -3091494680.1989341        33440558.390319109        1221776008.1815546     
  -2953947072.4085145        51087026.300546885        1173635182.5608354     
  -2818965170.7272701        60181140.513522744        1142020757.2720475     
  -2686548975.1552048        60722901.029235482        1126932732.3151846     
  -2556698485.6923127        52712307.847705841        1128371107.6902506     
  -1330698982.1070077       -53306894.171237886        1415587900.6945679     
  -1288333866.4830742       -31075236.748893440        1424664008.7191505     
  -1249426498.0426931       -20369403.271721721        1434134185.3546815     
  -1213976876.7858694       -21189393.739741385        1443998430.6011627     
  -1181985002.7125952       -33535208.152926683        1454256744.4585967     
  -1631185467.2958925       -24998076.454267859        1353248620.7487099     
  -1591052299.0182605       -17737795.029799938        1358171778.8426600     
  -1552989581.2637112       -17379015.348940611        1364438918.6741679     
  -1516997314.0322332       -23921737.411653638        1372050040.2432342     
  -1483075497.3238316       -37365961.217946947        1381005143.5498610     
  -1935680879.6230710        2108063.1212106943        1284599395.2660384     
  -1895065621.1871514       -4788820.2008386850        1286988116.1999118     
  -1855133516.6138268       -13962883.064879179        1291670731.9979527     
  -1815884565.9031005       -25414125.470916986        1298647242.6601620     
  -1777318769.0549774       -39142547.418951750        1307917648.1865370     
  -2244185219.0885468        28011524.555198550        1209640224.2465510     
  -2200373832.9897337        7771687.7380305529        1211113020.7909055     
  -2155858304.0930462       -10121006.419548512        1215829625.3260374     
  -2110638632.3984780       -25666557.917536616        1223790037.8519442     
  -2064714817.9060328       -38864966.755923629        1234994258.3686285     
  -2556698485.6923127        52712307.847705841        1128371107.6902506     
  -2506976934.4260173        19943728.786779284        1130546492.6156430     
  -2455163943.7013674       -5853385.4129602909        1136915598.6584210     
  -2401259513.5183578       -24679034.751504064        1147478425.8185835     
  -2345263643.8769946       -36533219.228867173        1162234974.0961299     
  -1181985002.7125952       -33535208.152926683        1454256744.4585967     
  -1109590189.0410533       -37058529.053276241        1428462994.2282407     
  -1035912389.7463773       -36305231.209843516        1411215931.9915230     
  -960951604.82857442       -31275314.622655153        1402515557.7484462     
  -884707834.28763187       -21968779.291668117        1402361871.4990070     
  -1483075497.3238316       -37365961.217946947        1381005143.5498610     
  -1388054032.4699779       -34423740.348213315        1358226457.8359902     
  -1292243512.5442107       -28851335.905431926        1342814152.3217790     
  -1195643937.5465248       -20648747.889588118        1334768227.0072250     
  -1098255307.4769230       -9815976.3006960154        1334088681.8923285     
  -1777318769.0549774       -39142547.418951750        1307917648.1865370     
  -1663042961.0016148       -30746477.173967302        1287577774.6793997     
  -1548472028.4275508       -21366658.526652932        1273423973.5779397     
  -1433605971.3327942       -11003091.477026999        1265456244.8821576     
  -1318444789.7173405        344223.97492498159        1263674588.5920534     
  -2064714817.9060328       -38864966.755923629        1234994258.3686285     
  -1934556974.6359625       -26026739.530534506        1216516944.7584677     
  -1804597937.3964071       -13851199.073540211        1203045395.7600036     
  -1674837706.1873798       -2338345.3849656582        1194579611.3732357     
  -1545276281.0088673        8511821.5352231264        1191119591.5981660     
  -2345263643.8769946       -36533219.228867173        1162234974.0961299     
  -2202596073.3730159       -20264527.417910337        1145043968.0731957     
  -2060621239.4507737       -6304957.5460705757        1131678418.8679736     
  -1919339142.1102796        5345490.3866082430        1122138326.4804692     
  -1778749781.3515201        14686816.380170107        1116423690.9106805     
  -884707834.28763187       -21968779.291668117        1402361871.4990070     
  -844859899.24078059       -22433585.033754528        1411858756.7022295     
  -805538416.03124189       -24653230.233548641        1424428813.6764076     
  -766743384.65902495       -28627714.891081005        1440072042.4215453     
  -728474805.12411332       -34357039.006299794        1458788442.9376385     
  -1098255307.4769230       -9815976.3006960154        1334088681.8923285     
  -1050951306.7309175       -13550416.317773879        1340841518.1927729     
  -1004134266.2055362       -18908057.070273161        1351011148.8619907     
  -957804185.90078676       -25888898.558210850        1364597573.8999813     
  -911961065.81666625       -34492940.781578988        1381600793.3067560     
  -1318444789.7173405        344223.97492498159        1263674588.5920534     
  -1262702944.4212570       -6365316.6618523002        1267729449.5425084     
  -1207408567.7291188       -14566419.311784983        1275544727.4595664     
  -1152561659.6409247       -24259083.974860430        1287120422.3432200     
  -1098162220.1566727       -35443310.651080847        1302456534.1934698     
  -1545276281.0088673        8511821.5352231264        1191119591.5981660     
  -1480114812.3117986       -878286.06599539518        1192522550.7514429     
  -1415361320.6019883       -11628316.958082557        1198029549.4691350     
  -1351015805.8794322       -23738271.141014040        1207640587.7512448     
  -1287078268.1441410       -37208148.614824533        1221355665.5977733     
  -1778749781.3515201        14686816.380170107        1116423690.9106805     
  -1703186910.4025421        2910675.4698041677        1115220821.8195710     
  -1627992524.8241448       -10093750.009157836        1118465614.8907003     
  -1553166624.6163199       -24326460.056694627        1126158070.1240680     
  -1478709209.7790675       -39787454.672812521        1138298187.5196707     
  -728474805.12411332       -34357039.006299794        1458788442.9376385     
  -666456242.10203934       -33608313.459593415        1454817850.4575622     
  -604337784.63883960       -32526606.442469895        1456758475.7572048     
  -542119432.73450971       -31111917.954911798        1464610318.8365657     
  -479801186.38904649       -29364247.996910185        1478373379.6956496     
  -911961065.81666625       -34492940.781578988        1381600793.3067560     
  -835508131.17597437       -34464930.126037180        1376534061.6171057     
  -758931461.47162688       -34024469.258306801        1376825793.7523246     
  -682231056.70362151       -33171558.178380430        1382475989.7124126     
  -605406916.87196088       -31906196.886278838        1393484649.4973724     
  -1098162220.1566727       -35443310.651080847        1302456534.1934698     
  -1008854210.9112213       -36609803.990871251        1296321477.3538568     
  -919398625.97958648       -37284378.376707882        1294992130.3842709     
  -829795465.36175752       -37467033.808572799        1298468493.2847064     
  -740044729.05774546       -37157770.286491990        1306750566.0551608     
  -1287078268.1441410       -37208148.614824533        1221355665.5977733     
  -1186494481.3077874       -40042935.054116011        1214180097.6678247     
  -1085739278.1627142       -42306333.797666490        1211257485.6530476     
  -984812658.70891869       -43998344.845477760        1212587829.5534465     
  -883714622.94640398       -45118968.197562248        1218171129.3690155     
  -1478709209.7790675       -39787454.672812521        1138298187.5196707     
  -1368428942.3656590       -44764323.315729141        1130109922.5590024     
  -1257953418.0209987       -49090335.521142125        1125621859.5586565     
  -1147282636.7450933       -52765491.289069355        1124833998.5186298     
  -1036416598.5379453       -55789790.619524002        1127746339.4389296     
  -479801186.38904649       -29364247.996910185        1478373379.6956496     
  -423639285.95787823       -25857542.590015590        1477464109.4395890     
  -365199737.62288117       -14758677.503694668        1482048296.8452578     
  -304482541.38405412        3932347.2620625496        1492125941.9126558     
  -241487697.24139029        30215531.707272679        1507697044.6417818     
  -605406916.87196088       -31906196.886278838        1393484649.4973724     
  -534938685.17236930       -28956399.026877850        1392125070.0401781     
  -462226358.42201090       -18526284.331585184        1396405420.2540722     
  -387269936.62085795       -615852.80030749738        1406325700.1390669     
  -310069419.76893795        24774895.566851988        1421885909.6951582     
  -740044729.05774546       -37157770.286491990        1306750566.0551608     
  -654851674.63440561       -34639332.538000405        1304901532.4015996     
  -567448078.01334357       -24752420.797102422        1308838900.4285035     
  -477833939.19455147       -7497035.0637708902        1318562670.1358669     
  -386009258.17803621        17126824.661966071        1334072841.5236886     
  -883714622.94640398       -45118968.197562248        1218171129.3690155     
  -783378254.34398735       -42906343.123391509        1215793496.5238640     
  -680864896.39688730       -33437086.900280088        1219348737.3685358     
  -576174549.10511875       -16711199.528269887        1228836851.9030397     
  -469307212.46868807        7271318.9926108122        1244257840.1273673     
  -1036416598.5379453       -55789790.619524002        1127746339.4389296     
  -920518424.30111003       -53757430.783041656        1124800962.4069586     
  -802476813.57265759       -44580282.641165674        1127934931.0741827     
  -682291766.35258293       -28258346.193881273        1137148245.4405959     
  -559963282.64088619       -4791621.4411950409        1152440905.5062015     
  -241487697.24139029        30215531.707272679        1507697044.6417818     
  -200330894.56630391        60320239.537940681        1486336129.9870973     
  -154612441.44835880        105630448.84480643        1467787004.0798171     
  -104332337.88759953        166146159.62771845        1452049666.9199429     
  -49490583.883990735        241867371.88679546        1439124118.5074759     
  -310069419.76893795        24774895.566851988        1421885909.6951582     
  -259985753.03814101        55204940.711637765        1404952701.7678733     
  -203459795.54673532        107109288.39178595        1391999445.7558632     
  -140491547.29470342        180487938.60735631        1383026141.6591222     
  -71081008.282055005        275340891.35831225        1378032789.4776473     
  -386009258.17803621        17126824.661966071        1334072841.5236886     
  -323661118.34050661        48883489.836126298        1323761420.6945539     
  -252990047.42457280        108383258.60496707        1318598114.9485579     
  -173996045.43024451        195626130.96845639        1318582924.2856896     
  -86679112.357514724        310612106.92661709        1323715848.7059491     
  -469307212.46868807        7271318.9926108122        1244257840.1273673     
  -391356990.47338063        41355886.911484003        1242762286.7671294     
  -303203197.08189267        109452359.48428355        1247583011.6578896     
  -204845832.29422104        211560736.71103582        1258720014.7996426     
  -96284896.110368043        347681018.59172052        1276173296.1923888     
  -559963282.64088619       -4791621.4411950409        1152440905.5062015     
  -463073369.43676168        32622131.937692910        1161955299.9856055     
  -354099244.51868546        110316591.02976146        1178954135.8838661     
  -233040907.88663456        228291755.83507496        1203437413.2009883     
  -99898359.540629715        386547626.35356808        1235405131.9369645     
  -49490583.883990735        241867371.88679546        1439124118.5074759     
  -40313919.840855911        322634529.99852079        1346219673.5918624     
  -23339253.818066806        429395028.04242963        1253155870.1486776     
   1433414.1843840182        562148866.01854849        1159932708.1779153     
   34004084.166510701        720896043.92690897        1066550187.6795841     
  -71081008.282055005        275340891.35831225        1378032789.4776473     
  -57095763.435732931        376963209.90565407        1296617764.7157295     
  -34126246.242576718        508533102.94244295        1214248277.4602284     
  -2172456.7026017606        670050570.46863186        1130924327.7111661     
   38765605.184207320        861515612.48425961        1046645915.4684975     
  -86679112.357514724        310612106.92661709        1323715848.7059491     
  -70157012.325154066        432408068.22445410        1255174226.1927531     
  -43464369.578795314        588105838.56894875        1184883037.2199633     
  -6601184.1184530556        777705417.96005535        1112842281.7875984     
   40432544.055882812        1001206806.3978041        1039051959.8956496     
  -96284896.110368043        347681018.59172052        1276173296.1923888     
  -79497666.509128302        488969104.95489329        1221889058.0229309     
  -51353623.826724827        668113234.92194533        1165060149.4278846     
  -11852768.063174427        885113408.49282455        1105686570.4072523     
   39004900.781529188        1139969625.6675396        1043768320.9610300     
  -99898359.540629715        386547626.35356808        1235405131.9369645     
  -85117725.987665266        546646320.09693694        1196762260.2062683     
  -57794008.986367494        748555292.00141978        1154779614.0839882     
  -17927208.536769629        992274542.06690967        1109457193.5701115     
   34482675.361154020        1277804070.2934687        1060794998.6646492     
  -3091494680.1989341        33440558.390319109        1221776008.1815546     
  -2953947072.4085145        51087026.300546885        1173635182.5608354     
  -2818965170.7272701        60181140.513522744        1142020757.2720475     
  -2686548975.1552048        60722901.029235482        1126932732.3151846     
  -2556698485.6923127        52712307.847705841        1128371107.6902506     
  -3546654846.9901114       -14305467.605587482        1059681770.6009650     
  -3380473349.2203255        6697675.7864606380        1043901145.7234023     
  -3215743679.6300111        22861391.913630009        1032845572.3099251     
  -3052465838.2191591        34185680.775909781        1026515050.3605310     
  -2890639824.9877744        40670542.373300195        1024909579.8752213     
  -3885802337.0799985       -27247690.591110229        894924889.54395425     
  -3724705088.9532623       -13003313.603948355        912803989.66087282     
  -3563945791.0762782        114562.55069279671        923606792.37403274     
  -3403524443.4490528        12105937.872805357        927333297.68343449     
  -3243441046.0715885        22970812.362392068        923983505.58907485     
  -4108937150.4685955       -5386110.5662460327        727505365.01051605     
  -3986642291.6073112       -8015941.8706965446        780343714.37324417     
  -3863571505.0660715       -8059347.5753090382        814304417.46436858     
  -3739724790.8448868       -5516327.6800811291        829387474.28389454     
  -3615102148.9437447       -386882.18501710892        825592884.83181548     
  -4216059287.1559024        51279272.469008446        557423197.00065386     
  -4166284957.1824861        21659790.986210585        646520319.86051881     
  -4114620821.5994015       -1660338.4643685818        704938447.58093882     
  -4061066880.4066591       -18681115.882749557        732677580.16191316     
  -4005623133.6042562       -29402541.268935919        729737717.60343993     
  -2556698485.6923127        52712307.847705841        1128371107.6902506     
  -2506976934.4260173        19943728.786779284        1130546492.6156430     
  -2455163943.7013674       -5853385.4129602909        1136915598.6584210     
  -2401259513.5183578       -24679034.751504064        1147478425.8185835     
  -2345263643.8769946       -36533219.228867173        1162234974.0961299     
  -2890639824.9877744        40670542.373300195        1024909579.8752213     
  -2825840743.6236238        17296836.589916706        1022783568.2155193     
  -2760084661.2144704       -2886865.7101219893        1025893887.8342752     
  -2693371577.7603111       -19880564.526800513        1034240538.7314835     
  -2625701493.2611432       -33684259.860132098        1047823520.9071498     
  -3243441046.0715885        22970812.362392068        923983505.58907485     
  -3160585548.4350963        9885645.7088975906        916232585.86203766     
  -3077907488.1669512       -3790978.8390902281        914760607.57452846     
  -2995406865.2671504       -18059061.281556249        919567570.72654259     
  -2913083679.7356977       -32918601.618522048        930653475.31808329     
  -3615102148.9437447       -386882.18501710892        825592884.83181548     
  -3511211348.8604255       -2289843.8562803268        810893545.55519819     
  -3408632424.5588055       -8565724.7998754978        803515757.87917960     
  -3307365376.0388837       -19214525.015790105        803459521.80375350     
  -3207410203.3006563       -34236244.504031539        810724837.32892525     
  -4005623133.6042562       -29402541.268935919        729737717.60343993     
  -3877718144.8996210       -19229632.105619669        706766447.29500008     
  -3752259470.3900366       -17211103.592468023        692159338.74822760     
  -3629247110.0755024       -23346955.729482174        685916391.96312094     
  -3508681063.9560156       -37637188.516661167        688037606.93967962     
  -2345263643.8769946       -36533219.228867173        1162234974.0961299     
  -2202596073.3730159       -20264527.417910337        1145043968.0731957     
  -2060621239.4507737       -6304957.5460705757        1131678418.8679736     
  -1919339142.1102796        5345490.3866082430        1122138326.4804692     
  -1778749781.3515201        14686816.380170107        1116423690.9106805     
  -2625701493.2611432       -33684259.860132098        1047823520.9071498     
  -2472743858.0086493       -20786348.605019331        1028189824.0119671     
  -2320007833.8918581       -8627141.1355823278        1013423977.1569684     
  -2167493420.9107637        2793362.5482007265        1003525980.3421551     
  -2015200619.0653734        13475162.446304202        998495833.56752324     
  -2913083679.7356977       -32918601.618522048        930653475.31808329     
  -2746857713.3847790       -22497991.014287353        909126733.90436566     
  -2580382232.7235198       -11245666.042253971        893510235.75330281     
  -2413657237.7519236        838373.29757368565        883803980.86489069     
  -2246682728.4699845        13754127.005207658        880007969.23913062     
  -3207410203.3006563       -34236244.504031539        810724837.32892525     
  -3024937639.5013971       -25399454.645690084        787854697.75038743     
  -2841744435.9457693       -14160532.266105175        771937194.65697038     
  -2657830592.6337519       -519477.36523854733        762972328.04867625     
  -2473196109.5653596        15523710.056886911        760960097.92550147     
  -3508681063.9560156       -37637188.516661167        688037606.93967962     
  -3306983636.3585167       -29490739.499258280        664373715.55003524     
  -3104094443.5585971       -17371739.807128310        648704853.86797905     
  -2900013485.5562601       -1280189.4402661324        641031021.89351249     
  -2694740762.3515034        18783911.601322055        641352219.62663674     
  -1778749781.3515201        14686816.380170107        1116423690.9106805     
  -1703186910.4025421        2910675.4698041677        1115220821.8195710     
  -1627992524.8241448       -10093750.009157836        1118465614.8907003     
  -1553166624.6163199       -24326460.056694627        1126158070.1240680     
  -1478709209.7790675       -39787454.672812521        1138298187.5196707     
  -2015200619.0653734        13475162.446304202        998495833.56752324     
  -1929004610.8532443        3446378.8094109297        998047674.67619824     
  -1843168230.2603958       -7781163.5584067106        1000927953.6850259     
  -1757691477.2868156       -20207464.657122850        1007136670.5940024     
  -1672574351.9325035       -33832524.486733556        1016673825.4031373     
  -2246682728.4699845        13754127.005207658        880007969.23913062     
  -2153051366.6006694        4513365.5599857569        880324854.59077406     
  -2059770774.5993223       -5896628.7784621716        882850953.58048618     
  -1966840952.4659433       -17475856.010134101        887586266.20826304     
  -1874261900.2005296       -30224316.135031700        894530792.47411478     
  -2473196109.5653596        15523710.056886911        760960097.92550147     
  -2375327177.6448097        6111635.7215535641        762052361.56330085     
  -2277800157.8409224       -4440145.6693147421        764234614.57708240     
  -2180615050.1536984       -16131634.115736961        767506856.96684933     
  -2083771854.5831363       -28962829.617697358        771869088.73259771     
  -2694740762.3515034        18783911.601322055        641352219.62663674     
  -2595832043.9856682        8241189.2941093445        643230195.59377432     
  -2497256379.9851961       -3411714.2309707403        645078936.67481649     
  -2399013770.3500876       -16174798.973935366        646898442.86975908     
  -2301104215.0803356       -30048064.934754252        648688714.17859221     
  -1478709209.7790675       -39787454.672812521        1138298187.5196707     
  -1368428942.3656590       -44764323.315729141        1130109922.5590024     
  -1257953418.0209987       -49090335.521142125        1125621859.5586565     
  -1147282636.7450933       -52765491.289069355        1124833998.5186298     
  -1036416598.5379453       -55789790.619524002        1127746339.4389296     
  -1672574351.9325035       -33832524.486733556        1016673825.4031373     
  -1551925150.4521558       -37135889.910945058        1006036181.5614760     
  -1431139131.3079681       -39983196.455700457        999288245.83743644     
  -1310216294.4999537       -42374444.121023118        996430018.23102260     
  -1189156640.0280945       -44309632.906874478        997461498.74222600     
  -1874261900.2005296       -30224316.135031700        894530792.47411478     
  -1742702318.4895372       -31691744.491444707        881375590.60614753     
  -1611064358.3821063       -32897911.526416063        872299603.01310241     
  -1479348019.8782613       -33842817.240000963        867302829.69498038     
  -1347553302.9779878       -34526461.632161438        866385270.65177345     
  -2083771854.5831363       -28962829.617697358        771869088.73259771     
  -1940760446.4777792       -28431887.057186604        756128149.69301319     
  -1797729099.2434080       -27834480.733290672        744655931.08564782     
  -1654677812.8800189       -27170610.646015584        737452432.91050494     
  -1511606587.3876190       -26440276.795359850        734517655.16757953     
  -2301104215.0803356       -30048064.934754252        648688714.17859221     
  -2146099534.4169056       -27356317.608207226        630293858.82207680     
  -1991133353.8918641       -24792904.076284885        616357230.05508077     
  -1836205673.5052385       -22357824.339075446        606878827.87759900     
  -1681316493.2569976       -20051078.396495759        601858652.28963900     
  -1036416598.5379453       -55789790.619524002        1127746339.4389296     
  -920518424.30111003       -53757430.783041656        1124800962.4069586     
  -802476813.57265759       -44580282.641165674        1127934931.0741827     
  -682291766.35258293       -28258346.193881273        1137148245.4405959     
  -559963282.64088619       -4791621.4411950409        1152440905.5062015     
  -1189156640.0280945       -44309632.906874478        997461498.74222600     
  -1059695454.3579582       -41389881.954807043        993639514.79472697     
  -928831868.51970291       -33795463.775667191        993966488.30082262     
  -796565882.51333237       -21526378.369478434        998442419.26051784     
  -662897496.33884358       -4582625.7362458408        1007067307.6738073     
  -1347553302.9779878       -34526461.632161438        866385270.65177345     
  -1210044500.8619616       -32373938.060710669        860822137.41132438     
  -1071874334.9013211       -28016868.340540469        857477573.37887025     
  -933042805.09607613       -21455252.471687317        856351578.55442595     
  -793549911.44621634       -12689090.454124570        857444152.93797290     
  -1511606587.3876190       -26440276.795359850        734517655.16757953     
  -1371565563.8131223       -26709599.100745618        726348830.25675666     
  -1231604212.7175205       -27244496.335791528        718468186.30833280     
  -1091722534.1008174       -28044968.500492036        710875723.32231784     
  -951920527.96300614       -29111015.594836771        703571441.29870117     
  -1681316493.2569976       -20051078.396495759        601858652.28963900     
  -1544258643.2114463       -24396865.074966252        590219593.33101547     
  -1408021501.9682934       -31478347.761411309        576938327.08919966     
  -1272605069.5275455       -41295526.455890298        562014853.56419408     
  -1138009345.8891962       -53848401.158349097        545449172.75599110     
  -559963282.64088619       -4791621.4411950409        1152440905.5062015     
  -463073369.43676168        32622131.937692910        1161955299.9856055     
  -354099244.51868546        110316591.02976146        1178954135.8838661     
  -233040907.88663456        228291755.83507496        1203437413.2009883     
  -99898359.540629715        386547626.35356808        1235405131.9369645     
  -662897496.33884358       -4582625.7362458408        1007067307.6738073     
  -547602809.35453868        25522806.383140057        1020731200.5919917     
  -421398134.02635455        91994866.315451533        1042754706.0590388     
  -284283470.35428381        194833554.06072083        1073137824.0749439     
  -136258818.33832905        334038869.61893719        1111880554.6397088     
  -793549911.44621634       -12689090.454124570        857444152.93797290     
  -657349961.73886716        10858167.088616729        873887617.02984846     
  -511414247.05771995        66857974.544024378        899565864.80059123     
  -355742767.40276587        155310331.91211647        934478896.25018668     
  -190335522.77400240        276215239.19291073        978626711.37865186     
  -951920527.96300614       -29111015.594836771        703571441.29870117     
  -792314826.58975852       -11371785.945892930        721424549.29917574     
  -624147583.61278069        34905915.715486139        749387612.10851490     
  -447418799.03208059        109722089.38927579        787460629.72671974     
  -262128472.84765154        213076735.07549992        835643602.15377855     
  -1138009345.8891962       -53848401.158349097        545449172.75599110     
  -952497403.90718234       -41167052.720319033        563341997.39997554     
  -759598143.69152784       -3861310.1701430380        592219947.98282754     
  -559311565.24223351        58068826.492157459        632083024.50453556     
  -351637668.55927539        144623357.26667666        682931226.96510601     
  -99898359.540629715        386547626.35356808        1235405131.9369645     
  -85117725.987665266        546646320.09693694        1196762260.2062683     
  -57794008.986367494        748555292.00141978        1154779614.0839882     
  -17927208.536769629        992274542.06690967        1109457193.5701115     
   34482675.361154020        1277804070.2934687        1060794998.6646492     
  -136258818.33832905        334038869.61893719        1111880554.6397088     
  -127227082.36703780        483146631.95530611        1090232757.6120756     
  -95083144.679264396        709295066.67995477        1070038874.8532916     
  -39827005.275013149        1012484173.7928681        1051298906.3633400     
   38541335.845732093        1392713953.2940779        1034012852.1422478     
  -190335522.77400240        276215239.19291073        978626711.37865186     
  -173356431.06885979        418440946.11692727        986304627.03359938     
  -122696019.37906763        672937719.65643847        1000230145.6178373     
  -38354287.704621613        1039705559.8114372        1020403267.1313437     
   79668763.954463959        1518744466.5819335        1046823991.5741332     
  -262128472.84765154        213076735.07549992        835643602.15377855     
  -223505772.09311551        352529262.58181816        884977868.47084153     
  -140632633.08577466        639483250.93084729        945353426.37762797     
  -13509055.825611174        1073938700.1226022        1016770275.8741341     
   157864959.68735099        1655895610.1570351        1099228416.9603460     
  -351637668.55927539        144623357.26667666        682931226.96510601     
  -277675105.43982309        285411581.34997356        786252481.92380869     
  -148892985.79939914        608931660.50317597        905408717.13266802     
   34708690.362001359        1115183594.7263062        1040399932.5916772     
   273129923.04439270        1804167384.0193834        1191226128.3008366     
  -4216059287.1559024        51279272.469008446        557423197.00065386     
  -4166284957.1824861        21659790.986210585        646520319.86051881     
  -4114620821.5994015       -1660338.4643685818        704938447.58093882     
  -4061066880.4066591       -18681115.882749557        732677580.16191316     
  -4005623133.6042562       -29402541.268935919        729737717.60343993     
  -4439076042.5001259        117505226.71307182        508321605.67384058     
  -4419838195.7331848        71284375.124512196        488378908.64719826     
  -4398940087.1399240        30597729.623684406        479456689.70250762     
  -4376381716.7203465       -4554709.7894215584        481554948.83976310     
  -4352163084.4744568       -34172943.114818096        494673686.05896324     
  -5039122595.4677486        70622241.670118570        456492212.90891463     
  -4931279879.8461599        43542425.594128609        327241894.91520029     
  -4822006446.1815968        21231669.661386013        250711528.22482780     
  -4711302294.4740639        3689973.8718905449        226901112.83779848     
  -4599167424.7235565       -9082661.7743682861        255810648.75410685     
  -6016198946.0587645       -89369682.659852743        401935018.70588255     
  -5700610009.5214043       -61566057.604934454        163109278.66453069     
  -5383819898.7244186       -29758518.351247072        18702963.147905603     
  -5065828613.6678028        6052935.1011979580       -31283927.843976777     
  -4746636154.3515568        45868302.752412319        13148605.688870512     
  -7370305094.2731781       -362470546.27684641        344650023.06474006     
  -6727828584.7589378       -244041074.47269082       -4018940.1048261141     
  -6084380444.7683926       -122372834.41423607       -216569005.52826032     
  -5439960674.3015680        2534173.8985085487       -293000173.20556724     
  -4794569273.3584642        130679950.46551681       -233312443.13674700     
  -4005623133.6042562       -29402541.268935919        729737717.60343993     
  -3877718144.8996210       -19229632.105619669        706766447.29500008     
  -3752259470.3900366       -17211103.592468023        692159338.74822760     
  -3629247110.0755024       -23346955.729482174        685916391.96312094     
  -3508681063.9560156       -37637188.516661167        688037606.93967962     
  -4352163084.4744568       -34172943.114818096        494673686.05896324     
  -4214136237.5698638       -29382716.940680981        500396622.02658993     
  -4077594271.1056981       -29542092.234635592        506783598.61463124     
  -3942537185.0819716       -34651068.996714115        513834615.82309180     
  -3808964979.4986706       -44709647.226889133        521549673.65197438     
  -4599167424.7235565       -9082661.7743682861        255810648.75410685     
  -4473019065.7368517       -16275222.424753666        291349463.71151316     
  -4347394153.4359589       -25212605.361179352        319852198.14808983     
  -4222292687.8208899       -35894810.583676815        341318852.06384182     
  -4097714668.8916264       -48321838.092207432        355749425.45876276     
  -4746636154.3515568        45868302.752412319        13148605.688870512     
  -4654366629.4005919        20092851.442145586        79624972.349773526     
  -4561659117.3808174       -4222642.9721057415        131365137.34860644     
  -4468513618.2922478       -27078180.490353584        168369100.68536395     
  -4374930132.1348734       -48473761.112613201        190636862.36004823     
  -4794569273.3584642        130679950.46551681       -233312443.13674700     
  -4758178928.5610828        79721504.660012484       -134776852.05862293     
  -4720389162.9402781        33427794.932586670       -58677583.783825055     
  -4681199976.4960613       -8201178.7168014050       -5014638.3123359270     
  -4640611369.2284222       -45165416.288109303        26211984.355826680     
  -3508681063.9560156       -37637188.516661167        688037606.93967962     
  -3306983636.3585167       -29490739.499258280        664373715.55003524     
  -3104094443.5585971       -17371739.807128310        648704853.86797905     
  -2900013485.5562601       -1280189.4402661324        641031021.89351249     
  -2694740762.3515034        18783911.601322055        641352219.62663674     
  -3808964979.4986706       -44709647.226889133        521549673.65197438     
  -3587200080.8865194       -29684324.824666262        501885224.37942338     
  -3364856174.7633228       -12728977.385648727        488074829.24482858     
  -3141933261.1290965        6156395.0901415348        480118488.24818593     
  -2918431339.9838333        26971792.602734566        478016201.38950372     
  -4097714668.8916264       -48321838.092207432        355749425.45876276     
  -3861999372.3209152       -28252764.222001553        339369534.33002800     
  -3626317825.9305444       -8296190.9529249668        326702721.76961362     
  -3390670029.7205262        11547881.714978218        317748987.77752221     
  -3155055983.6908474        31279453.781744838        312508332.35375011     
  -4374930132.1348734       -48473761.112613201        190636862.36004823     
  -4131381510.6616988       -25196057.691236973        176826645.40184799     
  -3888479397.0602574       -4073380.5089552402        164588531.44233954     
  -3646223791.3305345        14894270.434264183        153922520.48151451     
  -3404614693.4725552        31706895.138325453        144828612.51937315     
  -4640611369.2284222       -45165416.288109303        26211984.355826680     
  -4395346495.9088898       -20514205.232410908        14256557.594882330     
  -4151340888.1524577       -60546.053711414337        1732258.2629979688     
  -3908594545.9591465        16195561.247915983       -11360913.639843216     
  -3667107469.3289394        28254116.672529697       -25022958.113620251     
  -2694740762.3515034        18783911.601322055        641352219.62663674     
  -2595832043.9856682        8241189.2941093445        643230195.59377432     
  -2497256379.9851961       -3411714.2309707403        645078936.67481649     
  -2399013770.3500876       -16174798.973935366        646898442.86975908     
  -2301104215.0803356       -30048064.934754252        648688714.17859221     
  -2918431339.9838333        26971792.602734566        478016201.38950372     
  -2817187468.3408055        12260441.222045064        476686148.38997519     
  -2715763923.3577886       -1851999.0253388882        478143593.35287613     
  -2614160705.0347819       -15365528.139434934        482388536.27821869     
  -2512377813.3717923       -28280146.120239019        489420977.16599196     
  -3155055983.6908474        31279453.781744838        312508332.35375011     
  -3043429150.6319532        14813815.769182801        308568432.71045750     
  -2931109916.5277190        656181.24108576775        310232763.87813640     
  -2818098281.3781457       -11193449.802535176        317501325.85678470     
  -2704394245.1832275       -20735077.361697435        330374118.64640677     
  -3404614693.4725552        31706895.138325453        144828612.51937315     
  -3274557090.8591151        15901312.935497046        138877048.55523309     
  -3143294359.4949903        4112826.5683075190        141346448.25059783     
  -3010826499.3801675       -3658563.9632362127        152236811.60546479     
  -2877153510.5146561       -7412858.6591507196        171548138.61983958     
  -3667107469.3289394        28254116.672529697       -25022958.113620251     
  -3510571289.0222850        15522932.721035480       -32388004.075708009     
  -3352317252.2595916        8517936.9563372135       -28515353.529752377     
  -3192345359.0408511        7239129.3784639835       -13405006.475750798     
  -3030655609.3660717        11686509.987386942        12943037.086291606     
  -2301104215.0803356       -30048064.934754252        648688714.17859221     
  -2146099534.4169056       -27356317.608207226        630293858.82207680     
  -1991133353.8918641       -24792904.076284885        616357230.05508077     
  -1836205673.5052385       -22357824.339075446        606878827.87759900     
  -1681316493.2569976       -20051078.396495759        601858652.28963900     
  -2512377813.3717923       -28280146.120239019        489420977.16599196     
  -2347409530.2381730       -22555216.675408721        476541242.47908682     
  -2182829318.2569909       -18123857.738708615        466167625.69089204     
  -2018637177.4282613       -14986069.310189724        458300126.80141705     
  -1854833107.7519808       -13141851.389824867        452938745.81065696     
  -2704394245.1832275       -20735077.361697435        330374118.64640677     
  -2535039812.9817095       -13650201.819284081        322601671.77938437     
  -2366423022.9466891       -9024133.4985167980        315383234.12028313     
  -2198543875.0781598       -6856872.3993870020        308718805.66908735     
  -2031402369.3761218       -7148418.5219048262        302608386.42581266     
  -2877153510.5146561       -7412858.6591507196        171548138.61983958     
  -2708990382.6475463       -641273.03987944126        168475146.72298229     
  -2541914467.9609613        2506268.6443094015        164004055.34324241     
  -2375925766.4549193        2029766.3933576345        158134864.48061651     
  -2211024278.1294270       -2070779.7927620411        150867574.13509890     
  -3030655609.3660717        11686509.987386942        12943037.086291606     
  -2869261239.2356396        16471569.662894726        14161667.309884841     
  -2709303653.2998071        16467348.689760327        12030089.359787572     
  -2550782851.5585394        11673847.068076491        6548303.2360004364     
  -2393698834.0118737        2091064.7976981401       -2283691.0614784868     
  -1681316493.2569976       -20051078.396495759        601858652.28963900     
  -1544258643.2114463       -24396865.074966252        590219593.33101547     
  -1408021501.9682934       -31478347.761411309        576938327.08919966     
  -1272605069.5275455       -41295526.455890298        562014853.56419408     
  -1138009345.8891962       -53848401.158349097        545449172.75599110     
  -1854833107.7519808       -13141851.389824867        452938745.81065696     
  -1721467831.8372242       -20543490.503690600        440509542.86757654     
  -1587789793.9386361       -26902589.671468139        427587302.28447884     
  -1453798994.0562303       -32219148.893191636        414172024.06137055     
  -1319495432.1900182       -36493168.168867588        400263708.19824052     
  -2031402369.3761218       -7148418.5219048262        302608386.42581266     
  -1898446325.7544885       -16620907.519829392        290711422.08219284     
  -1764044049.3628399       -21272620.617681861        279470589.74173903     
  -1628195540.2011342       -21103557.815371454        268885889.40444821     
  -1490900798.2694104       -16113719.112977266        258957321.07031226     
  -2211024278.1294270       -2070779.7927620411        150867574.13509890     
  -2075194124.9632819       -12629116.123469234        140825230.97486484     
  -1936784268.2408829       -14588440.600014687        132588189.46097793     
  -1795794707.9622452       -7948753.2224137783        126156449.59341581     
  -1652225444.1273534        7289946.0093511343        121530011.37220353     
  -2393698834.0118737        2091064.7976981401       -2283691.0614784868     
  -2251711229.4635639       -8568116.3145155907       -9149030.4544079751     
  -2106010450.5728180       -6850049.6185883284       -13059898.557816282     
  -1956596497.3395591        7245264.8856948614       -14016295.371707089     
  -1803469369.7638631        33717827.198122859       -12018220.896091126     
  -1138009345.8891962       -53848401.158349097        545449172.75599110     
  -952497403.90718234       -41167052.720319033        563341997.39997554     
  -759598143.69152784       -3861310.1701430380        592219947.98282754     
  -559311565.24223351        58068826.492157459        632083024.50453556     
  -351637668.55927539        144623357.26667666        682931226.96510601     
  -1319495432.1900182       -36493168.168867588        400263708.19824052     
  -1119027925.1896856       -15192742.379621446        421786138.58980250     
  -915098282.46458197        17648135.825531065        441838705.97554785     
  -707706504.01470685        62029466.446588963        460421410.35546845     
  -496852589.84005463        117951249.48356754        477534251.72957051     
  -1490900798.2694104       -16113719.112977266        258957321.07031226     
  -1311063408.9498363        3130079.2177869081        279529977.61576265     
  -1131689066.4143720        20830388.268197000        286177782.21070725     
  -952777770.66300893        36987208.038258314        278900734.85515434     
  -774329521.69575334        51600538.527972609        257698835.54909658     
  -1652225444.1273534        7289946.0093511343        121530011.37220353     
  -1528603855.1876459        13801412.071868300        136573514.47784838     
  -1409370495.5409055        5685447.1578202248        125237176.68831262     
  -1294525365.1871524       -17057948.732851326        87520998.003592476     
  -1184068464.1263657       -54428775.600071490        23424978.423691787     
  -1803469369.7638631        33717827.198122859       -12018220.896091126     
  -1771649263.9030831        16821256.182728171       -7083250.8239304647     
  -1748142569.8441756       -27786687.505564094       -40983110.591641821     
  -1732949287.5871105       -100106003.86667532       -113717800.19920565     
  -1726069417.1319027       -200136692.90063298       -225287319.64664984     
  -351637668.55927539        144623357.26667666        682931226.96510601     
  -277675105.43982309        285411581.34997356        786252481.92380869     
  -148892985.79939914        608931660.50317597        905408717.13266802     
   34708690.362001359        1115183594.7263062        1040399932.5916772     
   273129923.04439270        1804167384.0193834        1191226128.3008366     
  -496852589.84005463        117951249.48356754        477534251.72957051     
  -388109903.16344112        223117300.37152323        596896707.28449094     
  -230162778.95858368        492298143.02029204        735398625.29369926     
  -23011217.225479364        925493777.42990720        893040005.75718367     
   233344782.03588578        1522704203.6003222        1069820848.6749482     
  -774329521.69575334        51600538.527972609        257698835.54909658     
  -621365333.73589063        123976829.53845024        386551519.54205501     
  -424811827.24051368        341650849.00063014        537848148.19342172     
  -184669002.20963344        704622596.91450620        711588721.50319290     
   99063141.356755197        1212892073.2800741        907773239.47137070     
  -1184068464.1263657       -54428775.600071490        23424978.423691787     
  -977441397.15718973       -12009831.149311066        155216918.69649377     
  -732840130.64522994        156989778.44408953        312757285.83182758     
  -450264664.59049392        452570053.18008661        496046079.82969689     
  -129714998.99297571        874730993.05864584        705083300.69009876     
  -1726069417.1319027       -200136692.90063298       -225287319.64664984     
  -1456338093.4273355       -184842681.69172633       -97107095.252189592     
  -1154247689.1726892       -61685068.649233997        60126038.208930977     
  -819798204.36803567        169336146.22664934        246412080.73671284     
  -452989639.01331472        508220962.93603510        461751032.33115822     
 </DataArray>
 <DataArray  type="Float64" Name="VM" NumberOfComponents="1" format="ascii">
   7205355583.0228586     
   6598637697.8762302     
   6030617678.1972733     
   5462970089.5115852     
   4874650685.6900024     
   5998330075.1652012     
   5672049333.1571751     
   5371187568.8042879     
   5075456307.5499744     
   4776674178.5195465     
   5127677447.5465546     
   4985500723.5325680     
   4858147340.9638672     
   4739325414.4651842     
   4627474662.2717381     
   4586990012.4573078     
   4541554013.4409742     
   4500181182.0858841     
   4462800433.2030935     
   4429543794.1768370     
   4368738867.7585144     
   4339444841.3272305     
   4302745426.2326565     
   4254053247.2879848     
   4190780361.3718343     
   4874650685.6900024     
   4800554647.5173931     
   4736240691.8230400     
   4677916822.1234436     
   4622811599.4564514     
   4776674178.5195465     
   4670003369.7969875     
   4566369244.5918255     
   4464058563.8522968     
   4361744319.3527098     
   4627474662.2717381     
   4499885122.4697609     
   4372348419.2735100     
   4244379695.0474110     
   4115551474.3353219     
   4429543794.1768370     
   4293442370.0238218     
   4157846374.9910750     
   4022861346.4036975     
   3888614503.4117880     
   4190780361.3718343     
   4057606886.9588437     
   3929003578.7671585     
   3805067004.3251305     
   3686168465.7941203     
   4622811599.4564514     
   4388440165.0838823     
   4153355092.3135509     
   3917523101.4701824     
   3680917756.5611382     
   4361744319.3527098     
   4129408467.9403877     
   3896883241.5495334     
   3664131461.2424803     
   3431124629.5248613     
   4115551474.3353219     
   3890058567.5924044     
   3665465873.1682010     
   3441846353.0774403     
   3219335084.8650799     
   3888614503.4117880     
   3674680807.5372734     
   3463377703.7774487     
   3254997884.2007074     
   3049996922.6905727     
   3686168465.7941203     
   3488189435.9768138     
   3295234483.9842553     
   3107880203.3139343     
   2926985713.0431695     
   3680917756.5611382     
   3518205385.2672648     
   3356418253.7254581     
   3195628283.9183545     
   3036307526.1741533     
   3431124629.5248613     
   3292323017.4650464     
   3155483320.9243603     
   3020789414.7055535     
   2888682803.9496002     
   3219335084.8650799     
   3099292968.4460778     
   2981578931.7924805     
   2866419308.3082194     
   2754177713.4904718     
   3049996922.6905727     
   2944024965.4134283     
   2839939180.8785825     
   2737939845.2686296     
   2638281537.5327482     
   2926985713.0431695     
   2831136908.3971510     
   2735869929.9660015     
   2641284525.9755630     
   2547495826.3900156     
   3036307526.1741533     
   2877406615.6827374     
   2717504704.7126617     
   2556612784.4639754     
   2394808952.3036447     
   2888682803.9496002     
   2724204113.4194722     
   2558829591.3276534     
   2392530363.3991246     
   2225288750.3011537     
   2754177713.4904718     
   2589127979.4579291     
   2424078615.4689441     
   2259102666.0442519     
   2094303153.1118217     
   2638281537.5327482     
   2477594736.3110566     
   2318698642.8423553     
   2161918791.6361876     
   2007706462.8827252     
   2547495826.3900156     
   2395618148.1465974     
   2248206737.5116048     
   2105916890.0402603     
   1969650063.4214694     
   2394808952.3036447     
   2247538060.2462945     
   2102725543.9432752     
   1960341574.9703610     
   1820578479.5690434     
   2225288750.3011537     
   2083192072.8866417     
   1943142613.7351208     
   1805127206.9811273     
   1669241801.1498008     
   2094303153.1118217     
   1956029769.0450187     
   1819091715.9805260     
   1683516038.6763244     
   1549372438.9634409     
   2007706462.8827252     
   1873606365.6609437     
   1740024391.7485576     
   1607069865.0963111     
   1474893805.9076183     
   1969650063.4214694     
   1841906155.6079404     
   1714063767.8827243     
   1586402528.9709189     
   1459330255.0657141     
   1820578479.5690434     
   1780087919.6165586     
   1735830995.4573691     
   1696600438.9488673     
   1681167623.6218238     
   1669241801.1498008     
   1553682427.0156462     
   1428790434.4557986     
   1294979437.0317178     
   1158506197.3015523     
   1549372438.9634409     
   1399143426.6640973     
   1245186184.0238719     
   1085233697.1956062     
   917254528.74328423     
   1474893805.9076183     
   1330178276.1377246     
   1199826638.3659666     
   1088354816.7976041     
   1001708320.1738721     
   1459330255.0657141     
   1349802247.7728443     
   1275242934.6475480     
   1243853348.3661041     
   1262733975.6939104     
   1681167623.6218238     
   1383569842.7796144     
   1129482197.8015199     
   1010763805.2674199     
   1154679935.5276775     
   1158506197.3015523     
   1007996275.0096169     
   984977408.47121525     
   1161679621.1350675     
   1544955140.6806407     
   917254528.74328423     
   962671002.06529200     
   1144625149.9635649     
   1476417437.1161964     
   1957790606.5739424     
   1001708320.1738721     
   1164408988.6318035     
   1425170673.8832874     
   1808586450.5608284     
   2334807902.6125422     
   1262733975.6939104     
   1446514287.9063854     
   1715524539.8309169     
   2110343386.9363453     
   2663442288.1145892     
   4368738867.7585144     
   4339444841.3272305     
   4302745426.2326565     
   4254053247.2879848     
   4190780361.3718343     
   4304092683.0632248     
   4209958362.9408283     
   4109318652.0105753     
   3999979207.0868416     
   3880351533.9434338     
   4167900495.2952342     
   4033168058.2038903     
   3896297487.2763038     
   3756813389.6649060     
   3614276759.3920012     
   3967988867.8721704     
   3815463809.7914834     
   3668694335.0526466     
   3528248590.3204241     
   3394857262.6830406     
   3719190299.2686396     
   3567620358.2651882     
   3433985339.8753796     
   3318878052.3222418     
   3223685854.4927831     
   4190780361.3718343     
   4057606886.9588437     
   3929003578.7671585     
   3805067004.3251305     
   3686168465.7941203     
   3880351533.9434338     
   3774805018.0571017     
   3673874992.8388472     
   3577818887.8304472     
   3487084588.7629209     
   3614276759.3920012     
   3533175741.6051235     
   3456389609.2856097     
   3384237483.6923294     
   3317148436.7918401     
   3394857262.6830406     
   3335415927.8684201     
   3279536693.0962749     
   3227502244.1057234     
   3179641275.3688145     
   3223685854.4927831     
   3183537195.4469304     
   3145680945.0012360     
   3110275872.0360627     
   3077489133.8960919     
   3686168465.7941203     
   3488189435.9768138     
   3295234483.9842553     
   3107880203.3139343     
   2926985713.0431695     
   3487084588.7629209     
   3308568251.6523967     
   3135771483.1744895     
   2969351915.3036866     
   2810223522.6702075     
   3317148436.7918401     
   3157381721.5827451     
   3003942729.4618387     
   2857536635.4058938     
   2719086852.7414703     
   3179641275.3688145     
   3037959293.0945001     
   2903071160.0005307     
   2775687608.5975437     
   2656690411.8031588     
   3077489133.8960919     
   2953221188.7962437     
   2836013340.9350019     
   2726536848.6828127     
   2625583385.9342909     
   2926985713.0431695     
   2831136908.3971510     
   2735869929.9660015     
   2641284525.9755630     
   2547495826.3900156     
   2810223522.6702075     
   2720594726.4315987     
   2632777856.6492043     
   2547006405.3642769     
   2463548140.5378361     
   2719086852.7414703     
   2638811506.2052078     
   2561918243.0328212     
   2488780520.7316823     
   2419821244.0127616     
   2656690411.8031588     
   2588328620.7955050     
   2525147378.4380918     
   2467623293.6013861     
   2416284177.2179446     
   2625583385.9342909     
   2570807233.3310637     
   2523104489.1921854     
   2482984796.5736694     
   2450997492.7706456     
   2547495826.3900156     
   2395618148.1465974     
   2248206737.5116048     
   2105916890.0402603     
   1969650063.4214694     
   2463548140.5378361     
   2329501967.9313169     
   2201238137.7148719     
   2079605056.6985748     
   1965683523.8257947     
   2419821244.0127616     
   2304843384.1418333     
   2196842476.1584997     
   2096736292.8456380     
   2005612989.2373612     
   2416284177.2179446     
   2320912539.7236705     
   2233388722.6591277     
   2154566013.1499104     
   2085387268.1589708     
   2450997492.7706456     
   2374939873.2236829     
   2307163164.0011001     
   2248363492.6513972     
   2199259271.4797878     
   1969650063.4214694     
   1841906155.6079404     
   1714063767.8827243     
   1586402528.9709189     
   1459330255.0657141     
   1965683523.8257947     
   1851485181.9249260     
   1741498688.9022703     
   1636577254.2767227     
   1537762607.2748606     
   2005612989.2373612     
   1910293086.9509652     
   1823634771.0171504     
   1746797455.6257932     
   1681026459.9518027     
   2085387268.1589708     
   2010765901.0247834     
   1948504151.7415669     
   1899674015.1690333     
   1865296856.9331150     
   2199259271.4797878     
   2144155755.7879822     
   2104161765.1088452     
   2080060509.8024395     
   2072540729.6353662     
   1459330255.0657141     
   1349802247.7728443     
   1275242934.6475480     
   1243853348.3661041     
   1262733975.6939104     
   1537762607.2748606     
   1476644878.7395203     
   1448250343.7611539     
   1456578976.2133217     
   1504934122.4459548     
   1681026459.9518027     
   1652498746.4966798     
   1651709376.4044626     
   1681033871.9452667     
   1743076790.3454480     
   1865296856.9331150     
   1854888569.8136642     
   1867426359.5945230     
   1905117060.4665761     
   1970994902.4516532     
   2072540729.6353662     
   2069174112.2615671     
   2084961022.2747145     
   2122532628.7677300     
   2185720677.7703199     
   1262733975.6939104     
   1446514287.9063854     
   1715524539.8309169     
   2110343386.9363453     
   2663442288.1145892     
   1504934122.4459548     
   1613262831.0552804     
   1788801084.8912926     
   2066299516.4194562     
   2475980643.2264285     
   1743076790.3454480     
   1787782040.6270654     
   1884654057.7499125     
   2060596922.9174097     
   2340837537.3389235     
   1970994902.4516532     
   1969034640.0706048     
   2003648655.6873634     
   2093497196.1622920     
   2257218679.1947474     
   2185720677.7703199     
   2156308063.6322031     
   2146526878.1980150     
   2166876094.6319680     
   2228391399.2127109     
   3719190299.2686396     
   3567620358.2651882     
   3433985339.8753796     
   3318878052.3222418     
   3223685854.4927831     
   3395378928.3227143     
   3293527852.7625875     
   3206506031.8310776     
   3134803430.2270417     
   3079296463.6257758     
   3140275441.7205553     
   3079275252.6184707     
   3028670123.6644263     
   2988805348.4980531     
   2960159234.4105530     
   2952695755.3080444     
   2925359371.7107863     
   2902629324.4079762     
   2884674076.7341042     
   2871682275.8466725     
   2828449424.1228557     
   2829647854.0681558     
   2828530023.9323726     
   2825038316.3340893     
   2819124667.1818008     
   3223685854.4927831     
   3183537195.4469304     
   3145680945.0012360     
   3110275872.0360627     
   3077489133.8960919     
   3079296463.6257758     
   3044756913.8938222     
   3013279862.8084378     
   2985030818.9812479     
   2960181931.3358803     
   2960159234.4105530     
   2931276124.2152829     
   2906269632.3709264     
   2885296584.2330208     
   2868518290.3745480     
   2871682275.8466725     
   2847957732.7508316     
   2828949272.2597198     
   2814788261.9614081     
   2805608603.8266368     
   2819124667.1818008     
   2799413911.1625595     
   2785266332.1196175     
   2776773910.2697053     
   2774030169.2309165     
   3077489133.8960919     
   2953221188.7962437     
   2836013340.9350019     
   2726536848.6828127     
   2625583385.9342909     
   2960181931.3358803     
   2850360411.8111095     
   2749306105.7374778     
   2657732170.9547839     
   2576457008.9282537     
   2868518290.3745480     
   2773812229.2632399     
   2689568221.1602697     
   2616462553.1917920     
   2555247513.5114684     
   2805608603.8266368     
   2725760151.0106292     
   2657985461.7493830     
   2602848306.4522200     
   2560956646.3243747     
   2774030169.2309165     
   2707695265.5485473     
   2654936761.2854805     
   2616155573.0369964     
   2591773336.4546599     
   2625583385.9342909     
   2570807233.3310637     
   2523104489.1921854     
   2482984796.5736694     
   2450997492.7706456     
   2576457008.9282537     
   2537796372.6301141     
   2506156977.0890241     
   2481928714.1389279     
   2465514464.4367414     
   2555247513.5114684     
   2531341340.9289742     
   2514175588.2622309     
   2504023218.0305324     
   2501155484.0619602     
   2560956646.3243747     
   2550204510.0179749     
   2545723797.3480902     
   2547688479.8244534     
   2556265467.1936431     
   2591773336.4546599     
   2592446262.7308598     
   2598789517.8243403     
   2610903153.1073155     
   2628880235.5718699     
   2450997492.7706456     
   2374939873.2236829     
   2307163164.0011001     
   2248363492.6513972     
   2199259271.4797878     
   2465514464.4367414     
   2404443352.2642879     
   2352783540.2276483     
   2311119299.3547311     
   2280020477.0610094     
   2501155484.0619602     
   2454196131.3195119     
   2417522810.8860555     
   2391575557.9546266     
   2376760150.8108034     
   2556265467.1936431     
   2521881956.9008331     
   2498464850.0397034     
   2486310164.5486841     
   2485676700.9585400     
   2628880235.5718699     
   2605041799.5947986     
   2592751400.5185437     
   2592182456.0485373     
   2603479613.0517349     
   2199259271.4797878     
   2144155755.7879822     
   2104161765.1088452     
   2080060509.8024395     
   2072540729.6353662     
   2280020477.0610094     
   2240283699.5142593     
   2214489624.9581919     
   2203086015.9657269     
   2206456232.9919901     
   2376760150.8108034     
   2349280755.9507117     
   2334551524.8380346     
   2332813341.2992439     
   2344278041.8369098     
   2485676700.9585400     
   2467684465.8337755     
   2461342313.7351656     
   2466776243.9236145     
   2484111933.8941746     
   2603479613.0517349     
   2592613209.6577621     
   2592447250.6486077     
   2603052683.8108835     
   2624519714.9516072     
   2072540729.6353662     
   2069174112.2615671     
   2084961022.2747145     
   2122532628.7677300     
   2185720677.7703199     
   2206456232.9919901     
   2191999002.0554290     
   2192510303.9309130     
   2209962812.6415648     
   2247290553.5903668     
   2344278041.8369098     
   2319603826.6598015     
   2306496224.7816744     
   2306364271.9396520     
   2321304206.0340343     
   2484111933.8941746     
   2451034320.1188879     
   2426608257.8055220     
   2411780937.5183959     
   2407931028.6452727     
   2624519714.9516072     
   2585524734.7507234     
   2552569345.1118326     
   2526234456.4294653     
   2507325942.6128488     
   2185720677.7703199     
   2156308063.6322031     
   2146526878.1980150     
   2166876094.6319680     
   2228391399.2127109     
   2247290553.5903668     
   2182608706.9012499     
   2134378024.0189428     
   2112250173.7667799     
   2127136540.3910191     
   2321304206.0340343     
   2224665755.6084757     
   2141347669.2652068     
   2079709019.9583476     
   2049911741.7248406     
   2407931028.6452727     
   2282771952.4191957     
   2168082458.6805811     
   2070603892.4410057     
   1999107557.8322465     
   2507325942.6128488     
   2357134692.4775538     
   2215052211.1513166     
   2086065783.2006505     
   1977065052.1526093     
   2828449424.1228557     
   2829647854.0681558     
   2828530023.9323726     
   2825038316.3340893     
   2819124667.1818008     
   2750426400.8304143     
   2741849582.2539072     
   2734998143.8105049     
   2729899484.8269844     
   2726579432.8365645     
   2705064122.7509747     
   2686357009.8773437     
   2673666329.6121030     
   2667054838.8855472     
   2666585376.8243666     
   2704716818.1033635     
   2673302371.4889855     
   2652315473.1842432     
   2641809583.7099338     
   2641850034.5517154     
   2760826885.4375539     
   2711877350.1514740     
   2677701891.9934583     
   2658351668.5891171     
   2653914399.8022099     
   2819124667.1818008     
   2799413911.1625595     
   2785266332.1196175     
   2776773910.2697053     
   2774030169.2309165     
   2726579432.8365645     
   2713839182.4644561     
   2707398265.3033886     
   2707343092.9247594     
   2713762483.2875867     
   2666585376.8243666     
   2660274492.9911265     
   2661151760.8967671     
   2669265359.5073309     
   2684674939.4136353     
   2641850034.5517154     
   2640716483.3179493     
   2647817317.8632493     
   2663138662.4271240     
   2686695298.5173955     
   2653914399.8022099     
   2656006535.7831964     
   2667549142.7000628     
   2688457070.6342235     
   2718697093.7652583     
   2774030169.2309165     
   2707695265.5485473     
   2654936761.2854805     
   2616155573.0369964     
   2591773336.4546599     
   2713762483.2875867     
   2660360088.9218864     
   2619785784.5543060     
   2592247519.7011485     
   2577958042.2811337     
   2684674939.4136353     
   2640422588.3334532     
   2608128579.2372594     
   2587872222.5299501     
   2579733599.2866406     
   2686695298.5173955     
   2647841395.4737544     
   2620003079.1103687     
   2603192292.5395579     
   2597423375.2551003     
   2718697093.7652583     
   2681747232.0988288     
   2654830111.0233164     
   2637939958.4000373     
   2631077305.2256994     
   2591773336.4546599     
   2592446262.7308598     
   2598789517.8243403     
   2610903153.1073155     
   2628880235.5718699     
   2577958042.2811337     
   2584057002.3460193     
   2596363859.8217878     
   2614942193.3630166     
   2639850326.7145033     
   2579733599.2866406     
   2589791903.6059113     
   2606617656.7392645     
   2630242408.2778044     
   2660694978.0011945     
   2597423375.2551003     
   2609647724.5248394     
   2629248030.0738068     
   2656232619.5793719     
   2690609308.9390831     
   2631077305.2256994     
   2643411601.7319212     
   2663802516.9339824     
   2692248438.8884335     
   2728747975.2188244     
   2628880235.5718699     
   2605041799.5947986     
   2592751400.5185437     
   2592182456.0485373     
   2603479613.0517349     
   2639850326.7145033     
   2623625329.0224557     
   2618438295.0524831     
   2624380381.5621829     
   2641525828.5947914     
   2660694978.0011945     
   2650273275.7713895     
   2650492446.0330548     
   2661391168.6437893     
   2683000470.8485265     
   2690609308.9390831     
   2684225606.9767122     
   2688222365.2285113     
   2702609402.9014721     
   2727394697.3983417     
   2728747975.2188244     
   2724714607.6829848     
   2730951168.9157000     
   2747457061.8574433     
   2774231996.4699779     
   2603479613.0517349     
   2592613209.6577621     
   2592447250.6486077     
   2603052683.8108835     
   2624519714.9516072     
   2641525828.5947914     
   2631904578.9546876     
   2632274674.8712745     
   2642672114.9928980     
   2663145173.4638352     
   2683000470.8485265     
   2674374215.4894624     
   2675201223.7564230     
   2685495780.8602109     
   2705278278.4595509     
   2727394697.3983417     
   2719639945.4884458     
   2720955383.2060833     
   2731344068.4464664     
   2750810856.9585271     
   2774231996.4699779     
   2767339709.5536098     
   2769275728.8418679     
   2780040039.7365875     
   2799632641.1107111     
   2624519714.9516072     
   2585524734.7507234     
   2552569345.1118326     
   2526234456.4294653     
   2507325942.6128488     
   2663145173.4638352     
   2617346424.2542958     
   2577315898.6424289     
   2543383761.2871523     
   2516010325.3028221     
   2705278278.4595509     
   2654755536.0427818     
   2609874829.8375969     
   2570782989.1429420     
   2537685139.8250985     
   2750810856.9585271     
   2697654164.6247902     
   2650157207.0619116     
   2608356315.8764391     
   2572302115.2162414     
   2799632641.1107111     
   2745936051.1581602     
   2698059591.1930771     
   2656003256.9899988     
   2619767047.1015434     
   2507325942.6128488     
   2357134692.4775538     
   2215052211.1513166     
   2086065783.2006505     
   1977065052.1526093     
   2516010325.3028221     
   2348213899.5625868     
   2183937921.7669711     
   2026286654.5333302     
   1879833510.9332709     
   2537685139.8250985     
   2357380627.3881311     
   2176803880.6343417     
   1997428533.9944692     
   1821536803.4173465     
   2572302115.2162414     
   2384740181.3904171     
   2194117436.4562254     
   2000812754.7986517     
   1805431401.3865368     
   2619767047.1015434     
   2430263045.2020125     
   2236021737.6408277     
   2037043123.8482687     
   1833327203.5094917     
   2760826885.4375539     
   2711877350.1514740     
   2677701891.9934583     
   2658351668.5891171     
   2653914399.8022099     
   2693146642.9178009     
   2657518922.0842113     
   2633180469.3044066     
   2620168040.8472319     
   2618529393.8456826     
   2679454240.8554358     
   2655139714.8742394     
   2638779769.0915990     
   2630440484.9965405     
   2630190217.7793536     
   2709087792.7639713     
   2695568043.2290602     
   2686998015.6105809     
   2683455958.6023016     
   2685031820.9457417     
   2770309883.5862393     
   2768457653.8516111     
   2769003661.4144001     
   2771981554.7600055     
   2777468863.8961225     
   2653914399.8022099     
   2656006535.7831964     
   2667549142.7000628     
   2688457070.6342235     
   2718697093.7652583     
   2618529393.8456826     
   2625887523.6977186     
   2640580732.4615960     
   2662604103.1770515     
   2691957092.0748525     
   2630190217.7793536     
   2637848618.6014667     
   2650593503.3733482     
   2668471635.9928575     
   2691530353.7329607     
   2685031820.9457417     
   2689434109.3555703     
   2696537578.6215100     
   2706391254.5645728     
   2719083508.2771945     
   2777468863.8961225     
   2776641344.3534274     
   2776014048.8139958     
   2775582788.6194530     
   2775457274.0602040     
   2718697093.7652583     
   2681747232.0988288     
   2654830111.0233164     
   2637939958.4000373     
   2631077305.2256994     
   2691957092.0748525     
   2650212223.0583715     
   2619667049.3748469     
   2600339866.9627037     
   2592250756.9426341     
   2691530353.7329607     
   2642733692.2822804     
   2606354558.1383252     
   2582471607.7738166     
   2571165659.6495156     
   2719083508.2771945     
   2660560047.3317051     
   2615690440.2504930     
   2584670188.7056437     
   2567704756.0029736     
   2775457274.0602040     
   2704249160.0391555     
   2647907613.6339192     
   2606818316.9389663     
   2581397118.6291728     
   2631077305.2256994     
   2643411601.7319212     
   2663802516.9339824     
   2692248438.8884335     
   2728747975.2188244     
   2592250756.9426341     
   2605087558.8802505     
   2625337698.0746717     
   2653008807.0310035     
   2688107384.8374071     
   2571165659.6495156     
   2582307811.2990041     
   2600271663.5774565     
   2625087872.1717796     
   2656783910.5333281     
   2567704756.0029736     
   2575214794.5716071     
   2588983175.7562380     
   2609073111.0604014     
   2635543004.6118197     
   2581397118.6291728     
   2583674461.9478817     
   2591646799.4550142     
   2605414998.6249990     
   2625075022.6003823     
   2728747975.2188244     
   2724714607.6829848     
   2730951168.9157000     
   2747457061.8574433     
   2774231996.4699779     
   2688107384.8374071     
   2682436628.9246712     
   2687107140.5100188     
   2702126746.1231031     
   2727501415.9440846     
   2656783910.5333281     
   2647485936.9263935     
   2648732716.6200194     
   2660562583.5564194     
   2683006015.7009845     
   2635543004.6118197     
   2620573307.6548491     
   2616468378.7301130     
   2623323694.4771061     
   2641217471.6262779     
   2625075022.6003823     
   2602379661.9841208     
   2590957516.2207785     
   2590993094.0860996     
   2602642116.3641829     
   2774231996.4699779     
   2767339709.5536098     
   2769275728.8418679     
   2780040039.7365875     
   2799632641.1107111     
   2727501415.9440846     
   2719665018.6159105     
   2720895519.6498375     
   2731196296.5652690     
   2750572118.6776118     
   2683006015.7009845     
   2674289732.4135823     
   2675021801.5713191     
   2685216521.0497136     
   2704894273.3990407     
   2641217471.6262779     
   2631571311.9264030     
   2631911900.0255146     
   2642274225.8768849     
   2662706739.0750766     
   2602642116.3641829     
   2591888340.6278501     
   2591833378.9646387     
   2602545271.8515444     
   2624114536.5080590     
   2799632641.1107111     
   2745936051.1581602     
   2698059591.1930771     
   2656003256.9899988     
   2619767047.1015434     
   2750572118.6776118     
   2697488828.2010770     
   2650059355.5963988     
   2608320270.5249376     
   2572322883.8465734     
   2704894273.3990407     
   2654487981.0785284     
   2609711688.3610620     
   2570712291.1062622     
   2537695097.7595778     
   2662706739.0750766     
   2617038086.3261046     
   2577119149.7201967     
   2543279553.4190612     
   2515978069.5316839     
   2624114536.5080590     
   2585235053.1581850     
   2552369614.3775444     
   2526097564.6162381     
   2507220370.5186200     
   2619767047.1015434     
   2430263045.2020125     
   2236021737.6408277     
   2037043123.8482687     
   1833327203.5094917     
   2572322883.8465734     
   2384746172.3364825     
   2194111037.9503126     
   2000796400.7248120     
   1805407332.3842332     
   2537695097.7595778     
   2357373113.1650152     
   2176783718.0918837     
   1997401862.7086375     
   1821511837.0344775     
   2515978069.5316839     
   2348173424.5638285     
   2183896468.4347954     
   2026255096.4538710     
   1879828821.3231165     
   2507220370.5186200     
   2357042032.5819173     
   2214982048.4799213     
   2086034341.1810689     
   1977099360.8452115     
   2770309883.5862393     
   2768457653.8516111     
   2769003661.4144001     
   2771981554.7600055     
   2777468863.8961225     
   2923055470.2024951     
   2893176118.2679081     
   2870650460.7887130     
   2855704775.5112391     
   2848589110.8048625     
   3137841793.3195796     
   3073765836.1324391     
   3020756528.5478539     
   2979258520.8288569     
   2949835973.0837326     
   3416958786.2730083     
   3311924267.5683184     
   3220386125.6944451     
   3142941464.4952168     
   3080536220.9849224     
   3760325621.4740877     
   3607156801.1190534     
   3468784970.6503663     
   3345788376.9951043     
   3239431938.1338983     
   2777468863.8961225     
   2776641344.3534274     
   2776014048.8139958     
   2775582788.6194530     
   2775457274.0602040     
   2848589110.8048625     
   2835036513.0904469     
   2823148938.3836637     
   2813028230.8742871     
   2804820533.2671995     
   2949835973.0837326     
   2924249775.0012903     
   2901904918.1366420     
   2882947710.0472193     
   2867537460.0814934     
   3080536220.9849224     
   3042891761.0984745     
   3010105154.2801433     
   2982325862.5280700     
   2959720450.7814140     
   3239431938.1338983     
   3189002302.6039810     
   3145031711.6328197     
   3107654381.0717545     
   3077058109.5559225     
   2775457274.0602040     
   2704249160.0391555     
   2647907613.6339192     
   2606818316.9389663     
   2581397118.6291728     
   2804820533.2671995     
   2722945888.4909544     
   2653844812.0926499     
   2598099479.5105681     
   2556336922.0784044     
   2867537460.0814934     
   2772921582.2126904     
   2688858927.7421627     
   2616048847.8910828     
   2555263395.4035087     
   2959720450.7814140     
   2851767574.5843735     
   2752040043.1081295     
   2661246287.8567262     
   2580194177.9928017     
   3077058109.5559225     
   2956447633.8086357     
   2841706467.3759995     
   2733447346.6496572     
   2632393631.5715251     
   2581397118.6291728     
   2583674461.9478817     
   2591646799.4550142     
   2605414998.6249990     
   2625075022.6003823     
   2556336922.0784044     
   2546371804.3314877     
   2542705308.1760893     
   2545514135.5473466     
   2554969429.5017471     
   2555263395.4035087     
   2531370302.9638467     
   2514259943.9534416     
   2504209203.9566255     
   2501494164.6393747     
   2580194177.9928017     
   2540820884.4677854     
   2508535233.9102130     
   2483731829.5841784     
   2466818619.3629203     
   2632393631.5715251     
   2576230578.2710147     
   2527236631.2216759     
   2485926646.4122624     
   2452855108.6658425     
   2625075022.6003823     
   2602379661.9841208     
   2590957516.2207785     
   2590993094.0860996     
   2602642116.3641829     
   2554969429.5017471     
   2520913328.0787945     
   2497650933.6904788     
   2485483551.7879257     
   2484676581.2202945     
   2501494164.6393747     
   2454290378.0220027     
   2417316405.7163925     
   2391011418.2834020     
   2375781895.4001665     
   2466818619.3629203     
   2405111597.8437371     
   2352896097.8668671     
   2310750837.5590429     
   2279240589.6299376     
   2452855108.6658425     
   2375876707.7721429     
   2307417825.1327906     
   2248167984.4581685     
   2198837379.1140218     
   2602642116.3641829     
   2591888340.6278501     
   2591833378.9646387     
   2602545271.8515444     
   2624114536.5080590     
   2484676581.2202945     
   2466889661.8655024     
   2460747322.6307459     
   2466373006.3445315     
   2483891583.5012460     
   2375781895.4001665     
   2348542314.2880702     
   2334039865.0823302     
   2332514027.0557022     
   2344175468.6623049     
   2279240589.6299376     
   2239725881.8998671     
   2214128030.8926301     
   2202895329.5964551     
   2206410508.5766969     
   2198837379.1140218     
   2143896205.6168137     
   2104018398.4395206     
   2079990035.5408416     
   2072500621.8388619     
   2624114536.5080590     
   2585235053.1581850     
   2552369614.3775444     
   2526097564.6162381     
   2507220370.5186200     
   2483891583.5012460     
   2450850660.0685945     
   2426447628.3107686     
   2411629060.6443868     
   2407770697.3460011     
   2344175468.6623049     
   2319482851.1654325     
   2306355078.2162514     
   2306201457.9753833     
   2321117764.2571926     
   2206410508.5766969     
   2191900961.0487990     
   2192370501.5287123     
   2209793049.6971922     
   2247105727.0200377     
   2072500621.8388619     
   2069064510.1161513     
   2084806372.3808184     
   2122359849.5658996     
   2185564399.2992058     
   2507220370.5186200     
   2357042032.5819173     
   2214982048.4799213     
   2086034341.1810689     
   1977099360.8452115     
   2407770697.3460011     
   2282660087.1375213     
   2168022481.7353230     
   2070603208.5924187     
   1999179273.0284343     
   2321117764.2571926     
   2224549890.7220860     
   2141299305.0892234     
   2079725198.6290758     
   2049989133.5264103     
   2247105727.0200377     
   2182503419.8755002     
   2134342517.1355734     
   2112270260.6157839     
   2127191728.8086355     
   2185564399.2992058     
   2156227316.5418015     
   2146505312.1859875     
   2166888242.9361191     
   2228400386.2868381     
   3760325621.4740877     
   3607156801.1190534     
   3468784970.6503663     
   3345788376.9951043     
   3239431938.1338983     
   3987104846.7393026     
   3836596805.0181627     
   3689899234.6126528     
   3547430960.9687805     
   3409741268.9338193     
   4170970483.4121919     
   4040395642.5216022     
   3906567090.2127872     
   3768974553.0217147     
   3627144677.1589313     
   4295236256.0449553     
   4205738135.1402249     
   4109183241.8506742     
   4003572547.2692933     
   3887463943.6027980     
   4350418806.4131632     
   4324650959.8266821     
   4291164206.0960832     
   4245844702.7230959     
   4186365620.4259419     
   3239431938.1338983     
   3189002302.6039810     
   3145031711.6328197     
   3107654381.0717545     
   3077058109.5559225     
   3409741268.9338193     
   3342575635.1481304     
   3281384233.0008698     
   3226462524.3683562     
   3178175662.6342645     
   3627144677.1589313     
   3541057697.6545668     
   3460089811.3472123     
   3384598607.4328871     
   3315055533.7286935     
   3887463943.6027980     
   3780636888.2352462     
   3677847697.9862480     
   3579403174.1855373     
   3485780678.4587016     
   4186365620.4259419     
   4057222834.6203713     
   3930956687.5529213     
   3807714758.8828201     
   3687870621.5869136     
   3077058109.5559225     
   2956447633.8086357     
   2841706467.3759995     
   2733447346.6496572     
   2632393631.5715251     
   3178175662.6342645     
   3038917222.6912699     
   2905783924.2268281     
   2779439387.2103534     
   2660705180.9141364     
   3315055533.7286935     
   3156496306.3382058     
   3004090950.5700965     
   2858512539.7271814     
   2720646190.8480358     
   3485780678.4587016     
   3306993523.2912221     
   3134187684.8092847     
   2968006631.7761407     
   2809361844.4704199     
   3687870621.5869136     
   3487644245.5692539     
   3293058537.7670798     
   3104694767.8865080     
   2923456240.9487748     
   2632393631.5715251     
   2576230578.2710147     
   2527236631.2216759     
   2485926646.4122624     
   2452855108.6658425     
   2660705180.9141364     
   2591527779.0550065     
   2527559689.4013262     
   2469279652.5129943     
   2417217241.2750754     
   2720646190.8480358     
   2640129469.2509661     
   2562971347.7157378     
   2489543060.1708565     
   2420264223.5282345     
   2809361844.4704199     
   2720092846.3328476     
   2632573483.8368020     
   2547030755.3920717     
   2463724361.3457522     
   2923456240.9487748     
   2828610951.4397364     
   2734257055.5208077     
   2640484409.1836696     
   2547396888.9237628     
   2452855108.6658425     
   2375876707.7721429     
   2307417825.1327906     
   2248167984.4581685     
   2198837379.1140218     
   2417217241.2750754     
   2321323980.2364063     
   2233442935.6766195     
   2154428227.7267075     
   2085222791.0518568     
   2420264223.5282345     
   2305049946.5487742     
   2196890934.6977105     
   2096710087.4265225     
   2005601168.0077872     
   2463724361.3457522     
   2329671508.4469504     
   2201386650.2072597     
   2079722715.2528737     
   1965765709.3237429     
   2547396888.9237628     
   2395744820.4392881     
   2248454902.3608594     
   2106182166.6232066     
   1969826515.0603883     
   2198837379.1140218     
   2143896205.6168137     
   2104018398.4395206     
   2079990035.5408416     
   2072500621.8388619     
   2085222791.0518568     
   2010662916.7107382     
   1948432346.5746970     
   1899603960.1198816     
   1865199712.2399099     
   2005601168.0077872     
   1910268598.1249933     
   1823587765.6850996     
   1746718240.9673066     
   1680905849.4125128     
   1965765709.3237429     
   1851491129.2842777     
   1741443759.3890772     
   1636477977.1413531     
   1537636851.9533958     
   1969826515.0603883     
   1841937132.3296978     
   1713991466.0469542     
   1586271784.4229124     
   1459187903.6092851     
   2072500621.8388619     
   2069064510.1161513     
   2084806372.3808184     
   2122359849.5658996     
   2185564399.2992058     
   1865199712.2399099     
   1854770379.9992547     
   1867302342.6374862     
   1905003814.3204236     
   1970913310.3722045     
   1680905849.4125128     
   1652393170.3154647     
   1651624314.7000129     
   1680975063.9582939     
   1743050992.4306185     
   1537636851.9533958     
   1476564325.8369675     
   1448209394.9337325     
   1456570277.8094521     
   1504947573.8158486     
   1459187903.6092851     
   1349739655.6153960     
   1275242959.5746593     
   1243891808.5836105     
   1262776768.8224044     
   2185564399.2992058     
   2156227316.5418015     
   2146505312.1859875     
   2166888242.9361191     
   2228400386.2868381     
   1970913310.3722045     
   1968986828.8304551     
   2003629677.0002017     
   2093495349.0808101     
   2257212499.7979002     
   1743050992.4306185     
   1787757018.8746939     
   1884634526.8533599     
   2060583497.7923625     
   2340823953.2937140     
   1504947573.8158486     
   1613251846.1801829     
   1788778320.9202149     
   2066276870.5493107     
   2475967096.1969528     
   1262776768.8224044     
   1446510913.1592674     
   1715496247.9244862     
   2110314820.1767175     
   2663438918.3731933     
   4350418806.4131632     
   4324650959.8266821     
   4291164206.0960832     
   4245844702.7230959     
   4186365620.4259419     
   4584320101.2318621     
   4535488773.8552980     
   4491752869.7183771     
   4452919270.9316216     
   4419035103.8918743     
   5136027023.7075319     
   4985518915.5009003     
   4852127884.7468939     
   4729505244.0201435     
   4615947148.4483824     
   6012455919.6634274     
   5677111473.8249216     
   5369100219.8274345     
   5069147400.2375546     
   4769790088.1142292     
   7220638093.7583876     
   6609191739.6059313     
   6035793570.7799215     
   5464843243.0244627     
   4877994457.7664366     
   4186365620.4259419     
   4057222834.6203713     
   3930956687.5529213     
   3807714758.8828201     
   3687870621.5869136     
   4419035103.8918743     
   4288026951.7160439     
   4156642389.7647929     
   4024955286.9030108     
   3893065356.9300556     
   4615947148.4483824     
   4493330456.9239368     
   4370100542.7379665     
   4245819268.3058186     
   4120104897.2144747     
   4769790088.1142292     
   4666483938.6270084     
   4565222872.3268166     
   4464570800.0477505     
   4363407073.4163723     
   4877994457.7664366     
   4804211258.6445341     
   4738281613.0465450     
   4677112844.6355610     
   4618417462.1930456     
   3687870621.5869136     
   3487644245.5692539     
   3293058537.7670798     
   3104694767.8865080     
   2923456240.9487748     
   3893065356.9300556     
   3676692576.5409861     
   3463269992.7064199     
   3253101103.4650254     
   3046667483.4966736     
   4120104897.2144747     
   3892587860.9603362     
   3666110906.8795314     
   3440759351.9680729     
   3216679882.3701038     
   4363407073.4163723     
   4130212644.4827981     
   3896885616.9577842     
   3663407436.5135331     
   3429764172.6937628     
   4618417462.1930456     
   4385194905.5810061     
   4151311699.7113023     
   3916766870.0529361     
   3681570970.9720979     
   2923456240.9487748     
   2828610951.4397364     
   2734257055.5208077     
   2640484409.1836696     
   2547396888.9237628     
   3046667483.4966736     
   2941585382.7082968     
   2838346598.4206672     
   2737151883.0942979     
   2638255164.0784011     
   3216679882.3701038     
   3097322823.9552560     
   2980278882.2581925     
   2865777425.2262111     
   2754186545.5588012     
   3429764172.6937628     
   3291338216.2764616     
   3154866181.8892288     
   3020530157.6963787     
   2888775801.7572045     
   3681570970.9720979     
   3518805627.9231687     
   3356947678.8029418     
   3196055409.4155660     
   3036598483.6280146     
   2547396888.9237628     
   2395744820.4392881     
   2248454902.3608594     
   2106182166.6232066     
   1969826515.0603883     
   2638255164.0784011     
   2477734565.5300465     
   2318932466.5795016     
   2162171644.0640016     
   2007900183.5712383     
   2754186545.5588012     
   2589251801.6310210     
   2424269827.0483465     
   2259311610.9665284     
   2094478665.0804775     
   2888775801.7572045     
   2724342806.4765120     
   2558983812.9316936     
   2392670024.8932738     
   2225384725.6118383     
   3036598483.6280146     
   2877636924.0113144     
   2717654627.8863130     
   2556664922.1689692     
   2394748317.7996964     
   1969826515.0603883     
   1841937132.3296978     
   1713991466.0469542     
   1586271784.4229124     
   1459187903.6092851     
   2007900183.5712383     
   1873674076.5322223     
   1739993455.4418895     
   1606967584.9155502     
   1474747600.9440327     
   2094478665.0804775     
   1956108432.1460629     
   1819090301.2927096     
   1683450095.2295642     
   1549257101.9501987     
   2225384725.6118383     
   2083237269.3264325     
   1943149594.3456998     
   1805107707.6377842     
   1669207993.8731415     
   2394748317.7996964     
   2247495286.7722583     
   2102715470.0218081     
   1960379498.1508515     
   1820681477.0889375     
   1459187903.6092851     
   1349739655.6153960     
   1275242959.5746593     
   1243891808.5836105     
   1262776768.8224044     
   1474747600.9440327     
   1330099189.5012286     
   1199804329.1907349     
   1088374215.3865719     
   1001746605.5799978     
   1549257101.9501987     
   1399075343.6360161     
   1245158921.5287495     
   1085242361.4815333     
   917295325.17812395     
   1669207993.8731415     
   1553664729.3867157     
   1428783913.2504849     
   1294984448.8216062     
   1158524670.2014115     
   1820681477.0889375     
   1780161777.0328236     
   1735868168.7449071     
   1696599844.2535944     
   1681125704.0811322     
   1262776768.8224044     
   1446510913.1592674     
   1715496247.9244862     
   2110314820.1767175     
   2663438918.3731933     
   1001746605.5799978     
   1164414744.8401253     
   1425157706.8396518     
   1808570248.0637343     
   2334804647.7703400     
   917295325.17812395     
   962687004.20937061     
   1144626403.7552972     
   1476412246.6566892     
   1957785624.4738119     
   1158524670.2014115     
   1008004905.9064800     
   984987419.65958571     
   1161688152.8001740     
   1544950938.9624550     
   1681125704.0811322     
   1383540163.6918907     
   1129485878.2304549     
   1010802668.9290783     
   1154707338.8253443     
 </DataArray>
 <DataArray  type="Float64" Name="strain" NumberOfComponents="3" format="ascii">
  0.12104788443246672       -2.8927774134663076E-002   1.5730414788504454E-002
  0.11088546935927757       -2.8751293924622390E-002   1.4685630229593905E-004
  0.10072305428608830       -2.8272953052264849E-002  -9.4519105089232447E-003
   9.0560639212899086E-002  -2.7492751517589453E-002  -1.3065885645152764E-002
   8.0398224139709873E-002  -2.6410689320597425E-002  -1.0695069106393063E-002
   9.9807790381132078E-002  -2.7457026057649658E-002   1.7504599657526487E-002
   9.4706898144063245E-002  -2.7065130815570992E-002   6.9848428460774770E-003
   8.9606005906994635E-002  -2.6481742931444785E-002   6.0334003188045049E-004
   8.4505113669925913E-002  -2.5706862405270814E-002  -1.6399087850652028E-003
   7.9404221432857136E-002  -2.4740489237049634E-002   2.5509639524090577E-004
   8.4308090191243745E-002  -2.5986277980636296E-002   1.9549383568721268E-002
   8.2422183112557779E-002  -2.5378967706519373E-002   1.3983060411762782E-002
   8.0536276033871618E-002  -2.4690532810624555E-002   1.0708453574317878E-002
   7.8650368955185485E-002  -2.3920973292951897E-002   9.7255630563864992E-003
   7.6764461876499379E-002  -2.3070289153501566E-002   1.1034388857969119E-002
   7.4548783862802115E-002  -2.4515529903622935E-002   2.1864766522089352E-002
   7.4031324264760667E-002  -2.3692804597467795E-002   2.1141508999351050E-002
   7.3513864666719289E-002  -2.2899322689804519E-002   2.0863430118388704E-002
   7.2996405068677911E-002  -2.2135084180633174E-002   2.1030529879202522E-002
   7.2478945470636533E-002  -2.1400089069953637E-002   2.1642808281791555E-002
   7.0529871395806853E-002  -2.3044781826609517E-002   2.4450748517630017E-002
   6.9534321600672300E-002  -2.2006641488416301E-002   2.8460188608842862E-002
   6.8538771805537718E-002  -2.1108112568984469E-002   3.1068269664093345E-002
   6.7543222010403151E-002  -2.0349195068314240E-002   3.2274991683382090E-002
   6.6547672215268527E-002  -1.9729888986405653E-002   3.2080354666708444E-002
   8.0398224139709873E-002  -2.6410689320597425E-002  -1.0695069106393063E-002
   7.9598214656313671E-002  -2.5237401224033063E-002  -6.0664962702445813E-003
   7.8798205172917468E-002  -2.4183521990640972E-002  -2.5210183936127950E-003
   7.7998195689521266E-002  -2.3249051620420950E-002  -5.8635476497814754E-005
   7.7198186206125063E-002  -2.2433990113373325E-002   1.3206524811004705E-003
   7.9404221432857136E-002  -2.4740489237049634E-002   2.5509639524090577E-004
   7.7712827404777834E-002  -2.3713920305356406E-002   3.3343678075798411E-003
   7.6021433376698366E-002  -2.2758452488766651E-002   5.7139650900691341E-003
   7.4330039348619009E-002  -2.1874085787280985E-002   7.3938882427092567E-003
   7.2638645320539597E-002  -2.1060820200898278E-002   8.3741372654990709E-003
   7.6764461876499379E-002  -2.3070289153501566E-002   1.1034388857969119E-002
   7.4565104133403948E-002  -2.2190439386679639E-002   1.2612666594567140E-002
   7.2365746390308489E-002  -2.1333382986892788E-002   1.3874691030983058E-002
   7.0166388647213029E-002  -2.0499119954140579E-002   1.4820462167216157E-002
   6.7967030904117542E-002  -1.9687650288423397E-002   1.5449980003266639E-002
   7.2478945470636533E-002  -2.1400089069953637E-002   2.1642808281791555E-002
   7.0155044842192149E-002  -2.0666958468003038E-002   2.1768400090717836E-002
   6.7831144213747682E-002  -1.9908313485018751E-002   2.1961159429128439E-002
   6.5507243585303243E-002  -1.9124154121000506E-002   2.2221086297023920E-002
   6.3183342956858832E-002  -1.8314480375948433E-002   2.2548180694403938E-002
   6.6547672215268527E-002  -1.9729888986405653E-002   3.2080354666708444E-002
   6.4482649531142300E-002  -1.9143477549326549E-002   3.0801568296031173E-002
   6.2417626847016044E-002  -1.8483243983144729E-002   2.9973370284505835E-002
   6.0352604162889775E-002  -1.7749188287860516E-002   2.9595760632132040E-002
   5.8287581478763506E-002  -1.6941310463473469E-002   2.9668739338910122E-002
   7.7198186206125063E-002  -2.2433990113373325E-002   1.3206524811004705E-003
   7.3209258032073510E-002  -2.1641902734141294E-002   6.5354504094150556E-004
   6.9220329858021956E-002  -2.0776354747366776E-002   9.7707051148199220E-006
   6.5231401683970403E-002  -1.9837346153051175E-002  -6.1067052637858721E-004
   6.1242473509918849E-002  -1.8824876951192837E-002  -1.2077786535397150E-003
   7.2638645320539597E-002  -2.1060820200898278E-002   8.3741372654990709E-003
   6.8709110100941939E-002  -2.0260601712219384E-002   7.6902499082439624E-003
   6.4779574881344310E-002  -1.9415376303842824E-002   7.1018153555639507E-003
   6.0850039661746638E-002  -1.8525143975769737E-002   6.6088336074591331E-003
   5.6920504442148967E-002  -1.7589904727998706E-002   6.2113046639293845E-003
   6.7967030904117542E-002  -1.9687650288423397E-002   1.5449980003266639E-002
   6.4169008339216169E-002  -1.8879300690297335E-002   1.4720859041071205E-002
   6.0370985774314739E-002  -1.8054397860318955E-002   1.4159310583693074E-002
   5.6572963209413338E-002  -1.7212941798488181E-002   1.3765334631132352E-002
   5.2774940644511936E-002  -1.6354932504804409E-002   1.3538931183388919E-002
   6.3183342956858832E-002  -1.8314480375948433E-002   2.2548180694403938E-002
   5.9588952746896073E-002  -1.7497999668375577E-002   2.1745372439423136E-002
   5.5994562536933253E-002  -1.6693419416794711E-002   2.1182256389501726E-002
   5.2400172326970432E-002  -1.5900739621206351E-002   2.0858832544640212E-002
   4.8805782117007673E-002  -1.5119960281610306E-002   2.0775100904838702E-002
   5.8287581478763506E-002  -1.6941310463473469E-002   2.9668739338910122E-002
   5.4968943323981639E-002  -1.6116698646453625E-002   2.8763790103299325E-002
   5.1650305169199828E-002  -1.5332440973270994E-002   2.8170652772990384E-002
   4.8331667014417934E-002  -1.4588537443925041E-002   2.7889327347983495E-002
   4.5013028859636151E-002  -1.3884988058415870E-002   2.7919813828279016E-002
   6.1242473509918849E-002  -1.8824876951192837E-002  -1.2077786535397150E-003
   5.8573353163200892E-002  -1.7820232314007534E-002  -1.4873531057583156E-003
   5.5904232816483046E-002  -1.6904697413709896E-002  -1.2901278908734048E-003
   5.3235112469765200E-002  -1.6078272250298169E-002  -6.1610300888528813E-004
   5.0565992123047243E-002  -1.5340956823774565E-002   5.3472154020672846E-004
   5.6920504442148967E-002  -1.7589904727998706E-002   6.2113046639293845E-003
   5.4669243761691744E-002  -1.6663600166911929E-002   5.9732024660247851E-003
   5.2417983081234437E-002  -1.5800171898889520E-002   6.0940199335381418E-003
   5.0166722400777145E-002  -1.4999619923932651E-002   6.5737570664692879E-003
   4.7915461720319852E-002  -1.4261944242039748E-002   7.4124138648178350E-003
   5.2774940644511936E-002  -1.6354932504804409E-002   1.3538931183388919E-002
   5.0823659628629614E-002  -1.5506968019815881E-002   1.3368534683620759E-002
   4.8872378612747291E-002  -1.4695646384069824E-002   1.3439177847584319E-002
   4.6921097596864969E-002  -1.3920967597566249E-002   1.3750860675280842E-002
   4.4969816580982647E-002  -1.3182931660305153E-002   1.4303583166708989E-002
   4.8805782117007673E-002  -1.5119960281610306E-002   2.0775100904838702E-002
   4.7036600764014613E-002  -1.4350335872720055E-002   2.0698643547029223E-002
   4.5267419411021664E-002  -1.3591120869250232E-002   2.0745345851266393E-002
   4.3498238058028618E-002  -1.2842315271200179E-002   2.0915207817549936E-002
   4.1729056705035669E-002  -1.2103919078570446E-002   2.1208229445880133E-002
   4.5013028859636151E-002  -1.3884988058415870E-002   2.7919813828279016E-002
   4.3308067167846853E-002  -1.3193703725624395E-002   2.7963529056250769E-002
   4.1603105476057528E-002  -1.2486595354430197E-002   2.8012523944582979E-002
   3.9898143784268161E-002  -1.1763662944834274E-002   2.8066798493276535E-002
   3.8193182092478906E-002  -1.1024906496835851E-002   2.8126352702330659E-002
   5.0565992123047243E-002  -1.5340956823774565E-002   5.3472154020672846E-004
   4.7901326802268773E-002  -1.4612574358428887E-002   6.0089937816454331E-004
   4.5236661481490248E-002  -1.3812948078552045E-002   5.1956160776478466E-004
   4.2571996160711723E-002  -1.2942077984145983E-002   2.9070822900756355E-004
   3.9907330839933253E-002  -1.1999964075208203E-002  -8.5660758107453105E-005
   4.7915461720319852E-002  -1.4261944242039748E-002   7.4124138648178350E-003
   4.5146220465328901E-002  -1.3529444979002880E-002   7.2883002752534010E-003
   4.2376979210337895E-002  -1.2744422260612620E-002   7.1025504256213567E-003
   3.9607737955346889E-002  -1.1906876086869092E-002   6.8551643159222853E-003
   3.6838496700355994E-002  -1.1016806457773143E-002   6.5461419461556591E-003
   4.4969816580982647E-002  -1.3182931660305153E-002   1.4303583166708989E-002
   4.2181878740069678E-002  -1.2446315599577096E-002   1.3970457790444368E-002
   3.9393940899156654E-002  -1.1675896442673195E-002   1.3661575502402823E-002
   3.6606003058243602E-002  -1.0871674189593311E-002   1.3376936302584616E-002
   3.3818065217330634E-002  -1.0033648840337306E-002   1.3116540190989956E-002
   4.1729056705035669E-002  -1.2103919078570446E-002   2.1208229445880133E-002
   3.9008301626491139E-002  -1.1363186220151200E-002   2.0647371923737876E-002
   3.6287546547946595E-002  -1.0607370624733437E-002   2.0196636838109905E-002
   3.3566791469402044E-002  -9.8364722923169751E-003   1.9856024188995146E-002
   3.0846036390857520E-002  -9.0504912229018575E-003   1.9625533976394410E-002
   3.8193182092478906E-002  -1.1024906496835851E-002   2.8126352702330659E-002
   3.5625489124593290E-002  -1.0280056840725305E-002   2.7319042675133964E-002
   3.3057796156707703E-002  -9.5388448067938725E-003   2.6707734432741825E-002
   3.0490103188822143E-002  -8.8012703950406876E-003   2.6292427975153854E-002
   2.7922410220936555E-002  -8.0673336054666311E-003   2.6073123302369550E-002
   3.9907330839933253E-002  -1.1999964075208203E-002  -8.5660758107453105E-005
   3.7486538120375612E-002  -1.1115459376631165E-002  -3.9095827445390086E-004
   3.5065745400818138E-002  -1.0417416913304112E-002  -5.6622933079975013E-004
   3.2644952681260553E-002  -9.9058366852282365E-003  -6.1147392714588911E-004
   3.0224159961703023E-002  -9.5807186924028453E-003  -5.2669206349187370E-004
   3.6838496700355994E-002  -1.1016806457773143E-002   6.5461419461556591E-003
   3.4522407491018481E-002  -1.0165014823213858E-002   6.1061532967422449E-003
   3.2206318281681079E-002  -9.4423026330828774E-003   5.7455452077676550E-003
   2.9890229072343649E-002  -8.8486698873786740E-003   5.4643176792337211E-003
   2.7574139863006164E-002  -8.3841165861040512E-003   5.2624707111397218E-003
   3.3818065217330634E-002  -1.0033648840337306E-002   1.3116540190989956E-002
   3.1556033618652946E-002  -9.2145702697965515E-003   1.2599243199331200E-002
   2.9294002019975202E-002  -8.4671883528603664E-003   1.2110680868552076E-002
   2.7031970421297541E-002  -7.7915030895300136E-003   1.1650853198652333E-002
   2.4769938822619797E-002  -7.1875144798047019E-003   1.1219760189632444E-002
   3.0846036390857520E-002  -9.0504912229018575E-003   1.9625533976394410E-002
   2.8587416503279145E-002  -8.2641257163792448E-003   1.9088311433313881E-002
   2.6328796615700666E-002  -7.4920740726384938E-003   1.8529177651552209E-002
   2.4070176728122169E-002  -6.7343362916809021E-003   1.7948132631109580E-002
   2.1811556840543762E-002  -5.9909123735054082E-003   1.7345176371986029E-002
   2.7922410220936555E-002  -8.0673336054666311E-003   2.6073123302369550E-002
   2.5616556144896940E-002  -7.3136811629617160E-003   2.5573357998689428E-002
   2.3310702068857270E-002  -6.5169597924166767E-003   2.5001035556768025E-002
   2.1004847992817682E-002  -5.6771694938316936E-003   2.4356155976605481E-002
   1.8698993916778039E-002  -4.7943102672063365E-003   2.3638719258201157E-002
   3.0224159961703023E-002  -9.5807186924028453E-003  -5.2669206349187370E-004
   2.9610190376542778E-002  -9.1388985762171915E-003  -3.0888632800962768E-004
   2.8996220791382532E-002  -8.2772119780599174E-003  -1.7752439555721589E-003
   2.8382251206222259E-002  -6.9956588979311479E-003  -4.9257649461802444E-003
   2.7768281621062041E-002  -5.2942393358308415E-003  -9.7604492998324410E-003
   2.7574139863006164E-002  -8.3841165861040512E-003   5.2624707111397218E-003
   2.5546119398967781E-002  -7.8733961620095494E-003   5.9168480751176089E-003
   2.3518098934929232E-002  -7.1412620478493727E-003   5.4272870443829446E-003
   2.1490078470890711E-002  -6.1877142436248256E-003   3.7937876189371444E-003
   1.9462058006852190E-002  -5.0127527493339930E-003   1.0163497987794035E-003
   2.4769938822619797E-002  -7.1875144798047019E-003   1.1219760189632444E-002
   2.1868092448036197E-002  -6.6078937478022959E-003   1.2112256390199250E-002
   1.8966246073452556E-002  -6.0053121176399105E-003   1.2401039164387700E-002
   1.6064399698868907E-002  -5.3797695893182743E-003   1.2086108512197560E-002
   1.3162553324285231E-002  -4.7312661628369224E-003   1.1167464433628815E-002
   2.1811556840543762E-002  -5.9909123735054082E-003   1.7345176371986029E-002
   1.8576109523748156E-002  -5.3423913335948481E-003   1.8277338617236377E-002
   1.5340662206952533E-002  -4.8693621874301291E-003   1.9146012404441602E-002
   1.2105214890156859E-002  -4.5718249350118374E-003   1.9951197733601485E-002
   8.8697675733613104E-003  -4.4497795763397407E-003   2.0692894604716100E-002
   1.8698993916778039E-002  -4.7943102672063365E-003   2.3638719258201157E-002
   1.5670170626103541E-002  -4.0768889193872337E-003   2.4412094756229519E-002
   1.2641347335429154E-002  -3.7334122572201811E-003   2.5662206764545670E-002
   9.6125240447547111E-003  -3.7638802807053590E-003   2.7389055283149416E-002
   6.5837007540802683E-003  -4.1682929898427812E-003   2.9592640312041008E-002
   2.7768281621062041E-002  -5.2942393358308415E-003  -9.7604492998324410E-003
   2.3348646242196680E-002  -4.2007980573768311E-003  -4.2077469497967535E-003
   1.8929010863331208E-002  -4.7431798281853954E-003   2.6047777445037390E-003
   1.4509375484465875E-002  -6.9213846482565899E-003   1.0677124783070369E-002
   1.0089740105600375E-002  -1.0735412517591136E-002   2.0009294165903135E-002
   1.9462058006852190E-002  -5.0127527493339930E-003   1.0163497987794035E-003
   1.6230472560533837E-002  -4.6869231777357800E-003   6.7262483763816938E-003
   1.2998887114215429E-002  -6.2807711415885925E-003   1.3552424474812863E-002
   9.7673016678970215E-003  -9.7942966408920279E-003   2.1494878094072301E-002
   6.5357162215786690E-003  -1.5227499675646960E-002   3.0553609234160284E-002
   1.3162553324285231E-002  -4.7312661628369224E-003   1.1167464433628815E-002
   1.0975472987076546E-002  -5.1730482980950621E-003   1.6750704752610923E-002
   8.7883926498678322E-003  -7.8183624549920117E-003   2.3306677768984152E-002
   6.6013123126592091E-003  -1.2667208633528243E-002   3.0835383482747419E-002
   4.4142319754503778E-003  -1.9719586833702341E-002   3.9336821893902973E-002
   8.8697675733613104E-003  -4.4497795763397407E-003   2.0692894604716100E-002
   7.5836475218249225E-003  -5.6591734184546216E-003   2.5865622178889783E-002
   6.2975274702884200E-003  -9.3559537683950977E-003   3.1867537627016801E-002
   5.0114074187520442E-003  -1.5540120626163181E-002   3.8698640949097862E-002
   3.7252873672156545E-003  -2.4211673991757943E-002   4.6358932145132759E-002
   6.5837007540802683E-003  -4.1682929898427812E-003   2.9592640312041008E-002
   6.0549961647788364E-003  -6.1452985388132930E-003   3.4071000655217953E-002
   5.5262915754773767E-003  -1.0893545081798628E-002   3.9235004048911781E-002
   4.9975869861758754E-003  -1.8413032618798897E-002   4.5084650493121381E-002
   4.4688823968744851E-003  -2.8703761149813545E-002   5.1619939987847197E-002
   7.0529871395806853E-002  -2.3044781826609517E-002   2.4450748517630017E-002
   6.9534321600672300E-002  -2.2006641488416301E-002   2.8460188608842862E-002
   6.8538771805537718E-002  -2.1108112568984469E-002   3.1068269664093345E-002
   6.7543222010403151E-002  -2.0349195068314240E-002   3.2274991683382090E-002
   6.6547672215268527E-002  -1.9729888986405653E-002   3.2080354666708444E-002
   6.8489250013904046E-002  -2.0903029184988653E-002   3.1639952299159002E-002
   6.6370600655604101E-002  -2.0058224396293123E-002   3.4029110735041612E-002
   6.4251951297304238E-002  -1.9303267062566937E-002   3.5573429080555413E-002
   6.2133301939004390E-002  -1.8638157183810143E-002   3.6272907335700960E-002
   6.0014652580704486E-002  -1.8062894760022652E-002   3.6127545500478087E-002
   6.4664816940739375E-002  -1.8761276543367789E-002   3.8610938549294080E-002
   6.1979586964867911E-002  -1.8109807304170070E-002   3.9429579293638550E-002
   5.9294356988996412E-002  -1.7498421556149495E-002   3.9959898893208064E-002
   5.6609127013124899E-002  -1.6927119299306022E-002   4.0201897348002752E-002
   5.3923897037253435E-002  -1.6395900533639679E-002   4.0155574658022761E-002
   5.9056572176313035E-002  -1.6619523901746938E-002   4.5363707268035236E-002
   5.6361280528463578E-002  -1.6161390212046996E-002   4.4661594284633753E-002
   5.3665988880614156E-002  -1.5693576049731980E-002   4.4227679102051075E-002
   5.0970697232764713E-002  -1.5216081414801911E-002   4.4061961720287229E-002
   4.8275405584915262E-002  -1.4728906307256748E-002   4.4164442139342244E-002
   5.1664515720624971E-002  -1.4477771260126060E-002   5.1898258455382706E-002
   4.9515681346391283E-002  -1.4212973119923922E-002   4.9725155708027546E-002
   4.7366846972157539E-002  -1.3888730543314506E-002   4.8376769707084460E-002
   4.5218012597923810E-002  -1.3505043530297797E-002   4.7853100452554434E-002
   4.3069178223690080E-002  -1.3061912080873705E-002   4.8154147944436843E-002
   6.6547672215268527E-002  -1.9729888986405653E-002   3.2080354666708444E-002
   6.4482649531142300E-002  -1.9143477549326549E-002   3.0801568296031173E-002
   6.2417626847016044E-002  -1.8483243983144729E-002   2.9973370284505835E-002
   6.0352604162889775E-002  -1.7749188287860516E-002   2.9595760632132040E-002
   5.8287581478763506E-002  -1.6941310463473469E-002   2.9668739338910122E-002
   6.0014652580704486E-002  -1.8062894760022652E-002   3.6127545500478087E-002
   5.8351413960761114E-002  -1.7502649607223031E-002   3.5309036446993125E-002
   5.6688175340817742E-002  -1.6882591541429834E-002   3.4843507162722304E-002
   5.5024936720874364E-002  -1.6202720562642974E-002   3.4730957647665428E-002
   5.3361698100931054E-002  -1.5463036670862351E-002   3.4971387901822609E-002
   5.3923897037253435E-002  -1.6395900533639679E-002   4.0155574658022761E-002
   5.2564833891555238E-002  -1.5861821665119680E-002   3.9783333705620982E-002
   5.1205770745857047E-002  -1.5281939099714877E-002   3.9666463932495670E-002
   4.9846707600158829E-002  -1.4656252837425486E-002   3.9804965338646733E-002
   4.8487644454460646E-002  -1.3984762878251400E-002   4.0198837924074055E-002
   4.8275405584915262E-002  -1.4728906307256748E-002   4.4164442139342244E-002
   4.7122909323524594E-002  -1.4220993723016190E-002   4.4224460071914939E-002
   4.5970413062133932E-002  -1.3681286657999895E-002   4.4442240593826246E-002
   4.4817916800743249E-002  -1.3109785112208124E-002   4.4817783705075991E-002
   4.3665420539352594E-002  -1.2506489085640476E-002   4.5351089405664742E-002
   4.3069178223690080E-002  -1.3061912080873705E-002   4.8154147944436843E-002
   4.2025640256669244E-002  -1.2580165780912811E-002   4.8632415545874774E-002
   4.0982102289648367E-002  -1.2080634216285080E-002   4.9170837146713609E-002
   3.9938564322627525E-002  -1.1563317386990554E-002   4.9769412746953498E-002
   3.8895026355606654E-002  -1.1028215293029331E-002   5.0428142346594429E-002
   5.8287581478763506E-002  -1.6941310463473469E-002   2.9668739338910122E-002
   5.4968943323981639E-002  -1.6116698646453625E-002   2.8763790103299325E-002
   5.1650305169199828E-002  -1.5332440973270994E-002   2.8170652772990384E-002
   4.8331667014417934E-002  -1.4588537443925041E-002   2.7889327347983495E-002
   4.5013028859636151E-002  -1.3884988058415870E-002   2.7919813828279016E-002
   5.3361698100931054E-002  -1.5463036670862351E-002   3.4971387901822609E-002
   5.0340846196658032E-002  -1.4709561037872854E-002   3.4067950955574522E-002
   4.7319994292385162E-002  -1.3988314835458704E-002   3.3448274605041947E-002
   4.4299142388112188E-002  -1.3299298063620096E-002   3.3112358850224892E-002
   4.1278290483839242E-002  -1.2642510722356781E-002   3.3060203691124057E-002
   4.8487644454460646E-002  -1.3984762878251400E-002   4.0198837924074055E-002
   4.5736527491110228E-002  -1.3302423429292012E-002   3.9305037980450083E-002
   4.2985410527759754E-002  -1.2644188697646649E-002   3.8666947322955558E-002
   4.0234293564409301E-002  -1.2010058683315099E-002   3.8284565951590070E-002
   3.7483176601058862E-002  -1.1400033386297637E-002   3.8157893866353848E-002
   4.3665420539352594E-002  -1.2506489085640476E-002   4.5351089405664742E-002
   4.1155987207338131E-002  -1.1895285820711261E-002   4.4475051177926488E-002
   3.8646553875323730E-002  -1.1300062559834505E-002   4.3826670926731273E-002
   3.6137120543309316E-002  -1.0720819303010240E-002   4.3405948652078627E-002
   3.3627687211294860E-002  -1.0157556050238409E-002   4.3212884353969125E-002
   3.8895026355606654E-002  -1.1028215293029331E-002   5.0428142346594429E-002
   3.6599225345341851E-002  -1.0488148212130399E-002   4.9577990548003492E-002
   3.4303424335077048E-002  -9.9559364220223601E-003   4.8927445416368842E-002
   3.2007623324812218E-002  -9.4315799227052549E-003   4.8476506951690645E-002
   2.9711822314547415E-002  -8.9150787141792920E-003   4.8225175153969069E-002
   4.5013028859636151E-002  -1.3884988058415870E-002   2.7919813828279016E-002
   4.3308067167846853E-002  -1.3193703725624395E-002   2.7963529056250769E-002
   4.1603105476057528E-002  -1.2486595354430197E-002   2.8012523944582979E-002
   3.9898143784268161E-002  -1.1763662944834274E-002   2.8066798493276535E-002
   3.8193182092478906E-002  -1.1024906496835851E-002   2.8126352702330659E-002
   4.1278290483839242E-002  -1.2642510722356781E-002   3.3060203691124057E-002
   3.9601865652188289E-002  -1.1993130263429241E-002   3.3083420464042751E-002
   3.7925440820537268E-002  -1.1326334138597904E-002   3.3158431296876928E-002
   3.6249015988886253E-002  -1.0642122347862507E-002   3.3285236189627115E-002
   3.4572591157235266E-002  -9.9404948912232838E-003   3.3463835142293341E-002
   3.7483176601058862E-002  -1.1400033386297637E-002   3.8157893866353848E-002
   3.5881803029101059E-002  -1.0792556801234338E-002   3.8162203811721307E-002
   3.4280429457143290E-002  -1.0166072922765279E-002   3.8264822216559358E-002
   3.2679055885185493E-002  -9.5205817508909607E-003   3.8465749080868070E-002
   3.1077682313227661E-002  -8.8560832856108829E-003   3.8764984404647346E-002
   3.3627687211294860E-002  -1.0157556050238409E-002   4.3212884353969125E-002
   3.2147879298585230E-002  -9.5919833390393089E-003   4.3199879099286589E-002
   3.0668071385875587E-002  -9.0058117069329313E-003   4.3331696703629852E-002
   2.9188263473165943E-002  -8.3990411539193038E-003   4.3608337166998440E-002
   2.7708455560456313E-002  -7.7716716799985097E-003   4.4029800489392791E-002
   2.9711822314547415E-002  -8.9150787141792920E-003   4.8225175153969069E-002
   2.8400094460640790E-002  -8.3914098768442247E-003   4.8196446326738585E-002
   2.7088366606734193E-002  -7.8455504911003338E-003   4.8359054758088715E-002
   2.5776638752827569E-002  -7.2775005569477511E-003   4.8713000448019378E-002
   2.4464910898921000E-002  -6.6872600743860255E-003   4.9258283396530378E-002
   3.8193182092478906E-002  -1.1024906496835851E-002   2.8126352702330659E-002
   3.5625489124593290E-002  -1.0280056840725305E-002   2.7319042675133964E-002
   3.3057796156707703E-002  -9.5388448067938725E-003   2.6707734432741825E-002
   3.0490103188822143E-002  -8.8012703950406876E-003   2.6292427975153854E-002
   2.7922410220936555E-002  -8.0673336054666311E-003   2.6073123302369550E-002
   3.4572591157235266E-002  -9.9404948912232838E-003   3.3463835142293341E-002
   3.2195761072838197E-002  -9.2312700202733522E-003   3.2774139075286590E-002
   2.9818930988441031E-002  -8.5242659866054116E-003   3.2270166990452709E-002
   2.7442100904043913E-002  -7.8194827902195244E-003   3.1951918887791905E-002
   2.5065270819646823E-002  -7.1169204311161138E-003   3.1819394767303777E-002
   3.1077682313227661E-002  -8.8560832856108829E-003   3.8764984404647346E-002
   2.8881437309687702E-002  -8.1824831998209557E-003   3.8194319082727329E-002
   2.6685192306147659E-002  -7.5096871664167425E-003   3.7799099940348663E-002
   2.4488947302607707E-002  -6.8376951853981426E-003   3.7579326977511172E-002
   2.2292702299067657E-002  -6.1665072567654855E-003   3.7535000194215185E-002
   2.7708455560456313E-002  -7.7716716799985097E-003   4.4029800489392791E-002
   2.5682517835141999E-002  -7.1336963793689478E-003   4.3579582697455814E-002
   2.3656580109827689E-002  -6.4951083462282885E-003   4.3294533282428729E-002
   2.1630642384513385E-002  -5.8559075805768700E-003   4.3174652244311384E-002
   1.9604704659199071E-002  -5.2160940824150237E-003   4.3219939583104508E-002
   2.4464910898921000E-002  -6.6872600743860255E-003   4.9258283396530378E-002
   2.2599002649200978E-002  -6.0849095589163849E-003   4.8929929919472537E-002
   2.0733094399480956E-002  -5.4805295260397235E-003   4.8756467016693450E-002
   1.8867186149760948E-002  -4.8741199757556253E-003   4.8737894688192923E-002
   1.7001277900040940E-002  -4.2656809080643399E-003   4.8874212933971095E-002
   2.7922410220936555E-002  -8.0673336054666311E-003   2.6073123302369550E-002
   2.5616556144896940E-002  -7.3136811629617160E-003   2.5573357998689428E-002
   2.3310702068857270E-002  -6.5169597924166767E-003   2.5001035556768025E-002
   2.1004847992817682E-002  -5.6771694938316936E-003   2.4356155976605481E-002
   1.8698993916778039E-002  -4.7943102672063365E-003   2.3638719258201157E-002
   2.5065270819646823E-002  -7.1169204311161138E-003   3.1819394767303777E-002
   2.2728942291140586E-002  -6.4132415891975936E-003   3.1470044395584928E-002
   2.0392613762634307E-002  -5.7051089443672098E-003   3.1132302257174116E-002
   1.8056285234127993E-002  -4.9925224966250598E-003   3.0806168352071617E-002
   1.5719956705621790E-002  -4.2754822459709629E-003   3.0491642680277431E-002
   2.2292702299067657E-002  -6.1665072567654855E-003   3.7535000194215185E-002
   2.0010064689644266E-002  -5.5128020154336932E-003   3.7297449629329571E-002
   1.7727427080220889E-002  -4.8932580963180483E-003   3.7155672669301615E-002
   1.5444789470797492E-002  -4.3078754994187521E-003   3.7109669314131177E-002
   1.3162151861374108E-002  -3.7566542247354784E-003   3.7159439563818286E-002
   1.9604704659199071E-002  -5.2160940824150237E-003   4.3219939583104508E-002
   1.7459923340408037E-002  -4.6123624416696263E-003   4.3055573699923702E-002
   1.5315142021616910E-002  -4.0814072482688452E-003   4.3071146793150099E-002
   1.3170360702825812E-002  -3.6232285022122258E-003   4.3266658862783622E-002
   1.1025579384034749E-002  -3.2378262034999938E-003   4.3642109908824236E-002
   1.7001277900040940E-002  -4.2656809080643399E-003   4.8874212933971095E-002
   1.5078518243431732E-002  -3.7119228679057814E-003   4.8744416607367169E-002
   1.3155758586822511E-002  -3.2695564002193367E-003   4.8878724628720227E-002
   1.1232998930213269E-002  -2.9385815050058453E-003   4.9277136998029547E-002
   9.3102392736040263E-003  -2.7189981822645093E-003   4.9939653715295518E-002
   1.8698993916778039E-002  -4.7943102672063365E-003   2.3638719258201157E-002
   1.5670170626103541E-002  -4.0768889193872337E-003   2.4412094756229519E-002
   1.2641347335429154E-002  -3.7334122572201811E-003   2.5662206764545670E-002
   9.6125240447547111E-003  -3.7638802807053590E-003   2.7389055283149416E-002
   6.5837007540802683E-003  -4.1682929898427812E-003   2.9592640312041008E-002
   1.5719956705621790E-002  -4.2754822459709629E-003   3.0491642680277431E-002
   1.3148737276669070E-002  -3.7726836242935602E-003   3.1263677023389558E-002
   1.0577517847716336E-002  -3.7028220634808262E-003   3.2474182579657590E-002
   8.0062984187636646E-003  -4.0658975635337880E-003   3.4123159349081264E-002
   5.4350789898108820E-003  -4.8619101244513629E-003   3.6210607331661038E-002
   1.3162151861374108E-002  -3.7566542247354784E-003   3.7159439563818286E-002
   1.1010270997011018E-002  -3.4684783291994148E-003   3.7871140376801560E-002
   8.8583901326480669E-003  -3.6722318697415546E-003   3.8983047105808438E-002
   6.7065092682850186E-003  -4.3679148463619880E-003   4.0495159750838644E-002
   4.5546284039220258E-003  -5.5555272590604998E-003   4.2407478311893176E-002
   1.1025579384034749E-002  -3.2378262034999938E-003   4.3642109908824236E-002
   9.2547717871295093E-003  -3.1642730341055053E-003   4.4234484816465552E-002
   7.4839641902242245E-003  -3.6416416760022968E-003   4.5188800342998096E-002
   5.7131565933189361E-003  -4.6699321291900804E-003   4.6505056488422319E-002
   3.9423489964136478E-003  -6.2491443936692481E-003   4.8183253252738548E-002
   9.3102392736040263E-003  -2.7189981822645093E-003   4.9939653715295518E-002
   7.8822396470244471E-003  -2.8600677390115403E-003   5.0353710342381230E-002
   6.4542400204448958E-003  -3.6110514822628448E-003   5.1091442291226585E-002
   5.0262403938653027E-003  -4.9719494120184851E-003   5.2152849561831666E-002
   3.5982407672857653E-003  -6.9427615282784405E-003   5.3537932154196444E-002
   6.5837007540802683E-003  -4.1682929898427812E-003   2.9592640312041008E-002
   6.0549961647788364E-003  -6.1452985388132930E-003   3.4071000655217953E-002
   5.5262915754773767E-003  -1.0893545081798628E-002   3.9235004048911781E-002
   4.9975869861758754E-003  -1.8413032618798897E-002   4.5084650493121381E-002
   4.4688823968744851E-003  -2.8703761149813545E-002   5.1619939987847197E-002
   5.4350789898108820E-003  -4.8619101244513629E-003   3.6210607331661038E-002
   5.4882683039144675E-003  -6.9929546755788108E-003   3.8349205749322657E-002
   5.5414576180179143E-003  -1.1361126146260947E-002   4.0965948923277429E-002
   5.5946469321214998E-003  -1.7966424536497660E-002   4.4060836853526353E-002
   5.6478362462250020E-003  -2.6808849846288396E-002   4.7633869540068874E-002
   4.5546284039220258E-003  -5.5555272590604998E-003   4.2407478311893176E-002
   4.9822133272078573E-003  -7.8406108123449947E-003   4.2740428878499492E-002
   5.4097982504936262E-003  -1.1828707210723710E-002   4.3344025907177092E-002
   5.8373831737793987E-003  -1.7519816454196480E-002   4.4218269397925211E-002
   6.2649680970652266E-003  -2.4913938542763470E-002   4.5363159350744975E-002
   3.9423489964136478E-003  -6.2491443936692481E-003   4.8183253252738548E-002
   4.5368312346591097E-003  -8.6882669491110676E-003   4.7244670042750264E-002
   5.1313134729044866E-003  -1.2296288275186251E-002   4.6369235000610187E-002
   5.7257957111498921E-003  -1.7073208371895493E-002   4.5556948126318740E-002
   6.3202779493952699E-003  -2.3019027239238543E-002   4.4807809419874750E-002
   3.5982407672857653E-003  -6.9427615282784405E-003   5.3537932154196444E-002
   4.1521220262680791E-003  -9.5359230858768074E-003   5.1861929242073779E-002
   4.7060032852503930E-003  -1.2763869339648848E-002   5.0041576203576743E-002
   5.2598845442327485E-003  -1.6626600289594243E-002   4.8076873038704449E-002
   5.8137658032150208E-003  -2.1124115935713395E-002   4.5967819747458893E-002
   5.1664515720624971E-002  -1.4477771260126060E-002   5.1898258455382706E-002
   4.9515681346391283E-002  -1.4212973119923922E-002   4.9725155708027546E-002
   4.7366846972157539E-002  -1.3888730543314506E-002   4.8376769707084460E-002
   4.5218012597923810E-002  -1.3505043530297797E-002   4.7853100452554434E-002
   4.3069178223690080E-002  -1.3061912080873705E-002   4.8154147944436843E-002
   4.3769052397123503E-002  -1.2896394527744104E-002   5.3938025369546727E-002
   4.2331264519246597E-002  -1.2632508117166402E-002   5.2484164703653247E-002
   4.0893476641369650E-002  -1.2316237391230209E-002   5.1627680284061173E-002
   3.9455688763492709E-002  -1.1947582349935548E-002   5.1368572110769867E-002
   3.8017900885615796E-002  -1.1526542993282485E-002   5.1706840183779718E-002
   3.6650587029257053E-002  -1.1315017795362231E-002   5.5980410614610607E-002
   3.5696505147625346E-002  -1.1052043114408883E-002   5.5238731909130548E-002
   3.4742423265993673E-002  -1.0743744239145918E-002   5.4867088949839972E-002
   3.3788341384361972E-002  -1.0390121169573328E-002   5.4865481736738914E-002
   3.2834259502730286E-002  -9.9911739056911530E-003   5.5233910269827394E-002
   3.0309119617025444E-002  -9.7336410629803166E-003   5.8025414190574595E-002
   2.9611403231527521E-002  -9.4715781116513492E-003   5.7988857324458978E-002
   2.8913686846029539E-002  -9.1712510870616513E-003   5.8094995704421240E-002
   2.8215970460531588E-002  -8.8326599892111224E-003   5.8343829330461477E-002
   2.7518254075033666E-002  -8.4558048180997936E-003   5.8735358202579704E-002
   2.4744650160428844E-002  -8.1522643305984022E-003   6.0073036097438581E-002
   2.4075958770953088E-002  -7.8911131088938713E-003   6.0734540949638594E-002
   2.3407267381477317E-002  -7.5987579349773710E-003   6.1311400547804790E-002
   2.2738575992001568E-002  -7.2751988088488699E-003   6.1803614891937572E-002
   2.2069884602525805E-002  -6.9204357305085451E-003   6.2211183982036733E-002
   4.3069178223690080E-002  -1.3061912080873705E-002   4.8154147944436843E-002
   4.2025640256669244E-002  -1.2580165780912811E-002   4.8632415545874774E-002
   4.0982102289648367E-002  -1.2080634216285080E-002   4.9170837146713609E-002
   3.9938564322627525E-002  -1.1563317386990554E-002   4.9769412746953498E-002
   3.8895026355606654E-002  -1.1028215293029331E-002   5.0428142346594429E-002
   3.8017900885615796E-002  -1.1526542993282485E-002   5.1706840183779718E-002
   3.7044303346938784E-002  -1.1075166165449193E-002   5.2075568115183615E-002
   3.6070705808261758E-002  -1.0615498710614360E-002   5.2524022903874090E-002
   3.5097108269584766E-002  -1.0147540628777641E-002   5.3052204549851337E-002
   3.4123510730907733E-002  -9.6712919199392622E-003   5.3660113053115632E-002
   3.2834259502730286E-002  -9.9911739056911530E-003   5.5233910269827394E-002
   3.1950175250282896E-002  -9.5701665499857702E-003   5.5483603893532116E-002
   3.1066090997835489E-002  -9.1503632049436401E-003   5.5832597232409409E-002
   3.0182006745388054E-002  -8.7317638705647835E-003   5.6280890286459148E-002
   2.9297922492940665E-002  -8.3143685468491380E-003   5.6828483055681306E-002
   2.7518254075033666E-002  -8.4558048180997936E-003   5.8735358202579704E-002
   2.6743255966701573E-002  -8.0651669345222499E-003   5.8856522880920456E-002
   2.5968257858369478E-002  -7.6852276992728924E-003   5.9096560132319363E-002
   2.5193259750037420E-002  -7.3159871123518426E-003   5.9455469956776585E-002
   2.4418261641705317E-002  -6.9574451737589860E-003   5.9933252354291963E-002
   2.2069884602525805E-002  -6.9204357305085451E-003   6.2211183982036733E-002
   2.1423545496194810E-002  -6.5601673190587295E-003   6.2194325077348400E-002
   2.0777206389863807E-002  -6.2200921936021863E-003   6.2315911603604029E-002
   2.0130867283532815E-002  -5.9002103541389260E-003   6.2575943560803635E-002
   1.9484528177201810E-002  -5.6005218006688895E-003   6.2974420948947007E-002
   3.8895026355606654E-002  -1.1028215293029331E-002   5.0428142346594429E-002
   3.6599225345341851E-002  -1.0488148212130399E-002   4.9577990548003492E-002
   3.4303424335077048E-002  -9.9559364220223601E-003   4.8927445416368842E-002
   3.2007623324812218E-002  -9.4315799227052549E-003   4.8476506951690645E-002
   2.9711822314547415E-002  -8.9150787141792920E-003   4.8225175153969069E-002
   3.4123510730907733E-002  -9.6712919199392622E-003   5.3660113053115632E-002
   3.2045342118953254E-002  -9.1938937286980549E-003   5.2766990896116639E-002
   2.9967173506998755E-002  -8.7224871996535863E-003   5.2109526868781952E-002
   2.7889004895044246E-002  -8.2570723328052216E-003   5.1687720971111559E-002
   2.5810836283089778E-002  -7.7976491281533944E-003   5.1501573203105167E-002
   2.9297922492940665E-002  -8.3143685468491380E-003   5.6828483055681306E-002
   2.7473437742004295E-002  -7.8996392452660436E-003   5.5894254168868937E-002
   2.5648952991067966E-002  -7.4890379772847571E-003   5.5231734874428812E-002
   2.3824468240131590E-002  -7.0825647429052993E-003   5.4840925172360680E-002
   2.1999983489195241E-002  -6.6802195421276633E-003   5.4721825062664681E-002
   2.4418261641705317E-002  -6.9574451737589860E-003   5.9933252354291963E-002
   2.2883512214494996E-002  -6.6053847618339490E-003   5.8959780366260733E-002
   2.1348762787284665E-002  -6.2555887549159833E-003   5.8294069433309594E-002
   1.9814013360074323E-002  -5.9080571530052660E-003   5.7936119555438328E-002
   1.8279263932864012E-002  -5.5627899561019045E-003   5.7885930732646952E-002
   1.9484528177201810E-002  -5.6005218006688895E-003   6.2974420948947007E-002
   1.8275565536425342E-002  -5.3111302784017433E-003   6.1963569488291792E-002
   1.7066602895648861E-002  -5.0221395325472096E-003   6.1296530545424277E-002
   1.5857640254872386E-002  -4.7335495631053853E-003   6.0973304120344657E-002
   1.4648677614095912E-002  -4.4453603700760902E-003   6.0993890213052515E-002
   2.9711822314547415E-002  -8.9150787141792920E-003   4.8225175153969069E-002
   2.8400094460640790E-002  -8.3914098768442247E-003   4.8196446326738585E-002
   2.7088366606734193E-002  -7.8455504911003338E-003   4.8359054758088715E-002
   2.5776638752827569E-002  -7.2775005569477511E-003   4.8713000448019378E-002
   2.4464910898921000E-002  -6.6872600743860255E-003   4.9258283396530378E-002
   2.5810836283089778E-002  -7.7976491281533944E-003   5.1501573203105167E-002
   2.4682888235077000E-002  -7.3307192781515984E-003   5.1577017911404177E-002
   2.3554940187064249E-002  -6.8427844752529665E-003   5.1828684972910155E-002
   2.2426992139051485E-002  -6.3338447194580746E-003   5.2256574387623461E-002
   2.1299044091038749E-002  -5.8039000107664718E-003   5.2860686155544179E-002
   2.1999983489195241E-002  -6.6802195421276633E-003   5.4721825062664681E-002
   2.1040700341703113E-002  -6.2700286794588889E-003   5.4900257710980532E-002
   2.0081417194210943E-002  -5.8400184594057242E-003   5.5239797807130148E-002
   1.9122134046718794E-002  -5.3901888819684572E-003   5.5740445351113922E-002
   1.8162850899226618E-002  -4.9205399471467515E-003   5.6402200342931363E-002
   1.8279263932864012E-002  -5.5627899561019045E-003   5.7885930732646952E-002
   1.7473530780519123E-002  -5.2093380807661654E-003   5.8166165725467588E-002
   1.6667797628174278E-002  -4.8372524435585304E-003   5.8592393260748693E-002
   1.5862064475829427E-002  -4.4465330444787548E-003   5.9164613338490601E-002
   1.5056331323484544E-002  -4.0371798835270034E-003   5.9882825958692959E-002
   1.4648677614095912E-002  -4.4453603700760902E-003   6.0993890213052515E-002
   1.3981379551525064E-002  -4.1486474820734420E-003   6.1374741954865364E-002
   1.3314081488954244E-002  -3.8344864277110452E-003   6.1886471333765652E-002
   1.2646783426383416E-002  -3.5028772069892015E-003   6.2529078349753311E-002
   1.1979485363812575E-002  -3.1538198199073664E-003   6.3302563002828438E-002
   2.4464910898921000E-002  -6.6872600743860255E-003   4.9258283396530378E-002
   2.2599002649200978E-002  -6.0849095589163849E-003   4.8929929919472537E-002
   2.0733094399480956E-002  -5.4805295260397235E-003   4.8756467016693450E-002
   1.8867186149760948E-002  -4.8741199757556253E-003   4.8737894688192923E-002
   1.7001277900040940E-002  -4.2656809080643399E-003   4.8874212933971095E-002
   2.1299044091038749E-002  -5.8039000107664718E-003   5.2860686155544179E-002
   1.9601354509255070E-002  -5.2654605598903004E-003   5.2574341412653769E-002
   1.7903664927471349E-002  -4.7310365775421193E-003   5.2469543431357513E-002
   1.6205975345687650E-002  -4.2006280637216162E-003   5.2546292211655493E-002
   1.4508285763903978E-002  -3.6742350184286732E-003   5.2804587753547017E-002
   1.8162850899226618E-002  -4.9205399471467515E-003   5.6402200342931363E-002
   1.6660036172694612E-002  -4.4460115608643269E-003   5.6151819348273818E-002
   1.5157221446162585E-002  -3.9815436290446260E-003   5.6109641302525604E-002
   1.3654406719630575E-002  -3.5271361516875516E-003   5.6275666205686803E-002
   1.2151591993098558E-002  -3.0827891287928955E-003   5.6649894057757250E-002
   1.5056331323484544E-002  -4.0371798835270034E-003   5.9882825958692959E-002
   1.3775047639519587E-002  -3.6265625618381869E-003   5.9662363726332886E-002
   1.2493763955554644E-002  -3.2320506805470772E-003   5.9676760630197709E-002
   1.1212480271589690E-002  -2.8536442396533482E-003   5.9926016670287248E-002
   9.9311965876247420E-003  -2.4913432391572843E-003   6.0410131846601288E-002
   1.1979485363812575E-002  -3.1538198199073664E-003   6.3302563002828438E-002
   1.0946388909730057E-002  -2.8071135628122690E-003   6.3105974546830979E-002
   9.9132924556475377E-003  -2.4825577320492231E-003   6.3170901414373815E-002
   8.8801960015650327E-003  -2.1801523276194015E-003   6.3497343605456863E-002
   7.8470995474825000E-003  -1.8998973495214511E-003   6.4085301120079929E-002
   1.7001277900040940E-002  -4.2656809080643399E-003   4.8874212933971095E-002
   1.5078518243431732E-002  -3.7119228679057814E-003   4.8744416607367169E-002
   1.3155758586822511E-002  -3.2695564002193367E-003   4.8878724628720227E-002
   1.1232998930213269E-002  -2.9385815050058453E-003   4.9277136998029547E-002
   9.3102392736040263E-003  -2.7189981822645093E-003   4.9939653715295518E-002
   1.4508285763903978E-002  -3.6742350184286732E-003   5.2804587753547017E-002
   1.2846413210834573E-002  -3.2055417134983499E-003   5.2696484755522854E-002
   1.1184540657765141E-002  -2.8482324207661502E-003   5.2846051616622258E-002
   9.5226681046957432E-003  -2.6023071402309916E-003   5.3253288336844479E-002
   7.8607955516263039E-003  -2.4677658718941231E-003   5.3918194916189821E-002
   1.2151591993098558E-002  -3.0827891287928955E-003   5.6649894057757250E-002
   1.0744172054735469E-002  -2.6991605590913070E-003   5.6563491948587619E-002
   9.3367521163723564E-003  -2.4269084413123948E-003   5.6728325209708011E-002
   7.9293321780092452E-003  -2.2660327754564676E-003   5.7144393841117712E-002
   6.5219122396461549E-003  -2.2165335615235704E-003   5.7811697842816895E-002
   9.9311965876247420E-003  -2.4913432391572843E-003   6.0410131846601288E-002
   8.7717947751344335E-003  -2.1927794046842364E-003   6.0345438186561351E-002
   7.6123929626441848E-003  -2.0055844618588128E-003   6.0525545407977388E-002
   6.4529911501538997E-003  -1.9297584106818897E-003   6.0950453510849635E-002
   5.2935893376636275E-003  -1.9653012511528789E-003   6.1620162495177801E-002
   7.8470995474825000E-003  -1.8998973495214511E-003   6.4085301120079929E-002
   6.9292813720315399E-003  -1.6863982502767771E-003   6.4042323469443940E-002
   6.0114631965805937E-003  -1.5842604824051754E-003   6.4237712211430487E-002
   5.0936450211296336E-003  -1.5934840459071314E-003   6.4671467346039790E-002
   4.1758268456786873E-003  -1.7140689407826315E-003   6.5343588873271519E-002
   9.3102392736040263E-003  -2.7189981822645093E-003   4.9939653715295518E-002
   7.8822396470244471E-003  -2.8600677390115403E-003   5.0353710342381230E-002
   6.4542400204448958E-003  -3.6110514822628448E-003   5.1091442291226585E-002
   5.0262403938653027E-003  -4.9719494120184851E-003   5.2152849561831666E-002
   3.5982407672857653E-003  -6.9427615282784405E-003   5.3537932154196444E-002
   7.8607955516263039E-003  -2.4677658718941231E-003   5.3918194916189821E-002
   6.7313224713734660E-003  -2.6466479501270346E-003   5.3854974744116491E-002
   5.6018493911206141E-003  -3.3409927093033809E-003   5.4065132342936945E-002
   4.4723763108677622E-003  -4.5508001494217881E-003   5.4548667712651031E-002
   3.3429032306149242E-003  -6.2760702704838245E-003   5.5305580853258984E-002
   6.5219122396461549E-003  -2.2165335615235704E-003   5.7811697842816895E-002
   5.6406681548540616E-003  -2.4332281612426676E-003   5.7365652377146054E-002
   4.7594240700619822E-003  -3.0709339363434590E-003   5.7142687131503098E-002
   3.8781799852698993E-003  -4.1296508868255317E-003   5.7142802105887798E-002
   2.9969359004778096E-003  -5.6093790126890974E-003   5.7365997300300398E-002
   5.2935893376636275E-003  -1.9653012511528789E-003   6.1620162495177801E-002
   4.6102766974663208E-003  -2.2198083723582868E-003   6.0885743241470835E-002
   3.9269640572690209E-003  -2.8008751633834331E-003   6.0324106656925544E-002
   3.2436514170717098E-003  -3.7085016242290551E-003   5.9935252741542371E-002
   2.5603387768744143E-003  -4.9426877548944259E-003   5.9719181495320378E-002
   4.1758268456786873E-003  -1.7140689407826315E-003   6.5343588873271519E-002
   3.6401480992101776E-003  -2.0063885834737949E-003   6.4415247337089698E-002
   3.1044693527416956E-003  -2.5308163904239622E-003   6.3609390919203701E-002
   2.5687906062731927E-003  -3.2873523616327727E-003   6.2926019619613693E-002
   2.0331118598047038E-003  -4.2759964970999764E-003   6.2365133438319509E-002
   3.5982407672857653E-003  -6.9427615282784405E-003   5.3537932154196444E-002
   4.1521220262680791E-003  -9.5359230858768074E-003   5.1861929242073779E-002
   4.7060032852503930E-003  -1.2763869339648848E-002   5.0041576203576743E-002
   5.2598845442327485E-003  -1.6626600289594243E-002   4.8076873038704449E-002
   5.8137658032150208E-003  -2.1124115935713395E-002   4.5967819747458893E-002
   3.3429032306149242E-003  -6.2760702704838245E-003   5.5305580853258984E-002
   3.7695975050459629E-003  -8.5462924170873755E-003   5.2951498256335161E-002
   4.1962917794770155E-003  -1.1390955933833546E-002   5.0487391816683769E-002
   4.6229860539081027E-003  -1.4810060820720922E-002   4.7913261534303614E-002
   5.0496803283391345E-003  -1.8803607077750639E-002   4.5229107409196168E-002
   2.9969359004778096E-003  -5.6093790126890974E-003   5.7365997300300398E-002
   3.3307694740038057E-003  -7.5566617482985543E-003   5.4394178344607746E-002
   3.6646030475297742E-003  -1.0018042528018106E-002   5.1346661829832885E-002
   3.9984366210557946E-003  -1.2993521351847816E-002   4.8223447755976048E-002
   4.3322701945817388E-003  -1.6483098219787884E-002   4.5024536123037695E-002
   2.5603387768744143E-003  -4.9426877548944259E-003   5.9719181495320378E-002
   2.8356379331415417E-003  -6.5670310795092057E-003   5.6189969506890286E-002
   3.1109370894086691E-003  -8.6451291222029575E-003   5.2619386243024181E-002
   3.3862362456758164E-003  -1.1176981882974602E-002   4.9007431703722168E-002
   3.6615354019428961E-003  -1.4162589361825129E-002   4.5354105888984697E-002
   2.0331118598047038E-003  -4.2759964970999764E-003   6.2365133438319509E-002
   2.2842028824592298E-003  -5.5774004107198571E-003   5.8338871743183307E-002
   2.5352939051137280E-003  -7.2722157163874757E-003   5.4305565056257277E-002
   2.7863849277682054E-003  -9.3604424141013054E-003   5.0265213377541695E-002
   3.0374759504227522E-003  -1.1842080503862373E-002   4.6217816707037063E-002
   2.4744650160428844E-002  -8.1522643305984022E-003   6.0073036097438581E-002
   2.4075958770953088E-002  -7.8911131088938713E-003   6.0734540949638594E-002
   2.3407267381477317E-002  -7.5987579349773710E-003   6.1311400547804790E-002
   2.2738575992001568E-002  -7.2751988088488699E-003   6.1803614891937572E-002
   2.2069884602525805E-002  -6.9204357305085451E-003   6.2211183982036733E-002
   1.9319215111860272E-002  -5.7423813893498488E-003   6.2410191116288871E-002
   1.8623120741719359E-002  -5.5604365550790402E-003   6.2646090429896939E-002
   1.7927026371578447E-002  -5.3775330177827374E-003   6.2911829036208317E-002
   1.7230932001437535E-002  -5.1936707774611138E-003   6.3207406935222865E-002
   1.6534837631296630E-002  -5.0088498341142040E-003   6.3532824126940807E-002
   1.3394850923712828E-002  -3.3324984481013231E-003   6.4683262372298780E-002
   1.2785838119643608E-002  -3.2297600012641398E-003   6.4463310898128484E-002
   1.2176825315574385E-002  -3.1563081005881108E-003   6.4387683263398332E-002
   1.1567812511505163E-002  -3.1121427460733594E-003   6.4456379468108171E-002
   1.0958799707435945E-002  -3.0972639377198352E-003   6.4669399512258238E-002
   6.9715575959865359E-003  -9.2261550685278360E-004   6.6892249865468253E-002
   6.5641109047258357E-003  -8.9908344744930174E-004   6.6186202354333146E-002
   6.1566642134651397E-003  -9.3508318339356397E-004   6.5738963229374725E-002
   5.7492175222044351E-003  -1.0306147146856596E-003   6.5550532490593380E-002
   5.3417708309437409E-003  -1.1856780413255358E-003   6.5620910137988958E-002
   4.9335128681375628E-005   1.4872674343957559E-003   6.9037153595797318E-002
  -4.2060903033956654E-005   1.4315931063655918E-003   6.7814764798510563E-002
  -1.3345693474929934E-004   1.2861417338011494E-003   6.6965668934137523E-002
  -2.2485296646463163E-004   1.0509133167021512E-003   6.6489866002678338E-002
  -3.1624899817997085E-004   7.2590785506881916E-004   6.6387356004132925E-002
   2.2069884602525805E-002  -6.9204357305085451E-003   6.2211183982036733E-002
   2.1423545496194810E-002  -6.5601673190587295E-003   6.2194325077348400E-002
   2.0777206389863807E-002  -6.2200921936021863E-003   6.2315911603604029E-002
   2.0130867283532815E-002  -5.9002103541389260E-003   6.2575943560803635E-002
   1.9484528177201810E-002  -5.6005218006688895E-003   6.2974420948947007E-002
   1.6534837631296630E-002  -5.0088498341142040E-003   6.3532824126940807E-002
   1.6038707733441002E-002  -4.8165737601790493E-003   6.3483617183231228E-002
   1.5542577835585363E-002  -4.6103461280930375E-003   6.3596383225528463E-002
   1.5046447937729726E-002  -4.3901669378562554E-003   6.3871122253832485E-002
   1.4550318039874097E-002  -4.1560361894686371E-003   6.4307834268143294E-002
   1.0958799707435945E-002  -3.0972639377198352E-003   6.4669399512258238E-002
   1.0636406573118519E-002  -3.0729802012993690E-003   6.4621989373671529E-002
   1.0314013438801098E-002  -3.0006000625840065E-003   6.4760079776154389E-002
   9.9916203044836775E-003  -2.8801235215736975E-003   6.5083670719706874E-002
   9.6692271701662516E-003  -2.7115505782684124E-003   6.5592762204329080E-002
   5.3417708309437409E-003  -1.1856780413255358E-003   6.5620910137988958E-002
   5.2166420152273772E-003  -1.3293866424197442E-003   6.5609441648669151E-002
   5.0915131995110056E-003  -1.3908539970749721E-003   6.5807001255481792E-002
   4.9663843837946357E-003  -1.3700801052910555E-003   6.6213588958426953E-002
   4.8412555680782711E-003  -1.2670649670681738E-003   6.6829204757504548E-002
  -3.1624899817997085E-004   7.2590785506881916E-004   6.6387356004132925E-002
  -2.2058594023244282E-004   4.1420691645993601E-004   6.6445974008224107E-002
  -1.2492288228491306E-004   2.1889206843415943E-004   6.6737147663510688E-002
  -2.9259824337385040E-005   1.3996331099149981E-004   6.7260876969992459E-002
   6.6403233610144718E-005   1.7742064413200920E-004   6.8017161927669656E-002
   1.9484528177201810E-002  -5.6005218006688895E-003   6.2974420948947007E-002
   1.8275565536425342E-002  -5.3111302784017433E-003   6.1963569488291792E-002
   1.7066602895648861E-002  -5.0221395325472096E-003   6.1296530545424277E-002
   1.5857640254872386E-002  -4.7335495631053853E-003   6.0973304120344657E-002
   1.4648677614095912E-002  -4.4453603700760902E-003   6.0993890213052515E-002
   1.4550318039874097E-002  -4.1560361894686371E-003   6.4307834268143294E-002
   1.3673592023352971E-002  -3.9200454562476894E-003   6.3333209999126727E-002
   1.2796866006831845E-002  -3.6942863115112662E-003   6.2679246460833338E-002
   1.1920139990310719E-002  -3.4787587552591349E-003   6.2345943653262653E-002
   1.1043413973789579E-002  -3.2734627874915212E-003   6.2333301576414923E-002
   9.6692271701662516E-003  -2.7115505782684124E-003   6.5592762204329080E-002
   9.1015859908355826E-003  -2.5289606340937187E-003   6.4644534314879668E-002
   8.5339448115049170E-003  -2.3664330904752673E-003   6.3993815369088353E-002
   7.9663036321742462E-003  -2.2239679474129956E-003   6.3640605366955053E-002
   7.3986624528435754E-003  -2.1015652049069244E-003   6.3584904308479698E-002
   4.8412555680782711E-003  -1.2670649670681738E-003   6.6829204757504548E-002
   4.5595474388731780E-003  -1.1378758119396787E-003   6.5897542435550516E-002
   4.2778393096680736E-003  -1.0385798694392129E-003   6.5240237270189516E-002
   3.9961311804629744E-003  -9.6917713956668969E-004   6.4857289261421716E-002
   3.7144230512578761E-003  -9.2966762232234157E-004   6.4748698409247171E-002
   6.6403233610144718E-005   1.7742064413200920E-004   6.8017161927669656E-002
   4.7476367465729141E-005   2.5320901021425035E-004   6.7092234361139091E-002
   2.8549501321317033E-005   2.8927335159661949E-004   6.6418512164136856E-002
   9.6226351769014562E-006   2.8561366827946355E-004   6.5995995336662838E-002
  -9.3042309675106516E-006   2.4222996026229682E-004   6.5824683878717039E-002
   1.4648677614095912E-002  -4.4453603700760902E-003   6.0993890213052515E-002
   1.3981379551525064E-002  -4.1486474820734420E-003   6.1374741954865364E-002
   1.3314081488954244E-002  -3.8344864277110452E-003   6.1886471333765652E-002
   1.2646783426383416E-002  -3.5028772069892015E-003   6.2529078349753311E-002
   1.1979485363812575E-002  -3.1538198199073664E-003   6.3302563002828438E-002
   1.1043413973789579E-002  -3.2734627874915212E-003   6.2333301576414923E-002
   1.0515810640995354E-002  -3.0657436929099613E-003   6.2699745534513296E-002
   9.9882073082011164E-003  -2.8429467562157695E-003   6.3214701315077643E-002
   9.4606039754068921E-003  -2.6050719774092790E-003   6.3878168918107631E-002
   8.9330006426126540E-003  -2.3521193564901566E-003   6.4690148343603482E-002
   7.3986624528435754E-003  -2.1015652049069244E-003   6.3584904308479698E-002
   7.0283880352043672E-003  -1.9828399037463140E-003   6.3934570158616560E-002
   6.6581136175651694E-003  -1.8514070847205008E-003   6.4450382016597640E-002
   6.2878391999259733E-003  -1.7072667478295247E-003   6.5132339882422896E-002
   5.9175647822867633E-003  -1.5504188930731133E-003   6.5980443756092522E-002
   3.7144230512578761E-003  -9.2966762232234157E-004   6.4748698409247171E-002
   3.5191117341521281E-003  -8.9993611458275002E-004   6.5079215827175088E-002
   3.3238004170463862E-003  -8.5986741322522861E-004   6.5593513438325868E-002
   3.1284890999406455E-003  -8.0946151824963074E-004   6.6291591242699205E-002
   2.9331777828348962E-003  -7.4871842965587576E-004   6.7173449240295224E-002
  -9.3042309675106516E-006   2.4222996026229682E-004   6.5824683878717039E-002
  -1.2018262161368060E-005   1.8296767458070295E-004   6.6133682540188976E-002
  -1.4732293355221998E-005   1.3167225827014073E-004   6.6644095580262103E-002
  -1.7446324549074202E-005   8.8343711330065439E-005   6.7355922998936349E-002
  -2.0160355742933345E-005   5.2982033761139746E-005   6.8269164796211701E-002
   1.1979485363812575E-002  -3.1538198199073664E-003   6.3302563002828438E-002
   1.0946388909730057E-002  -2.8071135628122690E-003   6.3105974546830979E-002
   9.9132924556475377E-003  -2.4825577320492231E-003   6.3170901414373815E-002
   8.8801960015650327E-003  -2.1801523276194015E-003   6.3497343605456863E-002
   7.8470995474825000E-003  -1.8998973495214511E-003   6.4085301120079929E-002
   8.9330006426126540E-003  -2.3521193564901566E-003   6.4690148343603482E-002
   8.1608444514838160E-003  -2.0988017593689401E-003   6.4505784529873822E-002
   7.3886882603549850E-003  -1.8598320519549461E-003   6.4581785918511270E-002
   6.6165320692261401E-003  -1.6352102342488406E-003   6.4918152509515936E-002
   5.8443758780973160E-003  -1.4249363062502907E-003   6.5514884302887988E-002
   5.9175647822867633E-003  -1.5504188930731133E-003   6.5980443756092522E-002
   5.4051987329387201E-003  -1.3904899559255002E-003   6.5816107121255185E-002
   4.8928326835906873E-003  -1.2371063718604330E-003   6.5910985567612032E-002
   4.3804666342426510E-003  -1.0902681408784982E-003   6.6265079095163271E-002
   3.8681005848946112E-003  -9.4997526297924129E-004   6.6878387703908998E-002
   2.9331777828348962E-003  -7.4871842965587576E-004   6.7173449240295224E-002
   2.6794517540947660E-003  -6.8217815248211577E-004   6.7036942320975151E-002
   2.4257257253546367E-003  -6.1438069176626003E-004   6.7158500361676379E-002
   2.1719996966145143E-003  -5.4532604750821313E-004   6.7538123362399186E-002
   1.9182736678743911E-003  -4.7501421970808089E-004   6.8175811323143515E-002
  -2.0160355742933345E-005   5.2982033761139746E-005   6.8269164796211701E-002
  -1.6396485048038312E-005   2.6133650961268629E-005   6.8168290129033582E-002
  -1.2632614353143279E-005   8.3449883283293058E-006   6.8324330300704339E-002
  -8.8687436582465112E-006  -3.8395413776842746E-007   6.8737285311223528E-002
  -5.1048729633532131E-006  -5.3176436920487902E-008   6.9407155160591372E-002
   7.8470995474825000E-003  -1.8998973495214511E-003   6.4085301120079929E-002
   6.9292813720315399E-003  -1.6863982502767771E-003   6.4042323469443940E-002
   6.0114631965805937E-003  -1.5842604824051754E-003   6.4237712211430487E-002
   5.0936450211296336E-003  -1.5934840459071314E-003   6.4671467346039790E-002
   4.1758268456786873E-003  -1.7140689407826315E-003   6.5343588873271519E-002
   5.8443758780973160E-003  -1.4249363062502907E-003   6.5514884302887988E-002
   5.1627371672225905E-003  -1.2638330934480746E-003   6.5398490664359044E-002
   4.4810984563478720E-003  -1.1867234213297495E-003   6.5516089562360297E-002
   3.7994597454731605E-003  -1.1936072898960648E-003   6.5867680996891567E-002
   3.1178210345984281E-003  -1.2844846991466596E-003   6.6453264967952563E-002
   3.8681005848946112E-003  -9.4997526297924129E-004   6.6878387703908998E-002
   3.4182674825034530E-003  -8.4126793661895571E-004   6.6715945868176640E-002
   2.9684343801123121E-003  -7.8918636025401834E-004   6.6783122712881421E-002
   2.5186012777211574E-003  -7.9373053388478304E-004   6.7079918238023326E-002
   2.0687681753300130E-003  -8.5490045751102084E-004   6.7606332443602590E-002
   1.9182736678743911E-003  -4.7501421970808089E-004   6.8175811323143515E-002
   1.6958723178741421E-003  -4.1870277979015602E-004   6.7994689080896148E-002
   1.4734709678739149E-003  -3.9164929917855085E-004   6.8038811662993470E-002
   1.2510696178736694E-003  -3.9385377787371986E-004   6.8308179069435440E-002
   1.0286682678734387E-003  -4.2531621587527102E-004   6.8802791300221711E-002
  -5.1048729633532131E-006  -5.3176436920487902E-008   6.9407155160591372E-002
  -4.4483266653516651E-006   3.8623770389212275E-006   6.9234720302517982E-002
  -3.7917803673397088E-006   5.8877618971109325E-006   6.9283156412696834E-002
  -3.1352340693346914E-006   6.0229781376694436E-006   6.9552463491127287E-002
  -2.4786877713262045E-006   4.2680257604787997E-006   7.0042641537809924E-002
   4.1758268456786873E-003  -1.7140689407826315E-003   6.5343588873271519E-002
   3.6401480992101776E-003  -2.0063885834737949E-003   6.4415247337089698E-002
   3.1044693527416956E-003  -2.5308163904239622E-003   6.3609390919203701E-002
   2.5687906062731927E-003  -3.2873523616327727E-003   6.2926019619613693E-002
   2.0331118598047038E-003  -4.2759964970999764E-003   6.2365133438319509E-002
   3.1178210345984281E-003  -1.2844846991466596E-003   6.6453264967952563E-002
   2.7075181205096222E-003  -1.5042885231438263E-003   6.5333783371133103E-002
   2.2972152064208023E-003  -1.8979516359486637E-003   6.4342568320777227E-002
   1.8869122923319930E-003  -2.4654740375613451E-003   6.3479619816884936E-002
   1.4766093782431766E-003  -3.2068557279821830E-003   6.2744937859456229E-002
   2.0687681753300130E-003  -8.5490045751102084E-004   6.7606332443602590E-002
   1.7896225217885753E-003  -1.0021884628135247E-003   6.6353959661596545E-002
   1.5104768682471445E-003  -1.2650868814733651E-003   6.5235634854221236E-002
   1.2313312147057189E-003  -1.6435957134902507E-003   6.4251358021477467E-002
   9.5218556116427600E-004  -2.1377149588645006E-003   6.3401129163364878E-002
   1.0286682678734387E-003  -4.2531621587527102E-004   6.8802791300221711E-002
   8.8646130304707513E-004  -5.0008840248361164E-004   6.7475776208479443E-002
   7.4425433822071334E-004  -6.3222212699806657E-004   6.6288590519535742E-002
   6.0204737339435719E-004  -8.2171738941910072E-004   6.5241234233391093E-002
   4.5984040856798802E-004  -1.0685741897467627E-003   6.4333707350045344E-002
  -2.4786877713262045E-006   4.2680257604787997E-006   7.0042641537809924E-002
  -1.9655357149164776E-006   2.0116578468010182E-006   6.8699233011782046E-002
  -1.4523836584963423E-006   6.4262747717647173E-007   6.7501435316720759E-002
  -9.3923160207967649E-007   1.6093465220190506E-007   6.6449248452626064E-002
  -4.2607954566648010E-007   5.6657937086423971E-007   6.5542672419497960E-002
   2.0331118598047038E-003  -4.2759964970999764E-003   6.2365133438319509E-002
   2.2842028824592298E-003  -5.5774004107198571E-003   5.8338871743183307E-002
   2.5352939051137280E-003  -7.2722157163874757E-003   5.4305565056257277E-002
   2.7863849277682054E-003  -9.3604424141013054E-003   5.0265213377541695E-002
   3.0374759504227522E-003  -1.1842080503862373E-002   4.6217816707037063E-002
   1.4766093782431766E-003  -3.2068557279821830E-003   6.2744937859456229E-002
   1.7067209906904274E-003  -4.1827338729564234E-003   5.8392547904211944E-002
   1.9368326031377059E-003  -5.4537456382296179E-003   5.4005244120342577E-002
   2.1669442155849636E-003  -7.0198910238014819E-003   4.9583026507848543E-002
   2.3970558280322352E-003  -8.8811700296720364E-003   4.5125895066729704E-002
   9.5218556116427600E-004  -2.1377149588645006E-003   6.3401129163364878E-002
   1.1334489265688238E-003  -2.7880673351925456E-003   5.8820888719760572E-002
   1.3147122919733578E-003  -3.6352755600717601E-003   5.4177865610695819E-002
   1.4959756573779074E-003  -4.6793396335013809E-003   4.9472059836170756E-002
   1.6772390227824258E-003  -5.9202595554819215E-003   4.4703471396185024E-002
   4.5984040856798802E-004  -1.0685741897467627E-003   6.4333707350045344E-002
   5.6438669009435845E-004  -1.3934007974287788E-003   5.9623894189829420E-002
   6.6893297162072714E-004  -1.8168054819136803E-003   5.4823429527317474E-002
   7.7347925314708585E-004  -2.3387882432011967E-003   4.9932313362509091E-002
   8.7802553467345237E-004  -2.9593490812916956E-003   4.4950545695405519E-002
  -4.2607954566648010E-007   5.6657937086423971E-007   6.5542672419497960E-002
  -4.6571873293932420E-007   1.2657403349880525E-006   6.0801564314417966E-002
  -5.0535792022257664E-007   1.6645962439831852E-006   5.5941935870206627E-002
  -5.4499710751797215E-007   1.7631470987725106E-006   5.0963787086864359E-002
  -5.8463629477867318E-007   1.5613928985303005E-006   4.5867117964390136E-002
   4.9335128681375628E-005   1.4872674343957559E-003   6.9037153595797318E-002
  -4.2060903033956654E-005   1.4315931063655918E-003   6.7814764798510563E-002
  -1.3345693474929934E-004   1.2861417338011494E-003   6.6965668934137523E-002
  -2.2485296646463163E-004   1.0509133167021512E-003   6.6489866002678338E-002
  -3.1624899817997085E-004   7.2590785506881916E-004   6.6387356004132925E-002
  -6.8803911627360499E-003   2.5401983881982448E-003   6.6554196616716521E-002
  -6.6415074429202782E-003   2.4595225397873177E-003   6.5708510737578663E-002
  -6.4026237231044961E-003   2.3402129522654136E-003   6.5150091428589296E-002
  -6.1637400032887252E-003   2.1822696256325186E-003   6.4878938689748325E-002
  -5.9248562834729492E-003   1.9856925598885633E-003   6.4895052521056013E-002
  -1.3326195962799223E-002   3.5931293420007338E-003   6.4020666464543269E-002
  -1.2843058854217637E-002   3.4874519732090714E-003   6.3602826808977830E-002
  -1.2359921745636080E-002   3.3942841707297888E-003   6.3386227360795369E-002
  -1.1876784637054496E-002   3.3136259345628583E-003   6.3370868119996121E-002
  -1.1393647528472930E-002   3.2454772647082797E-003   6.3556749086579975E-002
  -1.9288079271508066E-002   4.6460602958032227E-003   6.1436563139277672E-002
  -1.8646715136926041E-002   4.5153814066308390E-003   6.1497713012707816E-002
  -1.8005351002344006E-002   4.4483553891941641E-003   6.1674076730755770E-002
  -1.7363986867761964E-002   4.4449822434932396E-003   6.1965654293421463E-002
  -1.6722622733179933E-002   4.5052619695280099E-003   6.2372445700705090E-002
  -2.4766041088862663E-002   5.6989912496057116E-003   5.8801886640919565E-002
  -2.4052476291045455E-002   5.5433108400525510E-003   5.9393169348768704E-002
  -2.3338911493228299E-002   5.5024266076584838E-003   6.0013639538470442E-002
  -2.2625346695411122E-002   5.5763385524236070E-003   6.0663297210024558E-002
  -2.1911781897593938E-002   5.7650466743477402E-003   6.1342142363431273E-002
  -3.1624899817997085E-004   7.2590785506881916E-004   6.6387356004132925E-002
  -2.2058594023244282E-004   4.1420691645993601E-004   6.6445974008224107E-002
  -1.2492288228491306E-004   2.1889206843415943E-004   6.6737147663510688E-002
  -2.9259824337385040E-005   1.3996331099149981E-004   6.7260876969992459E-002
   6.6403233610144718E-005   1.7742064413200920E-004   6.8017161927669656E-002
  -5.9248562834729492E-003   1.9856925598885633E-003   6.4895052521056013E-002
  -5.6235724924202047E-003   1.7915923673284956E-003   6.5146538435380943E-002
  -5.3222887013674568E-003   1.6410796602468053E-003   6.5576710164720914E-002
  -5.0210049103147116E-003   1.5341544386438012E-003   6.6185567709076049E-002
  -4.7197211192619645E-003   1.4708167025192509E-003   6.6973111068446278E-002
  -1.1393647528472930E-002   3.2454772647082797E-003   6.3556749086579975E-002
  -1.0940612840495171E-002   3.1689778181968886E-003   6.3928304306034023E-002
  -1.0487578152517423E-002   3.0632672520594581E-003   6.4424675504322987E-002
  -1.0034543464539664E-002   2.9283455662959933E-003   6.5045862681446978E-002
  -9.5815087765619162E-003   2.7642127609064648E-003   6.5791865837405733E-002
  -1.6722622733179933E-002   4.5052619695280099E-003   6.2372445700705090E-002
  -1.6171706984457367E-002   4.5463632690654204E-003   6.2791271620183803E-002
  -1.5620791235734800E-002   4.4854548438721629E-003   6.3281043682317059E-002
  -1.5069875487012246E-002   4.3225366939481846E-003   6.3841761887105011E-002
  -1.4518959738289681E-002   4.0576088192936371E-003   6.4473426234547798E-002
  -2.1911781897593938E-002   5.7650466743477402E-003   6.1342142363431273E-002
  -2.1316854924306770E-002   5.9237487199338135E-003   6.1735440377829853E-002
  -2.0721927951019611E-002   5.9076424356847707E-003   6.2145814698702867E-002
  -2.0127000977732450E-002   5.7167278216003238E-003   6.2573265326050384E-002
  -1.9532074004445288E-002   5.3510048776808650E-003   6.3017792259872529E-002
   6.6403233610144718E-005   1.7742064413200920E-004   6.8017161927669656E-002
   4.7476367465729141E-005   2.5320901021425035E-004   6.7092234361139091E-002
   2.8549501321317033E-005   2.8927335159661949E-004   6.6418512164136856E-002
   9.6226351769014562E-006   2.8561366827946355E-004   6.5995995336662838E-002
  -9.3042309675106516E-006   2.4222996026229682E-004   6.5824683878717039E-002
  -4.7197211192619645E-003   1.4708167025192509E-003   6.6973111068446278E-002
  -4.4725487271036271E-003   1.4224839562401448E-003   6.5960763321018634E-002
  -4.2253763349452810E-003   1.3605737041727378E-003   6.5229408720668125E-002
  -3.9782039427869445E-003   1.2850859463176510E-003   6.4779047267394987E-002
  -3.7310315506285975E-003   1.1960206826743813E-003   6.4609678961199013E-002
  -9.5815087765619162E-003   2.7642127609064648E-003   6.5791865837405733E-002
  -9.0384493485517886E-003   2.5917589022657894E-003   6.4718244427992580E-002
  -8.4953899205416558E-003   2.4318740567489117E-003   6.3955403943205702E-002
  -7.9523304925315334E-003   2.2845582243557275E-003   6.3503344383045141E-002
  -7.4092710645214110E-003   2.1498114050863271E-003   6.3362065747510840E-002
  -1.4518959738289681E-002   4.0576088192936371E-003   6.4473426234547798E-002
  -1.3650225496878738E-002   3.7610338482915590E-003   6.3364677682060971E-002
  -1.2781491255467809E-002   3.5031744093249745E-003   6.2596497831749393E-002
  -1.1912757014056880E-002   3.2840305023939705E-003   6.2168886683613214E-002
  -1.1044022772645951E-002   3.1036021274985087E-003   6.2081844237652284E-002
  -1.9532074004445288E-002   5.3510048776808650E-003   6.3017792259872529E-002
  -1.8307877172084507E-002   4.9303087943173285E-003   6.1900063083223766E-002
  -1.7083680339723739E-002   4.5744747619011622E-003   6.1152690386299335E-002
  -1.5859483507362965E-002   4.2835027804319532E-003   6.0775674169099334E-002
  -1.4635286675002190E-002   4.0573928499103573E-003   6.0769014431623636E-002
  -9.3042309675106516E-006   2.4222996026229682E-004   6.5824683878717039E-002
  -1.2018262161368060E-005   1.8296767458070295E-004   6.6133682540188976E-002
  -1.4732293355221998E-005   1.3167225827014073E-004   6.6644095580262103E-002
  -1.7446324549074202E-005   8.8343711330065439E-005   6.7355922998936349E-002
  -2.0160355742933345E-005   5.2982033761139746E-005   6.8269164796211701E-002
  -3.7310315506285975E-003   1.1960206826743813E-003   6.4609678961199013E-002
  -3.5408616534538043E-003   1.0998273590125673E-003   6.4957279105767846E-002
  -3.3506917562790128E-003   1.0029554211018060E-003   6.5489232728472735E-002
  -3.1605218591042169E-003   9.0540486894190655E-004   6.6205539829313792E-002
  -2.9703519619294280E-003   8.0717570253296955E-004   6.7106200408291128E-002
  -7.4092710645214110E-003   2.1498114050863271E-003   6.3362065747510840E-002
  -7.0432781394428748E-003   2.0166870434443207E-003   6.3739621891556367E-002
  -6.6772852143643395E-003   1.8742385839335893E-003   6.4284470613273331E-002
  -6.3112922892858171E-003   1.7224660265536384E-003   6.4996611912661456E-002
  -5.9452993642072818E-003   1.5613693713050214E-003   6.5876045789720894E-002
  -1.1044022772645951E-002   3.1036021274985087E-003   6.2081844237652284E-002
  -1.0519267720128579E-002   2.9335467278761296E-003   6.2480710897554859E-002
  -9.9945126676112203E-003   2.7455217467652025E-003   6.3029809234663753E-002
  -9.4697576150938531E-003   2.5395271841655359E-003   6.3729139248979036E-002
  -8.9450025625764911E-003   2.3155630400769622E-003   6.4578700940500777E-002
  -1.4635286675002190E-002   4.0573928499103573E-003   6.0769014431623636E-002
  -1.3968830395510903E-002   3.8504064123079940E-003   6.1180546123763280E-002
  -1.3302374116019623E-002   3.6168049095970656E-003   6.1725248592644333E-002
  -1.2635917836528343E-002   3.3565883417771072E-003   6.2403121838266962E-002
  -1.1969461557037056E-002   3.0697567088489031E-003   6.3214165860631000E-002
  -2.0160355742933345E-005   5.2982033761139746E-005   6.8269164796211701E-002
  -1.6396485048038312E-005   2.6133650961268629E-005   6.8168290129033582E-002
  -1.2632614353143279E-005   8.3449883283293058E-006   6.8324330300704339E-002
  -8.8687436582465112E-006  -3.8395413776842746E-007   6.8737285311223528E-002
  -5.1048729633532131E-006  -5.3176436920487902E-008   6.9407155160591372E-002
  -2.9703519619294280E-003   8.0717570253296955E-004   6.7106200408291128E-002
  -2.7097685109352086E-003   7.1263590143333388E-004   6.6989033218989635E-002
  -2.4491850599410031E-003   6.2615344520092209E-004   6.7128590351438394E-002
  -2.1886016089467889E-003   5.4772833383593539E-004   6.7524871805637182E-002
  -1.9280181579525782E-003   4.7736056733815868E-004   6.8177877581585833E-002
  -5.9452993642072818E-003   1.5613693713050214E-003   6.5876045789720894E-002
  -5.4280868500122675E-003   1.3991381519057322E-003   6.5741583702996376E-002
  -4.9108743358172542E-003   1.2439619020739728E-003   6.5863655420923359E-002
  -4.3936618216222547E-003   1.0958406218098092E-003   6.6242260943502024E-002
  -3.8764493074272405E-003   9.5477431111329336E-004   6.6877400270732051E-002
  -8.9450025625764911E-003   2.3155630400769622E-003   6.4578700940500777E-002
  -8.1713515022792081E-003   2.0856404023777975E-003   6.4425941581053470E-002
  -7.3977004419819191E-003   1.8617703589467391E-003   6.4529525509159052E-002
  -6.6240493816846265E-003   1.6439529097836535E-003   6.4889452724817803E-002
  -5.8503983213873470E-003   1.4321880548882893E-003   6.5505723228029389E-002
  -1.1969461557037056E-002   3.0697567088489031E-003   6.3214165860631000E-002
  -1.0939562467736023E-002   2.7721426528503068E-003   6.3042106853161028E-002
  -9.9096633784349769E-003   2.4795788158196996E-003   6.3126200616145545E-002
  -8.8797642891339373E-003   2.1920651977573521E-003   6.3466447149584521E-002
  -7.8498651998328908E-003   1.9096017986633962E-003   6.4062846453478151E-002
  -5.1048729633532131E-006  -5.3176436920487902E-008   6.9407155160591372E-002
  -4.4483266653516651E-006   3.8623770389212275E-006   6.9234720302517982E-002
  -3.7917803673397088E-006   5.8877618971109325E-006   6.9283156412696834E-002
  -3.1352340693346914E-006   6.0229781376694436E-006   6.9552463491127287E-002
  -2.4786877713262045E-006   4.2680257604787997E-006   7.0042641537809924E-002
  -1.9280181579525782E-003   4.7736056733815868E-004   6.8177877581585833E-002
  -1.7043432854331082E-003   4.2470612943490416E-004   6.7994811788848697E-002
  -1.4806684129136487E-003   3.9942100385267909E-004   6.8036911680302431E-002
  -1.2569935403941856E-003   4.0150519059192064E-004   6.8304177255947160E-002
  -1.0333186678747192E-003   4.3095868965237205E-004   6.8796608515782787E-002
  -3.8764493074272405E-003   9.5477431111329336E-004   6.6877400270732051E-002
  -3.4254613927472283E-003   8.4554988183074831E-004   6.6712963024269573E-002
  -2.9744734780672308E-003   7.9295424580826113E-004   6.6777986177937163E-002
  -2.5234855633872264E-003   7.9698740304617530E-004   6.7072469731734946E-002
  -2.0724976487072212E-003   8.5764935354432081E-004   6.7596413685662604E-002
  -5.8503983213873470E-003   1.4321880548882893E-003   6.5505723228029389E-002
  -5.1678026486077187E-003   1.2663936342267729E-003   6.5389174008780721E-002
  -4.4852069758280835E-003   1.1864874877641138E-003   6.5506379905601320E-002
  -3.8026113030484488E-003   1.1924696155005392E-003   6.5857340918490992E-002
  -3.1200156302688205E-003   1.2843400174361308E-003   6.6442057047449946E-002
  -7.8498651998328908E-003   1.9096017986633962E-003   6.4062846453478151E-002
  -6.9313670530145588E-003   1.6872373866224644E-003   6.4023444742382196E-002
  -6.0128689061962129E-003   1.5800207297194946E-003   6.4222092863294500E-002
  -5.0943707593778809E-003   1.5879518279546465E-003   6.4658790816215089E-002
  -4.1758726125595350E-003   1.7110306813281628E-003   6.5333538601143881E-002
  -2.4786877713262045E-006   4.2680257604787997E-006   7.0042641537809924E-002
  -1.9655357149164776E-006   2.0116578468010182E-006   6.8699233011782046E-002
  -1.4523836584963423E-006   6.4262747717647173E-007   6.7501435316720759E-002
  -9.3923160207967649E-007   1.6093465220190506E-007   6.6449248452626064E-002
  -4.2607954566648010E-007   5.6657937086423971E-007   6.5542672419497960E-002
  -1.0333186678747192E-003   4.3095868965237205E-004   6.8796608515782787E-002
  -8.9016551634073238E-004   5.0325669300099740E-004   6.7471493674436500E-002
  -7.4701236480674907E-004   6.3387439260487177E-004   6.6286048001078762E-002
  -6.0385921327275362E-004   8.2281178846405068E-004   6.5240271495709420E-002
  -4.6070606173877898E-004   1.0700688805781455E-003   6.4334164158328599E-002
  -2.0724976487072212E-003   8.5764935354432081E-004   6.7596413685662604E-002
  -1.7926461606737549E-003   1.0045017281553881E-003   6.6347024887708883E-002
  -1.5127946726403094E-003   1.2671061577328169E-003   6.5231363594765418E-002
  -1.2329431846068465E-003   1.6454626422761284E-003   6.4249429806832334E-002
  -9.5309169657339758E-004   2.1395711817854823E-003   6.3401223523909839E-002
  -3.1200156302688205E-003   1.2843400174361308E-003   6.6442057047449946E-002
  -2.7094074687139934E-003   1.5057467633098481E-003   6.5325826651599347E-002
  -2.2987993071591668E-003   1.9003379228606926E-003   6.4337382097781115E-002
  -1.8881911456043365E-003   2.4681134960880917E-003   6.3476723385994985E-002
  -1.4775829840495132E-003   3.2090734829926804E-003   6.2743850516241678E-002
  -4.1758726125595350E-003   1.7110306813281628E-003   6.5333538601143881E-002
  -3.6404494404614351E-003   2.0069917984638641E-003   6.4407898966107546E-002
  -3.1050262683633457E-003   2.5335696879885683E-003   6.3604103510125409E-002
  -2.5696030962652511E-003   3.2907643498999717E-003   6.2922152233197526E-002
  -2.0341799241671565E-003   4.2785757841998784E-003   6.2362045135323951E-002
  -4.2607954566648010E-007   5.6657937086423971E-007   6.5542672419497960E-002
  -4.6571873293932420E-007   1.2657403349880525E-006   6.0801564314417966E-002
  -5.0535792022257664E-007   1.6645962439831852E-006   5.5941935870206627E-002
  -5.4499710751797215E-007   1.7631470987725106E-006   5.0963787086864359E-002
  -5.8463629477867318E-007   1.5613928985303005E-006   4.5867117964390136E-002
  -4.6070606173877898E-004   1.0700688805781455E-003   6.4334164158328599E-002
  -5.6531418969035796E-004   1.3956522467128973E-003   5.9623918524339514E-002
  -6.6992231764194388E-004   1.8195684646326316E-003   5.4823056251953217E-002
  -7.7453044559352459E-004   2.3418175343374661E-003   4.9931577341169570E-002
  -8.7913857354510877E-004   2.9623994558278799E-003   4.4949481791988877E-002
  -9.5309169657339758E-004   2.1395711817854823E-003   6.3401223523909839E-002
  -1.1343646125551513E-003   2.7900387530906956E-003   5.8820473517851496E-002
  -1.3156375285369110E-003   3.6374723330208220E-003   5.4177010574130255E-002
  -1.4969104445186738E-003   4.6818719215763228E-003   4.9470834692745887E-002
  -1.6781833605004383E-003   5.9232375187572295E-003   4.4701945873698246E-002
  -1.4775829840495132E-003   3.2090734829926804E-003   6.2743850516241678E-002
  -1.7076169873273138E-003   4.1844252594685494E-003   5.8391229294954126E-002
  -1.9376509906051215E-003   5.4553762014093524E-003   5.4003798836737754E-002
  -2.1676849938829300E-003   7.0219263088153201E-003   4.9581559141591985E-002
  -2.3977189971607299E-003   8.8840755816865791E-003   4.5124510209518104E-002
  -2.0341799241671565E-003   4.2785757841998784E-003   6.2362045135323951E-002
  -2.2850713140068687E-003   5.5788117658462921E-003   5.8336185855647371E-002
  -2.5359627038465948E-003   7.2732800697974942E-003   5.4303421039776034E-002
  -2.7868540936863417E-003   9.3619806960538871E-003   5.0263750687709663E-002
  -3.0377454835260331E-003   1.1844913644615929E-002   4.6217174799448646E-002
  -2.4766041088862663E-002   5.6989912496057116E-003   5.8801886640919565E-002
  -2.4052476291045455E-002   5.5433108400525510E-003   5.9393169348768704E-002
  -2.3338911493228299E-002   5.5024266076584838E-003   6.0013639538470442E-002
  -2.2625346695411122E-002   5.5763385524236070E-003   6.0663297210024558E-002
  -2.1911781897593938E-002   5.7650466743477402E-003   6.1342142363431273E-002
  -3.0375921457604385E-002   8.2779474474126147E-003   5.7380707883531612E-002
  -2.9547299611368288E-002   8.0627795801356539E-003   5.7394334381615203E-002
  -2.8718677765132272E-002   7.9012811712926428E-003   5.7608887494684041E-002
  -2.7890055918896227E-002   7.7934522208835157E-003   5.8024367222738085E-002
  -2.7061434072660203E-002   7.7392927289083313E-003   5.8640773565777432E-002
  -3.6733560420474549E-002   1.0856903645219518E-002   5.5930605027782465E-002
  -3.5618142392686888E-002   1.0582248320218757E-002   5.5305448597375309E-002
  -3.4502724364899227E-002   1.0300135734926746E-002   5.5052957915086076E-002
  -3.3387306337111552E-002   1.0010565889343424E-002   5.5173132980914849E-002
  -3.2271888309323905E-002   9.7135387834688669E-003   5.5665973794861670E-002
  -4.3838957977473281E-002   1.3435859843026421E-002   5.4451578073672208E-002
  -4.2265004635001206E-002   1.3101717060301901E-002   5.3126511996048967E-002
  -4.0691051292529194E-002   1.2698990298560850E-002   5.2345850799676567E-002
  -3.9117097950057148E-002   1.2227679557803361E-002   5.2109594484554891E-002
  -3.7543144607585101E-002   1.1687784838029375E-002   5.2417743050683877E-002
  -5.1692114128600503E-002   1.6014816040833324E-002   5.2943627021200701E-002
  -4.9487886338311304E-002   1.5621185800385018E-002   5.0857524577636204E-002
  -4.7283658548022120E-002   1.5097844862195064E-002   4.9487566148455397E-002
  -4.5079430757732929E-002   1.4444793226263283E-002   4.8833751733658004E-002
  -4.2875202967443737E-002   1.3662030892589994E-002   4.8896081333244190E-002
  -2.1911781897593938E-002   5.7650466743477402E-003   6.1342142363431273E-002
  -2.1316854924306770E-002   5.9237487199338135E-003   6.1735440377829853E-002
  -2.0721927951019611E-002   5.9076424356847707E-003   6.2145814698702867E-002
  -2.0127000977732450E-002   5.7167278216003238E-003   6.2573265326050384E-002
  -1.9532074004445288E-002   5.3510048776808650E-003   6.3017792259872529E-002
  -2.7061434072660203E-002   7.7392927289083313E-003   5.8640773565777432E-002
  -2.6428849341822006E-002   7.6596315779279694E-003   5.8854110416515268E-002
  -2.5796264610983818E-002   7.4752976505028795E-003   5.9125686475880609E-002
  -2.5163679880145621E-002   7.1862909466336063E-003   5.9455501743873478E-002
  -2.4531095149307458E-002   6.7926114663200421E-003   5.9843556220493976E-002
  -3.2271888309323905E-002   9.7135387834688669E-003   5.5665973794861670E-002
  -3.1560482918781663E-002   9.3955144359217785E-003   5.5769485035329511E-002
  -3.0849077528239385E-002   9.0429528653211480E-003   5.5972398386577950E-002
  -3.0137672137697094E-002   8.6558540716668870E-003   5.6274713848607022E-002
  -2.9426266747154865E-002   8.2342180549590249E-003   5.6676431421416609E-002
  -3.7543144607585101E-002   1.1687784838029375E-002   5.2417743050683877E-002
  -3.6711755655185710E-002   1.1131397293915844E-002   5.2481564234272568E-002
  -3.5880366702786354E-002   1.0610608080139420E-002   5.2685950430794951E-002
  -3.5048977750386949E-002   1.0125417196700112E-002   5.3030901640250920E-002
  -3.4217588797987600E-002   9.6758246435981049E-003   5.3516417862640567E-002
  -4.2875202967443737E-002   1.3662030892589994E-002   4.8896081333244190E-002
  -4.1882667551034189E-002   1.2867280151909744E-002   4.8990348013344537E-002
  -4.0890132134624654E-002   1.2178263294957498E-002   4.9266342608531577E-002
  -3.9897596718215113E-002   1.1594980321733388E-002   4.9724065118805283E-002
  -3.8905061301805571E-002   1.1117431232237185E-002   5.0363515544165627E-002
  -1.9532074004445288E-002   5.3510048776808650E-003   6.3017792259872529E-002
  -1.8307877172084507E-002   4.9303087943173285E-003   6.1900063083223766E-002
  -1.7083680339723739E-002   4.5744747619011622E-003   6.1152690386299335E-002
  -1.5859483507362965E-002   4.2835027804319532E-003   6.0775674169099334E-002
  -1.4635286675002190E-002   4.0573928499103573E-003   6.0769014431623636E-002
  -2.4531095149307458E-002   6.7926114663200421E-003   5.9843556220493976E-002
  -2.2962115172758566E-002   6.3665411565463348E-003   5.8856479839559578E-002
  -2.1393135196209685E-002   5.9803619642971872E-003   5.8188613267277089E-002
  -1.9824155219660806E-002   5.6340738895728215E-003   5.7839956503646414E-002
  -1.8255175243111904E-002   5.3276769323730155E-003   5.7810509548667566E-002
  -2.9426266747154865E-002   8.2342180549590249E-003   5.6676431421416609E-002
  -2.7563650297490409E-002   7.8027735187752856E-003   5.5795036902773987E-002
  -2.5701033847825915E-002   7.3862491666935384E-003   5.5181705521710721E-002
  -2.3838417398161435E-002   6.9846449987135215E-003   5.4836437278226832E-002
  -2.1975800948496965E-002   6.5979610148354517E-003   5.4759232172322314E-002
  -3.4217588797987600E-002   9.6758246435981049E-003   5.3516417862640567E-002
  -3.2112482546280033E-002   9.2390058810042364E-003   5.2715734272866938E-002
  -3.0007376294572417E-002   8.7921363690896988E-003   5.2131967149600160E-002
  -2.7902270042864837E-002   8.3352161078541383E-003   5.1765116492840213E-002
  -2.5797163791157235E-002   7.8682450972980544E-003   5.1615182302587194E-002
  -3.8905061301805571E-002   1.1117431232237185E-002   5.0363515544165627E-002
  -3.6608611919127385E-002   1.0675238243233243E-002   4.9618571949838486E-002
  -3.4312162536449212E-002   1.0198023571486026E-002   4.9039398150945518E-002
  -3.2015713153771032E-002   9.6857872169948678E-003   4.8625994147487001E-002
  -2.9719263771092852E-002   9.1385291797604351E-003   4.8378359939462823E-002
  -1.4635286675002190E-002   4.0573928499103573E-003   6.0769014431623636E-002
  -1.3968830395510903E-002   3.8504064123079940E-003   6.1180546123763280E-002
  -1.3302374116019623E-002   3.6168049095970656E-003   6.1725248592644333E-002
  -1.2635917836528343E-002   3.3565883417771072E-003   6.2403121838266962E-002
  -1.1969461557037056E-002   3.0697567088489031E-003   6.3214165860631000E-002
  -1.8255175243111904E-002   5.3276769323730155E-003   5.7810509548667566E-002
  -1.7448103030593090E-002   5.0289162616916905E-003   5.8103132455020162E-002
  -1.6641030818074238E-002   4.7055370465231283E-003   5.8543816450686265E-002
  -1.5833958605555393E-002   4.3575392868670862E-003   5.9132561535665859E-002
  -1.5026886393036544E-002   3.9849229827236821E-003   5.9869367709959431E-002
  -2.1975800948496965E-002   6.5979610148354517E-003   5.4759232172322314E-002
  -2.1013222490378358E-002   6.2074261110754148E-003   5.4934942813508691E-002
  -2.0050644032259722E-002   5.7942691834491772E-003   5.5273604856581213E-002
  -1.9088065574141111E-002   5.3584902319569507E-003   5.5775218301539538E-002
  -1.8125487116022476E-002   4.9000892565986831E-003   5.6439783148383688E-002
  -2.5797163791157235E-002   7.8682450972980544E-003   5.1615182302587194E-002
  -2.4664188774866667E-002   7.3859359604590696E-003   5.1675977199229194E-002
  -2.3531213758576062E-002   6.8830013203752330E-003   5.1914613810329191E-002
  -2.2398238742285470E-002   6.3594411770469279E-003   5.2331092135887276E-002
  -2.1265263725994892E-002   5.8152555304736286E-003   5.2925412175903512E-002
  -2.9719263771092852E-002   9.1385291797604351E-003   4.8378359939462823E-002
  -2.8401001884058058E-002   8.5644458098427800E-003   4.8326235612181412E-002
  -2.7082739997023292E-002   7.9717334573014276E-003   4.8466843311930352E-002
  -2.5764478109988526E-002   7.3603921221366900E-003   4.8800183038709616E-002
  -2.4446216222953732E-002   6.7304218043484632E-003   4.9326254792519064E-002
  -1.1969461557037056E-002   3.0697567088489031E-003   6.3214165860631000E-002
  -1.0939562467736023E-002   2.7721426528503068E-003   6.3042106853161028E-002
  -9.9096633784349769E-003   2.4795788158196996E-003   6.3126200616145545E-002
  -8.8797642891339373E-003   2.1920651977573521E-003   6.3466447149584521E-002
  -7.8498651998328908E-003   1.9096017986633962E-003   6.4062846453478151E-002
  -1.5026886393036544E-002   3.9849229827236821E-003   5.9869367709959431E-002
  -1.3752810868969387E-002   3.6031251537792519E-003   5.9649809336741244E-002
  -1.2478735344902247E-002   3.2275828197196876E-003   5.9662451062600735E-002
  -1.1204659820835123E-002   2.8582959805451003E-003   5.9907292887537877E-002
  -9.9305842967679532E-003   2.4952646362551567E-003   6.0384334811552809E-002
  -1.8125487116022476E-002   4.9000892565986831E-003   5.6439783148383688E-002
  -1.6631187828565999E-002   4.4341076547082525E-003   5.6173930685333801E-002
  -1.5136888541109568E-002   3.9755868236194675E-003   5.6116325649985074E-002
  -1.3642589253653095E-002   3.5245267633325743E-003   5.6266968042337280E-002
  -1.2148289966196633E-002   3.0809274738471948E-003   5.6625857862390300E-002
  -2.1265263725994892E-002   5.8152555304736286E-003   5.2925412175903512E-002
  -1.9574693346525875E-002   5.2650901556370033E-003   5.2614470898939072E-002
  -1.7884122967056906E-002   4.7235908275191293E-003   5.2487824378298728E-002
  -1.6193552587587923E-002   4.1907575461199633E-003   5.2545472613982687E-002
  -1.4502982208118922E-002   3.6665903114393161E-003   5.2787415605990672E-002
  -2.4446216222953732E-002   6.7304218043484632E-003   4.9326254792519064E-002
  -2.2583327422849006E-002   6.0960726565661427E-003   4.8971429977556769E-002
  -2.0720438622744267E-002   5.4715948314192908E-003   4.8776947247541780E-002
  -1.8857549822639541E-002   4.8569883289076438E-003   4.8742806602473959E-002
  -1.6994661022534802E-002   4.2522531490309934E-003   4.8869008042353612E-002
  -7.8498651998328908E-003   1.9096017986633962E-003   6.4062846453478151E-002
  -6.9313670530145588E-003   1.6872373866224644E-003   6.4023444742382196E-002
  -6.0128689061962129E-003   1.5800207297194946E-003   6.4222092863294500E-002
  -5.0943707593778809E-003   1.5879518279546465E-003   6.4658790816215089E-002
  -4.1758726125595350E-003   1.7110306813281628E-003   6.5333538601143881E-002
  -9.9305842967679532E-003   2.4952646362551567E-003   6.0384334811552809E-002
  -8.7708627577384318E-003   2.1920867754138817E-003   6.0325419701741045E-002
  -7.6111412187089226E-003   2.0023603865836348E-003   6.0510901544343132E-002
  -6.4514196796794281E-003   1.9260854697658314E-003   6.0940780339359568E-002
  -5.2916981406498920E-003   1.9632620249588895E-003   6.1615056086790188E-002
  -1.2148289966196633E-002   3.0809274738471948E-003   5.6625857862390300E-002
  -1.0740997914550091E-002   2.6969361642053546E-003   5.6545733070735987E-002
  -9.3337058629035467E-003   2.4247000434483440E-003   5.6716352351901825E-002
  -7.9264138112570028E-003   2.2642191115765757E-003   5.7137715705887569E-002
  -6.5191217596104346E-003   2.2154933685896161E-003   5.7809823132693172E-002
  -1.4502982208118922E-002   3.6665903114393161E-003   5.2787415605990672E-002
  -1.2841772523449497E-002   3.2017855529967443E-003   5.2684384849367438E-002
  -1.1180562838780056E-002   2.8470397003131018E-003   5.2838445285969884E-002
  -9.5193531541106300E-003   2.6023527533877624E-003   5.3249596915798385E-002
  -7.8581434694411888E-003   2.4677247122202872E-003   5.3917839738852585E-002
  -1.6994661022534802E-002   4.2522531490309934E-003   4.8869008042353612E-002
  -1.5073186584436626E-002   3.7066349417881894E-003   4.8741375037634871E-002
  -1.3151712146338465E-002   3.2693793571771934E-003   4.8877180346547922E-002
  -1.1230237708240311E-002   2.9404863951982274E-003   4.9276423969092487E-002
  -9.3087632701421286E-003   2.7199560558511804E-003   4.9939105905268732E-002
  -4.1758726125595350E-003   1.7110306813281628E-003   6.5333538601143881E-002
  -3.6404494404614351E-003   2.0069917984638641E-003   6.4407898966107546E-002
  -3.1050262683633457E-003   2.5335696879885683E-003   6.3604103510125409E-002
  -2.5696030962652511E-003   3.2907643498999717E-003   6.2922152233197526E-002
  -2.0341799241671565E-003   4.2785757841998784E-003   6.2362045135323951E-002
  -5.2916981406498920E-003   1.9632620249588895E-003   6.1615056086790188E-002
  -4.6091205875272052E-003   2.2200111103846676E-003   6.0881283743274506E-002
  -3.9265430344045185E-003   2.8024537842634423E-003   6.0319975982754070E-002
  -3.2439654812818387E-003   3.7105900465961225E-003   5.9931132805228632E-002
  -2.5613879281591451E-003   4.9444198973821463E-003   5.9714754210698051E-002
  -6.5191217596104346E-003   2.2154933685896161E-003   5.7809823132693172E-002
  -5.6387694215224091E-003   2.4330304223046384E-003   5.7362994896763997E-002
  -4.7584170834343827E-003   3.0713378805389824E-003   5.7139251647770839E-002
  -3.8780647453463568E-003   4.1304157432921623E-003   5.7138593385713213E-002
  -2.9977124072583308E-003   5.6102640105645252E-003   5.7361020110591132E-002
  -7.8581434694411888E-003   2.4677247122202872E-003   5.3917839738852585E-002
  -6.7293959424470969E-003   2.6460497342249700E-003   5.3853032426575610E-002
  -5.6006484154529626E-003   3.3402219768141894E-003   5.4061930505175215E-002
  -4.4719008884588638E-003   4.5502414399883687E-003   5.4544533974651178E-002
  -3.3431533614647364E-003   6.2761081237471816E-003   5.5300842835003514E-002
  -9.3087632701421286E-003   2.7199560558511804E-003   4.9939105905268732E-002
  -7.8810001503011595E-003   2.8590690461453572E-003   5.0351396332709575E-002
  -6.4532370304602321E-003   3.6091060730894520E-003   5.1088012554967532E-002
  -5.0254739106192839E-003   4.9700671366844223E-003   5.2148954572042827E-002
  -3.5977107907783357E-003   6.9419522369292830E-003   5.3534222383935126E-002
  -2.0341799241671565E-003   4.2785757841998784E-003   6.2362045135323951E-002
  -2.2850713140068687E-003   5.5788117658462921E-003   5.8336185855647371E-002
  -2.5359627038465948E-003   7.2732800697974942E-003   5.4303421039776034E-002
  -2.7868540936863417E-003   9.3619806960538871E-003   5.0263750687709663E-002
  -3.0377454835260331E-003   1.1844913644615929E-002   4.6217174799448646E-002
  -2.5613879281591451E-003   4.9444198973821463E-003   5.9714754210698051E-002
  -2.8364121067904861E-003   6.5681989822728992E-003   5.6186769804348280E-002
  -3.1114362854218272E-003   8.6461829469202667E-003   5.2617425356609904E-002
  -3.3864604640531891E-003   1.1178371791323541E-002   4.9006720867483866E-002
  -3.6614846426845093E-003   1.4164765515483291E-002   4.5354656336968224E-002
  -2.9977124072583308E-003   5.6102640105645252E-003   5.7361020110591132E-002
  -3.3313238798748385E-003   7.5575861987000059E-003   5.4390883135019302E-002
  -3.6649353524913324E-003   1.0019085824043122E-002   5.1344931612865075E-002
  -3.9985468251078279E-003   1.2994762886593188E-002   4.8223165544129268E-002
  -4.3321582977243062E-003   1.6484617386350653E-002   4.5025584928811480E-002
  -3.3431533614647364E-003   6.2761081237471816E-003   5.5300842835003514E-002
  -3.7698066332599381E-003   8.5469734151271959E-003   5.2948525847660341E-002
  -4.1964599050551407E-003   1.1391988701166048E-002   5.0485939808541665E-002
  -4.6231131768503641E-003   1.4811153981862949E-002   4.7913084717647603E-002
  -5.0497664486455450E-003   1.8804469257218015E-002   4.5229960574977968E-002
  -3.5977107907783357E-003   6.9419522369292830E-003   5.3534222383935126E-002
  -4.1518603669457727E-003   9.5363606315539418E-003   5.1859697942271632E-002
  -4.7060099431132235E-003   1.2764891578288834E-002   5.0040449943639487E-002
  -5.2601595192807091E-003   1.6627545077132343E-002   4.8076478388038163E-002
  -5.8143090954481114E-003   2.1124321128085377E-002   4.5967783275468133E-002
  -5.1692114128600503E-002   1.6014816040833324E-002   5.2943627021200701E-002
  -4.9487886338311304E-002   1.5621185800385018E-002   5.0857524577636204E-002
  -4.7283658548022120E-002   1.5097844862195064E-002   4.9487566148455397E-002
  -4.5079430757732929E-002   1.4444793226263283E-002   4.8833751733658004E-002
  -4.2875202967443737E-002   1.3662030892589994E-002   4.8896081333244190E-002
  -5.9039386778473923E-002   1.7494849774857435E-002   4.5919543392708484E-002
  -5.6374710865937733E-002   1.7013994675875971E-002   4.5235716314680763E-002
  -5.3710034953401667E-002   1.6459741596710556E-002   4.4756641466763419E-002
  -5.1045359040865532E-002   1.5832090537360958E-002   4.4482318848956343E-002
  -4.8380683128329403E-002   1.5131041497827208E-002   4.4412748461259588E-002
  -6.4627133831711092E-002   1.8974883508881490E-002   3.8780078546904684E-002
  -6.2013401581201298E-002   1.8406803551367173E-002   3.9554839551971158E-002
  -5.9399669330691435E-002   1.7821638331226269E-002   4.0022961002874752E-002
  -5.6785937080181578E-002   1.7219387848458688E-002   4.0184442899615494E-002
  -5.4172204829671770E-002   1.6600052103064478E-002   4.0039285242193245E-002
  -6.8455355288312036E-002   2.0454917242905546E-002   3.1525232483789030E-002
  -6.6403958484101702E-002   1.9799612426858279E-002   3.3814894289507250E-002
  -6.4352561679891312E-002   1.9183535065741872E-002   3.5286524756789305E-002
  -6.2301164875681048E-002   1.8606685159556418E-002   3.5940123885635430E-002
  -6.0249768071470665E-002   1.8069062708301775E-002   3.5775691676045336E-002
  -7.0524051148276756E-002   2.1934950976929657E-002   2.4155005203361668E-002
  -6.9546381574639160E-002   2.1192421302349274E-002   2.8015880527289150E-002
  -6.8568712001001508E-002   2.0545431800257530E-002   3.0547332728507348E-002
  -6.7591042427363898E-002   1.9993982470654134E-002   3.1749361807016235E-002
  -6.6613372853726260E-002   1.9538073313539017E-002   3.1621967762815728E-002
  -4.2875202967443737E-002   1.3662030892589994E-002   4.8896081333244190E-002
  -4.1882667551034189E-002   1.2867280151909744E-002   4.8990348013344537E-002
  -4.0890132134624654E-002   1.2178263294957498E-002   4.9266342608531577E-002
  -3.9897596718215113E-002   1.1594980321733388E-002   4.9724065118805283E-002
  -3.8905061301805571E-002   1.1117431232237185E-002   5.0363515544165627E-002
  -4.8380683128329403E-002   1.5131041497827208E-002   4.4412748461259588E-002
  -4.7183829910009981E-002   1.4417484327950064E-002   4.4320621289339168E-002
  -4.5986976691690565E-002   1.3752308877570320E-002   4.4455401806151928E-002
  -4.4790123473371184E-002   1.3135515146688212E-002   4.4817090011697619E-002
  -4.3593270255051726E-002   1.2567103135303515E-002   4.5405685905976489E-002
  -5.4172204829671770E-002   1.6600052103064478E-002   4.0039285242193245E-002
  -5.2725854035796091E-002   1.5967688503990440E-002   3.9703412054021635E-002
  -5.1279503241920404E-002   1.5326354460183253E-002   3.9639626328229566E-002
  -4.9833152448044725E-002   1.4676049971643148E-002   3.9847928064816844E-002
  -4.8386801654169025E-002   1.4016775038369789E-002   4.0328317263783608E-002
  -6.0249768071470665E-002   1.8069062708301775E-002   3.5775691676045336E-002
  -5.8508739928392353E-002   1.7517892680030789E-002   3.5138720307391923E-002
  -5.6767711785314048E-002   1.6900400042796103E-002   3.4819016174764447E-002
  -5.5026683642235778E-002   1.6216584796597919E-002   3.4816579278162653E-002
  -5.3285655499157453E-002   1.5466446941436091E-002   3.5131409617586762E-002
  -6.6613372853726260E-002   1.9538073313539017E-002   3.1621967762815728E-002
  -6.4532487587798920E-002   1.9068096856071109E-002   3.0626546049450004E-002
  -6.2451602321871608E-002   1.8474445625409050E-002   2.9993571345756531E-002
  -6.0370717055944295E-002   1.7757119621552808E-002   2.9723043651735240E-002
  -5.8289831790016955E-002   1.6916118844502392E-002   2.9814962967386116E-002
  -3.8905061301805571E-002   1.1117431232237185E-002   5.0363515544165627E-002
  -3.6608611919127385E-002   1.0675238243233243E-002   4.9618571949838486E-002
  -3.4312162536449212E-002   1.0198023571486026E-002   4.9039398150945518E-002
  -3.2015713153771032E-002   9.6857872169948678E-003   4.8625994147487001E-002
  -2.9719263771092852E-002   9.1385291797604351E-003   4.8378359939462823E-002
  -4.3593270255051726E-002   1.2567103135303515E-002   4.5405685905976489E-002
  -4.1108465890452396E-002   1.2017280146626258E-002   4.4554892373851906E-002
  -3.8623661525853059E-002   1.1456253483866252E-002   4.3915039010135298E-002
  -3.6138857161253729E-002   1.0884023147023830E-002   4.3486125814826720E-002
  -3.3654052796654413E-002   1.0300589136098603E-002   4.3268152787926006E-002
  -4.8386801654169025E-002   1.4016775038369789E-002   4.0328317263783608E-002
  -4.5668471934674881E-002   1.3359322050019107E-002   3.9395491802522511E-002
  -4.2950142215180731E-002   1.2714483396246701E-002   3.8718776882643122E-002
  -4.0231812495686602E-002   1.2082259077052515E-002   3.8298172504145266E-002
  -3.7513482776192444E-002   1.1462649092436716E-002   3.8133678667028992E-002
  -5.3285655499157453E-002   1.5466446941436091E-002   3.5131409617586762E-002
  -5.0288630051794833E-002   1.4701363953412150E-002   3.4140370235850120E-002
  -4.7291604604432297E-002   1.3972713308627094E-002   3.3450611768468717E-002
  -4.4294579157069670E-002   1.3280495007081450E-002   3.3062134215442636E-002
  -4.1297553709707092E-002   1.2624709048774913E-002   3.2974937576771730E-002
  -5.8289831790016955E-002   1.6916118844502392E-002   2.9814962967386116E-002
  -5.4968940241812314E-002   1.6043405856804943E-002   2.8789527673834858E-002
  -5.1648048693607645E-002   1.5230943221007515E-002   2.8110543667612425E-002
  -4.8327157145403005E-002   1.4478730937110197E-002   2.7778010948718873E-002
  -4.5006265597198336E-002   1.3786769005112887E-002   2.7791929517154257E-002
  -2.9719263771092852E-002   9.1385291797604351E-003   4.8378359939462823E-002
  -2.8401001884058058E-002   8.5644458098427800E-003   4.8326235612181412E-002
  -2.7082739997023292E-002   7.9717334573014276E-003   4.8466843311930352E-002
  -2.5764478109988526E-002   7.3603921221366900E-003   4.8800183038709616E-002
  -2.4446216222953732E-002   6.7304218043484632E-003   4.9326254792519064E-002
  -3.3654052796654413E-002   1.0300589136098603E-002   4.3268152787926006E-002
  -3.2167308741601126E-002   9.7024627010897369E-003   4.3248732569301923E-002
  -3.0680564686547895E-002   9.0861550919952017E-003   4.3373544659684460E-002
  -2.9193820631494651E-002   8.4516663088153657E-003   4.3642589059073436E-002
  -2.7707076576441392E-002   7.7989963515502914E-003   4.4055865767469282E-002
  -3.7513482776192444E-002   1.1462649092436716E-002   3.8133678667028992E-002
  -3.5906756271144417E-002   1.0840479592336444E-002   3.8147410365600209E-002
  -3.4300029766096390E-002   1.0200576726688906E-002   3.8256874655154399E-002
  -3.2693303261048384E-002   9.5429404954941489E-003   3.8462071535691401E-002
  -3.1086576756000336E-002   8.8675708987521196E-003   3.8763001007211639E-002
  -4.1297553709707092E-002   1.2624709048774913E-002   3.2974937576771730E-002
  -3.9619344472687931E-002   1.1978496483583276E-002   3.3022269001076368E-002
  -3.7941135235668805E-002   1.1314998361382701E-002   3.3116833298340240E-002
  -3.6262925998649630E-002   1.0634214682172878E-002   3.3258630468563470E-002
  -3.4584716761630455E-002   9.9361454459540588E-003   3.3447660511745900E-002
  -4.5006265597198336E-002   1.3786769005112887E-002   2.7791929517154257E-002
  -4.3305073346231682E-002   1.3116513374830163E-002   2.7873308475730219E-002
  -4.1603881095265083E-002   1.2429419996076468E-002   2.7953420589242051E-002
  -3.9902688844298456E-002   1.1725488868851518E-002   2.8032265857689559E-002
  -3.8201496593331830E-002   1.1004719993155776E-002   2.8109844281072327E-002
  -2.4446216222953732E-002   6.7304218043484632E-003   4.9326254792519064E-002
  -2.2583327422849006E-002   6.0960726565661427E-003   4.8971429977556769E-002
  -2.0720438622744267E-002   5.4715948314192908E-003   4.8776947247541780E-002
  -1.8857549822639541E-002   4.8569883289076438E-003   4.8742806602473959E-002
  -1.6994661022534802E-002   4.2522531490309934E-003   4.8869008042353612E-002
  -2.7707076576441392E-002   7.7989963515502914E-003   4.4055865767469282E-002
  -2.5679739724647870E-002   7.1406942537450280E-003   4.3594901200997294E-002
  -2.3652402872854299E-002   6.4893090489448330E-003   4.3302490652955578E-002
  -2.1625066021060780E-002   5.8448407371493837E-003   4.3178634123344314E-002
  -1.9597729169267206E-002   5.2072893183592317E-003   4.3223331612163129E-002
  -3.1086576756000336E-002   8.8675708987521196E-003   3.8763001007211639E-002
  -2.8886579919035062E-002   8.1853158509236079E-003   3.8192942259599724E-002
  -2.6686583082069691E-002   7.5070232664702641E-003   3.7799649463901103E-002
  -2.4486586245104348E-002   6.8326931453912901E-003   3.7583122620115816E-002
  -2.2286589408138990E-002   6.1623254876872480E-003   3.7543361728243518E-002
  -3.4584716761630455E-002   9.9361454459540588E-003   3.3447660511745900E-002
  -3.2203848006010387E-002   9.2299374481024515E-003   3.2765553153363908E-002
  -2.9822979250390347E-002   8.5247374839955287E-003   3.2268423680378071E-002
  -2.7442110494770237E-002   7.8205455536331688E-003   3.1956272092788549E-002
  -2.5061241739150183E-002   7.1173616570154308E-003   3.1829098390595112E-002
  -3.8201496593331830E-002   1.1004719993155776E-002   2.8109844281072327E-002
  -3.5631543985574055E-002   1.0274559045281073E-002   2.7312733882289997E-002
  -3.3061591377816307E-002   9.5424517015212373E-003   2.6708813302386836E-002
  -3.0491638770058602E-002   8.8083979618749364E-003   2.6298082541362622E-002
  -2.7921686162300813E-002   8.0723978263433915E-003   2.6080541599217688E-002
  -1.6994661022534802E-002   4.2522531490309934E-003   4.8869008042353612E-002
  -1.5073186584436626E-002   3.7066349417881894E-003   4.8741375037634871E-002
  -1.3151712146338465E-002   3.2693793571771934E-003   4.8877180346547922E-002
  -1.1230237708240311E-002   2.9404863951982274E-003   4.9276423969092487E-002
  -9.3087632701421286E-003   2.7199560558511804E-003   4.9939105905268732E-002
  -1.9597729169267206E-002   5.2072893183592317E-003   4.3223331612163129E-002
  -1.7454641496191935E-002   4.6086459058763407E-003   4.3057712307771501E-002
  -1.5311553823116712E-002   4.0809016130040621E-003   4.3071881159702313E-002
  -1.3168466150041479E-002   3.6240564397420211E-003   4.3265838167955775E-002
  -1.1025378476966163E-002   3.2381103860901206E-003   4.3639583332531651E-002
  -2.2286589408138990E-002   6.1623254876872480E-003   3.7543361728243518E-002
  -2.0005538657395808E-002   5.5106568699646308E-003   3.7302292621157390E-002
  -1.7724487906652649E-002   4.8924238688309307E-003   3.7157361513084380E-002
  -1.5443437155909500E-002   4.3076264842855927E-003   3.7108568404025127E-002
  -1.3162386405166315E-002   3.7562647163290053E-003   3.7155913293978826E-002
  -2.5061241739150183E-002   7.1173616570154308E-003   3.1829098390595112E-002
  -2.2725878068048311E-002   6.4126678340531845E-003   3.1475115977792789E-002
  -2.0390514396946384E-002   5.7039461246577439E-003   3.1133621406694421E-002
  -1.8055150725844498E-002   4.9911965288292198E-003   3.0804614677300439E-002
  -1.5719787054742584E-002   4.2744190465677512E-003   3.0488095789610384E-002
  -2.7921686162300813E-002   8.0723978263433915E-003   2.6080541599217688E-002
  -2.5615659728149276E-002   7.3146787981411276E-003   2.5576182377677337E-002
  -2.3309633293997836E-002   6.5154683804846125E-003   2.5000660840531985E-002
  -2.1003606859846306E-002   5.6747665733728886E-003   2.4353976987781745E-002
  -1.8697580425694860E-002   4.7925733768068302E-003   2.3636130819426282E-002
  -9.3087632701421286E-003   2.7199560558511804E-003   4.9939105905268732E-002
  -7.8810001503011595E-003   2.8590690461453572E-003   5.0351396332709575E-002
  -6.4532370304602321E-003   3.6091060730894520E-003   5.1088012554967532E-002
  -5.0254739106192839E-003   4.9700671366844223E-003   5.2148954572042827E-002
  -3.5977107907783357E-003   6.9419522369292830E-003   5.3534222383935126E-002
  -1.1025378476966163E-002   3.2381103860901206E-003   4.3639583332531651E-002
  -9.2543275211580123E-003   3.1633941531583609E-003   4.4231685358986306E-002
  -7.4832765653498334E-003   3.6402384420559653E-003   4.5186037262558348E-002
  -5.7122256095416685E-003   4.6686432527834332E-003   4.6502639043247571E-002
  -3.9411746537335035E-003   6.2486085853405982E-003   4.8181490701054042E-002
  -1.3162386405166315E-002   3.7562647163290053E-003   3.7155913293978826E-002
  -1.1010123531090869E-002   3.4677192601712814E-003   3.7868463404626768E-002
  -8.8578606570154546E-003   3.6713708110223398E-003   3.8981187474692286E-002
  -6.7055977829400138E-003   4.3672193688824371E-003   4.0494085504174757E-002
  -4.5533349088645939E-003   5.5552649337518578E-003   4.2407157493074915E-002
  -1.5719787054742584E-002   4.2744190465677512E-003   3.0488095789610384E-002
  -1.3148388180099845E-002   3.7720443671839105E-003   3.1261730469630947E-002
  -1.0576989305457109E-002   3.7025031799886726E-003   3.2473463191368977E-002
  -8.0055904308143893E-003   4.0657954849816665E-003   3.4123293954824524E-002
  -5.4341915561716917E-003   4.8619212821632563E-003   3.6211222759997073E-002
  -1.8697580425694860E-002   4.7925733768068302E-003   2.3636130819426282E-002
  -1.5669121468184777E-002   4.0763694741972611E-003   2.4411486553998940E-002
  -1.2640662510674749E-002   3.7336355489552553E-003   2.5662864412589192E-002
  -9.6122035531646804E-003   3.7643716010804587E-003   2.7390264395196540E-002
  -6.5837445956546392E-003   4.1685776305743216E-003   2.9593686501821259E-002
  -3.5977107907783357E-003   6.9419522369292830E-003   5.3534222383935126E-002
  -4.1518603669457727E-003   9.5363606315539418E-003   5.1859697942271632E-002
  -4.7060099431132235E-003   1.2764891578288834E-002   5.0040449943639487E-002
  -5.2601595192807091E-003   1.6627545077132343E-002   4.8076478388038163E-002
  -5.8143090954481114E-003   2.1124321128085377E-002   4.5967783275468133E-002
  -3.9411746537335035E-003   6.2486085853405982E-003   4.8181490701054042E-002
  -4.5361845325604944E-003   8.6885792777569582E-003   4.7243419496523276E-002
  -5.1311944113875130E-003   1.2297000168062233E-002   4.6368351243642636E-002
  -5.7262042902145593E-003   1.7073871256256201E-002   4.5556285942411401E-002
  -6.3212141690415224E-003   2.3019192542339306E-002   4.4807223592830736E-002
  -4.5533349088645939E-003   5.5552649337518578E-003   4.2407157493074915E-002
  -4.9814785817322987E-003   7.8407979239597525E-003   4.2739867171455975E-002
  -5.4096222545999863E-003   1.1829108757835979E-002   4.3343306310106286E-002
  -5.8377659274675472E-003   1.7520197435380396E-002   4.4217474909024897E-002
  -6.2659096003352677E-003   2.4914063956593235E-002   4.5362372968212439E-002
  -5.4341915561716917E-003   4.8619212821632563E-003   3.6211222759997073E-002
  -5.4877425144610158E-003   6.9930165701625469E-003   3.8349040967069800E-002
  -5.5412934727504812E-003   1.1361217347609663E-002   4.0965315143030548E-002
  -5.5948444310398634E-003   1.7966523614504758E-002   4.4060045287879143E-002
  -5.6483953893293262E-003   2.6808935370847164E-002   4.7633231401614989E-002
  -6.5837445956546392E-003   4.1685776305743216E-003   2.9593686501821259E-002
  -6.0549763307469195E-003   6.1452352163653412E-003   3.4070940883365042E-002
  -5.5262080658391999E-003   1.0893325937383264E-002   3.9234377742415616E-002
  -4.9974398009315080E-003   1.8412849793628429E-002   4.5083997078972676E-002
  -4.4686715360237050E-003   2.8703806785101094E-002   5.1619798893036251E-002
  -7.0524051148276756E-002   2.1934950976929657E-002   2.4155005203361668E-002
  -6.9546381574639160E-002   2.1192421302349274E-002   2.8015880527289150E-002
  -6.8568712001001508E-002   2.0545431800257530E-002   3.0547332728507348E-002
  -6.7591042427363898E-002   1.9993982470654134E-002   3.1749361807016235E-002
  -6.6613372853726260E-002   1.9538073313539017E-002   3.1621967762815728E-002
  -7.4572126841900788E-002   2.4153800657718494E-002   2.2027269579199760E-002
  -7.4020391804508964E-002   2.3287263897407789E-002   2.1163086041378593E-002
  -7.3468656767117169E-002   2.2504662596094363E-002   2.0776456553775330E-002
  -7.2916921729725331E-002   2.1805996753778038E-002   2.0867381116389735E-002
  -7.2365186692333522E-002   2.1191266370458650E-002   2.1435859729221740E-002
  -8.4338487799479736E-002   2.6372650338507386E-002   1.9781329226052968E-002
  -8.2405710125406650E-002   2.5382106492466278E-002   1.4180482112992013E-002
  -8.0472932451333551E-002   2.4463893391931085E-002   1.0864166223075872E-002
  -7.8540154777260521E-002   2.3618011036901830E-002   9.8323815563046008E-003
  -7.6607377103187435E-002   2.2844459427378311E-002   1.1085128112677964E-002
  -9.9823134021013477E-002   2.8591500019296279E-002   1.7417184143921578E-002
  -9.4702336537332066E-002   2.7476949087524780E-002   7.0680687421296635E-003
  -8.9581539053650738E-002   2.6423124187767974E-002   8.1046173640924278E-004
  -8.4460741569969383E-002   2.5430025320025650E-002  -1.3556368732389936E-003
  -7.9339944086288000E-002   2.4497652484297985E-002   5.6977291318438886E-004
 -0.12102606550650208        3.0810349700085116E-002   1.4934834332805402E-002
 -0.11091027104028550        2.9571791682583171E-002  -1.7415407120913162E-004
 -0.10079447657406870        2.8382354983604696E-002  -9.3846569062246143E-003
  -9.0678682107852016E-002   2.7242039603149651E-002  -1.2696674172241247E-002
  -8.0562887641635328E-002   2.6150845541217604E-002  -1.0110205869259037E-002
  -6.6613372853726260E-002   1.9538073313539017E-002   3.1621967762815728E-002
  -6.4532487587798920E-002   1.9068096856071109E-002   3.0626546049450004E-002
  -6.2451602321871608E-002   1.8474445625409050E-002   2.9993571345756531E-002
  -6.0370717055944295E-002   1.7757119621552808E-002   2.9723043651735240E-002
  -5.8289831790016955E-002   1.6916118844502392E-002   2.9814962967386116E-002
  -7.2365186692333522E-002   2.1191266370458650E-002   2.1435859729221740E-002
  -7.0088690374794330E-002   2.0580969238837968E-002   2.1683853621152230E-002
  -6.7812194057255124E-002   1.9895603151617897E-002   2.1960622606634020E-002
  -6.5535697739715959E-002   1.9135168108797958E-002   2.2266166685667312E-002
  -6.3259201422176725E-002   1.8299664110378533E-002   2.2600485858252223E-002
  -7.6607377103187435E-002   2.2844459427378311E-002   1.1085128112677964E-002
  -7.4468941650157106E-002   2.2093841621605034E-002   1.2625143427498903E-002
  -7.2330506197126748E-002   2.1316760677826806E-002   1.3860261919750559E-002
  -7.0192070744096446E-002   2.0513216596043167E-002   1.4790483589433145E-002
  -6.8053635291066061E-002   1.9683209376254673E-002   1.5415808436546385E-002
  -7.9339944086288000E-002   2.4497652484297985E-002   5.6977291318438886E-004
  -7.7673241413887248E-002   2.3606714004372052E-002   3.4504154684901860E-003
  -7.6006538741486426E-002   2.2737918204035656E-002   5.6924892851062791E-003
  -7.4339836069085688E-002   2.1891265083288678E-002   7.2959943630324384E-003
  -7.2673133396684825E-002   2.1066754642130814E-002   8.2609307022687567E-003
  -8.0562887641635328E-002   2.6150845541217604E-002  -1.0110205869259037E-002
  -7.9701589665984784E-002   2.5119586387138959E-002  -5.8403302558736603E-003
  -7.8840291690334241E-002   2.4159075730244506E-002  -2.5426952972990857E-003
  -7.7978993714683698E-002   2.3269313570533620E-002  -2.1730099353455684E-004
  -7.7117695739033154E-002   2.2450299908006954E-002   1.1358526554191561E-003
  -5.8289831790016955E-002   1.6916118844502392E-002   2.9814962967386116E-002
  -5.4968940241812314E-002   1.6043405856804943E-002   2.8789527673834858E-002
  -5.1648048693607645E-002   1.5230943221007515E-002   2.8110543667612425E-002
  -4.8327157145403005E-002   1.4478730937110197E-002   2.7778010948718873E-002
  -4.5006265597198336E-002   1.3786769005112887E-002   2.7791929517154257E-002
  -6.3259201422176725E-002   1.8299664110378533E-002   2.2600485858252223E-002
  -5.9638246390651989E-002   1.7441261657354823E-002   2.1748359723108346E-002
  -5.6017291359127142E-002   1.6612131250722473E-002   2.1149909267275904E-002
  -5.2396336327602322E-002   1.5812272890481177E-002   2.0805134490754724E-002
  -4.8775381296077558E-002   1.5041686576631408E-002   2.0714035393545160E-002
  -6.8053635291066061E-002   1.9683209376254673E-002   1.5415808436546385E-002
  -6.4225392384238578E-002   1.8839117457904550E-002   1.4706013154301215E-002
  -6.0397149477411122E-002   1.7993319280437306E-002   1.4157117943349923E-002
  -5.6568906570583659E-002   1.7145814843852265E-002   1.3769122803692628E-002
  -5.2740663663756182E-002   1.6296604148149985E-002   1.3542027735329171E-002
  -7.2673133396684825E-002   2.1066754642130814E-002   8.2609307022687567E-003
  -6.8730378222572136E-002   2.0236973258454548E-002   7.6624879674134123E-003
  -6.4787623048459517E-002   1.9374507310152035E-002   7.1321696958347135E-003
  -6.0844867874346897E-002   1.8479356797223741E-002   6.6699758875322958E-003
  -5.6902112700234216E-002   1.7551521719668201E-002   6.2759065425061697E-003
  -7.7117695739033154E-002   2.2450299908006954E-002   1.1358526554191561E-003
  -7.3153203905652775E-002   2.1634829059004268E-002   6.1778416244490097E-004
  -6.9188712072272396E-002   2.0755695339867097E-002   7.5064524729911986E-005
  -6.5224220238892017E-002   1.9812898750594332E-002  -4.9230625772653941E-004
  -6.1259728405511638E-002   1.8806439291186861E-002  -1.0843281849235442E-003
  -4.5006265597198336E-002   1.3786769005112887E-002   2.7791929517154257E-002
  -4.3305073346231682E-002   1.3116513374830163E-002   2.7873308475730219E-002
  -4.1603881095265083E-002   1.2429419996076468E-002   2.7953420589242051E-002
  -3.9902688844298456E-002   1.1725488868851518E-002   2.8032265857689559E-002
  -3.8201496593331830E-002   1.1004719993155776E-002   2.8109844281072327E-002
  -4.8775381296077558E-002   1.5041686576631408E-002   2.0714035393545160E-002
  -4.7014426678456983E-002   1.4290278028738113E-002   2.0656399763565592E-002
  -4.5253472060836450E-002   1.3547952966366628E-002   2.0719555711957965E-002
  -4.3492517443215861E-002   1.2814711389516661E-002   2.0903503238722809E-002
  -4.1731562825595342E-002   1.2090553298188311E-002   2.1208242343859651E-002
  -5.2740663663756182E-002   1.6296604148149985E-002   1.3542027735329171E-002
  -5.0797888256045136E-002   1.5464042682646145E-002   1.3371298750786492E-002
  -4.8855112848334076E-002   1.4666485936656690E-002   1.3443419768052578E-002
  -4.6912337440623085E-002   1.3903933910181809E-002   1.3758390787127338E-002
  -4.4969562032911969E-002   1.3176386603221180E-002   1.4316211808010959E-002
  -5.6902112700234216E-002   1.7551521719668201E-002   6.2759065425061697E-003
  -5.4655458078996071E-002   1.6637807336553859E-002   6.0180054373934339E-003
  -5.2408803457758044E-002   1.5785018906946745E-002   6.1250127575259057E-003
  -5.0162148836519940E-002   1.4993156430846899E-002   6.5969285029034742E-003
  -4.7915494215281851E-002   1.4262219908254103E-002   7.4337526735263823E-003
  -6.1259728405511638E-002   1.8806439291186861E-002  -1.0843281849235442E-003
  -5.8587136147309926E-002   1.7811571990462016E-002  -1.4034801766140137E-003
  -5.5914543889108215E-002   1.6903551877236911E-002  -1.2356653196226031E-003
  -5.3241951630906503E-002   1.6082378951511989E-002  -5.8088361394920129E-004
  -5.0569359372704792E-002   1.5348053213286805E-002   5.6086494040596957E-004
  -3.8201496593331830E-002   1.1004719993155776E-002   2.8109844281072327E-002
  -3.5631543985574055E-002   1.0274559045281073E-002   2.7312733882289997E-002
  -3.3061591377816307E-002   9.5424517015212373E-003   2.6708813302386836E-002
  -3.0491638770058602E-002   8.8083979618749364E-003   2.6298082541362622E-002
  -2.7921686162300813E-002   8.0723978263433915E-003   2.6080541599217688E-002
  -4.1731562825595342E-002   1.2090553298188311E-002   2.1208242343859651E-002
  -3.9010716087259173E-002   1.1361127373267388E-002   2.0650120507427094E-002
  -3.6289869348922976E-002   1.0612082295639813E-002   2.0200597113271990E-002
  -3.3569022610586738E-002   9.8434180653048098E-003   1.9859672161394740E-002
  -3.0848175872250555E-002   9.0551346822628220E-003   1.9627345651795136E-002
  -4.4969562032911969E-002   1.3176386603221180E-002   1.4316211808010959E-002
  -4.2182412540598742E-002   1.2447695701253814E-002   1.3979405777106657E-002
  -3.9395263048285570E-002   1.1681712889758167E-002   1.3666606811878937E-002
  -3.6608113555972398E-002   1.0878438168734350E-002   1.3377814912327118E-002
  -3.3820964063659177E-002   1.0037871538182197E-002   1.3113030078451882E-002
  -4.7915494215281851E-002   1.4262219908254103E-002   7.4337526735263823E-003
  -4.5146633345593039E-002   1.3534264029239740E-002   7.3005896913292331E-003
  -4.2377772475904241E-002   1.2751343483876632E-002   7.1068423982071707E-003
  -3.9608911606215443E-002   1.1913458272163890E-002   6.8525107941600494E-003
  -3.6840050736526637E-002   1.1020608394101100E-002   6.5375948791876193E-003
  -5.0569359372704792E-002   1.5348053213286805E-002   5.6086494040596957E-004
  -4.7903378502241800E-002   1.4620832357226443E-002   6.1367225009500981E-004
  -4.5237397631778919E-002   1.3820974077995041E-002   5.2130387225746144E-004
  -4.2571416761316039E-002   1.2948478375593972E-002   2.8375980689335223E-004
  -3.9905435890853047E-002   1.2003345250021002E-002  -9.8959945997401100E-005
  -2.7921686162300813E-002   8.0723978263433915E-003   2.6080541599217688E-002
  -2.5615659728149276E-002   7.3146787981411276E-003   2.5576182377677337E-002
  -2.3309633293997836E-002   6.5154683804846125E-003   2.5000660840531985E-002
  -2.1003606859846306E-002   5.6747665733728886E-003   2.4353976987781745E-002
  -1.8697580425694860E-002   4.7925733768068302E-003   2.3636130819426282E-002
  -3.0848175872250555E-002   9.0551346822628220E-003   1.9627345651795136E-002
  -2.8588413078101949E-002   8.2649476507912767E-003   1.9088746857594985E-002
  -2.6328650283953259E-002   7.4905724751687108E-003   1.8528783098994084E-002
  -2.4068887489804548E-002   6.7320091553946249E-003   1.7947454375992725E-002
  -2.1809124695655963E-002   5.9892576914689633E-003   1.7344760688590422E-002
  -3.3820964063659177E-002   1.0037871538182197E-002   1.3113030078451882E-002
  -3.1557667558308994E-002   9.2152165034419531E-003   1.2597494956895022E-002
  -2.9294371052958925E-002   8.4656765698528369E-003   1.2110392222142025E-002
  -2.7031074547608711E-002   7.7892517374161460E-003   1.1651721874192757E-002
  -2.4767778042258617E-002   7.1859420061307633E-003   1.1221483913046865E-002
  -3.6840050736526637E-002   1.1020608394101100E-002   6.5375948791876193E-003
  -3.4523423168770682E-002   1.0165485356091922E-002   6.1024266755774770E-003
  -3.2206795601014644E-002   9.4407806645375042E-003   5.7454882099757104E-003
  -2.9890168033258686E-002   8.8464943194376637E-003   5.4667794823813516E-003
  -2.7573540465502647E-002   8.3826263207926188E-003   5.2663004927954865E-003
  -3.9905435890853047E-002   1.2003345250021002E-002  -9.8959945997401100E-005
  -3.7485679909486813E-002   1.1115754208742556E-002  -3.9645798635767893E-004
  -3.5065923928120690E-002   1.0415884759220950E-002  -5.6592893750537221E-004
  -3.2646167946754456E-002   9.9037369014593757E-003  -6.0737279944064054E-004
  -3.0226411965388333E-002   9.5793106354546964E-003  -5.2078957216394883E-004
  -1.8697580425694860E-002   4.7925733768068302E-003   2.3636130819426282E-002
  -1.5669121468184777E-002   4.0763694741972611E-003   2.4411486553998940E-002
  -1.2640662510674749E-002   3.7336355489552553E-003   2.5662864412589192E-002
  -9.6122035531646804E-003   3.7643716010804587E-003   2.7390264395196540E-002
  -6.5837445956546392E-003   4.1685776305743216E-003   2.9593686501821259E-002
  -2.1809124695655963E-002   5.9892576914689633E-003   1.7344760688590422E-002
  -1.8574501707929986E-002   5.3419272529547368E-003   1.8277399338891442E-002
  -1.5339878720204023E-002   4.8696270094150951E-003   1.9146343925607073E-002
  -1.2105255732478060E-002   4.5723569608500172E-003   1.9951594448736967E-002
  -8.8706327447520827E-003   4.4501171072597323E-003   2.0693150908281388E-002
  -2.4767778042258617E-002   7.1859420061307633E-003   1.1221483913046865E-002
  -2.1866707211919537E-002   6.6074850317122957E-003   1.2112965696683048E-002
  -1.8965636381580518E-002   6.0056184698751430E-003   1.2401037229130649E-002
  -1.6064565551241441E-002   5.3803423206193503E-003   1.2085698510390021E-002
  -1.3163494720902419E-002   4.7316565839449765E-003   1.1166949540460852E-002
  -2.7573540465502647E-002   8.3826263207926188E-003   5.2663004927954865E-003
  -2.5545737980153443E-002   7.8730428104693689E-003   5.9181856273734304E-003
  -2.3517935494804194E-002   7.1416099303348649E-003   5.4269443231602134E-003
  -2.1490133009454952E-002   6.1883276803882410E-003   3.7925765801556741E-003
  -1.9462330524105738E-002   5.0131960606306369E-003   1.0150823983599774E-003
  -3.0226411965388333E-002   9.5793106354546964E-003  -5.2078957216394883E-004
  -2.9611594012631692E-002   9.1386005892275524E-003  -3.0694086903698681E-004
  -2.8996776059875107E-002   8.2776013907948087E-003  -1.7759347923044788E-003
  -2.8381958107118466E-002   6.9963130401576312E-003  -4.9277713419655783E-003
  -2.7767140154361880E-002   5.2947355373156313E-003  -9.7624505180214927E-003
  -6.5837445956546392E-003   4.1685776305743216E-003   2.9593686501821259E-002
  -6.0549763307469195E-003   6.1452352163653412E-003   3.4070940883365042E-002
  -5.5262080658391999E-003   1.0893325937383264E-002   3.9234377742415616E-002
  -4.9974398009315080E-003   1.8412849793628429E-002   4.5083997078972676E-002
  -4.4686715360237050E-003   2.8703806785101094E-002   5.1619798893036251E-002
  -8.8706327447520827E-003   4.4501171072597323E-003   2.0693150908281388E-002
  -7.5840848879149686E-003   5.6591711886759266E-003   2.5865523982327943E-002
  -6.2975370310778545E-003   9.3557829451311192E-003   3.1867273762726966E-002
  -5.0109891742408583E-003   1.5539952376625851E-002   3.8698400249477960E-002
  -3.7244413174035151E-003   2.4211679483159276E-002   4.6358903442581090E-002
  -1.3163494720902419E-002   4.7316565839449765E-003   1.1166949540460852E-002
  -1.0975973043290427E-002   5.1731071609869561E-003   1.6750565846822385E-002
  -8.7884513656783791E-003   7.8182399528797381E-003   2.3306753088381607E-002
  -6.6009296880664217E-003   1.2667054959623270E-002   3.0835511265138359E-002
  -4.4134080104544504E-003   1.9719552181217459E-002   3.9336840377092730E-002
  -1.9462330524105738E-002   5.0131960606306369E-003   1.0150823983599774E-003
  -1.6230640796873273E-002   4.6870431332974305E-003   6.7260664768480638E-003
  -1.2998951069640947E-002   6.2806969606276422E-003   1.3552815719379194E-002
  -9.7672613424086650E-003   9.7941575426205799E-003   2.1495330125953532E-002
  -6.5355716151761570E-003   1.5227424879275642E-002   3.0553609696570949E-002
  -2.7767140154361880E-002   5.2947355373156313E-003  -9.7624505180214927E-003
  -2.3348088148663626E-002   4.2009791056079049E-003  -4.2079741275948823E-003
  -1.8929036142965316E-002   4.7431539683762125E-003   2.6054616557203425E-003
  -1.4509984137267173E-002   6.9212601256176676E-003   1.0677856831924223E-002
  -1.0090932131568753E-002   1.0735297577333824E-002   2.0009211401016858E-002
 </DataArray>
 </PointData>
 </Piece>
 </UnstructuredGrid>
 </VTKFile>
