 <VTKFile type="UnstructuredGrid"  version="0.1"   >
 <UnstructuredGrid>
 <Piece  NumberOfPoints="           400 "  NumberOfCells="          256 ">
 <Points>
 <DataArray  type="Float64" NumberOfComponents="3"  format="ascii" >
   0.0000000000000000        0.0000000000000000        0.0000000000000000     
   6.2500000000000000E-002   0.0000000000000000        0.0000000000000000     
  0.12500000000000000        0.0000000000000000        0.0000000000000000     
  0.18750000000000000        0.0000000000000000        0.0000000000000000     
  0.25000000000000000        0.0000000000000000        0.0000000000000000     
   0.0000000000000000        6.2500000000000000E-002   0.0000000000000000     
   6.2500000000000000E-002   6.2500000000000000E-002   0.0000000000000000     
  0.12500000000000000        6.2500000000000000E-002   0.0000000000000000     
  0.18750000000000000        6.2500000000000000E-002   0.0000000000000000     
  0.25000000000000000        6.2500000000000000E-002   0.0000000000000000     
   0.0000000000000000       0.12500000000000000        0.0000000000000000     
   6.2500000000000000E-002  0.12500000000000000        0.0000000000000000     
  0.12500000000000000       0.12500000000000000        0.0000000000000000     
  0.18750000000000000       0.12500000000000000        0.0000000000000000     
  0.25000000000000000       0.12500000000000000        0.0000000000000000     
   0.0000000000000000       0.18750000000000000        0.0000000000000000     
   6.2500000000000000E-002  0.18750000000000000        0.0000000000000000     
  0.12500000000000000       0.18750000000000000        0.0000000000000000     
  0.18750000000000000       0.18750000000000000        0.0000000000000000     
  0.25000000000000000       0.18750000000000000        0.0000000000000000     
   0.0000000000000000       0.25000000000000000        0.0000000000000000     
   6.2500000000000000E-002  0.25000000000000000        0.0000000000000000     
  0.12500000000000000       0.25000000000000000        0.0000000000000000     
  0.18750000000000000       0.25000000000000000        0.0000000000000000     
  0.25000000000000000       0.25000000000000000        0.0000000000000000     
  0.25000000000000000        0.0000000000000000        0.0000000000000000     
  0.31250000000000000        0.0000000000000000        0.0000000000000000     
  0.37500000000000000        0.0000000000000000        0.0000000000000000     
  0.43750000000000000        0.0000000000000000        0.0000000000000000     
  0.50000000000000000        0.0000000000000000        0.0000000000000000     
  0.25000000000000000        6.2500000000000000E-002   0.0000000000000000     
  0.31250000000000000        6.2500000000000000E-002   0.0000000000000000     
  0.37500000000000000        6.2500000000000000E-002   0.0000000000000000     
  0.43750000000000000        6.2500000000000000E-002   0.0000000000000000     
  0.50000000000000000        6.2500000000000000E-002   0.0000000000000000     
  0.25000000000000000       0.12500000000000000        0.0000000000000000     
  0.31250000000000000       0.12500000000000000        0.0000000000000000     
  0.37500000000000000       0.12500000000000000        0.0000000000000000     
  0.43750000000000000       0.12500000000000000        0.0000000000000000     
  0.50000000000000000       0.12500000000000000        0.0000000000000000     
  0.25000000000000000       0.18750000000000000        0.0000000000000000     
  0.31250000000000000       0.18750000000000000        0.0000000000000000     
  0.37500000000000000       0.18750000000000000        0.0000000000000000     
  0.43750000000000000       0.18750000000000000        0.0000000000000000     
  0.50000000000000000       0.18750000000000000        0.0000000000000000     
  0.25000000000000000       0.25000000000000000        0.0000000000000000     
  0.31250000000000000       0.25000000000000000        0.0000000000000000     
  0.37500000000000000       0.25000000000000000        0.0000000000000000     
  0.43750000000000000       0.25000000000000000        0.0000000000000000     
  0.50000000000000000       0.25000000000000000        0.0000000000000000     
  0.50000000000000000        0.0000000000000000        0.0000000000000000     
  0.56250000000000000        0.0000000000000000        0.0000000000000000     
  0.62500000000000000        0.0000000000000000        0.0000000000000000     
  0.68750000000000000        0.0000000000000000        0.0000000000000000     
  0.75000000000000000        0.0000000000000000        0.0000000000000000     
  0.50000000000000000        6.2500000000000000E-002   0.0000000000000000     
  0.56250000000000000        6.2500000000000000E-002   0.0000000000000000     
  0.62500000000000000        6.2500000000000000E-002   0.0000000000000000     
  0.68750000000000000        6.2500000000000000E-002   0.0000000000000000     
  0.75000000000000000        6.2500000000000000E-002   0.0000000000000000     
  0.50000000000000000       0.12500000000000000        0.0000000000000000     
  0.56250000000000000       0.12500000000000000        0.0000000000000000     
  0.62500000000000000       0.12500000000000000        0.0000000000000000     
  0.68750000000000000       0.12500000000000000        0.0000000000000000     
  0.75000000000000000       0.12500000000000000        0.0000000000000000     
  0.50000000000000000       0.18750000000000000        0.0000000000000000     
  0.56250000000000000       0.18750000000000000        0.0000000000000000     
  0.62500000000000000       0.18750000000000000        0.0000000000000000     
  0.68750000000000000       0.18750000000000000        0.0000000000000000     
  0.75000000000000000       0.18750000000000000        0.0000000000000000     
  0.50000000000000000       0.25000000000000000        0.0000000000000000     
  0.56250000000000000       0.25000000000000000        0.0000000000000000     
  0.62500000000000000       0.25000000000000000        0.0000000000000000     
  0.68750000000000000       0.25000000000000000        0.0000000000000000     
  0.75000000000000000       0.25000000000000000        0.0000000000000000     
  0.75000000000000000        0.0000000000000000        0.0000000000000000     
  0.81250000000000000        0.0000000000000000        0.0000000000000000     
  0.87500000000000000        0.0000000000000000        0.0000000000000000     
  0.93750000000000000        0.0000000000000000        0.0000000000000000     
   1.0000000000000000        0.0000000000000000        0.0000000000000000     
  0.75000000000000000        6.2500000000000000E-002   0.0000000000000000     
  0.81250000000000000        6.2500000000000000E-002   0.0000000000000000     
  0.87500000000000000        6.2500000000000000E-002   0.0000000000000000     
  0.93750000000000000        6.2500000000000000E-002   0.0000000000000000     
   1.0000000000000000        6.2500000000000000E-002   0.0000000000000000     
  0.75000000000000000       0.12500000000000000        0.0000000000000000     
  0.81250000000000000       0.12500000000000000        0.0000000000000000     
  0.87500000000000000       0.12500000000000000        0.0000000000000000     
  0.93750000000000000       0.12500000000000000        0.0000000000000000     
   1.0000000000000000       0.12500000000000000        0.0000000000000000     
  0.75000000000000000       0.18750000000000000        0.0000000000000000     
  0.81250000000000000       0.18750000000000000        0.0000000000000000     
  0.87500000000000000       0.18750000000000000        0.0000000000000000     
  0.93750000000000000       0.18750000000000000        0.0000000000000000     
   1.0000000000000000       0.18750000000000000        0.0000000000000000     
  0.75000000000000000       0.25000000000000000        0.0000000000000000     
  0.81250000000000000       0.25000000000000000        0.0000000000000000     
  0.87500000000000000       0.25000000000000000        0.0000000000000000     
  0.93750000000000000       0.25000000000000000        0.0000000000000000     
   1.0000000000000000       0.25000000000000000        0.0000000000000000     
   0.0000000000000000       0.25000000000000000        0.0000000000000000     
   6.2500000000000000E-002  0.25000000000000000        0.0000000000000000     
  0.12500000000000000       0.25000000000000000        0.0000000000000000     
  0.18750000000000000       0.25000000000000000        0.0000000000000000     
  0.25000000000000000       0.25000000000000000        0.0000000000000000     
   0.0000000000000000       0.31250000000000000        0.0000000000000000     
   6.2500000000000000E-002  0.31250000000000000        0.0000000000000000     
  0.12500000000000000       0.31250000000000000        0.0000000000000000     
  0.18750000000000000       0.31250000000000000        0.0000000000000000     
  0.25000000000000000       0.31250000000000000        0.0000000000000000     
   0.0000000000000000       0.37500000000000000        0.0000000000000000     
   6.2500000000000000E-002  0.37500000000000000        0.0000000000000000     
  0.12500000000000000       0.37500000000000000        0.0000000000000000     
  0.18750000000000000       0.37500000000000000        0.0000000000000000     
  0.25000000000000000       0.37500000000000000        0.0000000000000000     
   0.0000000000000000       0.43750000000000000        0.0000000000000000     
   6.2500000000000000E-002  0.43750000000000000        0.0000000000000000     
  0.12500000000000000       0.43750000000000000        0.0000000000000000     
  0.18750000000000000       0.43750000000000000        0.0000000000000000     
  0.25000000000000000       0.43750000000000000        0.0000000000000000     
   0.0000000000000000       0.50000000000000000        0.0000000000000000     
   6.2500000000000000E-002  0.50000000000000000        0.0000000000000000     
  0.12500000000000000       0.50000000000000000        0.0000000000000000     
  0.18750000000000000       0.50000000000000000        0.0000000000000000     
  0.25000000000000000       0.50000000000000000        0.0000000000000000     
  0.25000000000000000       0.25000000000000000        0.0000000000000000     
  0.31250000000000000       0.25000000000000000        0.0000000000000000     
  0.37500000000000000       0.25000000000000000        0.0000000000000000     
  0.43750000000000000       0.25000000000000000        0.0000000000000000     
  0.50000000000000000       0.25000000000000000        0.0000000000000000     
  0.25000000000000000       0.31250000000000000        0.0000000000000000     
  0.31250000000000000       0.31250000000000000        0.0000000000000000     
  0.37500000000000000       0.31250000000000000        0.0000000000000000     
  0.43750000000000000       0.31250000000000000        0.0000000000000000     
  0.50000000000000000       0.31250000000000000        0.0000000000000000     
  0.25000000000000000       0.37500000000000000        0.0000000000000000     
  0.31250000000000000       0.37500000000000000        0.0000000000000000     
  0.37500000000000000       0.37500000000000000        0.0000000000000000     
  0.43750000000000000       0.37500000000000000        0.0000000000000000     
  0.50000000000000000       0.37500000000000000        0.0000000000000000     
  0.25000000000000000       0.43750000000000000        0.0000000000000000     
  0.31250000000000000       0.43750000000000000        0.0000000000000000     
  0.37500000000000000       0.43750000000000000        0.0000000000000000     
  0.43750000000000000       0.43750000000000000        0.0000000000000000     
  0.50000000000000000       0.43750000000000000        0.0000000000000000     
  0.25000000000000000       0.50000000000000000        0.0000000000000000     
  0.31250000000000000       0.50000000000000000        0.0000000000000000     
  0.37500000000000000       0.50000000000000000        0.0000000000000000     
  0.43750000000000000       0.50000000000000000        0.0000000000000000     
  0.50000000000000000       0.50000000000000000        0.0000000000000000     
  0.50000000000000000       0.25000000000000000        0.0000000000000000     
  0.56250000000000000       0.25000000000000000        0.0000000000000000     
  0.62500000000000000       0.25000000000000000        0.0000000000000000     
  0.68750000000000000       0.25000000000000000        0.0000000000000000     
  0.75000000000000000       0.25000000000000000        0.0000000000000000     
  0.50000000000000000       0.31250000000000000        0.0000000000000000     
  0.56250000000000000       0.31250000000000000        0.0000000000000000     
  0.62500000000000000       0.31250000000000000        0.0000000000000000     
  0.68750000000000000       0.31250000000000000        0.0000000000000000     
  0.75000000000000000       0.31250000000000000        0.0000000000000000     
  0.50000000000000000       0.37500000000000000        0.0000000000000000     
  0.56250000000000000       0.37500000000000000        0.0000000000000000     
  0.62500000000000000       0.37500000000000000        0.0000000000000000     
  0.68750000000000000       0.37500000000000000        0.0000000000000000     
  0.75000000000000000       0.37500000000000000        0.0000000000000000     
  0.50000000000000000       0.43750000000000000        0.0000000000000000     
  0.56250000000000000       0.43750000000000000        0.0000000000000000     
  0.62500000000000000       0.43750000000000000        0.0000000000000000     
  0.68750000000000000       0.43750000000000000        0.0000000000000000     
  0.75000000000000000       0.43750000000000000        0.0000000000000000     
  0.50000000000000000       0.50000000000000000        0.0000000000000000     
  0.56250000000000000       0.50000000000000000        0.0000000000000000     
  0.62500000000000000       0.50000000000000000        0.0000000000000000     
  0.68750000000000000       0.50000000000000000        0.0000000000000000     
  0.75000000000000000       0.50000000000000000        0.0000000000000000     
  0.75000000000000000       0.25000000000000000        0.0000000000000000     
  0.81250000000000000       0.25000000000000000        0.0000000000000000     
  0.87500000000000000       0.25000000000000000        0.0000000000000000     
  0.93750000000000000       0.25000000000000000        0.0000000000000000     
   1.0000000000000000       0.25000000000000000        0.0000000000000000     
  0.75000000000000000       0.31250000000000000        0.0000000000000000     
  0.81250000000000000       0.31250000000000000        0.0000000000000000     
  0.87500000000000000       0.31250000000000000        0.0000000000000000     
  0.93750000000000000       0.31250000000000000        0.0000000000000000     
   1.0000000000000000       0.31250000000000000        0.0000000000000000     
  0.75000000000000000       0.37500000000000000        0.0000000000000000     
  0.81250000000000000       0.37500000000000000        0.0000000000000000     
  0.87500000000000000       0.37500000000000000        0.0000000000000000     
  0.93750000000000000       0.37500000000000000        0.0000000000000000     
   1.0000000000000000       0.37500000000000000        0.0000000000000000     
  0.75000000000000000       0.43750000000000000        0.0000000000000000     
  0.81250000000000000       0.43750000000000000        0.0000000000000000     
  0.87500000000000000       0.43750000000000000        0.0000000000000000     
  0.93750000000000000       0.43750000000000000        0.0000000000000000     
   1.0000000000000000       0.43750000000000000        0.0000000000000000     
  0.75000000000000000       0.50000000000000000        0.0000000000000000     
  0.81250000000000000       0.50000000000000000        0.0000000000000000     
  0.87500000000000000       0.50000000000000000        0.0000000000000000     
  0.93750000000000000       0.50000000000000000        0.0000000000000000     
   1.0000000000000000       0.50000000000000000        0.0000000000000000     
   0.0000000000000000       0.50000000000000000        0.0000000000000000     
   6.2500000000000000E-002  0.50000000000000000        0.0000000000000000     
  0.12500000000000000       0.50000000000000000        0.0000000000000000     
  0.18750000000000000       0.50000000000000000        0.0000000000000000     
  0.25000000000000000       0.50000000000000000        0.0000000000000000     
   0.0000000000000000       0.56250000000000000        0.0000000000000000     
   6.2500000000000000E-002  0.56250000000000000        0.0000000000000000     
  0.12500000000000000       0.56250000000000000        0.0000000000000000     
  0.18750000000000000       0.56250000000000000        0.0000000000000000     
  0.25000000000000000       0.56250000000000000        0.0000000000000000     
   0.0000000000000000       0.62500000000000000        0.0000000000000000     
   6.2500000000000000E-002  0.62500000000000000        0.0000000000000000     
  0.12500000000000000       0.62500000000000000        0.0000000000000000     
  0.18750000000000000       0.62500000000000000        0.0000000000000000     
  0.25000000000000000       0.62500000000000000        0.0000000000000000     
   0.0000000000000000       0.68750000000000000        0.0000000000000000     
   6.2500000000000000E-002  0.68750000000000000        0.0000000000000000     
  0.12500000000000000       0.68750000000000000        0.0000000000000000     
  0.18750000000000000       0.68750000000000000        0.0000000000000000     
  0.25000000000000000       0.68750000000000000        0.0000000000000000     
   0.0000000000000000       0.75000000000000000        0.0000000000000000     
   6.2500000000000000E-002  0.75000000000000000        0.0000000000000000     
  0.12500000000000000       0.75000000000000000        0.0000000000000000     
  0.18750000000000000       0.75000000000000000        0.0000000000000000     
  0.25000000000000000       0.75000000000000000        0.0000000000000000     
  0.25000000000000000       0.50000000000000000        0.0000000000000000     
  0.31250000000000000       0.50000000000000000        0.0000000000000000     
  0.37500000000000000       0.50000000000000000        0.0000000000000000     
  0.43750000000000000       0.50000000000000000        0.0000000000000000     
  0.50000000000000000       0.50000000000000000        0.0000000000000000     
  0.25000000000000000       0.56250000000000000        0.0000000000000000     
  0.31250000000000000       0.56250000000000000        0.0000000000000000     
  0.37500000000000000       0.56250000000000000        0.0000000000000000     
  0.43750000000000000       0.56250000000000000        0.0000000000000000     
  0.50000000000000000       0.56250000000000000        0.0000000000000000     
  0.25000000000000000       0.62500000000000000        0.0000000000000000     
  0.31250000000000000       0.62500000000000000        0.0000000000000000     
  0.37500000000000000       0.62500000000000000        0.0000000000000000     
  0.43750000000000000       0.62500000000000000        0.0000000000000000     
  0.50000000000000000       0.62500000000000000        0.0000000000000000     
  0.25000000000000000       0.68750000000000000        0.0000000000000000     
  0.31250000000000000       0.68750000000000000        0.0000000000000000     
  0.37500000000000000       0.68750000000000000        0.0000000000000000     
  0.43750000000000000       0.68750000000000000        0.0000000000000000     
  0.50000000000000000       0.68750000000000000        0.0000000000000000     
  0.25000000000000000       0.75000000000000000        0.0000000000000000     
  0.31250000000000000       0.75000000000000000        0.0000000000000000     
  0.37500000000000000       0.75000000000000000        0.0000000000000000     
  0.43750000000000000       0.75000000000000000        0.0000000000000000     
  0.50000000000000000       0.75000000000000000        0.0000000000000000     
  0.50000000000000000       0.50000000000000000        0.0000000000000000     
  0.56250000000000000       0.50000000000000000        0.0000000000000000     
  0.62500000000000000       0.50000000000000000        0.0000000000000000     
  0.68750000000000000       0.50000000000000000        0.0000000000000000     
  0.75000000000000000       0.50000000000000000        0.0000000000000000     
  0.50000000000000000       0.56250000000000000        0.0000000000000000     
  0.56250000000000000       0.56250000000000000        0.0000000000000000     
  0.62500000000000000       0.56250000000000000        0.0000000000000000     
  0.68750000000000000       0.56250000000000000        0.0000000000000000     
  0.75000000000000000       0.56250000000000000        0.0000000000000000     
  0.50000000000000000       0.62500000000000000        0.0000000000000000     
  0.56250000000000000       0.62500000000000000        0.0000000000000000     
  0.62500000000000000       0.62500000000000000        0.0000000000000000     
  0.68750000000000000       0.62500000000000000        0.0000000000000000     
  0.75000000000000000       0.62500000000000000        0.0000000000000000     
  0.50000000000000000       0.68750000000000000        0.0000000000000000     
  0.56250000000000000       0.68750000000000000        0.0000000000000000     
  0.62500000000000000       0.68750000000000000        0.0000000000000000     
  0.68750000000000000       0.68750000000000000        0.0000000000000000     
  0.75000000000000000       0.68750000000000000        0.0000000000000000     
  0.50000000000000000       0.75000000000000000        0.0000000000000000     
  0.56250000000000000       0.75000000000000000        0.0000000000000000     
  0.62500000000000000       0.75000000000000000        0.0000000000000000     
  0.68750000000000000       0.75000000000000000        0.0000000000000000     
  0.75000000000000000       0.75000000000000000        0.0000000000000000     
  0.75000000000000000       0.50000000000000000        0.0000000000000000     
  0.81250000000000000       0.50000000000000000        0.0000000000000000     
  0.87500000000000000       0.50000000000000000        0.0000000000000000     
  0.93750000000000000       0.50000000000000000        0.0000000000000000     
   1.0000000000000000       0.50000000000000000        0.0000000000000000     
  0.75000000000000000       0.56250000000000000        0.0000000000000000     
  0.81250000000000000       0.56250000000000000        0.0000000000000000     
  0.87500000000000000       0.56250000000000000        0.0000000000000000     
  0.93750000000000000       0.56250000000000000        0.0000000000000000     
   1.0000000000000000       0.56250000000000000        0.0000000000000000     
  0.75000000000000000       0.62500000000000000        0.0000000000000000     
  0.81250000000000000       0.62500000000000000        0.0000000000000000     
  0.87500000000000000       0.62500000000000000        0.0000000000000000     
  0.93750000000000000       0.62500000000000000        0.0000000000000000     
   1.0000000000000000       0.62500000000000000        0.0000000000000000     
  0.75000000000000000       0.68750000000000000        0.0000000000000000     
  0.81250000000000000       0.68750000000000000        0.0000000000000000     
  0.87500000000000000       0.68750000000000000        0.0000000000000000     
  0.93750000000000000       0.68750000000000000        0.0000000000000000     
   1.0000000000000000       0.68750000000000000        0.0000000000000000     
  0.75000000000000000       0.75000000000000000        0.0000000000000000     
  0.81250000000000000       0.75000000000000000        0.0000000000000000     
  0.87500000000000000       0.75000000000000000        0.0000000000000000     
  0.93750000000000000       0.75000000000000000        0.0000000000000000     
   1.0000000000000000       0.75000000000000000        0.0000000000000000     
   0.0000000000000000       0.75000000000000000        0.0000000000000000     
   6.2500000000000000E-002  0.75000000000000000        0.0000000000000000     
  0.12500000000000000       0.75000000000000000        0.0000000000000000     
  0.18750000000000000       0.75000000000000000        0.0000000000000000     
  0.25000000000000000       0.75000000000000000        0.0000000000000000     
   0.0000000000000000       0.81250000000000000        0.0000000000000000     
   6.2500000000000000E-002  0.81250000000000000        0.0000000000000000     
  0.12500000000000000       0.81250000000000000        0.0000000000000000     
  0.18750000000000000       0.81250000000000000        0.0000000000000000     
  0.25000000000000000       0.81250000000000000        0.0000000000000000     
   0.0000000000000000       0.87500000000000000        0.0000000000000000     
   6.2500000000000000E-002  0.87500000000000000        0.0000000000000000     
  0.12500000000000000       0.87500000000000000        0.0000000000000000     
  0.18750000000000000       0.87500000000000000        0.0000000000000000     
  0.25000000000000000       0.87500000000000000        0.0000000000000000     
   0.0000000000000000       0.93750000000000000        0.0000000000000000     
   6.2500000000000000E-002  0.93750000000000000        0.0000000000000000     
  0.12500000000000000       0.93750000000000000        0.0000000000000000     
  0.18750000000000000       0.93750000000000000        0.0000000000000000     
  0.25000000000000000       0.93750000000000000        0.0000000000000000     
   0.0000000000000000        1.0000000000000000        0.0000000000000000     
   6.2500000000000000E-002   1.0000000000000000        0.0000000000000000     
  0.12500000000000000        1.0000000000000000        0.0000000000000000     
  0.18750000000000000        1.0000000000000000        0.0000000000000000     
  0.25000000000000000        1.0000000000000000        0.0000000000000000     
  0.25000000000000000       0.75000000000000000        0.0000000000000000     
  0.31250000000000000       0.75000000000000000        0.0000000000000000     
  0.37500000000000000       0.75000000000000000        0.0000000000000000     
  0.43750000000000000       0.75000000000000000        0.0000000000000000     
  0.50000000000000000       0.75000000000000000        0.0000000000000000     
  0.25000000000000000       0.81250000000000000        0.0000000000000000     
  0.31250000000000000       0.81250000000000000        0.0000000000000000     
  0.37500000000000000       0.81250000000000000        0.0000000000000000     
  0.43750000000000000       0.81250000000000000        0.0000000000000000     
  0.50000000000000000       0.81250000000000000        0.0000000000000000     
  0.25000000000000000       0.87500000000000000        0.0000000000000000     
  0.31250000000000000       0.87500000000000000        0.0000000000000000     
  0.37500000000000000       0.87500000000000000        0.0000000000000000     
  0.43750000000000000       0.87500000000000000        0.0000000000000000     
  0.50000000000000000       0.87500000000000000        0.0000000000000000     
  0.25000000000000000       0.93750000000000000        0.0000000000000000     
  0.31250000000000000       0.93750000000000000        0.0000000000000000     
  0.37500000000000000       0.93750000000000000        0.0000000000000000     
  0.43750000000000000       0.93750000000000000        0.0000000000000000     
  0.50000000000000000       0.93750000000000000        0.0000000000000000     
  0.25000000000000000        1.0000000000000000        0.0000000000000000     
  0.31250000000000000        1.0000000000000000        0.0000000000000000     
  0.37500000000000000        1.0000000000000000        0.0000000000000000     
  0.43750000000000000        1.0000000000000000        0.0000000000000000     
  0.50000000000000000        1.0000000000000000        0.0000000000000000     
  0.50000000000000000       0.75000000000000000        0.0000000000000000     
  0.56250000000000000       0.75000000000000000        0.0000000000000000     
  0.62500000000000000       0.75000000000000000        0.0000000000000000     
  0.68750000000000000       0.75000000000000000        0.0000000000000000     
  0.75000000000000000       0.75000000000000000        0.0000000000000000     
  0.50000000000000000       0.81250000000000000        0.0000000000000000     
  0.56250000000000000       0.81250000000000000        0.0000000000000000     
  0.62500000000000000       0.81250000000000000        0.0000000000000000     
  0.68750000000000000       0.81250000000000000        0.0000000000000000     
  0.75000000000000000       0.81250000000000000        0.0000000000000000     
  0.50000000000000000       0.87500000000000000        0.0000000000000000     
  0.56250000000000000       0.87500000000000000        0.0000000000000000     
  0.62500000000000000       0.87500000000000000        0.0000000000000000     
  0.68750000000000000       0.87500000000000000        0.0000000000000000     
  0.75000000000000000       0.87500000000000000        0.0000000000000000     
  0.50000000000000000       0.93750000000000000        0.0000000000000000     
  0.56250000000000000       0.93750000000000000        0.0000000000000000     
  0.62500000000000000       0.93750000000000000        0.0000000000000000     
  0.68750000000000000       0.93750000000000000        0.0000000000000000     
  0.75000000000000000       0.93750000000000000        0.0000000000000000     
  0.50000000000000000        1.0000000000000000        0.0000000000000000     
  0.56250000000000000        1.0000000000000000        0.0000000000000000     
  0.62500000000000000        1.0000000000000000        0.0000000000000000     
  0.68750000000000000        1.0000000000000000        0.0000000000000000     
  0.75000000000000000        1.0000000000000000        0.0000000000000000     
  0.75000000000000000       0.75000000000000000        0.0000000000000000     
  0.81250000000000000       0.75000000000000000        0.0000000000000000     
  0.87500000000000000       0.75000000000000000        0.0000000000000000     
  0.93750000000000000       0.75000000000000000        0.0000000000000000     
   1.0000000000000000       0.75000000000000000        0.0000000000000000     
  0.75000000000000000       0.81250000000000000        0.0000000000000000     
  0.81250000000000000       0.81250000000000000        0.0000000000000000     
  0.87500000000000000       0.81250000000000000        0.0000000000000000     
  0.93750000000000000       0.81250000000000000        0.0000000000000000     
   1.0000000000000000       0.81250000000000000        0.0000000000000000     
  0.75000000000000000       0.87500000000000000        0.0000000000000000     
  0.81250000000000000       0.87500000000000000        0.0000000000000000     
  0.87500000000000000       0.87500000000000000        0.0000000000000000     
  0.93750000000000000       0.87500000000000000        0.0000000000000000     
   1.0000000000000000       0.87500000000000000        0.0000000000000000     
  0.75000000000000000       0.93750000000000000        0.0000000000000000     
  0.81250000000000000       0.93750000000000000        0.0000000000000000     
  0.87500000000000000       0.93750000000000000        0.0000000000000000     
  0.93750000000000000       0.93750000000000000        0.0000000000000000     
   1.0000000000000000       0.93750000000000000        0.0000000000000000     
  0.75000000000000000        1.0000000000000000        0.0000000000000000     
  0.81250000000000000        1.0000000000000000        0.0000000000000000     
  0.87500000000000000        1.0000000000000000        0.0000000000000000     
  0.93750000000000000        1.0000000000000000        0.0000000000000000     
   1.0000000000000000        1.0000000000000000        0.0000000000000000     
 </DataArray>
 </Points>
 <Cells>
 <DataArray  type="Int32"  Name="connectivity"  format="ascii">
           0           1           6           5
           1           2           7           6
           2           3           8           7
           3           4           9           8
           5           6          11          10
           6           7          12          11
           7           8          13          12
           8           9          14          13
          10          11          16          15
          11          12          17          16
          12          13          18          17
          13          14          19          18
          15          16          21          20
          16          17          22          21
          17          18          23          22
          18          19          24          23
          25          26          31          30
          26          27          32          31
          27          28          33          32
          28          29          34          33
          30          31          36          35
          31          32          37          36
          32          33          38          37
          33          34          39          38
          35          36          41          40
          36          37          42          41
          37          38          43          42
          38          39          44          43
          40          41          46          45
          41          42          47          46
          42          43          48          47
          43          44          49          48
          50          51          56          55
          51          52          57          56
          52          53          58          57
          53          54          59          58
          55          56          61          60
          56          57          62          61
          57          58          63          62
          58          59          64          63
          60          61          66          65
          61          62          67          66
          62          63          68          67
          63          64          69          68
          65          66          71          70
          66          67          72          71
          67          68          73          72
          68          69          74          73
          75          76          81          80
          76          77          82          81
          77          78          83          82
          78          79          84          83
          80          81          86          85
          81          82          87          86
          82          83          88          87
          83          84          89          88
          85          86          91          90
          86          87          92          91
          87          88          93          92
          88          89          94          93
          90          91          96          95
          91          92          97          96
          92          93          98          97
          93          94          99          98
         100         101         106         105
         101         102         107         106
         102         103         108         107
         103         104         109         108
         105         106         111         110
         106         107         112         111
         107         108         113         112
         108         109         114         113
         110         111         116         115
         111         112         117         116
         112         113         118         117
         113         114         119         118
         115         116         121         120
         116         117         122         121
         117         118         123         122
         118         119         124         123
         125         126         131         130
         126         127         132         131
         127         128         133         132
         128         129         134         133
         130         131         136         135
         131         132         137         136
         132         133         138         137
         133         134         139         138
         135         136         141         140
         136         137         142         141
         137         138         143         142
         138         139         144         143
         140         141         146         145
         141         142         147         146
         142         143         148         147
         143         144         149         148
         150         151         156         155
         151         152         157         156
         152         153         158         157
         153         154         159         158
         155         156         161         160
         156         157         162         161
         157         158         163         162
         158         159         164         163
         160         161         166         165
         161         162         167         166
         162         163         168         167
         163         164         169         168
         165         166         171         170
         166         167         172         171
         167         168         173         172
         168         169         174         173
         175         176         181         180
         176         177         182         181
         177         178         183         182
         178         179         184         183
         180         181         186         185
         181         182         187         186
         182         183         188         187
         183         184         189         188
         185         186         191         190
         186         187         192         191
         187         188         193         192
         188         189         194         193
         190         191         196         195
         191         192         197         196
         192         193         198         197
         193         194         199         198
         200         201         206         205
         201         202         207         206
         202         203         208         207
         203         204         209         208
         205         206         211         210
         206         207         212         211
         207         208         213         212
         208         209         214         213
         210         211         216         215
         211         212         217         216
         212         213         218         217
         213         214         219         218
         215         216         221         220
         216         217         222         221
         217         218         223         222
         218         219         224         223
         225         226         231         230
         226         227         232         231
         227         228         233         232
         228         229         234         233
         230         231         236         235
         231         232         237         236
         232         233         238         237
         233         234         239         238
         235         236         241         240
         236         237         242         241
         237         238         243         242
         238         239         244         243
         240         241         246         245
         241         242         247         246
         242         243         248         247
         243         244         249         248
         250         251         256         255
         251         252         257         256
         252         253         258         257
         253         254         259         258
         255         256         261         260
         256         257         262         261
         257         258         263         262
         258         259         264         263
         260         261         266         265
         261         262         267         266
         262         263         268         267
         263         264         269         268
         265         266         271         270
         266         267         272         271
         267         268         273         272
         268         269         274         273
         275         276         281         280
         276         277         282         281
         277         278         283         282
         278         279         284         283
         280         281         286         285
         281         282         287         286
         282         283         288         287
         283         284         289         288
         285         286         291         290
         286         287         292         291
         287         288         293         292
         288         289         294         293
         290         291         296         295
         291         292         297         296
         292         293         298         297
         293         294         299         298
         300         301         306         305
         301         302         307         306
         302         303         308         307
         303         304         309         308
         305         306         311         310
         306         307         312         311
         307         308         313         312
         308         309         314         313
         310         311         316         315
         311         312         317         316
         312         313         318         317
         313         314         319         318
         315         316         321         320
         316         317         322         321
         317         318         323         322
         318         319         324         323
         325         326         331         330
         326         327         332         331
         327         328         333         332
         328         329         334         333
         330         331         336         335
         331         332         337         336
         332         333         338         337
         333         334         339         338
         335         336         341         340
         336         337         342         341
         337         338         343         342
         338         339         344         343
         340         341         346         345
         341         342         347         346
         342         343         348         347
         343         344         349         348
         350         351         356         355
         351         352         357         356
         352         353         358         357
         353         354         359         358
         355         356         361         360
         356         357         362         361
         357         358         363         362
         358         359         364         363
         360         361         366         365
         361         362         367         366
         362         363         368         367
         363         364         369         368
         365         366         371         370
         366         367         372         371
         367         368         373         372
         368         369         374         373
         375         376         381         380
         376         377         382         381
         377         378         383         382
         378         379         384         383
         380         381         386         385
         381         382         387         386
         382         383         388         387
         383         384         389         388
         385         386         391         390
         386         387         392         391
         387         388         393         392
         388         389         394         393
         390         391         396         395
         391         392         397         396
         392         393         398         397
         393         394         399         398
 </DataArray>
 <DataArray  type="Int32"  Name="offsets"  format="ascii"> 
           4
           8
          12
          16
          20
          24
          28
          32
          36
          40
          44
          48
          52
          56
          60
          64
          68
          72
          76
          80
          84
          88
          92
          96
         100
         104
         108
         112
         116
         120
         124
         128
         132
         136
         140
         144
         148
         152
         156
         160
         164
         168
         172
         176
         180
         184
         188
         192
         196
         200
         204
         208
         212
         216
         220
         224
         228
         232
         236
         240
         244
         248
         252
         256
         260
         264
         268
         272
         276
         280
         284
         288
         292
         296
         300
         304
         308
         312
         316
         320
         324
         328
         332
         336
         340
         344
         348
         352
         356
         360
         364
         368
         372
         376
         380
         384
         388
         392
         396
         400
         404
         408
         412
         416
         420
         424
         428
         432
         436
         440
         444
         448
         452
         456
         460
         464
         468
         472
         476
         480
         484
         488
         492
         496
         500
         504
         508
         512
         516
         520
         524
         528
         532
         536
         540
         544
         548
         552
         556
         560
         564
         568
         572
         576
         580
         584
         588
         592
         596
         600
         604
         608
         612
         616
         620
         624
         628
         632
         636
         640
         644
         648
         652
         656
         660
         664
         668
         672
         676
         680
         684
         688
         692
         696
         700
         704
         708
         712
         716
         720
         724
         728
         732
         736
         740
         744
         748
         752
         756
         760
         764
         768
         772
         776
         780
         784
         788
         792
         796
         800
         804
         808
         812
         816
         820
         824
         828
         832
         836
         840
         844
         848
         852
         856
         860
         864
         868
         872
         876
         880
         884
         888
         892
         896
         900
         904
         908
         912
         916
         920
         924
         928
         932
         936
         940
         944
         948
         952
         956
         960
         964
         968
         972
         976
         980
         984
         988
         992
         996
        1000
        1004
        1008
        1012
        1016
        1020
        1024
 </DataArray>
 <DataArray  type="UInt8"  Name="types"  format="ascii">
 9
 9
 9
 9
 9
 9
 9
 9
 9
 9
 9
 9
 9
 9
 9
 9
 9
 9
 9
 9
 9
 9
 9
 9
 9
 9
 9
 9
 9
 9
 9
 9
 9
 9
 9
 9
 9
 9
 9
 9
 9
 9
 9
 9
 9
 9
 9
 9
 9
 9
 9
 9
 9
 9
 9
 9
 9
 9
 9
 9
 9
 9
 9
 9
 9
 9
 9
 9
 9
 9
 9
 9
 9
 9
 9
 9
 9
 9
 9
 9
 9
 9
 9
 9
 9
 9
 9
 9
 9
 9
 9
 9
 9
 9
 9
 9
 9
 9
 9
 9
 9
 9
 9
 9
 9
 9
 9
 9
 9
 9
 9
 9
 9
 9
 9
 9
 9
 9
 9
 9
 9
 9
 9
 9
 9
 9
 9
 9
 9
 9
 9
 9
 9
 9
 9
 9
 9
 9
 9
 9
 9
 9
 9
 9
 9
 9
 9
 9
 9
 9
 9
 9
 9
 9
 9
 9
 9
 9
 9
 9
 9
 9
 9
 9
 9
 9
 9
 9
 9
 9
 9
 9
 9
 9
 9
 9
 9
 9
 9
 9
 9
 9
 9
 9
 9
 9
 9
 9
 9
 9
 9
 9
 9
 9
 9
 9
 9
 9
 9
 9
 9
 9
 9
 9
 9
 9
 9
 9
 9
 9
 9
 9
 9
 9
 9
 9
 9
 9
 9
 9
 9
 9
 9
 9
 9
 9
 9
 9
 9
 9
 9
 9
 9
 9
 9
 9
 9
 9
 9
 9
 9
 9
 9
 9
 9
 9
 9
 9
 9
 9
 9
 9
 9
 9
 9
 9
 </DataArray>
 </Cells> 
 <PointData>
 <DataArray  type="Float64" Name="disp" NumberOfComponents="3" format="ascii">
   0.0000000000000000        0.0000000000000000        0.0000000000000000     
   1.0689712061555322E-002   6.3586728028767131E-003   0.0000000000000000     
   2.0517003512710179E-002   1.2942948142140958E-002   0.0000000000000000     
   2.9481874353464568E-002   1.9752826017792730E-002   0.0000000000000000     
   3.7584324583818489E-002   2.6788306429832029E-002   0.0000000000000000     
   0.0000000000000000        0.0000000000000000        0.0000000000000000     
   8.1788482165284261E-003   5.0161783715470844E-003   0.0000000000000000     
   1.5993951190686084E-002   1.0745003276933406E-002   0.0000000000000000     
   2.3445308922472964E-002   1.7186474716158966E-002   0.0000000000000000     
   3.0532921411889083E-002   2.4340592689223763E-002   0.0000000000000000     
   0.0000000000000000        0.0000000000000000        0.0000000000000000     
   6.1430784578965251E-003   4.0008745530956680E-003   0.0000000000000000     
   1.2251864564545887E-002   9.0628927331569062E-003   0.0000000000000000     
   1.8326358319948086E-002   1.5186054540183716E-002   0.0000000000000000     
   2.4366559724103128E-002   2.2370359974176093E-002   0.0000000000000000     
   0.0000000000000000        0.0000000000000000        0.0000000000000000     
   4.5824027856596226E-003   3.3127613475224652E-003   0.0000000000000000     
   9.2907436342895989E-003   7.8966165108114560E-003   0.0000000000000000     
   1.4125022545889930E-002   1.3751565489866974E-002   0.0000000000000000     
   1.9085239520460612E-002   2.0877608284689014E-002   0.0000000000000000     
   0.0000000000000000        0.0000000000000000        0.0000000000000000     
   3.4968211998177168E-003   2.9518387548274757E-003   0.0000000000000000     
   7.1105883999172149E-003   7.2461746098970558E-003   0.0000000000000000     
   1.0841301600298494E-002   1.2883007565208743E-002   0.0000000000000000     
   1.4688960800961557E-002   1.9862337620762536E-002   0.0000000000000000     
   3.7584324583818489E-002   2.6788306429832029E-002   0.0000000000000000     
   4.5081482320889689E-002   3.4405448299632865E-002   0.0000000000000000     
   5.2230475681795903E-002   4.2960310548569240E-002   0.0000000000000000     
   5.9031304666537152E-002   5.2452893176641147E-002   0.0000000000000000     
   6.5483969275113421E-002   6.2883196183848591E-002   0.0000000000000000     
   3.0532921411889083E-002   2.4340592689223763E-002   0.0000000000000000     
   3.7258493176957015E-002   3.2273356322630051E-002   0.0000000000000000     
   4.3623728735699377E-002   4.1050764742880080E-002   0.0000000000000000     
   4.9628628088116161E-002   5.0672817949973852E-002   0.0000000000000000     
   5.5273191234207354E-002   6.1139515943911371E-002   0.0000000000000000     
   2.4366559724103128E-002   2.2370359974176093E-002   0.0000000000000000     
   3.0220173225107099E-002   3.0482386297728228E-002   0.0000000000000000     
   3.5734903271056107E-002   3.9388710773434303E-002   0.0000000000000000     
   4.0910749861950146E-002   4.9089333401294316E-002   0.0000000000000000     
   4.5747712997789229E-002   5.9584254181308270E-002   0.0000000000000000     
   1.9085239520460612E-002   2.0877608284689014E-002   0.0000000000000000     
   2.3966522465339909E-002   2.9032538224927389E-002   0.0000000000000000     
   2.8563999287866085E-002   3.7974148640231895E-002   0.0000000000000000     
   3.2877669988039128E-002   4.7702439530602540E-002   0.0000000000000000     
   3.6907534565859039E-002   5.8217410896039323E-002   0.0000000000000000     
   1.4688960800961557E-002   1.9862337620762536E-002   0.0000000000000000     
   1.8497540897655471E-002   2.7923812104227539E-002   0.0000000000000000     
   2.2111016786129315E-002   3.6807078343272875E-002   0.0000000000000000     
   2.5529388466383092E-002   4.6512136337898517E-002   0.0000000000000000     
   2.8752655938416798E-002   5.7038986088104503E-002   0.0000000000000000     
   6.5483969275113421E-002   6.2883196183848591E-002   0.0000000000000000     
   7.1573129881917913E-002   7.4124645569070335E-002   0.0000000000000000     
   7.7283446861343863E-002   8.6050667331185104E-002   0.0000000000000000     
   8.2614920213391244E-002   9.8661261470192926E-002   0.0000000000000000     
   8.7567549938060069E-002  0.11195642798609379        0.0000000000000000     
   5.5273191234207354E-002   6.1139515943911371E-002   0.0000000000000000     
   6.0572680582404372E-002   7.2390887080640023E-002   0.0000000000000000     
   6.5542358541138587E-002   8.4366959716107193E-002   0.0000000000000000     
   7.0182225110410043E-002   9.7067733850312879E-002   0.0000000000000000     
   7.4492280290218704E-002  0.11049320948325711        0.0000000000000000     
   4.5747712997789229E-002   5.9584254181308270E-002   0.0000000000000000     
   5.0272710473052380E-002   7.0848613369139890E-002   0.0000000000000000     
   5.4512660082218625E-002   8.2857551220452852E-002   0.0000000000000000     
   5.8467561825287992E-002   9.5611067735247177E-002   0.0000000000000000     
   6.2137415702260439E-002  0.10910916291352292        0.0000000000000000     
   3.6907534565859039E-002   5.8217410896039323E-002   0.0000000000000000     
   4.0673219553861946E-002   6.9497824434569949E-002   0.0000000000000000     
   4.4194351484583956E-002   8.1522441844222124E-002   0.0000000000000000     
   4.7470930358025069E-002   9.4291263124995847E-002   0.0000000000000000     
   5.0502956174185286E-002  0.10780428827689115        0.0000000000000000     
   2.8752655938416798E-002   5.7038986088104503E-002   0.0000000000000000     
   3.1774207824833076E-002   6.8338520276930201E-002   0.0000000000000000     
   3.4587432748234566E-002   8.0361631587414981E-002   0.0000000000000000     
   3.7192330708621282E-002   9.3108320019558849E-002   0.0000000000000000     
   3.9588901705993218E-002  0.10657858557336183        0.0000000000000000     
   8.7567549938060069E-002  0.11195642798609379        0.0000000000000000     
   9.2090418759614295E-002  0.12600334856633302        0.0000000000000000     
   9.6132609402317881E-002  0.14086920489835597        0.0000000000000000     
   9.9694121866170812E-002  0.15655399698216263        0.0000000000000000     
  0.10277495615117309       0.17305772481775303        0.0000000000000000     
   7.4492280290218704E-002  0.11049320948325711        0.0000000000000000     
   7.8438870357000950E-002  0.12464889141062419        0.0000000000000000     
   8.1988341587193120E-002  0.13954028442809838        0.0000000000000000     
   8.5140693980795226E-002  0.15516738853567971        0.0000000000000000     
   8.7895927537807256E-002  0.17153020373336814        0.0000000000000000     
   6.2137415702260439E-002  0.10910916291352292        0.0000000000000000     
   6.5506532092144659E-002  0.12330325376340336        0.0000000000000000     
   6.8559221373949250E-002  0.13814475729301187        0.0000000000000000     
   7.1295483547674218E-002  0.15363367350234849        0.0000000000000000     
   7.3715318613319591E-002  0.16977000239141321        0.0000000000000000     
   5.0502956174185286E-002  0.10780428827689115        0.0000000000000000     
   5.3293403965045394E-002  0.12196643562467051        0.0000000000000000     
   5.5845248762586251E-002  0.13668262349309646        0.0000000000000000     
   5.8158490566807802E-002  0.15195285188216909        0.0000000000000000     
   6.0233129377710068E-002  0.16777712079188825        0.0000000000000000     
   3.9588901705993218E-002  0.10657858557336183        0.0000000000000000     
   4.1799485975703217E-002  0.12063843699442568        0.0000000000000000     
   4.3846423753104130E-002  0.13515388302835221        0.0000000000000000     
   4.5729715038195964E-002  0.15012492367514141        0.0000000000000000     
   4.7449359830978699E-002  0.16555155893479329        0.0000000000000000     
   0.0000000000000000        0.0000000000000000        0.0000000000000000     
   3.4968211998177168E-003   2.9518387548274757E-003   0.0000000000000000     
   7.1105883999172149E-003   7.2461746098970558E-003   0.0000000000000000     
   1.0841301600298494E-002   1.2883007565208743E-002   0.0000000000000000     
   1.4688960800961557E-002   1.9862337620762536E-002   0.0000000000000000     
   0.0000000000000000        0.0000000000000000        0.0000000000000000     
   2.6422439678458042E-003   2.7791773793535771E-003   0.0000000000000000     
   5.3239223350995653E-003   6.9027154622230379E-003   0.0000000000000000     
   8.0450351017612824E-003   1.2370614248608386E-002   0.0000000000000000     
   1.0805582267830956E-002   1.9182873738509614E-002   0.0000000000000000     
   0.0000000000000000        0.0000000000000000        0.0000000000000000     
   1.7745813572188822E-003   2.6558478254436464E-003   0.0000000000000000     
   3.5432689135074819E-003   6.6573874995987346E-003   0.0000000000000000     
   5.3060626688657981E-003   1.2004619022465262E-002   0.0000000000000000     
   7.0629626232938331E-003   1.8697542394043237E-002   0.0000000000000000     
   0.0000000000000000        0.0000000000000000        0.0000000000000000     
   8.9383336793694992E-004   2.5818500930976851E-003   0.0000000000000000     
   1.7686281351409633E-003   6.5101907220241444E-003   0.0000000000000000     
   2.6243843016120409E-003   1.1785021886779381E-002   0.0000000000000000     
   3.4611018673501811E-003   1.8406343587363389E-002   0.0000000000000000     
   0.0000000000000000        0.0000000000000000        0.0000000000000000     
   7.9146758591441824E-018   2.5571841823156917E-003   0.0000000000000000     
   1.1058862159352145E-017   6.4611251294992688E-003   0.0000000000000000     
   9.3241386833753381E-018   1.1711822841550732E-002   0.0000000000000000     
   3.2526065174565133E-018   1.8309277318470079E-002   0.0000000000000000     
   1.4688960800961557E-002   1.9862337620762536E-002   0.0000000000000000     
   1.8497540897655471E-002   2.7923812104227539E-002   0.0000000000000000     
   2.2111016786129315E-002   3.6807078343272875E-002   0.0000000000000000     
   2.5529388466383092E-002   4.6512136337898517E-002   0.0000000000000000     
   2.8752655938416798E-002   5.7038986088104503E-002   0.0000000000000000     
   1.0805582267830956E-002   1.9182873738509614E-002   0.0000000000000000     
   1.3533959362819701E-002   2.7102917602659343E-002   0.0000000000000000     
   1.6158561916238628E-002   3.5894169511790190E-002   0.0000000000000000     
   1.8679389928087743E-002   4.5556629465902151E-002   0.0000000000000000     
   2.1096443398367040E-002   5.6090297464995213E-002   0.0000000000000000     
   7.0629626232938331E-003   1.8697542394043237E-002   0.0000000000000000     
   8.7965087015985342E-003   2.6516564387253475E-002   0.0000000000000000     
   1.0489240828586849E-002   3.5242091775016818E-002   0.0000000000000000     
   1.2141159004258783E-002   4.4874124557333285E-002   0.0000000000000000     
   1.3752263228614331E-002   5.5412662734202846E-002   0.0000000000000000     
   3.4611018673501811E-003   1.8406343587363389E-002   0.0000000000000000     
   4.2851889139919642E-003   2.6164752458009932E-002   0.0000000000000000     
   5.1030535231739753E-003   3.4850845132952786E-002   0.0000000000000000     
   5.9146956948962093E-003   4.4464621612191939E-002   0.0000000000000000     
   6.7201154291586691E-003   5.5006081895727393E-002   0.0000000000000000     
   3.2526065174565133E-018   1.8309277318470079E-002   0.0000000000000000     
  -1.0842021724855044E-019   2.6047481814928719E-002   0.0000000000000000     
   6.9931040125315036E-018   3.4720429585598067E-002   0.0000000000000000     
   2.4950202494322671E-017   4.4328120630478099E-002   0.0000000000000000     
   5.2475385148298415E-017   5.4870554949568842E-002   0.0000000000000000     
   2.8752655938416798E-002   5.7038986088104503E-002   0.0000000000000000     
   3.1774207824833076E-002   6.8338520276930201E-002   0.0000000000000000     
   3.4587432748234566E-002   8.0361631587414981E-002   0.0000000000000000     
   3.7192330708621282E-002   9.3108320019558849E-002   0.0000000000000000     
   3.9588901705993218E-002  0.10657858557336183        0.0000000000000000     
   2.1096443398367040E-002   5.6090297464995213E-002   0.0000000000000000     
   2.3376740735319940E-002   6.7407903728902360E-002   0.0000000000000000     
   2.5487300347189865E-002   7.9422178477456529E-002   0.0000000000000000     
   2.7428122233976806E-002   9.2133121710657739E-002   0.0000000000000000     
   2.9199206395680775E-002  0.10554073342850598        0.0000000000000000     
   1.3752263228614331E-002   5.5412662734202846E-002   0.0000000000000000     
   1.5281883734676732E-002   6.6743177623168157E-002   0.0000000000000000     
   1.6689350755469221E-002   7.8751140541771902E-002   0.0000000000000000     
   1.7974664290991798E-002   9.1436551490014090E-002   0.0000000000000000     
   1.9137824341244461E-002  0.10479941046789465        0.0000000000000000     
   6.7201154291586691E-003   5.5006081895727393E-002   0.0000000000000000     
   7.4896368229034494E-003   6.6344341959727604E-002   0.0000000000000000     
   8.1935839730726441E-003   7.8348517780361088E-002   0.0000000000000000     
   8.8319568796662567E-003   9.1018609357627817E-002   0.0000000000000000     
   9.4047555426842837E-003  0.10435461669152780        0.0000000000000000     
   5.2475385148298415E-017   5.4870554949568842E-002   0.0000000000000000     
   8.9555099447302666E-017   6.6211396738580702E-002   0.0000000000000000     
   1.3194740439148589E-016   7.8214310193224085E-002   0.0000000000000000     
   1.8477515524584209E-016   9.0879295313499017E-002   0.0000000000000000     
   2.4199392489876459E-016  0.10420635209940546        0.0000000000000000     
   3.9588901705993218E-002  0.10657858557336183        0.0000000000000000     
   4.1799485975703217E-002  0.12063843699442568        0.0000000000000000     
   4.3846423753104130E-002  0.13515388302835221        0.0000000000000000     
   4.5729715038195964E-002  0.15012492367514141        0.0000000000000000     
   4.7449359830978699E-002  0.16555155893479329        0.0000000000000000     
   2.9199206395680775E-002  0.10554073342850598        0.0000000000000000     
   3.0836283411874041E-002  0.11948029672792496        0.0000000000000000     
   3.2375083862128895E-002  0.13378709470583833        0.0000000000000000     
   3.3815607746445341E-002  0.14846112736224609        0.0000000000000000     
   3.5157855064823364E-002  0.16350239469714828        0.0000000000000000     
   1.9137824341244461E-002  0.10479941046789465        0.0000000000000000     
   2.0215301561313834E-002  0.11865305368042441        0.0000000000000000     
   2.1243566606286540E-002  0.13281081733261407        0.0000000000000000     
   2.2222619476162574E-002  0.14727270142446372        0.0000000000000000     
   2.3152460170941934E-002  0.16203870595597325        0.0000000000000000     
   9.4047555426842837E-003  0.10435461669152780        0.0000000000000000     
   9.9365404240225937E-003  0.11815670785192402        0.0000000000000000     
   1.0451871985577052E-002  0.13222505090867953        0.0000000000000000     
   1.0950750227347658E-002  0.14655964586179424        0.0000000000000000     
   1.1433175149334411E-002  0.16116049271126828        0.0000000000000000     
   2.4199392489876459E-016  0.10420635209940546        0.0000000000000000     
   3.2352592826967452E-016  0.11799125924242386        0.0000000000000000     
   4.4192080550509161E-016  0.13202979543403462        0.0000000000000000     
   6.0097326420871511E-016  0.14632196067423775        0.0000000000000000     
   7.9797279894933126E-016  0.16086775496303324        0.0000000000000000     
   0.0000000000000000        0.0000000000000000        0.0000000000000000     
   7.9146758591441824E-018   2.5571841823156917E-003   0.0000000000000000     
   1.1058862159352145E-017   6.4611251294992688E-003   0.0000000000000000     
   9.3241386833753381E-018   1.1711822841550732E-002   0.0000000000000000     
   3.2526065174565133E-018   1.8309277318470079E-002   0.0000000000000000     
   0.0000000000000000        0.0000000000000000        0.0000000000000000     
  -8.9383336793693344E-004   2.5818500930976677E-003   0.0000000000000000     
  -1.7686281351409405E-003   6.5101907220241097E-003   0.0000000000000000     
  -2.6243843016120214E-003   1.1785021886779327E-002   0.0000000000000000     
  -3.4611018673501759E-003   1.8406343587363316E-002   0.0000000000000000     
   0.0000000000000000        0.0000000000000000        0.0000000000000000     
  -1.7745813572188638E-003   2.6558478254436152E-003   0.0000000000000000     
  -3.5432689135074572E-003   6.6573874995986696E-003   0.0000000000000000     
  -5.3060626688657790E-003   1.2004619022465166E-002   0.0000000000000000     
  -7.0629626232938314E-003   1.8697542394043105E-002   0.0000000000000000     
   0.0000000000000000        0.0000000000000000        0.0000000000000000     
  -2.6422439678457825E-003   2.7791773793535315E-003   0.0000000000000000     
  -5.3239223350995367E-003   6.9027154622229494E-003   0.0000000000000000     
  -8.0450351017612651E-003   1.2370614248608256E-002   0.0000000000000000     
  -1.0805582267830965E-002   1.9182873738509451E-002   0.0000000000000000     
   0.0000000000000000        0.0000000000000000        0.0000000000000000     
  -3.4968211998176904E-003   2.9518387548274185E-003   0.0000000000000000     
  -7.1105883999171820E-003   7.2461746098969491E-003   0.0000000000000000     
  -1.0841301600298477E-002   1.2883007565208592E-002   0.0000000000000000     
  -1.4688960800961572E-002   1.9862337620762345E-002   0.0000000000000000     
   3.2526065174565133E-018   1.8309277318470079E-002   0.0000000000000000     
  -1.0842021724855044E-019   2.6047481814928719E-002   0.0000000000000000     
   6.9931040125315036E-018   3.4720429585598067E-002   0.0000000000000000     
   2.4950202494322671E-017   4.4328120630478099E-002   0.0000000000000000     
   5.2475385148298415E-017   5.4870554949568842E-002   0.0000000000000000     
  -3.4611018673501759E-003   1.8406343587363316E-002   0.0000000000000000     
  -4.2851889139919695E-003   2.6164752458009841E-002   0.0000000000000000     
  -5.1030535231739648E-003   3.4850845132952668E-002   0.0000000000000000     
  -5.9146956948961668E-003   4.4464621612191793E-002   0.0000000000000000     
  -6.7201154291585668E-003   5.5006081895727227E-002   0.0000000000000000     
  -7.0629626232938314E-003   1.8697542394043105E-002   0.0000000000000000     
  -8.7965087015985429E-003   2.6516564387253316E-002   0.0000000000000000     
  -1.0489240828586852E-002   3.5242091775016617E-002   0.0000000000000000     
  -1.2141159004258746E-002   4.4874124557333035E-002   0.0000000000000000     
  -1.3752263228614236E-002   5.5412662734202547E-002   0.0000000000000000     
  -1.0805582267830965E-002   1.9182873738509451E-002   0.0000000000000000     
  -1.3533959362819727E-002   2.7102917602659132E-002   0.0000000000000000     
  -1.6158561916238649E-002   3.5894169511789920E-002   0.0000000000000000     
  -1.8679389928087729E-002   4.5556629465901798E-002   0.0000000000000000     
  -2.1096443398366957E-002   5.6090297464994783E-002   0.0000000000000000     
  -1.4688960800961572E-002   1.9862337620762345E-002   0.0000000000000000     
  -1.8497540897655516E-002   2.7923812104227303E-002   0.0000000000000000     
  -2.2111016786129364E-002   3.6807078343272563E-002   0.0000000000000000     
  -2.5529388466383095E-002   4.6512136337898122E-002   0.0000000000000000     
  -2.8752655938416728E-002   5.7038986088103968E-002   0.0000000000000000     
   5.2475385148298415E-017   5.4870554949568842E-002   0.0000000000000000     
   8.9555099447302666E-017   6.6211396738580702E-002   0.0000000000000000     
   1.3194740439148589E-016   7.8214310193224085E-002   0.0000000000000000     
   1.8477515524584209E-016   9.0879295313499017E-002   0.0000000000000000     
   2.4199392489876459E-016  0.10420635209940546        0.0000000000000000     
  -6.7201154291585668E-003   5.5006081895727227E-002   0.0000000000000000     
  -7.4896368229032699E-003   6.6344341959727438E-002   0.0000000000000000     
  -8.1935839730723770E-003   7.8348517780360893E-002   0.0000000000000000     
  -8.8319568796658855E-003   9.1018609357627636E-002   0.0000000000000000     
  -9.4047555426837962E-003  0.10435461669152764        0.0000000000000000     
  -1.3752263228614236E-002   5.5412662734202547E-002   0.0000000000000000     
  -1.5281883734676557E-002   6.6743177623167824E-002   0.0000000000000000     
  -1.6689350755468953E-002   7.8751140541771542E-002   0.0000000000000000     
  -1.7974664290991420E-002   9.1436551490013687E-002   0.0000000000000000     
  -1.9137824341243961E-002  0.10479941046789430        0.0000000000000000     
  -2.1096443398366957E-002   5.6090297464994783E-002   0.0000000000000000     
  -2.3376740735319770E-002   6.7407903728901847E-002   0.0000000000000000     
  -2.5487300347189591E-002   7.9422178477455987E-002   0.0000000000000000     
  -2.7428122233976417E-002   9.2133121710657212E-002   0.0000000000000000     
  -2.9199206395680251E-002  0.10554073342850548        0.0000000000000000     
  -2.8752655938416728E-002   5.7038986088103968E-002   0.0000000000000000     
  -3.1774207824832909E-002   6.8338520276929549E-002   0.0000000000000000     
  -3.4587432748234295E-002   8.0361631587414273E-002   0.0000000000000000     
  -3.7192330708620873E-002   9.3108320019558155E-002   0.0000000000000000     
  -3.9588901705992663E-002  0.10657858557336118        0.0000000000000000     
   2.4199392489876459E-016  0.10420635209940546        0.0000000000000000     
   3.2352592826967452E-016  0.11799125924242386        0.0000000000000000     
   4.4192080550509161E-016  0.13202979543403462        0.0000000000000000     
   6.0097326420871511E-016  0.14632196067423775        0.0000000000000000     
   7.9797279894933126E-016  0.16086775496303324        0.0000000000000000     
  -9.4047555426837962E-003  0.10435461669152764        0.0000000000000000     
  -9.9365404240219501E-003  0.11815670785192388        0.0000000000000000     
  -1.0451871985576185E-002  0.13222505090867939        0.0000000000000000     
  -1.0950750227346496E-002  0.14655964586179418        0.0000000000000000     
  -1.1433175149332894E-002  0.16116049271126823        0.0000000000000000     
  -1.9137824341243961E-002  0.10479941046789430        0.0000000000000000     
  -2.0215301561313188E-002  0.11865305368042410        0.0000000000000000     
  -2.1243566606285711E-002  0.13281081733261382        0.0000000000000000     
  -2.2222619476161526E-002  0.14727270142446355        0.0000000000000000     
  -2.3152460170940650E-002  0.16203870595597319        0.0000000000000000     
  -2.9199206395680251E-002  0.10554073342850548        0.0000000000000000     
  -3.0836283411873389E-002  0.11948029672792451        0.0000000000000000     
  -3.2375083862128139E-002  0.13378709470583797        0.0000000000000000     
  -3.3815607746444494E-002  0.14846112736224581        0.0000000000000000     
  -3.5157855064822462E-002  0.16350239469714814        0.0000000000000000     
  -3.9588901705992663E-002  0.10657858557336118        0.0000000000000000     
  -4.1799485975702565E-002  0.12063843699442511        0.0000000000000000     
  -4.3846423753103471E-002  0.13515388302835177        0.0000000000000000     
  -4.5729715038195395E-002  0.15012492367514108        0.0000000000000000     
  -4.7449359830978338E-002  0.16555155893479306        0.0000000000000000     
   0.0000000000000000        0.0000000000000000        0.0000000000000000     
  -3.4968211998176904E-003   2.9518387548274185E-003   0.0000000000000000     
  -7.1105883999171820E-003   7.2461746098969491E-003   0.0000000000000000     
  -1.0841301600298477E-002   1.2883007565208592E-002   0.0000000000000000     
  -1.4688960800961572E-002   1.9862337620762345E-002   0.0000000000000000     
   0.0000000000000000        0.0000000000000000        0.0000000000000000     
  -4.5824027856595896E-003   3.3127613475224032E-003   0.0000000000000000     
  -9.2907436342895573E-003   7.8966165108113415E-003   0.0000000000000000     
  -1.4125022545889902E-002   1.3751565489866818E-002   0.0000000000000000     
  -1.9085239520460623E-002   2.0877608284688823E-002   0.0000000000000000     
   0.0000000000000000        0.0000000000000000        0.0000000000000000     
  -6.1430784578964817E-003   4.0008745530956151E-003   0.0000000000000000     
  -1.2251864564545823E-002   9.0628927331568056E-003   0.0000000000000000     
  -1.8326358319948024E-002   1.5186054540183572E-002   0.0000000000000000     
  -2.4366559724103086E-002   2.2370359974175913E-002   0.0000000000000000     
   0.0000000000000000        0.0000000000000000        0.0000000000000000     
  -8.1788482165283671E-003   5.0161783715470514E-003   0.0000000000000000     
  -1.5993951190685984E-002   1.0745003276933339E-002   0.0000000000000000     
  -2.3445308922472839E-002   1.7186474716158858E-002   0.0000000000000000     
  -3.0532921411888944E-002   2.4340592689223613E-002   0.0000000000000000     
   0.0000000000000000        0.0000000000000000        0.0000000000000000     
  -1.0689712061555248E-002   6.3586728028767157E-003   0.0000000000000000     
  -2.0517003512710033E-002   1.2942948142140941E-002   0.0000000000000000     
  -2.9481874353464353E-002   1.9752826017792678E-002   0.0000000000000000     
  -3.7584324583818218E-002   2.6788306429831925E-002   0.0000000000000000     
  -1.4688960800961572E-002   1.9862337620762345E-002   0.0000000000000000     
  -1.8497540897655516E-002   2.7923812104227303E-002   0.0000000000000000     
  -2.2111016786129364E-002   3.6807078343272563E-002   0.0000000000000000     
  -2.5529388466383095E-002   4.6512136337898122E-002   0.0000000000000000     
  -2.8752655938416728E-002   5.7038986088103968E-002   0.0000000000000000     
  -1.9085239520460623E-002   2.0877608284688823E-002   0.0000000000000000     
  -2.3966522465339955E-002   2.9032538224927150E-002   0.0000000000000000     
  -2.8563999287866119E-002   3.7974148640231568E-002   0.0000000000000000     
  -3.2877669988039128E-002   4.7702439530602082E-002   0.0000000000000000     
  -3.6907534565858977E-002   5.8217410896038685E-002   0.0000000000000000     
  -2.4366559724103086E-002   2.2370359974175913E-002   0.0000000000000000     
  -3.0220173225107068E-002   3.0482386297727992E-002   0.0000000000000000     
  -3.5734903271056072E-002   3.9388710773433949E-002   0.0000000000000000     
  -4.0910749861950077E-002   4.9089333401293789E-002   0.0000000000000000     
  -4.5747712997789090E-002   5.9584254181307535E-002   0.0000000000000000     
  -3.0532921411888944E-002   2.4340592689223613E-002   0.0000000000000000     
  -3.7258493176956869E-002   3.2273356322629829E-002   0.0000000000000000     
  -4.3623728735699210E-002   4.1050764742879713E-002   0.0000000000000000     
  -4.9628628088115960E-002   5.0672817949973289E-002   0.0000000000000000     
  -5.5273191234207091E-002   6.1139515943910525E-002   0.0000000000000000     
  -3.7584324583818218E-002   2.6788306429831925E-002   0.0000000000000000     
  -4.5081482320889356E-002   3.4405448299632657E-002   0.0000000000000000     
  -5.2230475681795535E-002   4.2960310548568852E-002   0.0000000000000000     
  -5.9031304666536742E-002   5.2452893176640515E-002   0.0000000000000000     
  -6.5483969275112991E-002   6.2883196183847648E-002   0.0000000000000000     
  -2.8752655938416728E-002   5.7038986088103968E-002   0.0000000000000000     
  -3.1774207824832909E-002   6.8338520276929549E-002   0.0000000000000000     
  -3.4587432748234295E-002   8.0361631587414273E-002   0.0000000000000000     
  -3.7192330708620873E-002   9.3108320019558155E-002   0.0000000000000000     
  -3.9588901705992663E-002  0.10657858557336118        0.0000000000000000     
  -3.6907534565858977E-002   5.8217410896038685E-002   0.0000000000000000     
  -4.0673219553861766E-002   6.9497824434569158E-002   0.0000000000000000     
  -4.4194351484583665E-002   8.1522441844221250E-002   0.0000000000000000     
  -4.7470930358024639E-002   9.4291263124995001E-002   0.0000000000000000     
  -5.0502956174184717E-002  0.10780428827689037        0.0000000000000000     
  -4.5747712997789090E-002   5.9584254181307535E-002   0.0000000000000000     
  -5.0272710473052151E-002   7.0848613369138946E-002   0.0000000000000000     
  -5.4512660082218299E-002   8.2857551220451839E-002   0.0000000000000000     
  -5.8467561825287541E-002   9.5611067735246205E-002   0.0000000000000000     
  -6.2137415702259897E-002  0.10910916291352203        0.0000000000000000     
  -5.5273191234207091E-002   6.1139515943910525E-002   0.0000000000000000     
  -6.0572680582404059E-002   7.2390887080638941E-002   0.0000000000000000     
  -6.5542358541138213E-002   8.4366959716106013E-002   0.0000000000000000     
  -7.0182225110409599E-002   9.7067733850311755E-002   0.0000000000000000     
  -7.4492280290218219E-002  0.11049320948325619        0.0000000000000000     
  -6.5483969275112991E-002   6.2883196183847648E-002   0.0000000000000000     
  -7.1573129881917469E-002   7.4124645569069114E-002   0.0000000000000000     
  -7.7283446861343405E-002   8.6050667331183786E-002   0.0000000000000000     
  -8.2614920213390799E-002   9.8661261470191691E-002   0.0000000000000000     
  -8.7567549938059652E-002  0.11195642798609280        0.0000000000000000     
  -3.9588901705992663E-002  0.10657858557336118        0.0000000000000000     
  -4.1799485975702565E-002  0.12063843699442511        0.0000000000000000     
  -4.3846423753103471E-002  0.13515388302835177        0.0000000000000000     
  -4.5729715038195395E-002  0.15012492367514108        0.0000000000000000     
  -4.7449359830978338E-002  0.16555155893479306        0.0000000000000000     
  -5.0502956174184717E-002  0.10780428827689037        0.0000000000000000     
  -5.3293403965044756E-002  0.12196643562466986        0.0000000000000000     
  -5.5845248762585641E-002  0.13668262349309593        0.0000000000000000     
  -5.8158490566807393E-002  0.15195285188216856        0.0000000000000000     
  -6.0233129377709964E-002  0.16777712079188783        0.0000000000000000     
  -6.2137415702259897E-002  0.10910916291352203        0.0000000000000000     
  -6.5506532092143993E-002  0.12330325376340262        0.0000000000000000     
  -6.8559221373948570E-002  0.13814475729301121        0.0000000000000000     
  -7.1295483547673580E-002  0.15363367350234775        0.0000000000000000     
  -7.3715318613319050E-002  0.16977000239141232        0.0000000000000000     
  -7.4492280290218219E-002  0.11049320948325619        0.0000000000000000     
  -7.8438870357000298E-002  0.12464889141062338        0.0000000000000000     
  -8.1988341587192246E-002  0.13954028442809746        0.0000000000000000     
  -8.5140693980793991E-002  0.15516738853567855        0.0000000000000000     
  -8.7895927537805577E-002  0.17153020373336650        0.0000000000000000     
  -8.7567549938059652E-002  0.11195642798609280        0.0000000000000000     
  -9.2090418759613685E-002  0.12600334856633219        0.0000000000000000     
  -9.6132609402316688E-002  0.14086920489835492        0.0000000000000000     
  -9.9694121866168647E-002  0.15655399698216096        0.0000000000000000     
 -0.10277495615116954       0.17305772481775039        0.0000000000000000     
 </DataArray>
 <DataArray  type="Float64" Name="stress" NumberOfComponents="3" format="ascii">
   11731962057.236631        3519588617.1709895        2306167951.2675505     
   10345503122.663176        1657804788.5409660        1374669482.8970153     
   9135109490.8248272        382905302.36129522        658538376.92010772     
   8100781161.7215805       -305109841.36802387        157774633.33682808     
   7242518135.3534431       -406240642.64698648       -127621747.85282367     
   8820101103.5222626        2646030331.0566788        1720561884.7855258     
   8063267718.1987362        1287237155.5647192        1144314401.2199278     
   7438651824.1315126        369168950.92710996        720952134.72878575     
   6946253421.3205948       -108174282.85614824        450475085.31210083     
   6586072509.7659836       -144792545.78505468        332883252.96987122     
   6498698514.4827499        1949609554.3448250        1281342550.0109105     
   6192970263.2115173        1040250907.4316381        1009190271.1916499     
   5975611691.7177906        425457859.77680087        827441064.12767351     
   5846622800.0015669        105230411.38031316        736094928.81898153     
   5806003588.0628510        79568562.242176533        735151865.26557493     
   4767754290.1180964        1430326287.0354290        988509946.94370556     
   4734610757.7015247        916846044.14172518        969297092.81218076     
   4745989093.5836573        551772028.91036928        978005165.11676955     
   4801889297.7644949        335104241.34136152        1014634163.8574710     
   4902311370.2440376        266842681.43470240        1079184089.0342846     
   3627268430.4282999        1088180529.1284900        842064075.58391011     
   3688189201.6687570        917022565.69497931        1024634866.0815214     
   3749784029.7291183        748111458.32781529        1172644437.6960740     
   3812052914.6093831        581447207.02699792        1286092790.4275682     
   3874995856.3095512        417029811.79252720        1364979924.2760026     
   7242518135.3534431       -406240642.64698648       -127621747.85282367     
   6996690633.5712194       -111539644.85980892       -47749543.608160861     
   6714644735.6629238        62433365.840466738        21420831.389902607     
   6396380441.6285572        115678389.45384192        79889377.141362339     
   6041897751.4681196        48195425.980308771        127656093.64622147     
   6586072509.7659836       -144792545.78505468        332883252.96987122     
   6284248996.8732681        2204938.1477544308        341328546.06899583     
   5959730098.6120367        73551137.518840790        351487239.98842990     
   5612515814.9822893        69246052.328207493        363359334.72817498     
   5242606145.9840240       -10710317.424149990        376944830.28822982     
   5806003588.0628510        79568562.242176533        735151865.26557493     
   5483656149.9651070        89504158.092253685        687947093.10297203     
   5152136337.2564030        68865171.905793428        654870951.82759297     
   4811444149.9367361        17651603.682789326        635923441.43943572     
   4461579588.0061083       -64136546.576749563        631104561.93849933     
   4902311370.2440376        266842681.43470240        1079184089.0342846     
   4594912092.8467312        150358014.97368884        992106097.49377096     
   4291863451.5960178        48375469.001317739        931571966.90739036     
   3993165446.4918962       -39104956.482410431        897581697.27514362     
   3698818077.5343680       -112083261.47749829        890135288.59703219     
   3874995856.3095512        417029811.79252720        1364979924.2760026     
   3618016825.5181437        184766508.79205990        1253805559.2413895     
   3378911441.6308823        12082028.805416822        1181590285.2278230     
   3157679704.6477699       -101023628.16740036        1148334102.2353022     
   2954321614.5688028       -154550462.12639642        1154037010.2638278     
   6041897751.4681196        48195425.980308771        127656093.64622147     
   5644893394.3348703       -62852823.519139290        86048004.581139416     
   5263793948.0964384       -120884703.36919999        63332196.817250982     
   4898599412.7528248       -125900213.56986427        59508670.354546227     
   4549309788.3040199       -77899354.121165037        74577425.193032518     
   5242606145.9840240       -10710317.424149990        376944830.28822982     
   4898298539.0516644       -103005894.25111103        355758343.99943507     
   4563486432.4145956       -163649803.42710090        351887998.25495028     
   4238169826.0728216       -192642044.95210719        365333793.05477047     
   3922348720.0263467       -189982618.82611251        396095728.39889711     
   4461579588.0061083       -64136546.576749563        631104561.93849933     
   4165465471.9692564       -139030428.52285266        622862032.72655189     
   3872437445.6281776       -203637344.81637740        630359503.30203116     
   3582495508.9828758       -257957295.45731592        653596973.66493630     
   3295639662.0333519       -301990280.44566345        692574443.81526792     
   3698818077.5343680       -112083261.47749829        890135288.59703219     
   3446394193.0876508       -170926426.33435512        887359070.76249206     
   3190646987.7371902       -240847327.53702664        898746711.95849586     
   2931576461.4829822       -321845965.08551288        924298212.18504333     
   2669182614.3250332       -413922338.97981143        964013571.44213605     
   2954321614.5688028       -154550462.12639642        1154037010.2638278     
   2741084702.4068470       -198693887.68561530        1149249458.1072533     
   2518115058.7416272       -275279751.58904779        1157049624.2243421     
   2285412683.5731430       -384308053.83669651        1177437508.6150944     
   2042977576.9013963       -525778794.42855132        1210413111.2795117     
   4549309788.3040199       -77899354.121165037        74577425.193032518     
   4087774585.4695930       -78179857.913846016        164394455.86678511     
   3600703027.9651575       -163581543.93988585        285593572.37524188     
   3088095115.7907176       -334104412.19927311        438174774.71839350     
   2549950848.9462790       -589748462.69199646        622138062.89625001     
   3922348720.0263467       -189982618.82611251        396095728.39889711     
   3526698649.3690567       -238035910.59553170        454742451.20706582     
   3103906466.2106638       -376562910.70196664        543712448.61911345     
   2653972170.5511594       -605563619.14543831        663005720.63504767     
   2176895762.3905396       -925038035.92595053        812622267.25486565     
   3295639662.0333519       -301990280.44566345        692574443.81526792     
   2962849548.6080141       -398723912.67535841        718177474.62155628     
   2601311564.8504653       -591283779.34576583        773044968.80091262     
   2211025710.7606978       -879669880.45688629        857176926.35333729     
   1791991986.3387232       -1263882216.0087211        970573347.27882636     
   2669182614.3250332       -413922338.97981143        964013571.44213605     
   2396227283.1864619       -560243864.15333998        954699526.11026013     
   2092918323.8845673       -807744149.87127471        973591132.92063463     
   1759255736.4193535       -1156423196.1336031        1020688391.8732649     
   1395239520.7908211       -1606281002.9403272        1095991302.9681389     
   2042977576.9013963       -525778794.42855132        1210413111.2795117     
   1826831853.1043954       -722595765.02948046        1164308605.6731801     
   1578726743.3129699       -1025944022.2784877        1145350940.9782841     
   1298662247.5271220       -1435823566.1755755        1153540117.1948223     
   986638365.74684608       -1952234396.7207491        1188876134.3227985     
   3627268430.4282999        1088180529.1284900        842064075.58391011     
   3688189201.6687570        917022565.69497931        1024634866.0815214     
   3749784029.7291183        748111458.32781529        1172644437.6960740     
   3812052914.6093831        581447207.02699792        1286092790.4275682     
   3874995856.3095512        417029811.79252720        1364979924.2760026     
   2766621645.5122561        829986493.65367687        777968133.26608050     
   2761384645.0730987        686339747.41769171        956395499.00754511     
   2756653187.2488694        544378143.23146653        1112144747.6021676     
   2752427272.0395684        404101681.09500104        1245215879.0499470     
   2748706899.4451942        265510361.00829482        1355608893.3508840     
   1875194645.4688604        562558393.64065814        732185317.32477283     
   1837751592.5964208        456608380.37609804        906272658.40428567     
   1800645568.1339331        351781795.14471114        1069564984.0731722     
   1763876572.0813971        248078637.94649673        1222062294.3314319     
   1727444604.4388132        145498908.78145534        1363764589.1790657     
   952987430.29811144        285896229.08943343        704715627.75998688     
   917290044.23872185        227828464.57019827        874266344.27174222     
   881761172.38430810        170322414.06754899        1044905147.1090875     
   846400814.73487008        113378077.58148587        1216632036.2720222     
   811208971.29040790        56995455.112008661        1389447011.7605469     
   1.0751472971988122E-005   3.2254418915964371E-006   695559064.57172275     
   3.0195626219200689E-006  -7.6289707152298694E-006   860376556.60991526     
  -4.9754156838455677E-006  -1.9186804160117103E-005   1038165236.7099141     
  -1.3376433660361820E-005  -3.2011367000374212E-005   1228925104.8717184     
  -2.1834640322899285E-005  -4.5373503489230730E-005   1432656161.0953295     
   3874995856.3095512        417029811.79252720        1364979924.2760026     
   3618016825.5181437        184766508.79205990        1253805559.2413895     
   3378911441.6308823        12082028.805416822        1181590285.2278230     
   3157679704.6477699       -101023628.16740036        1148334102.2353022     
   2954321614.5688028       -154550462.12639642        1154037010.2638278     
   2748706899.4451942        265510361.00829482        1355608893.3508840     
   2600864351.6389213        104780401.34412766        1294202506.5643632     
   2466427039.0107579       -11265441.059672594        1261280474.8985231     
   2345394961.5607061       -82627166.203103065        1256842798.3533647     
   2237768119.2887640       -109304774.08616781        1280889476.9288845     
   1727444604.4388132        145498908.78145534        1363764589.1790657     
   1658810722.7594876        47323947.396130145        1346913033.6269274     
   1599113664.5322349       -21061602.482283294        1348071097.2951047     
   1548353429.7570562       -59657740.853784561        1367238780.1835968     
   1506530018.4339514       -68464467.718373179        1404416082.2924042     
   811208971.29040790        56995455.112008661        1389447011.7605469     
   791855938.87984228        12397146.948069632        1411937140.4290824     
   776971318.19531322       -17306455.462413311        1441962152.4175677     
   766555109.23682165       -32115352.119437963        1479522047.7260015     
   760607312.00436664       -32029543.023008794        1524616826.3543859     
  -2.1834640322899285E-005  -4.5373503489230730E-005   1432656161.0953295     
  -1.4257139425088507E-005  -5.3768802597144856E-005   1489274826.9708283     
  -7.0542244207166756E-006  -6.3239249002257800E-005   1542953640.2659111     
   6.0691493040012631E-007  -7.1095544744421984E-005   1593692600.9805789     
   8.6011783775905011E-006  -7.8188371528202982E-005   1641491709.1148298     
   2954321614.5688028       -154550462.12639642        1154037010.2638278     
   2741084702.4068470       -198693887.68561530        1149249458.1072533     
   2518115058.7416272       -275279751.58904779        1157049624.2243421     
   2285412683.5731430       -384308053.83669651        1177437508.6150944     
   2042977576.9013963       -525778794.42855132        1210413111.2795117     
   2237768119.2887640       -109304774.08616781        1280889476.9288845     
   2063606586.0365090       -146682497.99482012        1262687431.8101497     
   1882145504.1568060       -208392050.66163301        1260394336.4289303     
   1693384873.6496553       -294433432.08660352        1274010190.7852249     
   1497324694.5150576       -404806642.26973373        1303534994.8790321     
   1506530018.4339514       -68464467.718373179        1404416082.2924042     
   1380933096.8452570       -96229720.150300860        1375638257.5666292     
   1250469809.5049305       -140216191.75433540        1366090614.0422175     
   1115140156.4129739       -200423882.53047085        1375773151.7191727     
   974944137.56938553       -276852792.47871280        1404685870.5974920     
   760607312.00436664       -32029543.023008794        1524616826.3543859     
   693064234.83309186       -47335554.152055562        1488101935.3766882     
   623087974.78600228       -70752174.867151558        1474138457.0642066     
   550678531.86309695       -102279405.16829991        1482726391.4169405     
   475835906.06437820       -141917245.05549321        1513865738.4348912     
   8.6011783775905011E-006  -7.8188371528202982E-005   1641491709.1148298     
   1.4114167710035472E-005  -8.2363145607751575E-005   1600078465.2403288     
   1.9055270182268309E-005  -8.7750319830949883E-005   1584537865.4948955     
   2.7833733486524572E-005  -8.1213653018725177E-005   1594869909.8785276     
   3.5960245770138996E-005  -7.5809322189720519E-005   1631074598.3912270     
   2042977576.9013963       -525778794.42855132        1210413111.2795117     
   1826831853.1043954       -722595765.02948046        1164308605.6731801     
   1578726743.3129699       -1025944022.2784877        1145350940.9782841     
   1298662247.5271220       -1435823566.1755755        1153540117.1948223     
   986638365.74684608       -1952234396.7207491        1188876134.3227985     
   1497324694.5150576       -404806642.26973373        1303534994.8790321     
   1361017567.7790287       -544678720.38690662        1229940343.9279292     
   1200740901.5471778       -764449263.49014807        1177472028.4621930     
   1016494695.8195118       -1064118271.5794414        1146130048.4818277     
   808278950.59602749       -1443685744.6547956        1135914403.9868324     
   974944137.56938553       -276852792.47871280        1404685870.5974920     
   901274163.81985164       -364940411.33448058        1312922561.8833220     
   811624497.07310700       -506293673.51429051        1236265083.2284544     
   705995137.32915294       -700912579.01812696        1174713434.6328924     
   584386084.58798587       -948797127.84600902        1128267616.0966332     
   475835906.06437820       -141917245.05549321        1513865738.4348912     
   447601641.22687006       -183380837.87219369        1413255259.5393615     
   411377529.89075613       -251477252.35091448        1321730105.2770734     
   367163572.05604041       -346206488.49164426        1239290275.6480165     
   314959767.72271746       -467568546.29439044        1165935770.6522064     
   3.5960245770138996E-005  -7.5809322189720519E-005   1631074598.3912270     
   8.1207934150123056E-005  -5.0577673917161144E-005   1530938436.8960466     
   1.2494584121914708E-004  -2.8296961843296404E-005   1433867094.6080408     
   1.7689604360081736E-004   1.9970289158607730E-005   1339860571.5272064     
   2.2655869854163908E-004   6.1306271414740792E-005   1248918867.6535454     
   1.0751472971988122E-005   3.2254418915964371E-006   695559064.57172275     
   3.0195626219200689E-006  -7.6289707152298694E-006   860376556.60991526     
  -4.9754156838455677E-006  -1.9186804160117103E-005   1038165236.7099141     
  -1.3376433660361820E-005  -3.2011367000374212E-005   1228925104.8717184     
  -2.1834640322899285E-005  -4.5373503489230730E-005   1432656161.0953295     
  -952987430.29808903       -285896229.08942670        704715627.75998068     
  -917290044.23871493       -227828464.57021156        874266344.27173638     
  -881761172.38431704       -170322414.06758252        1044905147.1090814     
  -846400814.73489475       -113378077.58153939        1216632036.2720156     
  -811208971.29044819       -56995455.112082303        1389447011.7605388     
  -1875194645.4688342       -562558393.64065027        732185317.32476079     
  -1837751592.5964122       -456608380.37610924        906272658.40427458     
  -1800645568.1339414       -351781795.14473921        1069564984.0731610     
  -1763876572.0814221       -248078637.94654036        1222062294.3314197     
  -1727444604.4388542       -145498908.78151262        1363764589.1790516     
  -2766621645.5122247       -829986493.65366733        777968133.26606309     
  -2761384645.0730877       -686339747.41770041        956395499.00753045     
  -2756653187.2488785       -544378143.23148990        1112144747.6021538     
  -2752427272.0395956       -404101681.09503514        1245215879.0499322     
  -2748706899.4452391       -265510361.00833690        1355608893.3508677     
  -3627268430.4282613       -1088180529.1284783        842064075.58388770     
  -3688189201.6687431       -917022565.69498563        1024634866.0815036     
  -3749784029.7291279       -748111458.32783401        1172644437.6960585     
  -3812052914.6094146       -581447207.02702367        1286092790.4275529     
  -3874995856.3096046       -417029811.79255521        1364979924.2759860     
  -2.1834640322899285E-005  -4.5373503489230730E-005   1432656161.0953295     
  -1.4257139425088507E-005  -5.3768802597144856E-005   1489274826.9708283     
  -7.0542244207166756E-006  -6.3239249002257800E-005   1542953640.2659111     
   6.0691493040012631E-007  -7.1095544744421984E-005   1593692600.9805789     
   8.6011783775905011E-006  -7.8188371528202982E-005   1641491709.1148298     
  -811208971.29044819       -56995455.112082303        1389447011.7605388     
  -791855938.87986505       -12397146.948155105        1411937140.4290721     
  -776971318.19531941        17306455.462313861        1441962152.4175568     
  -766555109.23681140        32115352.119322956        1479522047.7259903     
  -760607312.00434256        32029543.022870719        1524616826.3543758     
  -1727444604.4388542       -145498908.78151262        1363764589.1790516     
  -1658810722.7595067       -47323947.396192014        1346913033.6269090     
  -1599113664.5322342        21061602.482208967        1348071097.2950830     
  -1548353429.7570379        59657740.853691816        1367238780.1835737     
  -1506530018.4339178        68464467.718254566        1404416082.2923808     
  -2748706899.4452391       -265510361.00833690        1355608893.3508677     
  -2600864351.6389389       -104780401.34416687        1294202506.5643382     
  -2466427039.0107508        11265441.059624791        1261280474.8984907     
  -2345394961.5606771        82627166.203039050        1256842798.3533261     
  -2237768119.2887168        109304774.08607101        1280889476.9288442     
  -3874995856.3096046       -417029811.79255521        1364979924.2759860     
  -3618016825.5181618       -184766508.79207897        1253805559.2413588     
  -3378911441.6308699       -12082028.805441141        1181590285.2277801     
  -3157679704.6477299        101023628.16735780        1148334102.2352493     
  -2954321614.5687413        154550462.12631810        1154037010.2637672     
   8.6011783775905011E-006  -7.8188371528202982E-005   1641491709.1148298     
   1.4114167710035472E-005  -8.2363145607751575E-005   1600078465.2403288     
   1.9055270182268309E-005  -8.7750319830949883E-005   1584537865.4948955     
   2.7833733486524572E-005  -8.1213653018725177E-005   1594869909.8785276     
   3.5960245770138996E-005  -7.5809322189720519E-005   1631074598.3912270     
  -760607312.00434256        32029543.022870719        1524616826.3543758     
  -693064234.83305967        47335554.151899070        1488101935.3766828     
  -623087974.78595889        70752174.866987616        1474138457.0642045     
  -550678531.86303914        102279405.16813967        1482726391.4169445     
  -475835906.06430060        141917245.05535418        1513865738.4348993     
  -1506530018.4339178        68464467.718254566        1404416082.2923808     
  -1380933096.8452170        96229720.150158048        1375638257.5666151     
  -1250469809.5048795        140216191.75418121        1366090614.0422151     
  -1115140156.4129066        200423882.53032297        1375773151.7191801     
  -974944137.56929827        276852792.47858417        1404685870.5975125     
  -2237768119.2887168        109304774.08607101        1280889476.9288442     
  -2063606586.0364573        146682497.99469161        1262687431.8101268     
  -1882145504.1567435        208392050.66148961        1260394336.4289246     
  -1693384873.6495769        294433432.08646655        1274010190.7852371     
  -1497324694.5149574        404806642.26961726        1303534994.8790627     
  -2954321614.5687413        154550462.12631810        1154037010.2637672     
  -2741084702.4067817        198693887.68550062        1149249458.1072185     
  -2518115058.7415500        275279751.58891773        1157049624.2243328     
  -2285412683.5730500        384308053.83656502        1177437508.6151123     
  -2042977576.9012780        525778794.42845047        1210413111.2795546     
   3.5960245770138996E-005  -7.5809322189720519E-005   1631074598.3912270     
   8.1207934150123056E-005  -5.0577673917161144E-005   1530938436.8960466     
   1.2494584121914708E-004  -2.8296961843296404E-005   1433867094.6080408     
   1.7689604360081736E-004   1.9970289158607730E-005   1339860571.5272064     
   2.2655869854163908E-004   6.1306271414740792E-005   1248918867.6535454     
  -475835906.06430060        141917245.05535418        1513865738.4348993     
  -447601641.22671652        183380837.87209547        1413255259.5393724     
  -411377529.89052296        251477252.35086828        1321730105.2770743     
  -367163572.05572140        346206488.49166775        1239290275.6480086     
  -314959767.72231579        467568546.29448104        1165935770.6521699     
  -974944137.56929827        276852792.47858417        1404685870.5975125     
  -901274163.81972361        364940411.33438629        1312922561.8833420     
  -811624497.07293594        506293673.51422870        1236265083.2284594     
  -705995137.32893503        700912579.01811767        1174713434.6328657     
  -584386084.58772421        948797127.84603763        1128267616.0965576     
  -1497324694.5149574        404806642.26961726        1303534994.8790627     
  -1361017567.7789435        544678720.38680935        1229940343.9279573     
  -1200740901.5471098        764449263.49006748        1177472028.4621964     
  -1016494695.8194630        1064118271.5793731        1146130048.4817767     
  -808278950.59599864        1443685744.6547327        1135914403.9867067     
  -2042977576.9012780        525778794.42845047        1210413111.2795546     
  -1826831853.1043763        722595765.02936852        1164308605.6732175     
  -1578726743.3130517        1025944022.2783657        1145350940.9782822     
  -1298662247.5273008        1435823566.1754427        1153540117.1947508     
  -986638365.74713612        1952234396.7205753        1188876134.3226190     
  -3627268430.4282613       -1088180529.1284783        842064075.58388770     
  -3688189201.6687431       -917022565.69498563        1024634866.0815036     
  -3749784029.7291279       -748111458.32783401        1172644437.6960585     
  -3812052914.6094146       -581447207.02702367        1286092790.4275529     
  -3874995856.3096046       -417029811.79255521        1364979924.2759860     
  -4767754290.1180477       -1430326287.0354145        988509946.94368100     
  -4734610757.7015018       -916846044.14171660        969297092.81216323     
  -4745989093.5836592       -551772028.91036677        978005165.11675775     
  -4801889297.7645206       -335104241.34136558        1014634163.8574653     
  -4902311370.2440891       -266842681.43471408        1079184089.0342851     
  -6498698514.4826927       -1949609554.3448076        1281342550.0108900     
  -6192970263.2114782       -1040250907.4316120        1009190271.1916355     
  -5975611691.7177725       -425457859.77677345        827441064.12766743     
  -5846622800.0015717       -105230411.38029051        736094928.81898510     
  -5806003588.0628777       -79568562.242164373        735151865.26558852     
  -8820101103.5221939       -2646030331.0566578        1720561884.7855141     
  -8063267718.1986742       -1287237155.5646744        1144314401.2199211     
  -7438651824.1314631       -369168950.92705417        720952134.72878695     
  -6946253421.3205633        108174282.85620213        450475085.31211251     
  -6586072509.7659712        144792545.78509331        332883252.96989715     
  -11731962057.236549       -3519588617.1709647        2306167951.2675548     
  -10345503122.663086       -1657804788.5409002        1374669482.8970191     
  -9135109490.8247337       -382905302.36120844        658538376.92011738     
  -8100781161.7214928        305109841.36811304        157774633.33684739     
  -7242518135.3533649        406240642.64706182       -127621747.85278940     
  -3874995856.3096046       -417029811.79255521        1364979924.2759860     
  -3618016825.5181618       -184766508.79207897        1253805559.2413588     
  -3378911441.6308699       -12082028.805441141        1181590285.2277801     
  -3157679704.6477299        101023628.16735780        1148334102.2352493     
  -2954321614.5687413        154550462.12631810        1154037010.2637672     
  -4902311370.2440891       -266842681.43471408        1079184089.0342851     
  -4594912092.8467484       -150358014.97369766        992106097.49375772     
  -4291863451.5960035       -48375469.001335859        931571966.90736318     
  -3993165446.4918542        39104956.482370377        897581697.27510226     
  -3698818077.5343032        112083261.47742152        890135288.59697449     
  -5806003588.0628777       -79568562.242164373        735151865.26558852     
  -5483656149.9651108       -89504158.092248678        687947093.10297489     
  -5152136337.2563839       -68865171.905804873        654870951.82757938     
  -4811444149.9366999       -17651603.682833433        635923441.43940258     
  -4461579588.0060539        64136546.576666594        631104561.93844187     
  -6586072509.7659712        144792545.78509331        332883252.96989715     
  -6284248996.8732471       -2204938.1477327347        341328546.06901181     
  -5959730098.6120110       -73551137.518845320        351487239.98842949     
  -5612515814.9822607       -69246052.328252792        363359334.72815001     
  -5242606145.9839973        10710317.424054146        376944830.28817344     
  -7242518135.3533649        406240642.64706182       -127621747.85278940     
  -6996690633.5711584        111539644.85985184       -47749543.608132198     
  -6714644735.6628857       -62433365.840468884        21420831.389911097     
  -6396380441.6285429       -115678389.45388865        79889377.141345024     
  -6041897751.4681311       -48195425.980413914        127656093.64616382     
  -2954321614.5687413        154550462.12631810        1154037010.2637672     
  -2741084702.4067817        198693887.68550062        1149249458.1072185     
  -2518115058.7415500        275279751.58891773        1157049624.2243328     
  -2285412683.5730500        384308053.83656502        1177437508.6151123     
  -2042977576.9012780        525778794.42845047        1210413111.2795546     
  -3698818077.5343032        112083261.47742152        890135288.59697449     
  -3446394193.0875812        170926426.33424139        887359070.76246178     
  -3190646987.7371092        240847327.53689766        898746711.95849168     
  -2931576461.4828854        321845965.08539629        924298212.18506455     
  -2669182614.3249063        413922338.97973621        964013571.44218218     
  -4461579588.0060539        64136546.576666594        631104561.93844187     
  -4165465471.9692030        139030428.52273583        622862032.72652745     
  -3872437445.6281185        203637344.81624722        630359503.30203664     
  -3582495508.9827976        257957295.45720983        653596973.66496778     
  -3295639662.0332460        301990280.44561505        692574443.81532109     
  -5242606145.9839973        10710317.424054146        376944830.28817344     
  -4898298539.0516443        103005894.25098300        355758343.99941611     
  -4563486432.4145756        163649803.42696524        351887998.25496501     
  -4238169826.0727921        192642044.95200109        365333793.05481613     
  -3922348720.0262928        189982618.82608128        396095728.39896739     
  -6041897751.4681311       -48195425.980413914        127656093.64616382     
  -5644893394.3349047        62852823.518990755        86048004.581130460     
  -5263793948.0964861        120884703.36904049        63332196.817281246     
  -4898599412.7528658        125900213.56975794        59508670.354610562     
  -4549309788.3040504        77899354.121129036        74577425.193124115     
  -2042977576.9012780        525778794.42845047        1210413111.2795546     
  -1826831853.1043763        722595765.02936852        1164308605.6732175     
  -1578726743.3130517        1025944022.2783657        1145350940.9782822     
  -1298662247.5273008        1435823566.1754427        1153540117.1947508     
  -986638365.74713612        1952234396.7205753        1188876134.3226190     
  -2669182614.3249063        413922338.97973621        964013571.44218218     
  -2396227283.1864705        560243864.15324473        954699526.11029935     
  -2092918323.8847299        807744149.87110615        973591132.92067170     
  -1759255736.4196911        1156423196.1332932        1020688391.8733022     
  -1395239520.7913446        1606281002.9398375        1095991302.9681911     
  -3295639662.0332460        301990280.44561505        692574443.81532109     
  -2962849548.6079741        398723912.67530310        718177474.62158453     
  -2601311564.8505173        591283779.34560204        773044968.80096006     
  -2211025710.7608757        879669880.45650911        857176926.35345018     
  -1791991986.3390512        1263882216.0080433        970573347.27905321     
  -3922348720.0262928        189982618.82608128        396095728.39896739     
  -3526698649.3688817        238035910.59553337        454742451.20707202     
  -3103906466.2104025        376562910.70188272        543712448.61914206     
  -2653972170.5508661        605563619.14509809        663005720.63518667     
  -2176895762.3902578        925038035.92519903        812622267.25519800     
  -4549309788.3040504        77899354.121129036        74577425.193124115     
  -4087774585.4691978        78179857.913946152        164394455.86676332     
  -3600703027.9644003        163581543.93991137        285593572.37522858     
  -3088095115.7896585        334104412.19902253        438174774.71851957     
  -2549950848.9449654        589748462.69131136        622138062.89663434     
 </DataArray>
 <DataArray  type="Float64" Name="VM" NumberOfComponents="1" format="ascii">
   11166467189.366039     
   9914437731.0542107     
   9022193657.8570576     
   8262085330.3138018     
   7457222509.3479156     
   8386799421.9756041     
   7760302464.1053267     
   7367701359.7503414     
   7044311723.5489206     
   6684561613.9689751     
   6187863223.5446377     
   6004011551.1077404     
   5949836524.0768538     
   5933324221.3153000     
   5905537931.2837601     
   4570484187.9895134     
   4662064683.6197233     
   4804127717.4878473     
   4964851424.7475567     
   5127341491.4816990     
   3538545742.6192136     
   3769767509.4343309     
   3992565535.6645732     
   4197073355.9078932     
   4377559655.6432981     
   7457222509.3479156     
   7053606833.3502636     
   6683749736.1973305     
   6340842861.4619865     
   6022005283.7202415     
   6684561613.9689751     
   6310899259.6298380     
   5954500611.2770214     
   5613606171.0610323     
   5288425673.4878244     
   5905537931.2837601     
   5568437783.3574114     
   5242233911.7665215     
   4927329149.9465485     
   4625022716.4923563     
   5127341491.4816990     
   4837123767.1213131     
   4562706450.6024618     
   4303488207.4359665     
   4060223629.0575943     
   4377559655.6432981     
   4143884797.6331964     
   3945228916.9159384     
   3775733144.9688406     
   3633716841.1462021     
   6022005283.7202415     
   5678536974.9967690     
   5326395114.0521555     
   4963817646.5498953     
   4590573115.6994438     
   5288425673.4878244     
   4988805910.3582821     
   4687267735.5308323     
   4383611578.9734154     
   4078819245.4306870     
   4625022716.4923563     
   4371890877.3235750     
   4125272370.1729002     
   3886709907.1836090     
   3658779596.7937646     
   4060223629.0575943     
   3854626698.1285071     
   3664687079.7405505     
   3493454305.6087441     
   3344946687.1657419     
   3633716841.1462021     
   3472748815.2252946     
   3335589899.4469309     
   3226171659.2890096     
   3149548333.9190817     
   4590573115.6994438     
   4137229918.6085353     
   3718268527.6140199     
   3354950790.3241673     
   3084647383.7877378     
   4078819245.4306870     
   3735521044.4304285     
   3439726836.6127315     
   3214989009.0616460     
   3096667039.9634852     
   3658779596.7937646     
   3415575182.3194661     
   3232235645.7764692     
   3132360669.5458155     
   3146353159.6362557     
   3344946687.1657419     
   3183175076.5542488     
   3093046934.1224461     
   3097120255.3535433     
   3220492124.8354020     
   3149548333.9190817     
   3040783420.0027218     
   3016639001.6064544     
   3099149433.5983315     
   3309245102.3648186     
   3538545742.6192136     
   3769767509.4343309     
   3992565535.6645732     
   4197073355.9078932     
   4377559655.6432981     
   2804018109.6726027     
   2990842091.8988643     
   3178902394.3567553     
   3358359915.9593458     
   3522655479.1632276     
   2094327203.1490331     
   2282691338.0930042     
   2482850847.0152659     
   2686174273.6306462     
   2886772428.3412676     
   1485711456.3229811     
   1725504846.2297294     
   1982878992.2009892     
   2252524398.4188285     
   2531158281.8873191     
   1204743639.5033052     
   1490215909.6895337     
   1798154936.6333413     
   2128560720.3347270     
   2481433260.7936931     
   4377559655.6432981     
   4143884797.6331964     
   3945228916.9159384     
   3775733144.9688406     
   3633716841.1462021     
   3522655479.1632276     
   3395266570.0233412     
   3299039245.9687920     
   3231170000.6233110     
   3191580483.7730069     
   2886772428.3412676     
   2849195545.9422708     
   2836049197.3177199     
   2846287811.0374784     
   2880037751.8708029     
   2531158281.8873191     
   2568671296.2784662     
   2618242752.1578035     
   2679591906.9352608     
   2752686084.7058077     
   2481433260.7936931     
   2579499666.7468228     
   2672474098.6639104     
   2760356556.5449562     
   2843147040.3899574     
   3633716841.1462021     
   3472748815.2252946     
   3335589899.4469309     
   3226171659.2890096     
   3149548333.9190817     
   3191580483.7730069     
   3060362971.5155668     
   2957009427.9115548     
   2884811674.1135426     
   2847733675.9302716     
   2880037751.8708029     
   2779615985.9774513     
   2712431038.1701255     
   2680571453.2205968     
   2686355660.0438652     
   2752686084.7058077     
   2675579820.9221849     
   2637533297.5543556     
   2639216484.1610274     
   2681316478.3091989     
   2843147040.3899574     
   2771417197.8930812     
   2744500089.5538988     
   2762395715.3724065     
   2825104075.3486071     
   3149548333.9190817     
   3040783420.0027218     
   3016639001.6064544     
   3099149433.5983315     
   3309245102.3648186     
   2847733675.9302716     
   2725549629.7723327     
   2665218193.7623439     
   2681067325.7906857     
   2788431241.6716304     
   2686355660.0438652     
   2538835352.4343610     
   2431263462.5347934     
   2371582469.6516261     
   2369630849.9165659     
   2681316478.3091989     
   2511559000.0586991     
   2361532507.7229085     
   2233674907.9150810     
   2131502743.4564073     
   2825104075.3486071     
   2651663155.9640322     
   2483530659.1622968     
   2320706584.9433951     
   2163190933.3073311     
   1204743639.5033052     
   1490215909.6895337     
   1798154936.6333413     
   2128560720.3347270     
   2481433260.7936931     
   1485711456.3229609     
   1725504846.2297156     
   1982878992.2009785     
   2252524398.4188190     
   2531158281.8873081     
   2094327203.1490021     
   2282691338.0929828     
   2482850847.0152507     
   2686174273.6306348     
   2886772428.3412571     
   2804018109.6725636     
   2990842091.8988395     
   3178902394.3567419     
   3358359915.9593401     
   3522655479.1632290     
   3538545742.6191664     
   3769767509.4343028     
   3992565535.6645617     
   4197073355.9078970     
   4377559655.6433182     
   2481433260.7936931     
   2579499666.7468228     
   2672474098.6639104     
   2760356556.5449562     
   2843147040.3899574     
   2531158281.8873081     
   2568671296.2784438     
   2618242752.1577721     
   2679591906.9352217     
   2752686084.7057633     
   2886772428.3412571     
   2849195545.9422388     
   2836049197.3176670     
   2846287811.0374079     
   2880037751.8707170     
   3522655479.1632290     
   3395266570.0233121     
   3299039245.9687309     
   3231170000.6232200     
   3191580483.7728877     
   4377559655.6433182     
   4143884797.6331758     
   3945228916.9158792     
   3775733144.9687390     
   3633716841.1460581     
   2843147040.3899574     
   2771417197.8930812     
   2744500089.5538988     
   2762395715.3724065     
   2825104075.3486071     
   2752686084.7057633     
   2675579820.9221444     
   2637533297.5543170     
   2639216484.1609983     
   2681316478.3091774     
   2880037751.8707170     
   2779615985.9773693     
   2712431038.1700535     
   2680571453.2205358     
   2686355660.0438247     
   3191580483.7728877     
   3060362971.5154524     
   2957009427.9114494     
   2884811674.1134543     
   2847733675.9302068     
   3633716841.1460581     
   3472748815.2251549     
   3335589899.4468002     
   3226171659.2888956     
   3149548333.9189949     
   2825104075.3486071     
   2651663155.9640322     
   2483530659.1622968     
   2320706584.9433951     
   2163190933.3073311     
   2681316478.3091774     
   2511559000.0586686     
   2361532507.7228479     
   2233674907.9149966     
   2131502743.4562707     
   2686355660.0438247     
   2538835352.4343071     
   2431263462.5347028     
   2371582469.6514850     
   2369630849.9163561     
   2847733675.9302068     
   2725549629.7722759     
   2665218193.7622666     
   2681067325.7905521     
   2788431241.6714196     
   3149548333.9189949     
   3040783420.0026908     
   3016639001.6064358     
   3099149433.5982780     
   3309245102.3646684     
   3538545742.6191664     
   3769767509.4343028     
   3992565535.6645617     
   4197073355.9078970     
   4377559655.6433182     
   4570484187.9894571     
   4662064683.6196938     
   4804127717.4878426     
   4964851424.7475748     
   5127341491.4817410     
   6187863223.5445766     
   6004011551.1077051     
   5949836524.0768461     
   5933324221.3153172     
   5905537931.2837963     
   8386799421.9755402     
   7760302464.1052809     
   7367701359.7503185     
   7044311723.5489197     
   6684561613.9689856     
   11166467189.365974     
   9914437731.0541496     
   9022193657.8570080     
   8262085330.3137617     
   7457222509.3478765     
   4377559655.6433182     
   4143884797.6331758     
   3945228916.9158792     
   3775733144.9687390     
   3633716841.1460581     
   5127341491.4817410     
   4837123767.1213169     
   4562706450.6024237     
   4303488207.4358826     
   4060223629.0574589     
   5905537931.2837963     
   5568437783.3574181     
   5242233911.7664919     
   4927329149.9464798     
   4625022716.4922380     
   6684561613.9689856     
   6310899259.6298313     
   5954500611.2769928     
   5613606171.0609770     
   5288425673.4877377     
   7457222509.3478765     
   7053606833.3502245     
   6683749736.1972914     
   6340842861.4619493     
   6022005283.7201967     
   3633716841.1460581     
   3472748815.2251549     
   3335589899.4468002     
   3226171659.2888956     
   3149548333.9189949     
   4060223629.0574589     
   3854626698.1283665     
   3664687079.7404094     
   3493454305.6086159     
   3344946687.1656332     
   4625022716.4922380     
   4371890877.3234539     
   4125272370.1727781     
   3886709907.1834946     
   3658779596.7936692     
   5288425673.4877377     
   4988805910.3581934     
   4687267735.5307455     
   4383611578.9733419     
   4078819245.4306383     
   6022005283.7201967     
   5678536974.9967270     
   5326395114.0521221     
   4963817646.5498838     
   4590573115.6994610     
   3149548333.9189949     
   3040783420.0026908     
   3016639001.6064358     
   3099149433.5982780     
   3309245102.3646684     
   3344946687.1656332     
   3183175076.5542388     
   3093046934.1225114     
   3097120255.3536315     
   3220492124.8354621     
   3658779596.7936692     
   3415575182.3194165     
   3232235645.7764544     
   3132360669.5458198     
   3146353159.6362534     
   4078819245.4306383     
   3735521044.4302611     
   3439726836.6124477     
   3214989009.0612578     
   3096667039.9630179     
   4590573115.6994610     
   4137229918.6081896     
   3718268527.6132803     
   3354950790.3230491     
   3084647383.7863450     
 </DataArray>
 <DataArray  type="Float64" Name="strain" NumberOfComponents="3" format="ascii">
  0.17793475786808891        0.0000000000000000        9.9933944554927184E-002
  0.16413602810168143       -2.4097435804299773E-002   5.9569010925537333E-002
  0.15033729833527396       -3.9293792414769206E-002   2.8536662999871336E-002
  0.13653856856886645       -4.5589069831408299E-002   6.8369007779292175E-003
  0.12273983880245899       -4.2983268054216997E-002  -5.5302757402890257E-003
  0.13377153340342099        0.0000000000000000        7.4557681674039450E-002
  0.12795160952548867       -1.8862385998248365E-002   4.9586957386196874E-002
  0.12213168564755633       -3.1040443271872400E-002   3.1241259171580719E-002
  0.11631176176962399       -3.6534171820872111E-002   1.9520587030191036E-002
  0.11049183789169166       -3.5343571645247499E-002   1.4424940962027753E-002
   9.8563594136321708E-002   0.0000000000000000        5.5524843833806126E-002
   9.8014916516367095E-002  -1.3627336192196950E-002   4.3731578418304828E-002
   9.7466238896412510E-002  -2.2787094128975605E-002   3.5855779445532518E-002
   9.6917561276457884E-002  -2.7479273810335950E-002   3.1897446915489201E-002
   9.6368883656503299E-002  -2.7703875236277979E-002   3.1856580828174913E-002
   7.2310940066791132E-002   0.0000000000000000        4.2835431034227239E-002
   7.4325949074316791E-002  -8.3922863861455397E-003   4.2002874021861168E-002
   7.6340958081842450E-002  -1.4533744986078801E-002   4.2380223821726681E-002
   7.8355967089368123E-002  -1.8424375799799789E-002   4.3967480433823744E-002
   8.0370976096893781E-002  -2.0064178827308484E-002   4.6764643858152335E-002
   5.5013571194829219E-002   0.0000000000000000        3.6489443275302770E-002
   5.6884707199337720E-002  -3.1572365800941297E-003   4.4400844196865928E-002
   5.8755843203846227E-002  -6.2803958431820010E-003   5.0814592300163212E-002
   6.0626979208354727E-002  -9.3694777892636156E-003   5.5730687585194623E-002
   6.2498115212863220E-002  -1.2424482418338970E-002   5.9149130051960118E-002
  0.12273983880245899       -4.2983268054216997E-002  -5.5302757402890257E-003
  0.11716920878381937       -3.6842447248852918E-002  -2.0691468896869708E-003
  0.11159857876517973       -3.2532667580973507E-002   9.2823602689577969E-004
  0.10602794874654008       -3.0053929050578757E-002   3.4618730094590350E-003
  0.10045731872790045       -2.9406231657668785E-002   5.5317640580029304E-003
  0.11049183789169166       -3.5343571645247499E-002   1.4424940962027753E-002
  0.10472645859048237       -3.1384496015237101E-002   1.4790903662989820E-002
   9.8961079289273085E-002  -2.8572798201079507E-002   1.5231113732831963E-002
   9.3195699988063790E-002  -2.6908478202774654E-002   1.5745571171554250E-002
   8.7430320686854496E-002  -2.6391536020322626E-002   1.6334275979156626E-002
   9.6368883656503299E-002  -2.7703875236277979E-002   3.1856580828174913E-002
   9.0946748375623859E-002  -2.5926544781621309E-002   2.9811040701128787E-002
   8.5524613094744420E-002  -2.4612928821185459E-002   2.8377741245862363E-002
   8.0102477813864981E-002  -2.3763027354970524E-002   2.7556682462375550E-002
   7.4680342532985555E-002  -2.3376840382976369E-002   2.7347864350668306E-002
   8.0370976096893781E-002  -2.0064178827308484E-002   4.6764643858152335E-002
   7.5830078139243751E-002  -2.0468593548005509E-002   4.2991264224730076E-002
   7.1289180181593720E-002  -2.0653059441291463E-002   4.0368118565986919E-002
   6.6748282223943661E-002  -2.0617576507166325E-002   3.8895206881922890E-002
   6.2207384266293624E-002  -2.0362144745630147E-002   3.8572529172538061E-002
   6.2498115212863220E-002  -1.2424482418338970E-002   5.9149130051960118E-002
   5.9376447881342095E-002  -1.5010642314389720E-002   5.4331574233793548E-002
   5.6254780549820950E-002  -1.6693190061397460E-002   5.1202245693205660E-002
   5.3133113218299832E-002  -1.7472125659362188E-002   4.9761144430196427E-002
   5.0011445886778694E-002  -1.7347449108283952E-002   5.0008270444765870E-002
  0.10045731872790045       -2.9406231657668785E-002   5.5317640580029304E-003
   9.4395820689843535E-002  -2.9272014030326671E-002   3.7287468651827083E-003
   8.8334322651786631E-002  -2.8333714796635524E-002   2.7443951954142093E-003
   8.2272824613729728E-002  -2.6591333956595194E-002   2.5787090486970032E-003
   7.6211326575672811E-002  -2.4044871510206178E-002   3.2316884250314093E-003
   8.7430320686854496E-002  -2.6391536020322626E-002   1.6334275979156626E-002
   8.2153338455449962E-002  -2.6208257599443507E-002   1.5416194906642186E-002
   7.6876356224045428E-002  -2.5544928885857993E-002   1.5248479924381178E-002
   7.1599373992640894E-002  -2.4401549879565894E-002   1.5831131032373387E-002
   6.6322391761236332E-002  -2.2778120580566941E-002   1.7164148230618875E-002
   7.4680342532985555E-002  -2.3376840382976369E-002   2.7347864350668306E-002
   7.0119576675435211E-002  -2.3144501168560497E-002   2.6990688084817249E-002
   6.5558810817884852E-002  -2.2756142975080513E-002   2.7315578476421350E-002
   6.0998044960334515E-002  -2.2211765802536313E-002   2.8322535525480572E-002
   5.6437279102784177E-002  -2.1511369650927814E-002   3.0011559231994944E-002
   6.2207384266293624E-002  -2.0362144745630147E-002   3.8572529172538061E-002
   5.8294535349799295E-002  -2.0080744737677507E-002   3.8452226399707988E-002
   5.4381686433304967E-002  -1.9967357064303061E-002   3.8945690851534820E-002
   5.0468837516810597E-002  -2.0021981725506791E-002   4.0052922528018543E-002
   4.6555988600316275E-002  -2.0244618721288687E-002   4.1773921429159228E-002
   5.0011445886778694E-002  -1.7347449108283952E-002   5.0008270444765870E-002
   4.6678214478542188E-002  -1.7016988306794489E-002   4.9800809851314312E-002
   4.3344983070305688E-002  -1.7178571153525599E-002   5.0138817049721493E-002
   4.0011751662069203E-002  -1.7832197648477325E-002   5.1022292039987427E-002
   3.6678520253832697E-002  -1.8977867791649505E-002   5.2451234822112169E-002
   7.6211326575672811E-002  -2.4044871510206178E-002   3.2316884250314093E-003
   6.8520475714062445E-002  -2.1741870559245396E-002   7.1237597542273545E-003
   6.0829624852452052E-002  -2.0729874205490550E-002   1.2375721469593814E-002
   5.3138773990841659E-002  -2.1008882448941474E-002   1.8987573571130387E-002
   4.5447923129231294E-002  -2.2578895289598000E-002   2.6959316058837501E-002
   6.6322391761236332E-002  -2.2778120580566941E-002   1.7164148230618875E-002
   5.9968490375795269E-002  -2.1600758423437477E-002   1.9705506218972851E-002
   5.3614588990354234E-002  -2.1795580842752765E-002   2.3560872773494917E-002
   4.7260687604913185E-002  -2.3362587838513103E-002   2.8730247894185400E-002
   4.0906786219472080E-002  -2.6301779410718540E-002   3.5213631581044180E-002
   5.6437279102784177E-002  -2.1511369650927814E-002   3.0011559231994944E-002
   5.1374445373510366E-002  -2.1459646287629378E-002   3.1121023900267442E-002
   4.6311611644236583E-002  -2.2861287480015091E-002   3.3498615314706215E-002
   4.1248777914962731E-002  -2.5716293228084927E-002   3.7144333475311285E-002
   3.6185944185688990E-002  -3.0024663531838969E-002   4.2058178382082478E-002
   4.6555988600316275E-002  -2.0244618721288687E-002   4.1773921429159228E-002
   4.2738340707207736E-002  -2.1318534151821313E-002   4.1370312798111271E-002
   3.8920692814099163E-002  -2.3926994117277417E-002   4.2188949093227499E-002
   3.5103044920990575E-002  -2.8069998617656820E-002   4.4229830314508146E-002
   3.1285397027881988E-002  -3.3747547652959564E-002   4.7492956461952687E-002
   3.6678520253832697E-002  -1.8977867791649505E-002   5.2451234822112169E-002
   3.4060176376887324E-002  -2.1177422016013317E-002   5.0453372912504471E-002
   3.1441832499941938E-002  -2.4992700754539646E-002   4.9631874109058977E-002
   2.8823488622996579E-002  -3.0423704007228537E-002   4.9986738411775630E-002
   2.6205144746051179E-002  -3.7470431774080049E-002   5.1517965820654599E-002
   5.5013571194829219E-002   0.0000000000000000        3.6489443275302770E-002
   5.6884707199337720E-002  -3.1572365800941297E-003   4.4400844196865928E-002
   5.8755843203846227E-002  -6.2803958431820010E-003   5.0814592300163212E-002
   6.0626979208354727E-002  -9.3694777892636156E-003   5.5730687585194623E-002
   6.2498115212863220E-002  -1.2424482418338970E-002   5.9149130051960118E-002
   4.1960428290269219E-002   0.0000000000000000        3.3711952441530156E-002
   4.2591378680796523E-002  -2.3679274350706320E-003   4.1443804956993624E-002
   4.3222329071323826E-002  -4.7102968823865728E-003   4.8192939062760592E-002
   4.3853279461851136E-002  -7.0271083419478249E-003   5.3959354758831034E-002
   4.4484229852378432E-002  -9.3183618137543910E-003   5.8743052045204976E-002
   2.8440452122944382E-002   0.0000000000000000        3.1728030417406822E-002
   2.8346151308059855E-002  -1.5786182900471360E-003   3.9271815197519044E-002
   2.8251850493175332E-002  -3.1401979215911480E-003   4.6347815976504128E-002
   2.8157549678290802E-002  -4.6847388946320402E-003   5.2956032754362052E-002
   2.8063248863406279E-002  -6.2122412091698111E-003   5.9096465531092851E-002
   1.4453642692854691E-002   0.0000000000000000        3.0537677202932764E-002
   1.4149025081127706E-002  -7.8930914502363825E-004   3.7884874918442162E-002
   1.3844407469400724E-002  -1.5700989607957249E-003   4.5279223041393792E-002
   1.3539789857673739E-002  -2.3423694473162526E-003   5.2720721571787636E-002
   1.3235172245946754E-002  -3.1061206045852282E-003   6.0209370509623703E-002
   1.6306400674181987E-016   0.0000000000000000        3.0140892798107985E-002
   8.8470897274817162E-017  -1.4224732503009818E-016   3.7282984119762996E-002
   1.3010426069826053E-017  -2.9490299091605721E-016   4.4987160257429611E-002
  -6.2883726004159257E-017  -4.6664061503776111E-016   5.3253421211107800E-002
  -1.3704315460216776E-016  -6.4705185653934905E-016   6.2081766980797613E-002
   6.2498115212863220E-002  -1.2424482418338970E-002   5.9149130051960118E-002
   5.9376447881342095E-002  -1.5010642314389720E-002   5.4331574233793548E-002
   5.6254780549820950E-002  -1.6693190061397460E-002   5.1202245693205660E-002
   5.3133113218299832E-002  -1.7472125659362188E-002   4.9761144430196427E-002
   5.0011445886778694E-002  -1.7347449108283952E-002   5.0008270444765870E-002
   4.4484229852378432E-002  -9.3183618137543910E-003   5.8743052045204976E-002
   4.2823837187261383E-002  -1.1257981735792479E-002   5.6082108617789075E-002
   4.1163444522144328E-002  -1.2519892546048333E-002   5.4655487245602666E-002
   3.9503051857027287E-002  -1.3104094244521917E-002   5.4463187928645809E-002
   3.7842659191910238E-002  -1.3010586831213283E-002   5.5505210666918325E-002
   2.8063248863406279E-002  -6.2122412091698111E-003   5.9096465531092851E-002
   2.7410225642344143E-002  -7.5053211571952695E-003   5.8366231457166858E-002
   2.6757202421282000E-002  -8.3465950306992297E-003   5.8416414216121204E-002
   2.6104179200219860E-002  -8.7360628296816907E-003   5.9247013807955863E-002
   2.5451155979157720E-002  -8.6737245541426422E-003   6.0858030232670848E-002
   1.3235172245946754E-002  -3.1061206045852282E-003   6.0209370509623703E-002
   1.3135613246590357E-002  -3.7526605785980511E-003   6.1183942751926908E-002
   1.3036054247233954E-002  -4.1732975153501214E-003   6.2485026604761268E-002
   1.2936495247877551E-002  -4.3680314148414074E-003   6.4112622068126734E-002
   1.2836936248521155E-002  -4.3368622770719803E-003   6.6066729142023384E-002
  -1.3704315460216776E-016  -6.4705185653934905E-016   6.2081766980797613E-002
   3.1225022567582528E-017  -8.2486101282697177E-016   6.4535242502069226E-002
   1.9862583799934441E-016  -1.0187163612673800E-015   6.6861324411522816E-002
   3.6559297256211210E-016  -1.1879603203923672E-015   6.9060012709158416E-002
   5.3429483060085659E-016  -1.3461454173580023E-015   7.1131307394975959E-002
   5.0011445886778694E-002  -1.7347449108283952E-002   5.0008270444765870E-002
   4.6678214478542188E-002  -1.7016988306794489E-002   4.9800809851314312E-002
   4.3344983070305688E-002  -1.7178571153525599E-002   5.0138817049721493E-002
   4.0011751662069203E-002  -1.7832197648477325E-002   5.1022292039987427E-002
   3.6678520253832697E-002  -1.8977867791649505E-002   5.2451234822112169E-002
   3.7842659191910238E-002  -1.3010586831213283E-002   5.5505210666918325E-002
   3.5126855590582581E-002  -1.2762741230096214E-002   5.4716455378439818E-002
   3.2411051989254931E-002  -1.2883928365144581E-002   5.4617087911920312E-002
   2.9695248387927274E-002  -1.3374148236358335E-002   5.5207108267359750E-002
   2.6979444786599631E-002  -1.4233400843737518E-002   5.6486516444758064E-002
   2.5451155979157720E-002  -8.6737245541426422E-003   6.0858030232670848E-002
   2.3496700214839121E-002  -8.5084941533979663E-003   5.9610991161220594E-002
   2.1542244450520519E-002  -8.5892855767635765E-003   5.9197259941829429E-002
   1.9587788686201920E-002  -8.9160988242393841E-003   5.9616836574497484E-002
   1.7633332921883321E-002  -9.4889338958254743E-003   6.0869721059224655E-002
   1.2836936248521155E-002  -4.3368622770719803E-003   6.6066729142023384E-002
   1.1787748351311808E-002  -4.2542470766997187E-003   6.4484417199656488E-002
   1.0738560454102463E-002  -4.2946427883825376E-003   6.3879333139448949E-002
   9.6893725568931149E-003  -4.4580494121204831E-003   6.4251476961400752E-002
   8.6401846596837698E-003  -4.7444669479134449E-003   6.5600848665511954E-002
   5.3429483060085659E-016  -1.3461454173580023E-015   7.1131307394975959E-002
   6.4705185653934905E-016  -1.4432899320127035E-015   6.9336733493747582E-002
   7.5633943552588789E-016  -1.5577816814271728E-015   6.8663307504778809E-002
   8.6996382320236876E-016  -1.4927295510780425E-015   6.9111029428069529E-002
   9.7838404045091920E-016  -1.4432899320127035E-015   7.0679899263619839E-002
   3.6678520253832697E-002  -1.8977867791649505E-002   5.2451234822112169E-002
   3.4060176376887324E-002  -2.1177422016013317E-002   5.0453372912504471E-002
   3.1441832499941938E-002  -2.4992700754539646E-002   4.9631874109058977E-002
   2.8823488622996579E-002  -3.0423704007228537E-002   4.9986738411775630E-002
   2.6205144746051179E-002  -3.7470431774080049E-002   5.1517965820654599E-002
   2.6979444786599631E-002  -1.4233400843737518E-002   5.6486516444758064E-002
   2.5407019731585011E-002  -1.5883066512010255E-002   5.3297414903543602E-002
   2.3834594676570373E-002  -1.8744525565905026E-002   5.1023787900028365E-002
   2.2262169621555736E-002  -2.2817778005421584E-002   4.9665635434212541E-002
   2.0689744566541102E-002  -2.8102823830560064E-002   4.9222957506096066E-002
   1.7633332921883321E-002  -9.4889338958254743E-003   6.0869721059224655E-002
   1.6845938120336600E-002  -1.0588711008007269E-002   5.6893311014943951E-002
   1.6058543318789902E-002  -1.2496350377270378E-002   5.3571486939899694E-002
   1.5271148517243184E-002  -1.5211852003614546E-002   5.0904248834092003E-002
   1.4483753715696476E-002  -1.8735215887040080E-002   4.8891596697520773E-002
   8.6401846596837698E-003  -4.7444669479134449E-003   6.5600848665511954E-002
   8.3769315431421361E-003  -5.2943555040042452E-003   6.1241061246705662E-002
   8.1136784266005076E-003  -6.2481751886356886E-003   5.7274971228673185E-002
   7.8504253100588946E-003  -7.6059260018076060E-003   5.3702578611414045E-002
   7.5871721935172436E-003  -9.3676079435200954E-003   5.0523883394928949E-002
   9.7838404045091920E-016  -1.4432899320127035E-015   7.0679899263619839E-002
   1.6063539387545234E-015  -1.2490009027033011E-015   6.6340665598828688E-002
   2.2239154962022667E-015  -1.0963452368173421E-015   6.2134240766348436E-002
   2.8484159475539172E-015  -5.5164206536062466E-016   5.8060624766178945E-002
   3.4694469519536142E-015  -1.1102230246251565E-016   5.4119817598320297E-002
   1.6306400674181987E-016   0.0000000000000000        3.0140892798107985E-002
   8.8470897274817162E-017  -1.4224732503009818E-016   3.7282984119762996E-002
   1.3010426069826053E-017  -2.9490299091605721E-016   4.4987160257429611E-002
  -6.2883726004159257E-017  -4.6664061503776111E-016   5.3253421211107800E-002
  -1.3704315460216776E-016  -6.4705185653934905E-016   6.2081766980797613E-002
  -1.4453642692854351E-002   0.0000000000000000        3.0537677202932496E-002
  -1.4149025081127524E-002   7.8930914502338152E-004   3.7884874918441912E-002
  -1.3844407469400704E-002   1.5700989607952097E-003   4.5279223041393528E-002
  -1.3539789857673882E-002   2.3423694473154837E-003   5.2720721571787338E-002
  -1.3235172245947058E-002   3.1061206045842026E-003   6.0209370509623349E-002
  -2.8440452122943986E-002   0.0000000000000000        3.1728030417406301E-002
  -2.8346151308059658E-002   1.5786182900469066E-003   3.9271815197518566E-002
  -2.8251850493175325E-002   3.1401979215907195E-003   4.6347815976503642E-002
  -2.8157549678291000E-002   4.6847388946314383E-003   5.2956032754361525E-002
  -2.8063248863406672E-002   6.2122412091690600E-003   5.9096465531092233E-002
  -4.1960428290268741E-002   0.0000000000000000        3.3711952441529400E-002
  -4.2591378680796294E-002   2.3679274350704316E-003   4.1443804956992986E-002
  -4.3222329071323860E-002   4.7102968823862284E-003   4.8192939062760003E-002
  -4.3853279461851420E-002   7.0271083419473929E-003   5.3959354758830402E-002
  -4.4484229852378966E-002   9.3183618137539139E-003   5.8743052045204268E-002
  -5.5013571194828630E-002   0.0000000000000000        3.6489443275301799E-002
  -5.6884707199337456E-002   3.1572365800939545E-003   4.4400844196865158E-002
  -5.8755843203846289E-002   6.2803958431817356E-003   5.0814592300162539E-002
  -6.0626979208355122E-002   9.3694777892633450E-003   5.5730687585193957E-002
  -6.2498115212863969E-002   1.2424482418338769E-002   5.9149130051959389E-002
  -1.3704315460216776E-016  -6.4705185653934905E-016   6.2081766980797613E-002
   3.1225022567582528E-017  -8.2486101282697177E-016   6.4535242502069226E-002
   1.9862583799934441E-016  -1.0187163612673800E-015   6.6861324411522816E-002
   3.6559297256211210E-016  -1.1879603203923672E-015   6.9060012709158416E-002
   5.3429483060085659E-016  -1.3461454173580023E-015   7.1131307394975959E-002
  -1.3235172245947058E-002   3.1061206045842026E-003   6.0209370509623349E-002
  -1.3135613246590310E-002   3.7526605785967405E-003   6.1183942751926464E-002
  -1.3036054247233560E-002   4.1732975153484951E-003   6.2485026604760796E-002
  -1.2936495247876805E-002   4.3680314148394394E-003   6.4112622068126249E-002
  -1.2836936248520064E-002   4.3368622770695586E-003   6.6066729142022954E-002
  -2.8063248863406672E-002   6.2122412091690600E-003   5.9096465531092233E-002
  -2.7410225642344150E-002   7.5053211571943328E-003   5.8366231457166060E-002
  -2.6757202421281618E-002   8.3465950306979876E-003   5.8416414216120267E-002
  -2.6104179200219089E-002   8.7360628296800531E-003   5.9247013807954857E-002
  -2.5451155979156568E-002   8.6737245541404981E-003   6.0858030232669835E-002
  -4.4484229852378966E-002   9.3183618137539139E-003   5.8743052045204268E-002
  -4.2823837187261481E-002   1.1257981735791912E-002   5.6082108617787986E-002
  -4.1163444522143974E-002   1.2519892546047502E-002   5.4655487245601264E-002
  -3.9503051857026475E-002   1.3104094244520701E-002   5.4463187928644130E-002
  -3.7842659191908969E-002   1.3010586831211434E-002   5.5505210666916584E-002
  -6.2498115212863969E-002   1.2424482418338769E-002   5.9149130051959389E-002
  -5.9376447881342304E-002   1.5010642314389491E-002   5.4331574233792215E-002
  -5.6254780549820624E-002   1.6693190061396995E-002   5.1202245693203800E-002
  -5.3133113218298958E-002   1.7472125659361279E-002   4.9761144430194137E-002
  -5.0011445886777278E-002   1.7347449108282342E-002   5.0008270444763248E-002
   5.3429483060085659E-016  -1.3461454173580023E-015   7.1131307394975959E-002
   6.4705185653934905E-016  -1.4432899320127035E-015   6.9336733493747582E-002
   7.5633943552588789E-016  -1.5577816814271728E-015   6.8663307504778809E-002
   8.6996382320236876E-016  -1.4927295510780425E-015   6.9111029428069529E-002
   9.7838404045091920E-016  -1.4432899320127035E-015   7.0679899263619839E-002
  -1.2836936248520064E-002   4.3368622770695586E-003   6.6066729142022954E-002
  -1.1787748351310490E-002   4.2542470766969501E-003   6.4484417199656252E-002
  -1.0738560454100921E-002   4.2946427883795886E-003   6.3879333139448866E-002
  -9.6893725568913507E-003   4.4580494121175237E-003   6.4251476961400933E-002
  -8.6401846596817801E-003   4.7444669479107388E-003   6.5600848665512301E-002
  -2.5451155979156568E-002   8.6737245541404981E-003   6.0858030232669835E-002
  -2.3496700214837740E-002   8.5084941533953851E-003   5.9610991161219984E-002
  -2.1542244450518895E-002   8.5892855767607506E-003   5.9197259941829325E-002
  -1.9587788686200057E-002   8.9160988242365825E-003   5.9616836574497810E-002
  -1.7633332921881226E-002   9.4889338958228930E-003   6.0869721059225543E-002
  -3.7842659191908969E-002   1.3010586831211434E-002   5.5505210666916584E-002
  -3.5126855590581076E-002   1.2762741230093813E-002   5.4716455378438833E-002
  -3.2411051989253176E-002   1.2883928365141878E-002   5.4617087911920069E-002
  -2.9695248387925283E-002   1.3374148236355661E-002   5.5207108267360271E-002
  -2.6979444786597376E-002   1.4233400843735075E-002   5.6486516444759383E-002
  -5.0011445886777278E-002   1.7347449108282342E-002   5.0008270444763248E-002
  -4.6678214478540536E-002   1.7016988306792255E-002   4.9800809851312799E-002
  -4.3344983070303753E-002   1.7178571153523045E-002   5.0138817049721091E-002
  -4.0011751662066997E-002   1.7832197648474667E-002   5.1022292039988204E-002
  -3.6678520253830220E-002   1.8977867791647229E-002   5.2451234822114029E-002
   9.7838404045091920E-016  -1.4432899320127035E-015   7.0679899263619839E-002
   1.6063539387545234E-015  -1.2490009027033011E-015   6.6340665598828688E-002
   2.2239154962022667E-015  -1.0963452368173421E-015   6.2134240766348436E-002
   2.8484159475539172E-015  -5.5164206536062466E-016   5.8060624766178945E-002
   3.4694469519536142E-015  -1.1102230246251565E-016   5.4119817598320297E-002
  -8.6401846596817801E-003   4.7444669479107388E-003   6.5600848665512301E-002
  -8.3769315431390864E-003   5.2943555040018409E-003   6.1241061246706141E-002
  -8.1136784265963911E-003   6.2481751886337526E-003   5.7274971228673227E-002
  -7.8504253100536957E-003   7.6059260018064038E-003   5.3702578611413705E-002
  -7.5871721935110020E-003   9.3676079435195958E-003   5.0523883394927360E-002
  -1.7633332921881226E-002   9.4889338958228930E-003   6.0869721059225543E-002
  -1.6845938120333991E-002   1.0588711008005056E-002   5.6893311014944825E-002
  -1.6058543318786742E-002   1.2496350377268491E-002   5.3571486939899902E-002
  -1.5271148517239506E-002   1.5211852003613304E-002   5.0904248834090851E-002
  -1.4483753715692257E-002   1.8735215887039247E-002   4.8891596697517498E-002
  -2.6979444786597376E-002   1.4233400843735075E-002   5.6486516444759383E-002
  -2.5407019731583106E-002   1.5883066512008208E-002   5.3297414903544817E-002
  -2.3834594676568836E-002   1.8744525565903340E-002   5.1023787900028504E-002
  -2.2262169621554584E-002   2.2817778005420203E-002   4.9665635434210327E-002
  -2.0689744566540307E-002   2.8102823830558871E-002   4.9222957506090625E-002
  -3.6678520253830220E-002   1.8977867791647229E-002   5.2451234822114029E-002
  -3.4060176376886450E-002   2.1177422016011360E-002   5.0453372912506095E-002
  -3.1441832499942687E-002   2.4992700754538022E-002   4.9631874109058893E-002
  -2.8823488622998897E-002   3.0423704007227215E-002   4.9986738411772536E-002
  -2.6205144746055148E-002   3.7470431774078605E-002   5.1517965820646827E-002
  -5.5013571194828630E-002   0.0000000000000000        3.6489443275301799E-002
  -5.6884707199337456E-002   3.1572365800939545E-003   4.4400844196865158E-002
  -5.8755843203846289E-002   6.2803958431817356E-003   5.0814592300162539E-002
  -6.0626979208355122E-002   9.3694777892633450E-003   5.5730687585193957E-002
  -6.2498115212863969E-002   1.2424482418338769E-002   5.9149130051959389E-002
  -7.2310940066790397E-002   0.0000000000000000        4.2835431034226178E-002
  -7.4325949074316458E-002   8.3922863861455692E-003   4.2002874021860405E-002
  -7.6340958081842492E-002   1.4533744986078850E-002   4.2380223821726168E-002
  -7.8355967089368525E-002   1.8424375799799844E-002   4.3967480433823494E-002
  -8.0370976096894586E-002   2.0064178827308543E-002   4.6764643858152349E-002
  -9.8563594136320834E-002   0.0000000000000000        5.5524843833805237E-002
  -9.8014916516366582E-002   1.3627336192197192E-002   4.3731578418304204E-002
  -9.7466238896412344E-002   2.2787094128975970E-002   3.5855779445532254E-002
  -9.6917561276458078E-002   2.7479273810336352E-002   3.1897446915489354E-002
  -9.6368883656503812E-002   2.7703875236278319E-002   3.1856580828175503E-002
 -0.13377153340341993        0.0000000000000000        7.4557681674038950E-002
 -0.12795160952548787        1.8862385998248798E-002   4.9586957386196583E-002
 -0.12213168564755578        3.1040443271873080E-002   3.1241259171580767E-002
 -0.11631176176962373        3.6534171820872853E-002   1.9520587030191543E-002
 -0.11049183789169165        3.5343571645248074E-002   1.4424940962028877E-002
 -0.17793475786808766        0.0000000000000000        9.9933944554927365E-002
 -0.16413602810168026        2.4097435804300425E-002   5.9569010925537499E-002
 -0.15033729833527287        3.9293792414770198E-002   2.8536662999871752E-002
 -0.13653856856886545        4.5589069831409354E-002   6.8369007779300536E-003
 -0.12273983880245806        4.2983268054217857E-002  -5.5302757402875408E-003
  -6.2498115212863969E-002   1.2424482418338769E-002   5.9149130051959389E-002
  -5.9376447881342304E-002   1.5010642314389491E-002   5.4331574233792215E-002
  -5.6254780549820624E-002   1.6693190061396995E-002   5.1202245693203800E-002
  -5.3133113218298958E-002   1.7472125659361279E-002   4.9761144430194137E-002
  -5.0011445886777278E-002   1.7347449108282342E-002   5.0008270444763248E-002
  -8.0370976096894586E-002   2.0064178827308543E-002   4.6764643858152349E-002
  -7.5830078139243987E-002   2.0468593548005450E-002   4.2991264224729500E-002
  -7.1289180181593387E-002   2.0653059441291088E-002   4.0368118565985739E-002
  -6.6748282223942759E-002   2.0617576507165444E-002   3.8895206881921100E-002
  -6.2207384266292166E-002   2.0362144745628544E-002   3.8572529172535563E-002
  -9.6368883656503812E-002   2.7703875236278319E-002   3.1856580828175503E-002
  -9.0946748375623943E-002   2.5926544781621409E-002   2.9811040701128912E-002
  -8.5524613094744031E-002   2.4612928821185168E-002   2.8377741245861773E-002
  -8.0102477813864162E-002   2.3763027354969608E-002   2.7556682462374110E-002
  -7.4680342532984237E-002   2.3376840382974717E-002   2.7347864350665815E-002
 -0.11049183789169165        3.5343571645248074E-002   1.4424940962028877E-002
 -0.10472645859048212        3.1384496015237358E-002   1.4790903662990513E-002
  -9.8961079289272613E-002   2.8572798201079296E-002   1.5231113732831944E-002
  -9.3195699988063083E-002   2.6908478202773759E-002   1.5745571171553167E-002
  -8.7430320686853566E-002   2.6391536020320891E-002   1.6334275979154184E-002
 -0.12273983880245806        4.2983268054217857E-002  -5.5302757402875408E-003
 -0.11716920878381856        3.6842447248853320E-002  -2.0691468896857287E-003
 -0.11159857876517909        3.2532667580973285E-002   9.2823602689614745E-004
 -0.10602794874653962        3.0053929050577910E-002   3.4618730094582847E-003
 -0.10045731872790012        2.9406231657667092E-002   5.5317640580004324E-003
  -5.0011445886777278E-002   1.7347449108282342E-002   5.0008270444763248E-002
  -4.6678214478540536E-002   1.7016988306792255E-002   4.9800809851312799E-002
  -4.3344983070303753E-002   1.7178571153523045E-002   5.0138817049721091E-002
  -4.0011751662066997E-002   1.7832197648474667E-002   5.1022292039988204E-002
  -3.6678520253830220E-002   1.8977867791647229E-002   5.2451234822114029E-002
  -6.2207384266292166E-002   2.0362144745628544E-002   3.8572529172535563E-002
  -5.8294535349797567E-002   2.0080744737675266E-002   3.8452226399706677E-002
  -5.4381686433302968E-002   1.9967357064300504E-002   3.8945690851534639E-002
  -5.0468837516808404E-002   2.0021981725504366E-002   4.0052922528019466E-002
  -4.6555988600313784E-002   2.0244618721286800E-002   4.1773921429161226E-002
  -7.4680342532984237E-002   2.3376840382974717E-002   2.7347864350665815E-002
  -7.0119576675433740E-002   2.3144501168558283E-002   2.6990688084816191E-002
  -6.5558810817883215E-002   2.2756142975078046E-002   2.7315578476421590E-002
  -6.0998044960332676E-002   2.2211765802534152E-002   2.8322535525481935E-002
  -5.6437279102782179E-002   2.1511369650926482E-002   3.0011559231997248E-002
  -8.7430320686853566E-002   2.6391536020320891E-002   1.6334275979154184E-002
  -8.2153338455448990E-002   2.6208257599441270E-002   1.5416194906641364E-002
  -7.6876356224044415E-002   2.5544928885855630E-002   1.5248479924381818E-002
  -7.1599373992639867E-002   2.4401549879563975E-002   1.5831131032375365E-002
  -6.6322391761235278E-002   2.2778120580566150E-002   1.7164148230621921E-002
 -0.10045731872790012        2.9406231657667092E-002   5.5317640580004324E-003
  -9.4395820689843368E-002   2.9272014030324367E-002   3.7287468651823197E-003
  -8.8334322651786631E-002   2.8333714796633103E-002   2.7443951954155207E-003
  -8.2272824613729895E-002   2.6591333956593632E-002   2.5787090486997909E-003
  -7.6211326575673144E-002   2.4044871510205734E-002   3.2316884250353783E-003
  -3.6678520253830220E-002   1.8977867791647229E-002   5.2451234822114029E-002
  -3.4060176376886450E-002   2.1177422016011360E-002   5.0453372912506095E-002
  -3.1441832499942687E-002   2.4992700754538022E-002   4.9631874109058893E-002
  -2.8823488622998897E-002   3.0423704007227215E-002   4.9986738411772536E-002
  -2.6205144746055148E-002   3.7470431774078605E-002   5.1517965820646827E-002
  -4.6555988600313784E-002   2.0244618721286800E-002   4.1773921429161226E-002
  -4.2738340707207403E-002   2.1318534151819765E-002   4.1370312798112971E-002
  -3.8920692814101029E-002   2.3926994117275419E-002   4.2188949093229108E-002
  -3.5103044920994655E-002   2.8069998617653344E-002   4.4229830314509763E-002
  -3.1285397027888268E-002   3.3747547652954013E-002   4.7492956461954949E-002
  -5.6437279102782179E-002   2.1511369650926482E-002   3.0011559231997248E-002
  -5.1374445373509416E-002   2.1459646287628253E-002   3.1121023900268663E-002
  -4.6311611644236632E-002   2.2861287480012621E-002   3.3498615314708269E-002
  -4.1248777914963806E-002   2.5716293228079529E-002   3.7144333475316177E-002
  -3.6185944185691071E-002   3.0024663531829310E-002   4.2058178382092304E-002
  -6.6322391761235278E-002   2.2778120580566150E-002   1.7164148230621921E-002
  -5.9968490375792362E-002   2.1600758423436631E-002   1.9705506218973122E-002
  -5.3614588990349460E-002   2.1795580842750059E-002   2.3560872773496156E-002
  -4.7260687604906593E-002   2.3362587838505963E-002   2.8730247894191423E-002
  -4.0906786219463628E-002   2.6301779410704607E-002   3.5213631581058578E-002
  -7.6211326575673144E-002   2.4044871510205734E-002   3.2316884250353783E-003
  -6.8520475714056367E-002   2.1741870559245091E-002   7.1237597542264108E-003
  -6.0829624852439562E-002   2.0729874205487192E-002   1.2375721469593239E-002
  -5.3138773990822757E-002   2.1008882448932002E-002   1.8987573571135848E-002
  -4.5447923129205980E-002   2.2578895289580014E-002   2.6959316058854155E-002
 </DataArray>
 </PointData>
 </Piece>
 <Piece  NumberOfPoints="           400 "  NumberOfCells="          256 ">
 <Points>
 <DataArray  type="Float64" NumberOfComponents="3"  format="ascii" >
  0.50000000000000000        0.0000000000000000        0.0000000000000000     
  0.56250000000000000        0.0000000000000000        0.0000000000000000     
  0.62500000000000000        0.0000000000000000        0.0000000000000000     
  0.68750000000000000        0.0000000000000000        0.0000000000000000     
  0.75000000000000000        0.0000000000000000        0.0000000000000000     
  0.50000000000000000        6.2500000000000000E-002   0.0000000000000000     
  0.56250000000000000        6.2500000000000000E-002   0.0000000000000000     
  0.62500000000000000        6.2500000000000000E-002   0.0000000000000000     
  0.68750000000000000        6.2500000000000000E-002   0.0000000000000000     
  0.75000000000000000        6.2500000000000000E-002   0.0000000000000000     
  0.50000000000000000       0.12500000000000000        0.0000000000000000     
  0.56250000000000000       0.12500000000000000        0.0000000000000000     
  0.62500000000000000       0.12500000000000000        0.0000000000000000     
  0.68750000000000000       0.12500000000000000        0.0000000000000000     
  0.75000000000000000       0.12500000000000000        0.0000000000000000     
  0.50000000000000000       0.18750000000000000        0.0000000000000000     
  0.56250000000000000       0.18750000000000000        0.0000000000000000     
  0.62500000000000000       0.18750000000000000        0.0000000000000000     
  0.68750000000000000       0.18750000000000000        0.0000000000000000     
  0.75000000000000000       0.18750000000000000        0.0000000000000000     
  0.50000000000000000       0.25000000000000000        0.0000000000000000     
  0.56250000000000000       0.25000000000000000        0.0000000000000000     
  0.62500000000000000       0.25000000000000000        0.0000000000000000     
  0.68750000000000000       0.25000000000000000        0.0000000000000000     
  0.75000000000000000       0.25000000000000000        0.0000000000000000     
  0.75000000000000000        0.0000000000000000        0.0000000000000000     
  0.81250000000000000        0.0000000000000000        0.0000000000000000     
  0.87500000000000000        0.0000000000000000        0.0000000000000000     
  0.93750000000000000        0.0000000000000000        0.0000000000000000     
   1.0000000000000000        0.0000000000000000        0.0000000000000000     
  0.75000000000000000        6.2500000000000000E-002   0.0000000000000000     
  0.81250000000000000        6.2500000000000000E-002   0.0000000000000000     
  0.87500000000000000        6.2500000000000000E-002   0.0000000000000000     
  0.93750000000000000        6.2500000000000000E-002   0.0000000000000000     
   1.0000000000000000        6.2500000000000000E-002   0.0000000000000000     
  0.75000000000000000       0.12500000000000000        0.0000000000000000     
  0.81250000000000000       0.12500000000000000        0.0000000000000000     
  0.87500000000000000       0.12500000000000000        0.0000000000000000     
  0.93750000000000000       0.12500000000000000        0.0000000000000000     
   1.0000000000000000       0.12500000000000000        0.0000000000000000     
  0.75000000000000000       0.18750000000000000        0.0000000000000000     
  0.81250000000000000       0.18750000000000000        0.0000000000000000     
  0.87500000000000000       0.18750000000000000        0.0000000000000000     
  0.93750000000000000       0.18750000000000000        0.0000000000000000     
   1.0000000000000000       0.18750000000000000        0.0000000000000000     
  0.75000000000000000       0.25000000000000000        0.0000000000000000     
  0.81250000000000000       0.25000000000000000        0.0000000000000000     
  0.87500000000000000       0.25000000000000000        0.0000000000000000     
  0.93750000000000000       0.25000000000000000        0.0000000000000000     
   1.0000000000000000       0.25000000000000000        0.0000000000000000     
   1.0000000000000000        0.0000000000000000        0.0000000000000000     
   1.0625000000000000        0.0000000000000000        0.0000000000000000     
   1.1250000000000000        0.0000000000000000        0.0000000000000000     
   1.1875000000000000        0.0000000000000000        0.0000000000000000     
   1.2500000000000000        0.0000000000000000        0.0000000000000000     
   1.0000000000000000        6.2500000000000000E-002   0.0000000000000000     
   1.0625000000000000        6.2500000000000000E-002   0.0000000000000000     
   1.1250000000000000        6.2500000000000000E-002   0.0000000000000000     
   1.1875000000000000        6.2500000000000000E-002   0.0000000000000000     
   1.2500000000000000        6.2500000000000000E-002   0.0000000000000000     
   1.0000000000000000       0.12500000000000000        0.0000000000000000     
   1.0625000000000000       0.12500000000000000        0.0000000000000000     
   1.1250000000000000       0.12500000000000000        0.0000000000000000     
   1.1875000000000000       0.12500000000000000        0.0000000000000000     
   1.2500000000000000       0.12500000000000000        0.0000000000000000     
   1.0000000000000000       0.18750000000000000        0.0000000000000000     
   1.0625000000000000       0.18750000000000000        0.0000000000000000     
   1.1250000000000000       0.18750000000000000        0.0000000000000000     
   1.1875000000000000       0.18750000000000000        0.0000000000000000     
   1.2500000000000000       0.18750000000000000        0.0000000000000000     
   1.0000000000000000       0.25000000000000000        0.0000000000000000     
   1.0625000000000000       0.25000000000000000        0.0000000000000000     
   1.1250000000000000       0.25000000000000000        0.0000000000000000     
   1.1875000000000000       0.25000000000000000        0.0000000000000000     
   1.2500000000000000       0.25000000000000000        0.0000000000000000     
   1.2500000000000000        0.0000000000000000        0.0000000000000000     
   1.3125000000000000        0.0000000000000000        0.0000000000000000     
   1.3750000000000000        0.0000000000000000        0.0000000000000000     
   1.4375000000000000        0.0000000000000000        0.0000000000000000     
   1.5000000000000000        0.0000000000000000        0.0000000000000000     
   1.2500000000000000        6.2500000000000000E-002   0.0000000000000000     
   1.3125000000000000        6.2500000000000000E-002   0.0000000000000000     
   1.3750000000000000        6.2500000000000000E-002   0.0000000000000000     
   1.4375000000000000        6.2500000000000000E-002   0.0000000000000000     
   1.5000000000000000        6.2500000000000000E-002   0.0000000000000000     
   1.2500000000000000       0.12500000000000000        0.0000000000000000     
   1.3125000000000000       0.12500000000000000        0.0000000000000000     
   1.3750000000000000       0.12500000000000000        0.0000000000000000     
   1.4375000000000000       0.12500000000000000        0.0000000000000000     
   1.5000000000000000       0.12500000000000000        0.0000000000000000     
   1.2500000000000000       0.18750000000000000        0.0000000000000000     
   1.3125000000000000       0.18750000000000000        0.0000000000000000     
   1.3750000000000000       0.18750000000000000        0.0000000000000000     
   1.4375000000000000       0.18750000000000000        0.0000000000000000     
   1.5000000000000000       0.18750000000000000        0.0000000000000000     
   1.2500000000000000       0.25000000000000000        0.0000000000000000     
   1.3125000000000000       0.25000000000000000        0.0000000000000000     
   1.3750000000000000       0.25000000000000000        0.0000000000000000     
   1.4375000000000000       0.25000000000000000        0.0000000000000000     
   1.5000000000000000       0.25000000000000000        0.0000000000000000     
  0.50000000000000000       0.25000000000000000        0.0000000000000000     
  0.56250000000000000       0.25000000000000000        0.0000000000000000     
  0.62500000000000000       0.25000000000000000        0.0000000000000000     
  0.68750000000000000       0.25000000000000000        0.0000000000000000     
  0.75000000000000000       0.25000000000000000        0.0000000000000000     
  0.50000000000000000       0.31250000000000000        0.0000000000000000     
  0.56250000000000000       0.31250000000000000        0.0000000000000000     
  0.62500000000000000       0.31250000000000000        0.0000000000000000     
  0.68750000000000000       0.31250000000000000        0.0000000000000000     
  0.75000000000000000       0.31250000000000000        0.0000000000000000     
  0.50000000000000000       0.37500000000000000        0.0000000000000000     
  0.56250000000000000       0.37500000000000000        0.0000000000000000     
  0.62500000000000000       0.37500000000000000        0.0000000000000000     
  0.68750000000000000       0.37500000000000000        0.0000000000000000     
  0.75000000000000000       0.37500000000000000        0.0000000000000000     
  0.50000000000000000       0.43750000000000000        0.0000000000000000     
  0.56250000000000000       0.43750000000000000        0.0000000000000000     
  0.62500000000000000       0.43750000000000000        0.0000000000000000     
  0.68750000000000000       0.43750000000000000        0.0000000000000000     
  0.75000000000000000       0.43750000000000000        0.0000000000000000     
  0.50000000000000000       0.50000000000000000        0.0000000000000000     
  0.56250000000000000       0.50000000000000000        0.0000000000000000     
  0.62500000000000000       0.50000000000000000        0.0000000000000000     
  0.68750000000000000       0.50000000000000000        0.0000000000000000     
  0.75000000000000000       0.50000000000000000        0.0000000000000000     
  0.75000000000000000       0.25000000000000000        0.0000000000000000     
  0.81250000000000000       0.25000000000000000        0.0000000000000000     
  0.87500000000000000       0.25000000000000000        0.0000000000000000     
  0.93750000000000000       0.25000000000000000        0.0000000000000000     
   1.0000000000000000       0.25000000000000000        0.0000000000000000     
  0.75000000000000000       0.31250000000000000        0.0000000000000000     
  0.81250000000000000       0.31250000000000000        0.0000000000000000     
  0.87500000000000000       0.31250000000000000        0.0000000000000000     
  0.93750000000000000       0.31250000000000000        0.0000000000000000     
   1.0000000000000000       0.31250000000000000        0.0000000000000000     
  0.75000000000000000       0.37500000000000000        0.0000000000000000     
  0.81250000000000000       0.37500000000000000        0.0000000000000000     
  0.87500000000000000       0.37500000000000000        0.0000000000000000     
  0.93750000000000000       0.37500000000000000        0.0000000000000000     
   1.0000000000000000       0.37500000000000000        0.0000000000000000     
  0.75000000000000000       0.43750000000000000        0.0000000000000000     
  0.81250000000000000       0.43750000000000000        0.0000000000000000     
  0.87500000000000000       0.43750000000000000        0.0000000000000000     
  0.93750000000000000       0.43750000000000000        0.0000000000000000     
   1.0000000000000000       0.43750000000000000        0.0000000000000000     
  0.75000000000000000       0.50000000000000000        0.0000000000000000     
  0.81250000000000000       0.50000000000000000        0.0000000000000000     
  0.87500000000000000       0.50000000000000000        0.0000000000000000     
  0.93750000000000000       0.50000000000000000        0.0000000000000000     
   1.0000000000000000       0.50000000000000000        0.0000000000000000     
   1.0000000000000000       0.25000000000000000        0.0000000000000000     
   1.0625000000000000       0.25000000000000000        0.0000000000000000     
   1.1250000000000000       0.25000000000000000        0.0000000000000000     
   1.1875000000000000       0.25000000000000000        0.0000000000000000     
   1.2500000000000000       0.25000000000000000        0.0000000000000000     
   1.0000000000000000       0.31250000000000000        0.0000000000000000     
   1.0625000000000000       0.31250000000000000        0.0000000000000000     
   1.1250000000000000       0.31250000000000000        0.0000000000000000     
   1.1875000000000000       0.31250000000000000        0.0000000000000000     
   1.2500000000000000       0.31250000000000000        0.0000000000000000     
   1.0000000000000000       0.37500000000000000        0.0000000000000000     
   1.0625000000000000       0.37500000000000000        0.0000000000000000     
   1.1250000000000000       0.37500000000000000        0.0000000000000000     
   1.1875000000000000       0.37500000000000000        0.0000000000000000     
   1.2500000000000000       0.37500000000000000        0.0000000000000000     
   1.0000000000000000       0.43750000000000000        0.0000000000000000     
   1.0625000000000000       0.43750000000000000        0.0000000000000000     
   1.1250000000000000       0.43750000000000000        0.0000000000000000     
   1.1875000000000000       0.43750000000000000        0.0000000000000000     
   1.2500000000000000       0.43750000000000000        0.0000000000000000     
   1.0000000000000000       0.50000000000000000        0.0000000000000000     
   1.0625000000000000       0.50000000000000000        0.0000000000000000     
   1.1250000000000000       0.50000000000000000        0.0000000000000000     
   1.1875000000000000       0.50000000000000000        0.0000000000000000     
   1.2500000000000000       0.50000000000000000        0.0000000000000000     
   1.2500000000000000       0.25000000000000000        0.0000000000000000     
   1.3125000000000000       0.25000000000000000        0.0000000000000000     
   1.3750000000000000       0.25000000000000000        0.0000000000000000     
   1.4375000000000000       0.25000000000000000        0.0000000000000000     
   1.5000000000000000       0.25000000000000000        0.0000000000000000     
   1.2500000000000000       0.31250000000000000        0.0000000000000000     
   1.3125000000000000       0.31250000000000000        0.0000000000000000     
   1.3750000000000000       0.31250000000000000        0.0000000000000000     
   1.4375000000000000       0.31250000000000000        0.0000000000000000     
   1.5000000000000000       0.31250000000000000        0.0000000000000000     
   1.2500000000000000       0.37500000000000000        0.0000000000000000     
   1.3125000000000000       0.37500000000000000        0.0000000000000000     
   1.3750000000000000       0.37500000000000000        0.0000000000000000     
   1.4375000000000000       0.37500000000000000        0.0000000000000000     
   1.5000000000000000       0.37500000000000000        0.0000000000000000     
   1.2500000000000000       0.43750000000000000        0.0000000000000000     
   1.3125000000000000       0.43750000000000000        0.0000000000000000     
   1.3750000000000000       0.43750000000000000        0.0000000000000000     
   1.4375000000000000       0.43750000000000000        0.0000000000000000     
   1.5000000000000000       0.43750000000000000        0.0000000000000000     
   1.2500000000000000       0.50000000000000000        0.0000000000000000     
   1.3125000000000000       0.50000000000000000        0.0000000000000000     
   1.3750000000000000       0.50000000000000000        0.0000000000000000     
   1.4375000000000000       0.50000000000000000        0.0000000000000000     
   1.5000000000000000       0.50000000000000000        0.0000000000000000     
  0.50000000000000000       0.50000000000000000        0.0000000000000000     
  0.56250000000000000       0.50000000000000000        0.0000000000000000     
  0.62500000000000000       0.50000000000000000        0.0000000000000000     
  0.68750000000000000       0.50000000000000000        0.0000000000000000     
  0.75000000000000000       0.50000000000000000        0.0000000000000000     
  0.50000000000000000       0.56250000000000000        0.0000000000000000     
  0.56250000000000000       0.56250000000000000        0.0000000000000000     
  0.62500000000000000       0.56250000000000000        0.0000000000000000     
  0.68750000000000000       0.56250000000000000        0.0000000000000000     
  0.75000000000000000       0.56250000000000000        0.0000000000000000     
  0.50000000000000000       0.62500000000000000        0.0000000000000000     
  0.56250000000000000       0.62500000000000000        0.0000000000000000     
  0.62500000000000000       0.62500000000000000        0.0000000000000000     
  0.68750000000000000       0.62500000000000000        0.0000000000000000     
  0.75000000000000000       0.62500000000000000        0.0000000000000000     
  0.50000000000000000       0.68750000000000000        0.0000000000000000     
  0.56250000000000000       0.68750000000000000        0.0000000000000000     
  0.62500000000000000       0.68750000000000000        0.0000000000000000     
  0.68750000000000000       0.68750000000000000        0.0000000000000000     
  0.75000000000000000       0.68750000000000000        0.0000000000000000     
  0.50000000000000000       0.75000000000000000        0.0000000000000000     
  0.56250000000000000       0.75000000000000000        0.0000000000000000     
  0.62500000000000000       0.75000000000000000        0.0000000000000000     
  0.68750000000000000       0.75000000000000000        0.0000000000000000     
  0.75000000000000000       0.75000000000000000        0.0000000000000000     
  0.75000000000000000       0.50000000000000000        0.0000000000000000     
  0.81250000000000000       0.50000000000000000        0.0000000000000000     
  0.87500000000000000       0.50000000000000000        0.0000000000000000     
  0.93750000000000000       0.50000000000000000        0.0000000000000000     
   1.0000000000000000       0.50000000000000000        0.0000000000000000     
  0.75000000000000000       0.56250000000000000        0.0000000000000000     
  0.81250000000000000       0.56250000000000000        0.0000000000000000     
  0.87500000000000000       0.56250000000000000        0.0000000000000000     
  0.93750000000000000       0.56250000000000000        0.0000000000000000     
   1.0000000000000000       0.56250000000000000        0.0000000000000000     
  0.75000000000000000       0.62500000000000000        0.0000000000000000     
  0.81250000000000000       0.62500000000000000        0.0000000000000000     
  0.87500000000000000       0.62500000000000000        0.0000000000000000     
  0.93750000000000000       0.62500000000000000        0.0000000000000000     
   1.0000000000000000       0.62500000000000000        0.0000000000000000     
  0.75000000000000000       0.68750000000000000        0.0000000000000000     
  0.81250000000000000       0.68750000000000000        0.0000000000000000     
  0.87500000000000000       0.68750000000000000        0.0000000000000000     
  0.93750000000000000       0.68750000000000000        0.0000000000000000     
   1.0000000000000000       0.68750000000000000        0.0000000000000000     
  0.75000000000000000       0.75000000000000000        0.0000000000000000     
  0.81250000000000000       0.75000000000000000        0.0000000000000000     
  0.87500000000000000       0.75000000000000000        0.0000000000000000     
  0.93750000000000000       0.75000000000000000        0.0000000000000000     
   1.0000000000000000       0.75000000000000000        0.0000000000000000     
   1.0000000000000000       0.50000000000000000        0.0000000000000000     
   1.0625000000000000       0.50000000000000000        0.0000000000000000     
   1.1250000000000000       0.50000000000000000        0.0000000000000000     
   1.1875000000000000       0.50000000000000000        0.0000000000000000     
   1.2500000000000000       0.50000000000000000        0.0000000000000000     
   1.0000000000000000       0.56250000000000000        0.0000000000000000     
   1.0625000000000000       0.56250000000000000        0.0000000000000000     
   1.1250000000000000       0.56250000000000000        0.0000000000000000     
   1.1875000000000000       0.56250000000000000        0.0000000000000000     
   1.2500000000000000       0.56250000000000000        0.0000000000000000     
   1.0000000000000000       0.62500000000000000        0.0000000000000000     
   1.0625000000000000       0.62500000000000000        0.0000000000000000     
   1.1250000000000000       0.62500000000000000        0.0000000000000000     
   1.1875000000000000       0.62500000000000000        0.0000000000000000     
   1.2500000000000000       0.62500000000000000        0.0000000000000000     
   1.0000000000000000       0.68750000000000000        0.0000000000000000     
   1.0625000000000000       0.68750000000000000        0.0000000000000000     
   1.1250000000000000       0.68750000000000000        0.0000000000000000     
   1.1875000000000000       0.68750000000000000        0.0000000000000000     
   1.2500000000000000       0.68750000000000000        0.0000000000000000     
   1.0000000000000000       0.75000000000000000        0.0000000000000000     
   1.0625000000000000       0.75000000000000000        0.0000000000000000     
   1.1250000000000000       0.75000000000000000        0.0000000000000000     
   1.1875000000000000       0.75000000000000000        0.0000000000000000     
   1.2500000000000000       0.75000000000000000        0.0000000000000000     
   1.2500000000000000       0.50000000000000000        0.0000000000000000     
   1.3125000000000000       0.50000000000000000        0.0000000000000000     
   1.3750000000000000       0.50000000000000000        0.0000000000000000     
   1.4375000000000000       0.50000000000000000        0.0000000000000000     
   1.5000000000000000       0.50000000000000000        0.0000000000000000     
   1.2500000000000000       0.56250000000000000        0.0000000000000000     
   1.3125000000000000       0.56250000000000000        0.0000000000000000     
   1.3750000000000000       0.56250000000000000        0.0000000000000000     
   1.4375000000000000       0.56250000000000000        0.0000000000000000     
   1.5000000000000000       0.56250000000000000        0.0000000000000000     
   1.2500000000000000       0.62500000000000000        0.0000000000000000     
   1.3125000000000000       0.62500000000000000        0.0000000000000000     
   1.3750000000000000       0.62500000000000000        0.0000000000000000     
   1.4375000000000000       0.62500000000000000        0.0000000000000000     
   1.5000000000000000       0.62500000000000000        0.0000000000000000     
   1.2500000000000000       0.68750000000000000        0.0000000000000000     
   1.3125000000000000       0.68750000000000000        0.0000000000000000     
   1.3750000000000000       0.68750000000000000        0.0000000000000000     
   1.4375000000000000       0.68750000000000000        0.0000000000000000     
   1.5000000000000000       0.68750000000000000        0.0000000000000000     
   1.2500000000000000       0.75000000000000000        0.0000000000000000     
   1.3125000000000000       0.75000000000000000        0.0000000000000000     
   1.3750000000000000       0.75000000000000000        0.0000000000000000     
   1.4375000000000000       0.75000000000000000        0.0000000000000000     
   1.5000000000000000       0.75000000000000000        0.0000000000000000     
  0.50000000000000000       0.75000000000000000        0.0000000000000000     
  0.56250000000000000       0.75000000000000000        0.0000000000000000     
  0.62500000000000000       0.75000000000000000        0.0000000000000000     
  0.68750000000000000       0.75000000000000000        0.0000000000000000     
  0.75000000000000000       0.75000000000000000        0.0000000000000000     
  0.50000000000000000       0.81250000000000000        0.0000000000000000     
  0.56250000000000000       0.81250000000000000        0.0000000000000000     
  0.62500000000000000       0.81250000000000000        0.0000000000000000     
  0.68750000000000000       0.81250000000000000        0.0000000000000000     
  0.75000000000000000       0.81250000000000000        0.0000000000000000     
  0.50000000000000000       0.87500000000000000        0.0000000000000000     
  0.56250000000000000       0.87500000000000000        0.0000000000000000     
  0.62500000000000000       0.87500000000000000        0.0000000000000000     
  0.68750000000000000       0.87500000000000000        0.0000000000000000     
  0.75000000000000000       0.87500000000000000        0.0000000000000000     
  0.50000000000000000       0.93750000000000000        0.0000000000000000     
  0.56250000000000000       0.93750000000000000        0.0000000000000000     
  0.62500000000000000       0.93750000000000000        0.0000000000000000     
  0.68750000000000000       0.93750000000000000        0.0000000000000000     
  0.75000000000000000       0.93750000000000000        0.0000000000000000     
  0.50000000000000000        1.0000000000000000        0.0000000000000000     
  0.56250000000000000        1.0000000000000000        0.0000000000000000     
  0.62500000000000000        1.0000000000000000        0.0000000000000000     
  0.68750000000000000        1.0000000000000000        0.0000000000000000     
  0.75000000000000000        1.0000000000000000        0.0000000000000000     
  0.75000000000000000       0.75000000000000000        0.0000000000000000     
  0.81250000000000000       0.75000000000000000        0.0000000000000000     
  0.87500000000000000       0.75000000000000000        0.0000000000000000     
  0.93750000000000000       0.75000000000000000        0.0000000000000000     
   1.0000000000000000       0.75000000000000000        0.0000000000000000     
  0.75000000000000000       0.81250000000000000        0.0000000000000000     
  0.81250000000000000       0.81250000000000000        0.0000000000000000     
  0.87500000000000000       0.81250000000000000        0.0000000000000000     
  0.93750000000000000       0.81250000000000000        0.0000000000000000     
   1.0000000000000000       0.81250000000000000        0.0000000000000000     
  0.75000000000000000       0.87500000000000000        0.0000000000000000     
  0.81250000000000000       0.87500000000000000        0.0000000000000000     
  0.87500000000000000       0.87500000000000000        0.0000000000000000     
  0.93750000000000000       0.87500000000000000        0.0000000000000000     
   1.0000000000000000       0.87500000000000000        0.0000000000000000     
  0.75000000000000000       0.93750000000000000        0.0000000000000000     
  0.81250000000000000       0.93750000000000000        0.0000000000000000     
  0.87500000000000000       0.93750000000000000        0.0000000000000000     
  0.93750000000000000       0.93750000000000000        0.0000000000000000     
   1.0000000000000000       0.93750000000000000        0.0000000000000000     
  0.75000000000000000        1.0000000000000000        0.0000000000000000     
  0.81250000000000000        1.0000000000000000        0.0000000000000000     
  0.87500000000000000        1.0000000000000000        0.0000000000000000     
  0.93750000000000000        1.0000000000000000        0.0000000000000000     
   1.0000000000000000        1.0000000000000000        0.0000000000000000     
   1.0000000000000000       0.75000000000000000        0.0000000000000000     
   1.0625000000000000       0.75000000000000000        0.0000000000000000     
   1.1250000000000000       0.75000000000000000        0.0000000000000000     
   1.1875000000000000       0.75000000000000000        0.0000000000000000     
   1.2500000000000000       0.75000000000000000        0.0000000000000000     
   1.0000000000000000       0.81250000000000000        0.0000000000000000     
   1.0625000000000000       0.81250000000000000        0.0000000000000000     
   1.1250000000000000       0.81250000000000000        0.0000000000000000     
   1.1875000000000000       0.81250000000000000        0.0000000000000000     
   1.2500000000000000       0.81250000000000000        0.0000000000000000     
   1.0000000000000000       0.87500000000000000        0.0000000000000000     
   1.0625000000000000       0.87500000000000000        0.0000000000000000     
   1.1250000000000000       0.87500000000000000        0.0000000000000000     
   1.1875000000000000       0.87500000000000000        0.0000000000000000     
   1.2500000000000000       0.87500000000000000        0.0000000000000000     
   1.0000000000000000       0.93750000000000000        0.0000000000000000     
   1.0625000000000000       0.93750000000000000        0.0000000000000000     
   1.1250000000000000       0.93750000000000000        0.0000000000000000     
   1.1875000000000000       0.93750000000000000        0.0000000000000000     
   1.2500000000000000       0.93750000000000000        0.0000000000000000     
   1.0000000000000000        1.0000000000000000        0.0000000000000000     
   1.0625000000000000        1.0000000000000000        0.0000000000000000     
   1.1250000000000000        1.0000000000000000        0.0000000000000000     
   1.1875000000000000        1.0000000000000000        0.0000000000000000     
   1.2500000000000000        1.0000000000000000        0.0000000000000000     
   1.2500000000000000       0.75000000000000000        0.0000000000000000     
   1.3125000000000000       0.75000000000000000        0.0000000000000000     
   1.3750000000000000       0.75000000000000000        0.0000000000000000     
   1.4375000000000000       0.75000000000000000        0.0000000000000000     
   1.5000000000000000       0.75000000000000000        0.0000000000000000     
   1.2500000000000000       0.81250000000000000        0.0000000000000000     
   1.3125000000000000       0.81250000000000000        0.0000000000000000     
   1.3750000000000000       0.81250000000000000        0.0000000000000000     
   1.4375000000000000       0.81250000000000000        0.0000000000000000     
   1.5000000000000000       0.81250000000000000        0.0000000000000000     
   1.2500000000000000       0.87500000000000000        0.0000000000000000     
   1.3125000000000000       0.87500000000000000        0.0000000000000000     
   1.3750000000000000       0.87500000000000000        0.0000000000000000     
   1.4375000000000000       0.87500000000000000        0.0000000000000000     
   1.5000000000000000       0.87500000000000000        0.0000000000000000     
   1.2500000000000000       0.93750000000000000        0.0000000000000000     
   1.3125000000000000       0.93750000000000000        0.0000000000000000     
   1.3750000000000000       0.93750000000000000        0.0000000000000000     
   1.4375000000000000       0.93750000000000000        0.0000000000000000     
   1.5000000000000000       0.93750000000000000        0.0000000000000000     
   1.2500000000000000        1.0000000000000000        0.0000000000000000     
   1.3125000000000000        1.0000000000000000        0.0000000000000000     
   1.3750000000000000        1.0000000000000000        0.0000000000000000     
   1.4375000000000000        1.0000000000000000        0.0000000000000000     
   1.5000000000000000        1.0000000000000000        0.0000000000000000     
 </DataArray>
 </Points>
 <Cells>
 <DataArray  type="Int32"  Name="connectivity"  format="ascii">
           0           1           6           5
           1           2           7           6
           2           3           8           7
           3           4           9           8
           5           6          11          10
           6           7          12          11
           7           8          13          12
           8           9          14          13
          10          11          16          15
          11          12          17          16
          12          13          18          17
          13          14          19          18
          15          16          21          20
          16          17          22          21
          17          18          23          22
          18          19          24          23
          25          26          31          30
          26          27          32          31
          27          28          33          32
          28          29          34          33
          30          31          36          35
          31          32          37          36
          32          33          38          37
          33          34          39          38
          35          36          41          40
          36          37          42          41
          37          38          43          42
          38          39          44          43
          40          41          46          45
          41          42          47          46
          42          43          48          47
          43          44          49          48
          50          51          56          55
          51          52          57          56
          52          53          58          57
          53          54          59          58
          55          56          61          60
          56          57          62          61
          57          58          63          62
          58          59          64          63
          60          61          66          65
          61          62          67          66
          62          63          68          67
          63          64          69          68
          65          66          71          70
          66          67          72          71
          67          68          73          72
          68          69          74          73
          75          76          81          80
          76          77          82          81
          77          78          83          82
          78          79          84          83
          80          81          86          85
          81          82          87          86
          82          83          88          87
          83          84          89          88
          85          86          91          90
          86          87          92          91
          87          88          93          92
          88          89          94          93
          90          91          96          95
          91          92          97          96
          92          93          98          97
          93          94          99          98
         100         101         106         105
         101         102         107         106
         102         103         108         107
         103         104         109         108
         105         106         111         110
         106         107         112         111
         107         108         113         112
         108         109         114         113
         110         111         116         115
         111         112         117         116
         112         113         118         117
         113         114         119         118
         115         116         121         120
         116         117         122         121
         117         118         123         122
         118         119         124         123
         125         126         131         130
         126         127         132         131
         127         128         133         132
         128         129         134         133
         130         131         136         135
         131         132         137         136
         132         133         138         137
         133         134         139         138
         135         136         141         140
         136         137         142         141
         137         138         143         142
         138         139         144         143
         140         141         146         145
         141         142         147         146
         142         143         148         147
         143         144         149         148
         150         151         156         155
         151         152         157         156
         152         153         158         157
         153         154         159         158
         155         156         161         160
         156         157         162         161
         157         158         163         162
         158         159         164         163
         160         161         166         165
         161         162         167         166
         162         163         168         167
         163         164         169         168
         165         166         171         170
         166         167         172         171
         167         168         173         172
         168         169         174         173
         175         176         181         180
         176         177         182         181
         177         178         183         182
         178         179         184         183
         180         181         186         185
         181         182         187         186
         182         183         188         187
         183         184         189         188
         185         186         191         190
         186         187         192         191
         187         188         193         192
         188         189         194         193
         190         191         196         195
         191         192         197         196
         192         193         198         197
         193         194         199         198
         200         201         206         205
         201         202         207         206
         202         203         208         207
         203         204         209         208
         205         206         211         210
         206         207         212         211
         207         208         213         212
         208         209         214         213
         210         211         216         215
         211         212         217         216
         212         213         218         217
         213         214         219         218
         215         216         221         220
         216         217         222         221
         217         218         223         222
         218         219         224         223
         225         226         231         230
         226         227         232         231
         227         228         233         232
         228         229         234         233
         230         231         236         235
         231         232         237         236
         232         233         238         237
         233         234         239         238
         235         236         241         240
         236         237         242         241
         237         238         243         242
         238         239         244         243
         240         241         246         245
         241         242         247         246
         242         243         248         247
         243         244         249         248
         250         251         256         255
         251         252         257         256
         252         253         258         257
         253         254         259         258
         255         256         261         260
         256         257         262         261
         257         258         263         262
         258         259         264         263
         260         261         266         265
         261         262         267         266
         262         263         268         267
         263         264         269         268
         265         266         271         270
         266         267         272         271
         267         268         273         272
         268         269         274         273
         275         276         281         280
         276         277         282         281
         277         278         283         282
         278         279         284         283
         280         281         286         285
         281         282         287         286
         282         283         288         287
         283         284         289         288
         285         286         291         290
         286         287         292         291
         287         288         293         292
         288         289         294         293
         290         291         296         295
         291         292         297         296
         292         293         298         297
         293         294         299         298
         300         301         306         305
         301         302         307         306
         302         303         308         307
         303         304         309         308
         305         306         311         310
         306         307         312         311
         307         308         313         312
         308         309         314         313
         310         311         316         315
         311         312         317         316
         312         313         318         317
         313         314         319         318
         315         316         321         320
         316         317         322         321
         317         318         323         322
         318         319         324         323
         325         326         331         330
         326         327         332         331
         327         328         333         332
         328         329         334         333
         330         331         336         335
         331         332         337         336
         332         333         338         337
         333         334         339         338
         335         336         341         340
         336         337         342         341
         337         338         343         342
         338         339         344         343
         340         341         346         345
         341         342         347         346
         342         343         348         347
         343         344         349         348
         350         351         356         355
         351         352         357         356
         352         353         358         357
         353         354         359         358
         355         356         361         360
         356         357         362         361
         357         358         363         362
         358         359         364         363
         360         361         366         365
         361         362         367         366
         362         363         368         367
         363         364         369         368
         365         366         371         370
         366         367         372         371
         367         368         373         372
         368         369         374         373
         375         376         381         380
         376         377         382         381
         377         378         383         382
         378         379         384         383
         380         381         386         385
         381         382         387         386
         382         383         388         387
         383         384         389         388
         385         386         391         390
         386         387         392         391
         387         388         393         392
         388         389         394         393
         390         391         396         395
         391         392         397         396
         392         393         398         397
         393         394         399         398
 </DataArray>
 <DataArray  type="Int32"  Name="offsets"  format="ascii"> 
           4
           8
          12
          16
          20
          24
          28
          32
          36
          40
          44
          48
          52
          56
          60
          64
          68
          72
          76
          80
          84
          88
          92
          96
         100
         104
         108
         112
         116
         120
         124
         128
         132
         136
         140
         144
         148
         152
         156
         160
         164
         168
         172
         176
         180
         184
         188
         192
         196
         200
         204
         208
         212
         216
         220
         224
         228
         232
         236
         240
         244
         248
         252
         256
         260
         264
         268
         272
         276
         280
         284
         288
         292
         296
         300
         304
         308
         312
         316
         320
         324
         328
         332
         336
         340
         344
         348
         352
         356
         360
         364
         368
         372
         376
         380
         384
         388
         392
         396
         400
         404
         408
         412
         416
         420
         424
         428
         432
         436
         440
         444
         448
         452
         456
         460
         464
         468
         472
         476
         480
         484
         488
         492
         496
         500
         504
         508
         512
         516
         520
         524
         528
         532
         536
         540
         544
         548
         552
         556
         560
         564
         568
         572
         576
         580
         584
         588
         592
         596
         600
         604
         608
         612
         616
         620
         624
         628
         632
         636
         640
         644
         648
         652
         656
         660
         664
         668
         672
         676
         680
         684
         688
         692
         696
         700
         704
         708
         712
         716
         720
         724
         728
         732
         736
         740
         744
         748
         752
         756
         760
         764
         768
         772
         776
         780
         784
         788
         792
         796
         800
         804
         808
         812
         816
         820
         824
         828
         832
         836
         840
         844
         848
         852
         856
         860
         864
         868
         872
         876
         880
         884
         888
         892
         896
         900
         904
         908
         912
         916
         920
         924
         928
         932
         936
         940
         944
         948
         952
         956
         960
         964
         968
         972
         976
         980
         984
         988
         992
         996
        1000
        1004
        1008
        1012
        1016
        1020
        1024
 </DataArray>
 <DataArray  type="UInt8"  Name="types"  format="ascii">
 9
 9
 9
 9
 9
 9
 9
 9
 9
 9
 9
 9
 9
 9
 9
 9
 9
 9
 9
 9
 9
 9
 9
 9
 9
 9
 9
 9
 9
 9
 9
 9
 9
 9
 9
 9
 9
 9
 9
 9
 9
 9
 9
 9
 9
 9
 9
 9
 9
 9
 9
 9
 9
 9
 9
 9
 9
 9
 9
 9
 9
 9
 9
 9
 9
 9
 9
 9
 9
 9
 9
 9
 9
 9
 9
 9
 9
 9
 9
 9
 9
 9
 9
 9
 9
 9
 9
 9
 9
 9
 9
 9
 9
 9
 9
 9
 9
 9
 9
 9
 9
 9
 9
 9
 9
 9
 9
 9
 9
 9
 9
 9
 9
 9
 9
 9
 9
 9
 9
 9
 9
 9
 9
 9
 9
 9
 9
 9
 9
 9
 9
 9
 9
 9
 9
 9
 9
 9
 9
 9
 9
 9
 9
 9
 9
 9
 9
 9
 9
 9
 9
 9
 9
 9
 9
 9
 9
 9
 9
 9
 9
 9
 9
 9
 9
 9
 9
 9
 9
 9
 9
 9
 9
 9
 9
 9
 9
 9
 9
 9
 9
 9
 9
 9
 9
 9
 9
 9
 9
 9
 9
 9
 9
 9
 9
 9
 9
 9
 9
 9
 9
 9
 9
 9
 9
 9
 9
 9
 9
 9
 9
 9
 9
 9
 9
 9
 9
 9
 9
 9
 9
 9
 9
 9
 9
 9
 9
 9
 9
 9
 9
 9
 9
 9
 9
 9
 9
 9
 9
 9
 9
 9
 9
 9
 9
 9
 9
 9
 9
 9
 9
 9
 9
 9
 9
 9
 </DataArray>
 </Cells> 
 <PointData>
 <DataArray  type="Float64" Name="disp" NumberOfComponents="3" format="ascii">
   6.8033195800751650E-002   5.6256824218003758E-002   0.0000000000000000     
   7.3397676820339222E-002   6.9430755170120012E-002   0.0000000000000000     
   7.8519332030213704E-002   8.2743530705434637E-002   0.0000000000000000     
   8.3398161430375081E-002   9.6195150823947612E-002   0.0000000000000000     
   8.8034165020823354E-002  0.10978561552565895        0.0000000000000000     
   5.5942275430223544E-002   5.5821351042363077E-002   0.0000000000000000     
   6.1009466682841837E-002   6.8576570295229192E-002   0.0000000000000000     
   6.5795307434391076E-002   8.1623091669650594E-002   0.0000000000000000     
   7.0299797684871254E-002   9.4960915165627269E-002   0.0000000000000000     
   7.4522937434282385E-002  0.10859004078315922        0.0000000000000000     
   4.5305581335259387E-002   5.5839400713843849E-002   0.0000000000000000     
   4.9876858672184270E-002   6.8142733837113889E-002   0.0000000000000000     
   5.4168370094522217E-002   8.0883485758523485E-002   0.0000000000000000     
   5.8180115602273257E-002   9.4061656478072658E-002   0.0000000000000000     
   6.1912095195437375E-002  0.10767724599576137        0.0000000000000000     
   3.6123113515859180E-002   5.6310973232446063E-002   0.0000000000000000     
   3.9999852788366506E-002   6.8129245795774077E-002   0.0000000000000000     
   4.3638520010607154E-002   8.0524712972053311E-002   0.0000000000000000     
   4.7039115182581075E-002   9.3497374761283752E-002   0.0000000000000000     
   5.0201638304288303E-002  0.10704723116346543        0.0000000000000000     
   2.8394871972022923E-002   5.7236068598169744E-002   0.0000000000000000     
   3.1378449031388589E-002   6.8536106171209782E-002   0.0000000000000000     
   3.4205757182645853E-002   8.0546773310240058E-002   0.0000000000000000     
   3.6876796425794722E-002   9.3268070015260593E-002   0.0000000000000000     
   3.9391566760835189E-002  0.10669999628627139        0.0000000000000000     
   8.8034165020823354E-002  0.10978561552565895        0.0000000000000000     
   9.2360567979432207E-002  0.12367588107368481        0.0000000000000000     
   9.6310595484075279E-002  0.13802690373114129        0.0000000000000000     
   9.9884247534752571E-002  0.15283868349802848        0.0000000000000000     
  0.10308152413146410       0.16811122037434634        0.0000000000000000     
   7.4522937434282385E-002  0.10859004078315922        0.0000000000000000     
   7.8433223680506009E-002  0.12258762196406559        0.0000000000000000     
   8.1999153421423623E-002  0.13703081215016558        0.0000000000000000     
   8.5220726657035242E-002  0.15191961134145920        0.0000000000000000     
   8.8097943387340838E-002  0.16725401953794639        0.0000000000000000     
   6.1912095195437375E-002  0.10767724599576137        0.0000000000000000     
   6.5351102990925822E-002  0.12173256231555125        0.0000000000000000     
   6.8483933105649875E-002  0.13622991344140384        0.0000000000000000     
   7.1310585539609506E-002  0.15116929937331922        0.0000000000000000     
   7.3831060292804770E-002  0.16655072011129732        0.0000000000000000     
   5.0201638304288303E-002  0.10704723116346543        0.0000000000000000     
   5.3114205910691679E-002  0.12111070212814173        0.0000000000000000     
   5.5764934536754067E-002  0.13562420760485611        0.0000000000000000     
   5.8153824182475465E-002  0.15058774759360855        0.0000000000000000     
   6.0280874847855860E-002  0.16600132209439908        0.0000000000000000     
   3.9391566760835189E-002  0.10669999628627139        0.0000000000000000     
   4.1722532439803575E-002  0.12072204140183707        0.0000000000000000     
   4.3842157714736187E-002  0.13521369464052235        0.0000000000000000     
   4.5750442585633030E-002  0.15017495600232725        0.0000000000000000     
   4.7447387052494114E-002  0.16560582548725170        0.0000000000000000     
  0.10308152413146410       0.16811122037434634        0.0000000000000000     
  0.10595866505960364       0.18373526658847361        0.0000000000000000     
  0.10857191010456496       0.19960157436878909        0.0000000000000000     
  0.11092125926634806       0.21571014371529273        0.0000000000000000     
  0.11300671254495293       0.23206097462798458        0.0000000000000000     
   8.8097943387340838E-002  0.16725401953794639        0.0000000000000000     
   9.0649636312244014E-002  0.18294644404780633        0.0000000000000000     
   9.2894638131648249E-002  0.19890929217921804        0.0000000000000000     
   9.4832948845553558E-002  0.21514256393218159        0.0000000000000000     
   9.6464568453959953E-002  0.23164625930669694        0.0000000000000000     
   7.3831060292804770E-002  0.16655072011129732        0.0000000000000000     
   7.6038466042080768E-002  0.18229948753097661        0.0000000000000000     
   7.7925911464282724E-002  0.19834091350799560        0.0000000000000000     
   7.9493396559410581E-002  0.21467499804235424        0.0000000000000000     
   8.0740921327464396E-002  0.23130174113405252        0.0000000000000000     
   6.0280874847855860E-002  0.16600132209439908        0.0000000000000000     
   6.2125154249113926E-002  0.18179439703798453        0.0000000000000000     
   6.3665730102468343E-002  0.19789643835512169        0.0000000000000000     
   6.4902602407919119E-002  0.21430744604581070        0.0000000000000000     
   6.5835771165466239E-002  0.23102742011005140        0.0000000000000000     
   4.7447387052494114E-002  0.16560582548725170        0.0000000000000000     
   4.8909700933343465E-002  0.18143117256883004        0.0000000000000000     
   5.0114094046205149E-002  0.19757586672059640        0.0000000000000000     
   5.1060566391079150E-002  0.21403990794255090        0.0000000000000000     
   5.1749117967965483E-002  0.23082329623469350        0.0000000000000000     
  0.11300671254495293       0.23206097462798458        0.0000000000000000     
  0.11478459367597685       0.24891967503259185        0.0000000000000000     
  0.11621122639501710       0.26655185285484184        0.0000000000000000     
  0.11728661070207365       0.28495750809473452        0.0000000000000000     
  0.11801074659714650       0.30413664075226987        0.0000000000000000     
   9.6464568453959953E-002  0.23164625930669694        0.0000000000000000     
   9.7800872780727202E-002  0.24860153809185928        0.0000000000000000     
   9.8853237649715126E-002  0.26618956007676364        0.0000000000000000     
   9.9621663060923696E-002  0.28441032526141014        0.0000000000000000     
  0.10010614901435294       0.30326383364579867        0.0000000000000000     
   8.0740921327464396E-002  0.23130174113405252        0.0000000000000000     
   8.1718594206198508E-002  0.24831294993251057        0.0000000000000000     
   8.2476523633367299E-002  0.26580043158714817        0.0000000000000000     
   8.3014709608970769E-002  0.28376418609796544        0.0000000000000000     
   8.3333152133008931E-002  0.30220421346496240        0.0000000000000000     
   6.5835771165466239E-002  0.23102742011005140        0.0000000000000000     
   6.6537757952390711E-002  0.24805391055454568        0.0000000000000000     
   6.7081084345973582E-002  0.26538446738599542        0.0000000000000000     
   6.7465750346214839E-002  0.28301909060440050        0.0000000000000000     
   6.7691755953114496E-002  0.30095778020976099        0.0000000000000000     
   5.1749117967965483E-002  0.23082329623469350        0.0000000000000000     
   5.2258364019303859E-002  0.24782441995796478        0.0000000000000000     
   5.2666919787534003E-002  0.26494166747330539        0.0000000000000000     
   5.2974785272655915E-002  0.28217503878071531        0.0000000000000000     
   5.3181960474669582E-002  0.29952453388019451        0.0000000000000000     
   2.8394871972022923E-002   5.7236068598169744E-002   0.0000000000000000     
   3.1378449031388589E-002   6.8536106171209782E-002   0.0000000000000000     
   3.4205757182645853E-002   8.0546773310240058E-002   0.0000000000000000     
   3.6876796425794722E-002   9.3268070015260593E-002   0.0000000000000000     
   3.9391566760835189E-002  0.10669999628627139        0.0000000000000000     
   2.1369346169230800E-002   5.8243943288793683E-002   0.0000000000000000     
   2.3422093946758302E-002   6.9076011432055356E-002   0.0000000000000000     
   2.5404732958742193E-002   8.0732690598190909E-002   0.0000000000000000     
   2.7317263205182470E-002   9.3213980787200335E-002   0.0000000000000000     
   2.9159684686079136E-002  0.10651988199908369        0.0000000000000000     
   1.4295025572962989E-002   5.8963853782096683E-002   0.0000000000000000     
   1.5540234079983471E-002   6.9461658046945179E-002   0.0000000000000000     
   1.6770098687000013E-002   8.0865488661013021E-002   0.0000000000000000     
   1.7984619394012611E-002   9.3175345624300229E-002   0.0000000000000000     
   1.9183796201021265E-002  0.10639122893680680        0.0000000000000000     
   7.1719101832194970E-003   5.9395800078078771E-002   0.0000000000000000     
   7.7328694310641001E-003   6.9693046015879251E-002   0.0000000000000000     
   8.3018543674193146E-003   8.0945167498706394E-002   0.0000000000000000     
   8.8788649922851362E-003   9.3152164526560235E-002   0.0000000000000000     
   9.4639013056615692E-003  0.10631403709944072        0.0000000000000000     
   3.2265856653168612E-016   5.9539782176739914E-002   0.0000000000000000     
   1.8821749714348357E-016   6.9770175338857557E-002   0.0000000000000000     
   9.8445557261683803E-017   8.0971727111271027E-002   0.0000000000000000     
   5.2800645800044066E-017   9.3144437493980325E-002   0.0000000000000000     
   5.2041704279304213E-017  0.10628830648698546        0.0000000000000000     
   3.9391566760835189E-002  0.10669999628627139        0.0000000000000000     
   4.1722532439803575E-002  0.12072204140183707        0.0000000000000000     
   4.3842157714736187E-002  0.13521369464052235        0.0000000000000000     
   4.5750442585633030E-002  0.15017495600232725        0.0000000000000000     
   4.7447387052494114E-002  0.16560582548725170        0.0000000000000000     
   2.9159684686079136E-002  0.10651988199908369        0.0000000000000000     
   3.0888077912654532E-002  0.12048398803055389        0.0000000000000000     
   3.2458523396130992E-002  0.13493989267832401        0.0000000000000000     
   3.3871021136508514E-002  0.14988759594239393        0.0000000000000000     
   3.5125571133787115E-002  0.16532709782276378        0.0000000000000000     
   1.9183796201021265E-002  0.10639122893680680        0.0000000000000000     
   2.0322837663637603E-002  0.12031394990820880        0.0000000000000000     
   2.1356952337473242E-002  0.13474431984818230        0.0000000000000000     
   2.2286140222528186E-002  0.14968233875672729        0.0000000000000000     
   2.3110401318802442E-002  0.16512800663384380        0.0000000000000000     
   9.4639013056615692E-003  0.10631403709944072        0.0000000000000000     
   1.0026811692752779E-002  0.12021192703480178        0.0000000000000000     
   1.0537444538762937E-002  0.13462697615009736        0.0000000000000000     
   1.0995799843692042E-002  0.14955918444532737        0.0000000000000000     
   1.1401877607540092E-002  0.16500855192049188        0.0000000000000000     
   5.2041704279304213E-017  0.10628830648698546        0.0000000000000000     
   7.0256300777060687E-017  0.12017791941033290        0.0000000000000000     
   7.7195194680967916E-017  0.13458786158406910        0.0000000000000000     
   7.8713077722447622E-017  0.14951813300819414        0.0000000000000000     
   7.1123662515049091E-017  0.16496873368270792        0.0000000000000000     
   4.7447387052494114E-002  0.16560582548725170        0.0000000000000000     
   4.8909700933343465E-002  0.18143117256883004        0.0000000000000000     
   5.0114094046205149E-002  0.19757586672059640        0.0000000000000000     
   5.1060566391079150E-002  0.21403990794255090        0.0000000000000000     
   5.1749117967965483E-002  0.23082329623469350        0.0000000000000000     
   3.5125571133787115E-002  0.16532709782276378        0.0000000000000000     
   3.6202951567130305E-002  0.18117541754374877        0.0000000000000000     
   3.7083940615701624E-002  0.19734957432966430        0.0000000000000000     
   3.7768538279501052E-002  0.21384956818051024        0.0000000000000000     
   3.8256744558528621E-002  0.23067539909628676        0.0000000000000000     
   2.3110401318802442E-002  0.16512800663384380        0.0000000000000000     
   2.3815751622835352E-002  0.18099273538297647        0.0000000000000000     
   2.4388207131166264E-002  0.19718793690756992        0.0000000000000000     
   2.4827767843795187E-002  0.21371361120762408        0.0000000000000000     
   2.5134433760722118E-002  0.23056975828313903        0.0000000000000000     
   1.1401877607540092E-002  0.16500855192049188        0.0000000000000000     
   1.1748101100458604E-002  0.18088312608651311        0.0000000000000000     
   1.2026893592599090E-002  0.19709095445431324        0.0000000000000000     
   1.2238255083961543E-002  0.21363203702389236        0.0000000000000000     
   1.2382185574545965E-002  0.23050637379525044        0.0000000000000000     
   7.1123662515049091E-017  0.16496873368270792        0.0000000000000000     
   6.8521577301083880E-017  0.18084658965435862        0.0000000000000000     
   8.5868812060851951E-017  0.19705862696989432        0.0000000000000000     
   1.2078012201488519E-016  0.21360484562931506        0.0000000000000000     
   1.7520707107365752E-016  0.23048524563262085        0.0000000000000000     
   5.1749117967965483E-002  0.23082329623469350        0.0000000000000000     
   5.2258364019303859E-002  0.24782441995796478        0.0000000000000000     
   5.2666919787534003E-002  0.26494166747330539        0.0000000000000000     
   5.2974785272655915E-002  0.28217503878071531        0.0000000000000000     
   5.3181960474669582E-002  0.29952453388019451        0.0000000000000000     
   3.8256744558528621E-002  0.23067539909628676        0.0000000000000000     
   3.8620711688552599E-002  0.24763654327781195        0.0000000000000000     
   3.8932591905341256E-002  0.26454247692590405        0.0000000000000000     
   3.9192385208894613E-002  0.28139320004056312        0.0000000000000000     
   3.9400091599212657E-002  0.29818871262178914        0.0000000000000000     
   2.5134433760722118E-002  0.23056975828313903        0.0000000000000000     
   2.5365100241751568E-002  0.24750234564913132        0.0000000000000000     
   2.5576662646688050E-002  0.26425734082061736        0.0000000000000000     
   2.5769120975531575E-002  0.28083474379759732        0.0000000000000000     
   2.5942475228282136E-002  0.29723455458007103        0.0000000000000000     
   1.2382185574545965E-002  0.23050637379525044        0.0000000000000000     
   1.2491529678900779E-002  0.24742182707192292        0.0000000000000000     
   1.2599132011574393E-002  0.26408625915744532        0.0000000000000000     
   1.2704992572566805E-002  0.28049967005181786        0.0000000000000000     
   1.2809111361878022E-002  0.29666205975504018        0.0000000000000000     
   1.7520707107365752E-016  0.23048524563262085        0.0000000000000000     
   2.3201926491189795E-016  0.24739498754618677        0.0000000000000000     
   2.7408630920433552E-016  0.26402923193638805        0.0000000000000000     
   2.9967348047499343E-016  0.28038797880322469        0.0000000000000000     
   3.1051550219984847E-016  0.29647122814669663        0.0000000000000000     
   3.2265856653168612E-016   5.9539782176739914E-002   0.0000000000000000     
   1.8821749714348357E-016   6.9770175338857557E-002   0.0000000000000000     
   9.8445557261683803E-017   8.0971727111271027E-002   0.0000000000000000     
   5.2800645800044066E-017   9.3144437493980325E-002   0.0000000000000000     
   5.2041704279304213E-017  0.10628830648698546        0.0000000000000000     
  -7.1719101832188282E-003   5.9395800078079937E-002   0.0000000000000000     
  -7.7328694310636950E-003   6.9693046015880028E-002   0.0000000000000000     
  -8.3018543674190873E-003   8.0945167498706894E-002   0.0000000000000000     
  -8.8788649922850026E-003   9.3152164526560555E-002   0.0000000000000000     
  -9.4639013056614409E-003  0.10631403709944098        0.0000000000000000     
  -1.4295025572962246E-002   5.8963853782098639E-002   0.0000000000000000     
  -1.5540234079982987E-002   6.9461658046946539E-002   0.0000000000000000     
  -1.6770098686999704E-002   8.0865488661013965E-002   0.0000000000000000     
  -1.7984619394012392E-002   9.3175345624300868E-002   0.0000000000000000     
  -1.9183796201021067E-002  0.10639122893680733        0.0000000000000000     
  -2.1369346169229933E-002   5.8243943288796007E-002   0.0000000000000000     
  -2.3422093946757674E-002   6.9076011432057105E-002   0.0000000000000000     
  -2.5404732958741738E-002   8.0732690598192214E-002   0.0000000000000000     
  -2.7317263205182123E-002   9.3213980787201334E-002   0.0000000000000000     
  -2.9159684686078824E-002  0.10651988199908446        0.0000000000000000     
  -2.8394871972021889E-002   5.7236068598172062E-002   0.0000000000000000     
  -3.1378449031387770E-002   6.8536106171211725E-002   0.0000000000000000     
  -3.4205757182645201E-002   8.0546773310241668E-002   0.0000000000000000     
  -3.6876796425794181E-002   9.3268070015261870E-002   0.0000000000000000     
  -3.9391566760834718E-002  0.10669999628627239        0.0000000000000000     
   5.2041704279304213E-017  0.10628830648698546        0.0000000000000000     
   7.0256300777060687E-017  0.12017791941033290        0.0000000000000000     
   7.7195194680967916E-017  0.13458786158406910        0.0000000000000000     
   7.8713077722447622E-017  0.14951813300819414        0.0000000000000000     
   7.1123662515049091E-017  0.16496873368270792        0.0000000000000000     
  -9.4639013056614409E-003  0.10631403709944098        0.0000000000000000     
  -1.0026811692752623E-002  0.12021192703480205        0.0000000000000000     
  -1.0537444538762769E-002  0.13462697615009755        0.0000000000000000     
  -1.0995799843691869E-002  0.14955918444532754        0.0000000000000000     
  -1.1401877607539940E-002  0.16500855192049196        0.0000000000000000     
  -1.9183796201021067E-002  0.10639122893680733        0.0000000000000000     
  -2.0322837663637388E-002  0.12031394990820926        0.0000000000000000     
  -2.1356952337473027E-002  0.13474431984818269        0.0000000000000000     
  -2.2286140222527978E-002  0.14968233875672762        0.0000000000000000     
  -2.3110401318802248E-002  0.16512800663384397        0.0000000000000000     
  -2.9159684686078824E-002  0.10651988199908446        0.0000000000000000     
  -3.0888077912654226E-002  0.12048398803055453        0.0000000000000000     
  -3.2458523396130701E-002  0.13493989267832449        0.0000000000000000     
  -3.3871021136508236E-002  0.14988759594239429        0.0000000000000000     
  -3.5125571133786851E-002  0.16532709782276397        0.0000000000000000     
  -3.9391566760834718E-002  0.10669999628627239        0.0000000000000000     
  -4.1722532439803138E-002  0.12072204140183784        0.0000000000000000     
  -4.3842157714735784E-002  0.13521369464052294        0.0000000000000000     
  -4.5750442585632663E-002  0.15017495600232766        0.0000000000000000     
  -4.7447387052493767E-002  0.16560582548725197        0.0000000000000000     
   7.1123662515049091E-017  0.16496873368270792        0.0000000000000000     
   6.8521577301083880E-017  0.18084658965435862        0.0000000000000000     
   8.5868812060851951E-017  0.19705862696989432        0.0000000000000000     
   1.2078012201488519E-016  0.21360484562931506        0.0000000000000000     
   1.7520707107365752E-016  0.23048524563262085        0.0000000000000000     
  -1.1401877607539940E-002  0.16500855192049196        0.0000000000000000     
  -1.1748101100458460E-002  0.18088312608651311        0.0000000000000000     
  -1.2026893592598906E-002  0.19709095445431321        0.0000000000000000     
  -1.2238255083961294E-002  0.21363203702389230        0.0000000000000000     
  -1.2382185574545611E-002  0.23050637379525035        0.0000000000000000     
  -2.3110401318802248E-002  0.16512800663384397        0.0000000000000000     
  -2.3815751622835165E-002  0.18099273538297653        0.0000000000000000     
  -2.4388207131166059E-002  0.19718793690756986        0.0000000000000000     
  -2.4827767843794923E-002  0.21371361120762397        0.0000000000000000     
  -2.5134433760721761E-002  0.23056975828313891        0.0000000000000000     
  -3.5125571133786851E-002  0.16532709782276397        0.0000000000000000     
  -3.6202951567130048E-002  0.18117541754374888        0.0000000000000000     
  -3.7083940615701354E-002  0.19734957432966430        0.0000000000000000     
  -3.7768538279500753E-002  0.21384956818051021        0.0000000000000000     
  -3.8256744558528268E-002  0.23067539909628662        0.0000000000000000     
  -4.7447387052493767E-002  0.16560582548725197        0.0000000000000000     
  -4.8909700933343132E-002  0.18143117256883018        0.0000000000000000     
  -5.0114094046204823E-002  0.19757586672059649        0.0000000000000000     
  -5.1060566391078817E-002  0.21403990794255090        0.0000000000000000     
  -5.1749117967965122E-002  0.23082329623469339        0.0000000000000000     
   1.7520707107365752E-016  0.23048524563262085        0.0000000000000000     
   2.3201926491189795E-016  0.24739498754618677        0.0000000000000000     
   2.7408630920433552E-016  0.26402923193638805        0.0000000000000000     
   2.9967348047499343E-016  0.28038797880322469        0.0000000000000000     
   3.1051550219984847E-016  0.29647122814669663        0.0000000000000000     
  -1.2382185574545611E-002  0.23050637379525035        0.0000000000000000     
  -1.2491529678900319E-002  0.24742182707192287        0.0000000000000000     
  -1.2599132011573854E-002  0.26408625915744538        0.0000000000000000     
  -1.2704992572566213E-002  0.28049967005181781        0.0000000000000000     
  -1.2809111361877405E-002  0.29666205975504029        0.0000000000000000     
  -2.5134433760721761E-002  0.23056975828313891        0.0000000000000000     
  -2.5365100241751121E-002  0.24750234564913121        0.0000000000000000     
  -2.5576662646687537E-002  0.26425734082061736        0.0000000000000000     
  -2.5769120975531010E-002  0.28083474379759732        0.0000000000000000     
  -2.5942475228281543E-002  0.29723455458007114        0.0000000000000000     
  -3.8256744558528268E-002  0.23067539909628662        0.0000000000000000     
  -3.8620711688552162E-002  0.24763654327781179        0.0000000000000000     
  -3.8932591905340784E-002  0.26454247692590394        0.0000000000000000     
  -3.9192385208894079E-002  0.28139320004056306        0.0000000000000000     
  -3.9400091599212088E-002  0.29818871262178920        0.0000000000000000     
  -5.1749117967965122E-002  0.23082329623469339        0.0000000000000000     
  -5.2258364019303470E-002  0.24782441995796464        0.0000000000000000     
  -5.2666919787533573E-002  0.26494166747330522        0.0000000000000000     
  -5.2974785272655436E-002  0.28217503878071515        0.0000000000000000     
  -5.3181960474669061E-002  0.29952453388019451        0.0000000000000000     
  -2.8394871972021889E-002   5.7236068598172062E-002   0.0000000000000000     
  -3.1378449031387770E-002   6.8536106171211725E-002   0.0000000000000000     
  -3.4205757182645201E-002   8.0546773310241668E-002   0.0000000000000000     
  -3.6876796425794181E-002   9.3268070015261870E-002   0.0000000000000000     
  -3.9391566760834718E-002  0.10669999628627239        0.0000000000000000     
  -3.6123113515857994E-002   5.6310973232448353E-002   0.0000000000000000     
  -3.9999852788365535E-002   6.8129245795776158E-002   0.0000000000000000     
  -4.3638520010606321E-002   8.0524712972055129E-002   0.0000000000000000     
  -4.7039115182580367E-002   9.3497374761285279E-002   0.0000000000000000     
  -5.0201638304287678E-002  0.10704723116346662        0.0000000000000000     
  -4.5305581335258131E-002   5.5839400713846452E-002   0.0000000000000000     
  -4.9876858672183201E-002   6.8142733837116207E-002   0.0000000000000000     
  -5.4168370094521315E-002   8.0883485758525470E-002   0.0000000000000000     
  -5.8180115602272466E-002   9.4061656478074296E-002   0.0000000000000000     
  -6.1912095195436626E-002  0.10767724599576262        0.0000000000000000     
  -5.5942275430222288E-002   5.5821351042366359E-002   0.0000000000000000     
  -6.1009466682840803E-002   6.8576570295231842E-002   0.0000000000000000     
  -6.5795307434390188E-002   8.1623091669652689E-002   0.0000000000000000     
  -7.0299797684870449E-002   9.4960915165628851E-002   0.0000000000000000     
  -7.4522937434281580E-002  0.10859004078316038        0.0000000000000000     
  -6.8033195800750484E-002   5.6256824218008081E-002   0.0000000000000000     
  -7.3397676820338334E-002   6.9430755170123093E-002   0.0000000000000000     
  -7.8519332030212954E-002   8.2743530705436732E-002   0.0000000000000000     
  -8.3398161430374373E-002   9.6195150823949027E-002   0.0000000000000000     
  -8.8034165020822550E-002  0.10978561552565996        0.0000000000000000     
  -3.9391566760834718E-002  0.10669999628627239        0.0000000000000000     
  -4.1722532439803138E-002  0.12072204140183784        0.0000000000000000     
  -4.3842157714735784E-002  0.13521369464052294        0.0000000000000000     
  -4.5750442585632663E-002  0.15017495600232766        0.0000000000000000     
  -4.7447387052493767E-002  0.16560582548725197        0.0000000000000000     
  -5.0201638304287678E-002  0.10704723116346662        0.0000000000000000     
  -5.3114205910691110E-002  0.12111070212814259        0.0000000000000000     
  -5.5764934536753547E-002  0.13562420760485672        0.0000000000000000     
  -5.8153824182474979E-002  0.15058774759360896        0.0000000000000000     
  -6.0280874847855416E-002  0.16600132209439941        0.0000000000000000     
  -6.1912095195436626E-002  0.10767724599576262        0.0000000000000000     
  -6.5351102990925142E-002  0.12173256231555211        0.0000000000000000     
  -6.8483933105649222E-002  0.13622991344140448        0.0000000000000000     
  -7.1310585539608909E-002  0.15116929937331963        0.0000000000000000     
  -7.3831060292804215E-002  0.16655072011129765        0.0000000000000000     
  -7.4522937434281580E-002  0.10859004078316038        0.0000000000000000     
  -7.8433223680505204E-002  0.12258762196406646        0.0000000000000000     
  -8.1999153421422791E-002  0.13703081215016616        0.0000000000000000     
  -8.5220726657034507E-002  0.15191961134145959        0.0000000000000000     
  -8.8097943387340200E-002  0.16725401953794675        0.0000000000000000     
  -8.8034165020822550E-002  0.10978561552565996        0.0000000000000000     
  -9.2360567979431291E-002  0.12367588107368556        0.0000000000000000     
  -9.6310595484074321E-002  0.13802690373114188        0.0000000000000000     
  -9.9884247534751697E-002  0.15283868349802890        0.0000000000000000     
 -0.10308152413146336       0.16811122037434661        0.0000000000000000     
  -4.7447387052493767E-002  0.16560582548725197        0.0000000000000000     
  -4.8909700933343132E-002  0.18143117256883018        0.0000000000000000     
  -5.0114094046204823E-002  0.19757586672059649        0.0000000000000000     
  -5.1060566391078817E-002  0.21403990794255090        0.0000000000000000     
  -5.1749117967965122E-002  0.23082329623469339        0.0000000000000000     
  -6.0280874847855416E-002  0.16600132209439941        0.0000000000000000     
  -6.2125154249113516E-002  0.18179439703798475        0.0000000000000000     
  -6.3665730102467954E-002  0.19789643835512188        0.0000000000000000     
  -6.4902602407918730E-002  0.21430744604581070        0.0000000000000000     
  -6.5835771165465851E-002  0.23102742011005137        0.0000000000000000     
  -7.3831060292804215E-002  0.16655072011129765        0.0000000000000000     
  -7.6038466042080297E-002  0.18229948753097688        0.0000000000000000     
  -7.7925911464282266E-002  0.19834091350799576        0.0000000000000000     
  -7.9493396559410151E-002  0.21467499804235429        0.0000000000000000     
  -8.0740921327463952E-002  0.23130174113405244        0.0000000000000000     
  -8.8097943387340200E-002  0.16725401953794675        0.0000000000000000     
  -9.0649636312243459E-002  0.18294644404780655        0.0000000000000000     
  -9.2894638131647750E-002  0.19890929217921818        0.0000000000000000     
  -9.4832948845553086E-002  0.21514256393218165        0.0000000000000000     
  -9.6464568453959440E-002  0.23164625930669686        0.0000000000000000     
 -0.10308152413146336       0.16811122037434661        0.0000000000000000     
 -0.10595866505960304       0.18373526658847378        0.0000000000000000     
 -0.10857191010456443       0.19960157436878917        0.0000000000000000     
 -0.11092125926634749       0.21571014371529268        0.0000000000000000     
 -0.11300671254495229       0.23206097462798442        0.0000000000000000     
  -5.1749117967965122E-002  0.23082329623469339        0.0000000000000000     
  -5.2258364019303470E-002  0.24782441995796464        0.0000000000000000     
  -5.2666919787533573E-002  0.26494166747330522        0.0000000000000000     
  -5.2974785272655436E-002  0.28217503878071515        0.0000000000000000     
  -5.3181960474669061E-002  0.29952453388019451        0.0000000000000000     
  -6.5835771165465851E-002  0.23102742011005137        0.0000000000000000     
  -6.6537757952390322E-002  0.24805391055454554        0.0000000000000000     
  -6.7081084345973152E-002  0.26538446738599519        0.0000000000000000     
  -6.7465750346214395E-002  0.28301909060440023        0.0000000000000000     
  -6.7691755953113969E-002  0.30095778020976077        0.0000000000000000     
  -8.0740921327463952E-002  0.23130174113405244        0.0000000000000000     
  -8.1718594206198036E-002  0.24831294993251032        0.0000000000000000     
  -8.2476523633366799E-002  0.26580043158714783        0.0000000000000000     
  -8.3014709608970227E-002  0.28376418609796511        0.0000000000000000     
  -8.3333152133008334E-002  0.30220421346496196        0.0000000000000000     
  -9.6464568453959440E-002  0.23164625930669686        0.0000000000000000     
  -9.7800872780726633E-002  0.24860153809185903        0.0000000000000000     
  -9.8853237649714473E-002  0.26618956007676331        0.0000000000000000     
  -9.9621663060922988E-002  0.28441032526140964        0.0000000000000000     
 -0.10010614901435214       0.30326383364579812        0.0000000000000000     
 -0.11300671254495229       0.23206097462798442        0.0000000000000000     
 -0.11478459367597607       0.24891967503259160        0.0000000000000000     
 -0.11621122639501619       0.26655185285484140        0.0000000000000000     
 -0.11728661070207264       0.28495750809473397        0.0000000000000000     
 -0.11801074659714542       0.30413664075226909        0.0000000000000000     
 </DataArray>
 <DataArray  type="Float64" Name="stress" NumberOfComponents="3" format="ascii">
   5577730332.8531351        1037573884.6225888        105775440.81489040     
   5194296674.8984165        536504282.52210212        83941677.340852410     
   4860116703.9129734        199613636.98588276        40478622.688349165     
   4575190419.8968248        26901948.013972044       -24613723.142612282     
   4339517822.8499575        18369215.606325865       -111335360.15203257     
   5427959185.0853586        1428024473.5288517        459973277.29563713     
   4993384934.1181650        879765240.39251053        421093380.76293308     
   4606057591.8889236        488995703.04933333        375393772.56121409     
   4265977158.3976235        255715861.49930692        322874452.69048619     
   3973143633.6442742        179925715.74244237        263535421.15074140     
   5047493931.6720352        1749266830.7414472        803092713.97590530     
   4604092172.0050755        1166511891.8630674        744825443.11464441     
   4205930542.8447318        734557388.00672090        694548040.09381616     
   3853009044.1909976        453403319.17241418        652260504.91342068     
   3545327676.0438738        323049685.36014700        617962837.57346070     
   4436334572.6131678        2001300956.2603805        1135133750.8556933     
   4026418388.5591550        1396744236.9337749        1055137864.3959826     
   3659735556.7804117        936298691.85807872        997941425.28614962     
   3336286077.2769461        619964321.03330064        963544433.52619970     
   3056069950.0487518        447741124.45943004        951946889.11612976     
   3594481107.9087639        2184126850.0856543        1456096387.9350009     
   3260363583.7803969        1570462275.6046338        1352030644.6069458     
   2967472633.6959629        1094219614.6034000        1285573928.1382174     
   2715808257.6554661        755398867.08195138        1256726238.5288169     
   2505370455.6589088        554000033.04030025        1265487575.7787447     
   4339517822.8499575        18369215.606325865       -111335360.15203257     
   3984271732.2983403        38617033.124739170       -84669046.470658347     
   3622400041.3559985        36779516.007395506       -47317559.600776754     
   3253902750.0229206        12856664.254264951        719100.45760386751     
   2878779858.2991114       -33151522.134631038        59440933.704491846     
   3973143633.6442742        179925715.74244237        263535421.15074140     
   3635984365.5566535        158002305.76288605        264241177.56923121     
   3295862447.2657547        126203395.10574675        277906522.88643742     
   2952777878.7715769        84528983.771011353        304531457.10235643     
   2606730660.0741320        32979071.758703470        344115980.21698701     
   3545327676.0438738        323049685.36014700        617962837.57346070     
   3232753561.0208411        260904547.06279469        596981478.61443222     
   2920879745.9819903        201093742.04604816        591234124.26432514     
   2609706230.9273167        143617270.30989623        600720774.52314317     
   2299233015.8568177        88475131.854331255        625441429.39088249     
   3056069950.0487518        447741124.45943004        951946889.11612976     
   2774579318.6909084        347323757.02447420        913551856.66494250     
   2497451937.5047007        261450556.82829553        892665244.53288734     
   2224687806.4901247        190121523.87089485        889287052.71996546     
   1956286925.6471815        133336658.15226912        903417281.22617531     
   2505370455.6589088        554000033.04030025        1265487575.7787447     
   2261461638.5668559        417259935.64791840        1213952311.7207632     
   2025579021.8338876        307273839.45248836        1182199883.6921220     
   1797722605.4600067        224041744.45401800        1170230291.6928236     
   1577892389.4452147        167563650.65250421        1178043535.7228694     
   2878779858.2991114       -33151522.134631038        59440933.704491846     
   2623929305.4325485       -38186538.852876782        32203942.620382056     
   2378929496.7018304       -10385741.784961581       -16285315.304395057     
   2143780432.1069820        50250869.069180846       -86026840.069847822     
   1918482111.6479907        143723293.70951360       -177020631.67596662     
   2606730660.0741320        32979071.758703470        344115980.21698701     
   2302924497.7889943        1703401.7381409407        320321284.38438797     
   2007093243.9937639       -2989239.9827405214        286176229.67871231     
   1719236898.6884341        18901146.596054196        241680816.09995374     
   1439355461.8730092        67374561.474520683        186835043.64812118     
   2299233015.8568177        88475131.854331255        625441429.39088249     
   1977619552.6319530        40303301.075125456        602900553.88951349     
   1662105162.2510290        12461713.109065950        580911227.48265398     
   1352689844.7140577        4950367.9561787844        559473450.17030823     
   1049373600.0210354        17769265.616453230        538587221.95247328     
   1956286925.6471815        133336658.15226912        903417281.22617531     
   1648014469.9614108        77613159.158053398        879941751.13575065     
   1343965251.4736357        35967117.490485251        867919678.10743308     
   1044139270.1838539        8398533.1495619416        867351062.14121354     
   748536526.09206092       -5092593.8647326231        878235903.23710454     
   1577892389.4452147        167563650.65250421        1178043535.7228694     
   1314109249.7773771        113632975.98693705        1151444876.1231084     
   1052673511.6615820        67526973.161508918        1147201581.5530469     
   793585175.09781885        29245642.176188052        1165313652.0126753     
   536844240.08609426       -1211016.9690095186        1205781087.5020010     
   1918482111.6479907        143723293.70951360       -177020631.67596662     
   1584932070.9676101        155884743.12271577       -69785701.728548765     
   1209332082.3091228        27879699.275556564        62876463.246383734     
   791682145.67253613       -240291837.83192062        220965863.24883020     
   331982261.05784845       -648629868.19975662        404482498.27877980     
   1439355461.8730092        67374561.474520683        186835043.64812118     
   1163948131.3744771        57956391.373309135        272732547.74554157     
   841510628.51255798       -108229019.93920487        382907890.68942720     
   472042953.28725731       -431181672.46297878        517361072.47978610     
   55545105.698582530       -910901566.19801080        676092093.11661088     
   1049373600.0210354        17769265.616453230        538587221.95247328     
   828824990.61565554       -14213720.725795567        597337038.41706836     
   556265984.46161032       -219564696.23026702        679215297.54708421     
   231696581.55890778       -598283660.89693141        784221999.34252727     
  -144883218.09246650       -1150370614.7258265        912357143.80340028     
   748536526.09206092       -5092593.8647326231        878235903.23710454     
   579562648.69114673       -60625593.174610674        904027770.28603733     
   353598150.15628695       -306127329.59764892        951798683.81935537     
   70643030.487483352       -741597803.13381982        1021548643.8370558     
  -269302710.31525958       -1367037013.7831457        1113277650.3391461     
   536844240.08609426       -1211016.9690095186        1205781087.5020010     
   416161105.60094941       -81279225.973134011        1192804743.3524520     
   233507125.59658217       -367916920.04133856        1200658049.5062439     
  -11117699.927011728       -861124099.17362785        1229341005.9633780     
  -317713370.96982706       -1560900763.3699970        1278853612.7238541     
   3594481107.9087639        2184126850.0856543        1456096387.9350009     
   3260363583.7803969        1570462275.6046338        1352030644.6069458     
   2967472633.6959629        1094219614.6034000        1285573928.1382174     
   2715808257.6554661        755398867.08195138        1256726238.5288169     
   2505370455.6589088        554000033.04030025        1265487575.7787447     
   2475924330.0800185        1572114187.3089395        1244248405.7703741     
   2275016625.3531499        1126769887.9589357        1227790589.1677771     
   2105028851.1592395        784492023.71879172        1237349697.1383047     
   1965961007.4982879        545280594.58851027        1272925729.6819689     
   1857813094.3702939        409135600.56808877        1334518686.7987609     
   1503991886.1523175        1004088824.7025368        1087780835.9014740     
   1403173708.5806713        717128712.80966854        1146906528.5948546     
   1322968818.0310066        498879557.65673405        1220457043.5751724     
   1263377214.5033214        349341359.24373209        1308432380.8424203     
   1224398897.9976156        268514117.57066333        1410832540.3966017     
   678683776.12566066        480050762.26644874        986693678.32829666     
   644834833.46296191        341538750.15683204        1109378462.8881869     
   621292534.31126380        237382216.41722172        1234895967.4488120     
   608056878.67056704        167581161.04761454        1363246192.0101748     
   605127866.54087245        132135584.04801604        1494429136.5722706     
   5.2156081651346661E-005   6.7345396658580919E-004   940986933.05084753     
   2.0313421274735006E-005   4.2575832969072967E-004   1115206392.0477686     
   1.1666491948327540E-005   2.5538179629633063E-004   1280666468.7592282     
   2.7439131552978200E-005   1.6570993661506800E-004   1437367163.1852286     
   6.4783343524830563E-005   1.4933109693859249E-004   1585308475.3257656     
   2505370455.6589088        554000033.04030025        1265487575.7787447     
   2261461638.5668559        417259935.64791840        1213952311.7207632     
   2025579021.8338876        307273839.45248836        1182199883.6921220     
   1797722605.4600067        224041744.45401800        1170230291.6928236     
   1577892389.4452147        167563650.65250421        1178043535.7228694     
   1857813094.3702939        409135600.56808877        1334518686.7987609     
   1675469676.6400220        306756986.05043554        1296058320.5675678     
   1499145909.1790612        224443872.43049160        1277243544.8450022     
   1328841791.9874151        162196259.70825568        1278074359.6310675     
   1164557325.0650811        120014147.88373676        1298550764.9257638     
   1224398897.9976156        268514117.57066333        1410832540.3966017     
   1103228749.5699430        200379346.90997705        1383106096.8874605     
   986071701.32181060        145621576.84776089        1374887998.3662388     
   872927753.25322056        104240807.38401747        1386178244.8329327     
   763796905.36417079        76237038.518741131        1416976836.2875407     
   605127866.54087245        132135584.04801604        1494429136.5722706     
   544738857.35662150        98127018.226548463        1475095640.6804481     
   486356398.26213866        70806952.704308704        1475133244.2558303     
   429980489.25742447        50175387.481297940        1494541947.2984142     
   375611130.34247768        36232322.557511568        1533321749.8082054     
   6.4783343524830563E-005   1.4933109693859249E-004   1585308475.3257656     
   5.6868429379494625E-005   1.4862195723192945E-004   1572026951.9465261     
   4.2914389990318552E-005   1.2778240004579928E-004   1577979282.5137765     
   2.4705512361164195E-005   9.2760048726408162E-005   1603165467.0275195     
   1.2810265668751800E-006   4.0352336856568195E-005   1647585505.4877522     
   1577892389.4452147        167563650.65250421        1178043535.7228694     
   1314109249.7773771        113632975.98693705        1151444876.1231084     
   1052673511.6615820        67526973.161508918        1147201581.5530469     
   793585175.09781885        29245642.176188052        1165313652.0126753     
   536844240.08609426       -1211016.9690095186        1205781087.5020010     
   1164557325.0650811        120014147.88373676        1298550764.9257638     
   963607029.18247306        78632259.545038998        1279112713.1801338     
   764417284.46389151        43118875.086432964        1282756379.3949411     
   566988090.90934014        13473994.507925481        1309481763.5701804     
   371319448.51881433       -10302382.190495700        1359288865.7058558     
   763796905.36417079        76237038.518741131        1416976836.2875407     
   627754747.35460877        48026524.733244598        1404014733.6100359     
   492886290.12106824        23728346.867820948        1414860701.8237062     
   359191533.66354674        3342504.9224618971        1449514740.9285455     
   226670477.98204812       -13131001.102824450        1507976850.9245589     
   375611130.34247768        36232322.557511568        1533321749.8082054     
   306552404.29378664        21815771.551566958        1526150937.4128165     
   238080528.63311172        9355388.5056737661        1543514548.8393388     
   170195503.36044371       -1148826.5801962540        1585412584.0877726     
   102897328.47579399       -9696873.7060028911        1651845043.1581104     
   1.2810265668751800E-006   4.0352336856568195E-005   1647585505.4877522     
   7.2286499130813760E-006   5.0326043698667815E-007   1645521324.5884709     
   1.5875579239488845E-005  -3.1042018772314641E-005   1668717920.4418395     
   3.1362275414033440E-005  -4.1175853935273660E-005   1717175293.0478554     
   5.2979598730052105E-005  -2.7404818341365474E-005   1790893442.4065168     
   536844240.08609426       -1211016.9690095186        1205781087.5020010     
   416161105.60094941       -81279225.973134011        1192804743.3524520     
   233507125.59658217       -367916920.04133856        1200658049.5062439     
  -11117699.927011728       -861124099.17362785        1229341005.9633780     
  -317713370.96982706       -1560900763.3699970        1278853612.7238541     
   371319448.51881433       -10302382.190495700        1359288865.7058558     
   305525303.29455549       -62938077.251699567        1287473363.4581563     
   193253023.93087739       -270500886.11097169        1230719930.1978939     
   34502610.427778423       -632990808.76830721        1189028565.9250708     
  -170725937.21473429       -1150407845.2236969        1162399270.6396794     
   226670477.98204812       -13131001.102824450        1507976850.9245589     
   199286518.25893784       -43277823.349041387        1395397020.5218213     
   140917135.77621716       -176709388.12729147        1292111677.7906098     
   51562330.533882201       -413425695.43759084        1198120822.7309270     
  -68777897.468060195       -753426745.27991593        1113424455.3427758     
   102897328.47579399       -9696873.7060028911        1651845043.1581104     
   97444750.494100615       -22298464.265144505        1516575714.5434451     
   76499461.132603630       -86542426.090300560        1384833292.2843938     
   40061460.391298637       -202428759.18147817        1256617776.3809626     
  -11869251.729807615       -369957463.53866786        1131929166.8331575     
   5.2979598730052105E-005  -2.7404818341365474E-005   1790893442.4065168     
   4.2456880502148841E-005  -1.3908288440359105E-005   1651009445.5230217     
   3.3306690738754696E-005   4.1633363423443370E-006   1508884773.6792376     
   2.5140146374925418E-005   2.2738221562034458E-005   1364519426.8751636     
   2.1228440251074421E-005   5.9659237257329837E-005   1217913405.1108136     
   5.2156081651346661E-005   6.7345396658580919E-004   940986933.05084753     
   2.0313421274735006E-005   4.2575832969072967E-004   1115206392.0477686     
   1.1666491948327540E-005   2.5538179629633063E-004   1280666468.7592282     
   2.7439131552978200E-005   1.6570993661506800E-004   1437367163.1852286     
   6.4783343524830563E-005   1.4933109693859249E-004   1585308475.3257656     
  -678683776.12567735       -480050762.26551652        986693678.32814968     
  -644834833.46298122       -341538750.15618682        1109378462.8880813     
  -621292534.31125998       -237382216.41677499        1234895967.4487495     
  -608056878.67051816       -167581161.04729405        1363246192.0101511     
  -605127866.54075098       -132135584.04772815        1494429136.5722864     
  -1503991886.1524436       -1004088824.7020185        1087780835.9012618     
  -1403173708.5807457       -717128712.80922675        1146906528.5947087     
  -1322968818.0310237       -498879557.65635568        1220457043.5750813     
  -1263377214.5032806       -349341359.24341309        1308432380.8423858     
  -1224398897.9975126       -268514117.57039106        1410832540.3966193     
  -2475924330.0802469       -1572114187.3088310        1244248405.7701886     
  -2275016625.3532753       -1126769887.9586971        1227790589.1676431     
  -2105028851.1592791       -784492023.71848428        1237349697.1382258     
  -1965961007.4982629       -545280594.58820105        1272925729.6819320     
  -1857813094.3702223       -409135600.56783754        1334518686.7987618     
  -3594481107.9090862       -2184126850.0859542        1456096387.9349246     
  -3260363583.7805672       -1570462275.6045976        1352030644.6068933     
  -2967472633.6960258       -1094219614.6031575        1285573928.1381812     
  -2715808257.6554627       -755398867.08165276        1256726238.5287893     
  -2505370455.6588774       -554000033.04006755        1265487575.7787185     
   6.4783343524830563E-005   1.4933109693859249E-004   1585308475.3257656     
   5.6868429379494625E-005   1.4862195723192945E-004   1572026951.9465261     
   4.2914389990318552E-005   1.2778240004579928E-004   1577979282.5137765     
   2.4705512361164195E-005   9.2760048726408162E-005   1603165467.0275195     
   1.2810265668751800E-006   4.0352336856568195E-005   1647585505.4877522     
  -605127866.54075098       -132135584.04772815        1494429136.5722864     
  -544738857.35652494       -98127018.226297781        1475095640.6804538     
  -486356398.26206958       -70806952.704101279        1475133244.2558246     
  -429980489.25738883       -50175387.481152743        1494541947.2983980     
  -375611130.34247750       -36232322.557437405        1533321749.8081801     
  -1224398897.9975126       -268514117.57039106        1410832540.3966193     
  -1103228749.5698707       -200379346.90977091        1383106096.8874640     
  -986071701.32176697       -145621576.84761244        1374887998.3662271     
  -872927753.25320232       -104240807.38391489        1386178244.8329074     
  -763796905.36417449       -76237038.518677294        1416976836.2875068     
  -1857813094.3702223       -409135600.56783754        1334518686.7987618     
  -1675469676.6399808       -306756986.05027282        1296058320.5675583     
  -1499145909.1790476       -224443872.43040025        1277243544.8449852     
  -1328841791.9874153       -162196259.70819691        1278074359.6310461     
  -1164557325.0650897       -120014147.88368264        1298550764.9257364     
  -2505370455.6588774       -554000033.04006755        1265487575.7787185     
  -2261461638.5668569       -417259935.64780807        1213952311.7207355     
  -2025579021.8339086       -307273839.45245469        1182199883.6920996     
  -1797722605.4600301       -224041744.45400089        1170230291.6928082     
  -1577892389.4452245       -167563650.65245730        1178043535.7228644     
   1.2810265668751800E-006   4.0352336856568195E-005   1647585505.4877522     
   7.2286499130813760E-006   5.0326043698667815E-007   1645521324.5884709     
   1.5875579239488845E-005  -3.1042018772314641E-005   1668717920.4418395     
   3.1362275414033440E-005  -4.1175853935273660E-005   1717175293.0478554     
   5.2979598730052105E-005  -2.7404818341365474E-005   1790893442.4065168     
  -375611130.34247750       -36232322.557437405        1533321749.8081801     
  -306552404.29376721       -21815771.551543653        1526150937.4128017     
  -238080528.63306412       -9355388.5056738555        1543514548.8393328     
  -170195503.36036921        1148826.5801704675        1585412584.0877724     
  -102897328.47568369        9696873.7059826925        1651845043.1581194     
  -763796905.36417449       -76237038.518677294        1416976836.2875068     
  -627754747.35458815       -48026524.733204305        1404014733.6100168     
  -492886290.12102139       -23728346.867793590        1414860701.8236952     
  -359191533.66347247       -3342504.9224454612        1449514740.9285443     
  -226670477.98194546        13131001.102830276        1507976850.9245629     
  -1164557325.0650897       -120014147.88368264        1298550764.9257364     
  -963607029.18245208       -78632259.544968218        1279112713.1801181     
  -764417284.46384668       -43118875.086363554        1282756379.3949318     
  -566988090.90927339       -13473994.507865638        1309481763.5701749     
  -371319448.51873243        10302382.190527782        1359288865.7058499     
  -1577892389.4452245       -167563650.65245730        1178043535.7228644     
  -1314109249.7773643       -113632975.98685998        1151444876.1231058     
  -1052673511.6615467       -67526973.161403358        1147201581.5530386     
  -793585175.09777403       -29245642.176097572        1165313652.0126615     
  -536844240.08604729        1211016.9690535665        1205781087.5019794     
   5.2979598730052105E-005  -2.7404818341365474E-005   1790893442.4065168     
   4.2456880502148841E-005  -1.3908288440359105E-005   1651009445.5230217     
   3.3306690738754696E-005   4.1633363423443370E-006   1508884773.6792376     
   2.5140146374925418E-005   2.2738221562034458E-005   1364519426.8751636     
   2.1228440251074421E-005   5.9659237257329837E-005   1217913405.1108136     
  -102897328.47568369        9696873.7059826925        1651845043.1581194     
  -97444750.494014978        22298464.265129812        1516575714.5434470     
  -76499461.132541686        86542426.090293318        1384833292.2843993     
  -40061460.391256586        202428759.18150017        1256617776.3809786     
   11869251.729835123        369957463.53872269        1131929166.8331668     
  -226670477.98194546        13131001.102830276        1507976850.9245629     
  -199286518.25886184        43277823.349030048        1395397020.5218260     
  -140917135.77616763        176709388.12726679        1292111677.7906170     
  -51562330.533852905        413425695.43756813        1198120822.7309418     
   68777897.468070924        753426745.27990580        1113424455.3427951     
  -371319448.51873243        10302382.190527782        1359288865.7058499     
  -305525303.29449689        62938077.251693830        1287473363.4581537     
  -193253023.93083784        270500886.11093378        1230719930.1978931     
  -34502610.427760750        632990808.76824343        1189028565.9250770     
   170725937.21474138        1150407845.2236226        1162399270.6396928     
  -536844240.08604729        1211016.9690535665        1205781087.5019794     
  -416161105.60091555        81279225.973127514        1192804743.3524265     
  -233507125.59656319        367916920.04127347        1200658049.5062273     
   11117699.927024543        861124099.17353749        1229341005.9633713     
   317713370.96983254        1560900763.3698654        1278853612.7238643     
  -3594481107.9090862       -2184126850.0859542        1456096387.9349246     
  -3260363583.7805672       -1570462275.6045976        1352030644.6068933     
  -2967472633.6960258       -1094219614.6031575        1285573928.1381812     
  -2715808257.6554627       -755398867.08165276        1256726238.5287893     
  -2505370455.6588774       -554000033.04006755        1265487575.7787185     
  -4436334572.6133547       -2001300956.2602994        1135133750.8556671     
  -4026418388.5592852       -1396744236.9336319        1055137864.3959397     
  -3659735556.7804980       -936298691.85791874        997941425.28609514     
  -3336286077.2769942       -619964321.03314519        963544433.52612913     
  -3056069950.0487771       -447741124.45932692        951946889.11604452     
  -5047493931.6721153       -1749266830.7409899        803092713.97581625     
  -4604092172.0051746       -1166511891.8628230        744825443.11453688     
  -4205930542.8448286       -734557388.00662863        694548040.09369910     
  -3853009044.1910739       -453403319.17240512        652260504.91330099     
  -3545327676.0439091       -323049685.36015773        617962837.57334375     
  -5427959185.0853624       -1428024473.5280275        459973277.29537028     
  -4993384934.1182404       -879765240.39216554        421093380.76268244     
  -4606057591.8890209       -488995703.04930127        375393772.56099248     
  -4265977158.3976970       -255715861.49943113        322874452.69030404     
  -3973143633.6442766       -179925715.74256301        263535421.15061554     
  -5577730332.8531027       -1037573884.6214131        105775440.81433059     
  -5194296674.8984823       -536504282.52165556        83941677.340372667     
  -4860116703.9130764       -199613636.98593616        40478622.687974460     
  -4575190419.8968697       -26901948.014217377       -24613723.142861761     
  -4339517822.8498697       -18369215.606522799       -111335360.15213761     
  -2505370455.6588774       -554000033.04006755        1265487575.7787185     
  -2261461638.5668569       -417259935.64780807        1213952311.7207355     
  -2025579021.8339086       -307273839.45245469        1182199883.6920996     
  -1797722605.4600301       -224041744.45400089        1170230291.6928082     
  -1577892389.4452245       -167563650.65245730        1178043535.7228644     
  -3056069950.0487771       -447741124.45932692        951946889.11604452     
  -2774579318.6909480       -347323757.02443486        913551856.66488349     
  -2497451937.5047445       -261450556.82829148        892665244.53285515     
  -2224687806.4901648       -190121523.87089676        889287052.71995461     
  -1956286925.6472111       -133336658.15225458        903417281.22618675     
  -3545327676.0439091       -323049685.36015773        617962837.57334375     
  -3232753561.0208864       -260904547.06281579        596981478.61436021     
  -2920879745.9820423       -201093742.04606497        591234124.26429093     
  -2609706230.9273763       -143617270.30990899        600720774.52313840     
  -2299233015.8568902       -88475131.854356408        625441429.39089823     
  -3973143633.6442766       -179925715.74256301        263535421.15061554     
  -3635984365.5566721       -158002305.76295078        264241177.56916428     
  -3295862447.2658029       -126203395.10577977        277906522.88641131     
  -2952777878.7716660       -84528983.771052957        304531457.10235631     
  -2606730660.0742583       -32979071.758759856        344115980.21700186     
  -4339517822.8498697       -18369215.606522799       -111335360.15213761     
  -3984271732.2983031       -38617033.124838114       -84669046.470706061     
  -3622400041.3560247       -36779516.007432461       -47317559.600789882     
  -3253902750.0230331       -12856664.254317522        719100.45761323499     
  -2878779858.2993231        33151522.134514332        59440933.704496972     
  -1577892389.4452245       -167563650.65245730        1178043535.7228644     
  -1314109249.7773643       -113632975.98685998        1151444876.1231058     
  -1052673511.6615467       -67526973.161403358        1147201581.5530386     
  -793585175.09777403       -29245642.176097572        1165313652.0126615     
  -536844240.08604729        1211016.9690535665        1205781087.5019794     
  -1956286925.6472111       -133336658.15225458        903417281.22618675     
  -1648014469.9614258       -77613159.158020318        879941751.13575077     
  -1343965251.4736366       -35967117.490437627        867919678.10742152     
  -1044139270.1838466       -8398533.1495252848        867351062.14119458     
  -748536526.09205186        5092593.8647469878        878235903.23707366     
  -2299233015.8568902       -88475131.854356408        625441429.39089823     
  -1977619552.6319995       -40303301.075137854        602900553.88950932     
  -1662105162.2510545       -12461713.109069824        580911227.48263574     
  -1352689844.7140687       -4950367.9561911821        559473450.17028546     
  -1049373600.0210245       -17769265.616461694        538587221.95244861     
  -2606730660.0742583       -32979071.758759856        344115980.21700186     
  -2302924497.7890821       -1703401.7381994724        320321284.38438064     
  -2007093243.9938045        2989239.9826948643        286176229.67869043     
  -1719236898.6884336       -18901146.596099854        241680816.09993219     
  -1439355461.8729589       -67374561.474546313        186835043.64810124     
  -2878779858.2993231        33151522.134514332        59440933.704496972     
  -2623929305.4326754        38186538.852775455        32203942.620366681     
  -2378929496.7018814        10385741.784862995       -16285315.304422598     
  -2143780432.1069491       -50250869.069255114       -86026840.069859833     
  -1918482111.6478662       -143723293.70954281       -177020631.67595765     
  -536844240.08604729        1211016.9690535665        1205781087.5019794     
  -416161105.60091555        81279225.973127514        1192804743.3524265     
  -233507125.59656319        367916920.04127347        1200658049.5062273     
   11117699.927024543        861124099.17353749        1229341005.9633713     
   317713370.96983254        1560900763.3698654        1278853612.7238643     
  -748536526.09205186        5092593.8647469878        878235903.23707366     
  -579562648.69113362        60625593.174595475        904027770.28602016     
  -353598150.15627420        306127329.59758067        951798683.81934965     
  -70643030.487473637        741597803.13371646        1021548643.8370736     
   269302710.31527996        1367037013.7829986        1113277650.3391762     
  -1049373600.0210245       -17769265.616461694        538587221.95244861     
  -828824990.61563134        14213720.725783646        597337038.41706133     
  -556265984.46158814        219564696.23020741        679215297.54709840     
  -231696581.55887911        598283660.89685178        784221999.34256268     
   144883218.09247628        1150370614.7256496        912357143.80344903     
  -1439355461.8729589       -67374561.474546313        186835043.64810124     
  -1163948131.3744173       -57956391.373315036        272732547.74555081     
  -841510628.51250589        108229019.93915284        382907890.68945956     
  -472042953.28722334        431181672.46286142        517361072.47983211     
  -55545105.698557913        910901566.19783509        676092093.11666918     
  -1918482111.6478662       -143723293.70954281       -177020631.67595765     
  -1584932070.9674883       -155884743.12270916       -69785701.728512883     
  -1209332082.3090303       -27879699.275592089        62876463.246434972     
  -791682145.67247081        240291837.83185774        220965863.24888849     
  -331982261.05783808        648629868.19954658        404482498.27883613     
 </DataArray>
 <DataArray  type="Float64" Name="VM" NumberOfComponents="1" format="ascii">
   5141390204.4956512     
   4950043534.8425341     
   4763963682.1626768     
   4561998143.8393154     
   4334654024.4475737     
   4938163879.6024704     
   4674059519.0381804     
   4430045419.6768770     
   4181604647.7634783     
   3913020015.1961627     
   4652159653.7607317     
   4341886833.4436779     
   4072728799.4432192     
   3818457473.0938654     
   3560059921.5961070     
   4321274723.0678349     
   3984847620.9357347     
   3719055691.5007925     
   3497432750.2115598     
   3300047893.1911430     
   4024990919.9078951     
   3668787951.9434228     
   3422607866.7084422     
   3260798364.7435079     
   3162309006.8548088     
   4334654024.4475737     
   3967815305.7905302     
   3605082735.0349612     
   3247493743.8840127     
   2897327752.2504444     
   3913020015.1961627     
   3588916733.7084560     
   3270226849.0083137     
   2958828359.6992750     
   2658084313.8193493     
   3560059921.5961070     
   3277878478.9545226     
   3005541534.3121910     
   2745722126.0911808     
   2502879603.7197723     
   3300047893.1911430     
   3059244655.0118642     
   2836056432.8817892     
   2633422750.0885649     
   2456110907.6885815     
   3162309006.8548088     
   2960698887.8007007     
   2787071911.1564178     
   2643398034.2836466     
   2533137240.0152736     
   2897327752.2504444     
   2643817934.6897721     
   2384306187.5253172     
   2124333945.6774061     
   1876035272.0500984     
   2658084313.8193493     
   2367986172.7195168     
   2068845671.4589634     
   1760359641.9797955     
   1443616824.0613170     
   2502879603.7197723     
   2218865946.4755468     
   1937629931.0323098     
   1661965593.5096631     
   1397527347.8338220     
   2456110907.6885815     
   2217422003.7016740     
   2004757186.6798773     
   1827134835.6424632     
   1696478636.2140329     
   2533137240.0152736     
   2359649409.7658715     
   2233788701.8341541     
   2163629254.8298221     
   2156519748.3660331     
   1876035272.0500984     
   1517844895.3920195     
   1200585647.5261874     
   1010550979.9270827     
   1112243144.3052611     
   1443616824.0613170     
   1230375995.4543588     
   1118384946.0295944     
   1189649483.0164027     
   1501574041.1211593     
   1397527347.8338220     
   1330176001.2373197     
   1365202232.0766988     
   1547662546.0975201     
   1916992690.3867719     
   1696478636.2140329     
   1681220771.9420590     
   1744922306.2186236     
   1933398911.4410870     
   2300288841.4625578     
   2156519748.3660331     
   2117066625.8352599     
   2144886690.6544733     
   2294759796.7813272     
   2635874356.6856427     
   4024990919.9078951     
   3668787951.9434228     
   3422607866.7084422     
   3260798364.7435079     
   3162309006.8548088     
   3058393504.1103539     
   2899017073.1710453     
   2826357846.2543631     
   2819814348.9582977     
   2863840835.9059963     
   2304310299.6426554     
   2328754527.1465950     
   2409911075.8353572     
   2532350162.1543522     
   2685857307.1233683     
   1812719223.3826125     
   2001096279.2898889     
   2206756688.5109463     
   2423063819.9636393     
   2646438352.9709015     
   1629837177.3024817     
   1931594131.9523115     
   2218179391.4408035     
   2489592955.7679615     
   2745834824.9337778     
   3162309006.8548088     
   2960698887.8007007     
   2787071911.1564178     
   2643398034.2836466     
   2533137240.0152736     
   2863840835.9059963     
   2725185859.4494524     
   2618280468.9777050     
   2544998462.2058988     
   2507894748.8468103     
   2685857307.1233683     
   2602911586.2734156     
   2553605441.7067747     
   2538965280.1645565     
   2560163715.1396375     
   2646438352.9709015     
   2603965664.5391994     
   2595221189.2474213     
   2620456687.2392054     
   2679927984.8736601     
   2745834824.9337778     
   2722830551.6390214     
   2733140290.6049442     
   2776764041.8315516     
   2853701805.3188381     
   2533137240.0152736     
   2359649409.7658715     
   2233788701.8341541     
   2163629254.8298221     
   2156519748.3660331     
   2507894748.8468103     
   2401528459.1214113     
   2342994663.9735260     
   2336288705.7696137     
   2384283625.7660828     
   2560163715.1396375     
   2505993975.9676485     
   2497458101.6047525     
   2535962949.8935499     
   2622310219.6056018     
   2679927984.8736601     
   2659919675.2052665     
   2683627025.6880774     
   2751320144.8825111     
   2863119943.6600800     
   2853701805.3188381     
   2850126539.1252699     
   2890304221.7059455     
   2974234853.0608616     
   3101918433.1900139     
   2156519748.3660331     
   2117066625.8352599     
   2144886690.6544733     
   2294759796.7813272     
   2635874356.6856427     
   2384283625.7660828     
   2255947488.8625503     
   2169517737.7982192     
   2159878334.8022814     
   2282476131.6574717     
   2622310219.6056018     
   2427264161.0937581     
   2254915295.8583508     
   2121644925.4108930     
   2059054444.5236819     
   2863119943.6600800     
   2629100846.8719954     
   2402759236.8537240     
   2188139991.5499806     
   1994093579.0186346     
   3101918433.1900139     
   2859632243.4219942     
   2613465090.7795062     
   2363416975.2625484     
   2109487896.8711460     
   1629837177.3024817     
   1931594131.9523115     
   2218179391.4408035     
   2489592955.7679615     
   2745834824.9337778     
   1812719223.3823042     
   2001096279.2897115     
   2206756688.5108552     
   2423063819.9636068     
   2646438352.9709220     
   2304310299.6423531     
   2328754527.1464100     
   2409911075.8352518     
   2532350162.1543164     
   2685857307.1233892     
   3058393504.1102419     
   2899017073.1709499     
   2826357846.2543125     
   2819814348.9582806     
   2863840835.9060016     
   4024990919.9080415     
   3668787951.9434805     
   3422607866.7084737     
   3260798364.7435288     
   3162309006.8548064     
   2745834824.9337778     
   2722830551.6390214     
   2733140290.6049442     
   2776764041.8315516     
   2853701805.3188381     
   2646438352.9709220     
   2603965664.5392075     
   2595221189.2474132     
   2620456687.2391815     
   2679927984.8736205     
   2685857307.1233892     
   2602911586.2734213     
   2553605441.7067599     
   2538965280.1645226     
   2560163715.1395898     
   2863840835.9060016     
   2725185859.4494472     
   2618280468.9776917     
   2544998462.2058778     
   2507894748.8467817     
   3162309006.8548064     
   2960698887.8006940     
   2787071911.1564121     
   2643398034.2836447     
   2533137240.0152841     
   2853701805.3188381     
   2850126539.1252699     
   2890304221.7059455     
   2974234853.0608616     
   3101918433.1900139     
   2679927984.8736205     
   2659919675.2052402     
   2683627025.6880631     
   2751320144.8825054     
   2863119943.6600909     
   2560163715.1395898     
   2505993975.9676156     
   2497458101.6047273     
   2535962949.8935385     
   2622310219.6056004     
   2507894748.8467817     
   2401528459.1213899     
   2342994663.9735065     
   2336288705.7695951     
   2384283625.7660618     
   2533137240.0152841     
   2359649409.7658787     
   2233788701.8341470     
   2163629254.8297987     
   2156519748.3659906     
   3101918433.1900139     
   2859632243.4219942     
   2613465090.7795062     
   2363416975.2625484     
   2109487896.8711460     
   2863119943.6600909     
   2629100846.8719950     
   2402759236.8537297     
   2188139991.5500078     
   1994093579.0186582     
   2622310219.6056004     
   2427264161.0937586     
   2254915295.8583555     
   2121644925.4109099     
   2059054444.5237081     
   2384283625.7660618     
   2255947488.8625369     
   2169517737.7982059     
   2159878334.8022695     
   2282476131.6574564     
   2156519748.3659906     
   2117066625.8352087     
   2144886690.6544268     
   2294759796.7812805     
   2635874356.6855869     
   4024990919.9080415     
   3668787951.9434805     
   3422607866.7084737     
   3260798364.7435288     
   3162309006.8548064     
   4321274723.0679674     
   3984847620.9358315     
   3719055691.5008612     
   3497432750.2115893     
   3300047893.1911254     
   4652159653.7608337     
   4341886833.4437780     
   4072728799.4432812     
   3818457473.0938802     
   3560059921.5960751     
   4938163879.6026134     
   4674059519.0383053     
   4430045419.6769295     
   4181604647.7634535     
   3913020015.1960835     
   5141390204.4959850     
   4950043534.8427610     
   4763963682.1627445     
   4561998143.8392429     
   4334654024.4473972     
   3162309006.8548064     
   2960698887.8006940     
   2787071911.1564121     
   2643398034.2836447     
   2533137240.0152841     
   3300047893.1911254     
   3059244655.0118585     
   2836056432.8817968     
   2633422750.0885859     
   2456110907.6886220     
   3560059921.5960751     
   3277878478.9545174     
   3005541534.3122129     
   2745722126.0912271     
   2502879603.7198386     
   3913020015.1960835     
   3588916733.7084303     
   3270226849.0083399     
   2958828359.6993432     
   2658084313.8194513     
   4334654024.4473972     
   3967815305.7904472     
   3605082735.0349693     
   3247493743.8840995     
   2897327752.2505970     
   2533137240.0152841     
   2359649409.7658787     
   2233788701.8341470     
   2163629254.8297987     
   2156519748.3659906     
   2456110907.6886220     
   2217422003.7016964     
   2004757186.6798780     
   1827134835.6424422     
   1696478636.2139843     
   2502879603.7198386     
   2218865946.4755788     
   1937629931.0323138     
   1661965593.5096440     
   1397527347.8337824     
   2658084313.8194513     
   2367986172.7195702     
   2068845671.4589713     
   1760359641.9797642     
   1443616824.0612488     
   2897327752.2505970     
   2643817934.6898465     
   2384306187.5253191     
   2124333945.6773388     
   1876035272.0499609     
   2156519748.3659906     
   2117066625.8352087     
   2144886690.6544268     
   2294759796.7812805     
   2635874356.6855869     
   1696478636.2139843     
   1681220771.9420235     
   1744922306.2185915     
   1933398911.4410715     
   2300288841.4625187     
   1397527347.8337824     
   1330176001.2372911     
   1365202232.0766873     
   1547662546.0975273     
   1916992690.3867397     
   1443616824.0612488     
   1230375995.4543073     
   1118384946.0295613     
   1189649483.0163772     
   1501574041.1211197     
   1876035272.0499609     
   1517844895.3918965     
   1200585647.5260863     
   1010550979.9270222     
   1112243144.3051627     
 </DataArray>
 <DataArray  type="Float64" Name="strain" NumberOfComponents="3" format="ascii">
   8.7774302791105985E-002  -1.0595753587222534E-002   4.5836024353119176E-003
   8.3889089835696429E-002  -1.7029745332457047E-002   3.6374726847702710E-003
   8.0003876880286817E-002  -2.0973689569800155E-002   1.7540736498284637E-003
   7.6118663924877233E-002  -2.2427586299251259E-002  -1.0665946695131989E-003
   7.2233450969467650E-002  -2.1391435520811020E-002  -4.8245322732547447E-003
   8.3325864050445064E-002  -3.3393880332792669E-003   1.9932175349477610E-002
   7.8824256033340201E-002  -1.0304170664048984E-002   1.8247379833060434E-002
   7.4322648016235393E-002  -1.4880359575289062E-002   1.6267063477652610E-002
   6.9821039999130530E-002  -1.7067954766999672E-002   1.3991226283254402E-002
   6.5319431982025694E-002  -1.6866956239180664E-002   1.1419868249865461E-002
   7.5378564707493351E-002   3.9169775206639446E-003   3.4800684272289231E-002
   7.0902310074102595E-002  -3.5785959956409208E-003   3.2275769201634594E-002
   6.6426055440711923E-002  -8.7870295807783091E-003   3.0097081737398702E-002
   6.1949800807321223E-002  -1.1708323234748087E-002   2.8264621879581561E-002
   5.7473546173930495E-002  -1.2342476957550252E-002   2.6778389628183297E-002
   6.3932404762250900E-002   1.1173343074607170E-002   4.9189129203746712E-002
   6.0123251957983709E-002   3.1469786727671423E-003   4.5722640790492583E-002
   5.6314099153716470E-002  -2.6936995862674139E-003   4.3244128429066483E-002
   5.2504946349449272E-002  -6.3486917024963901E-003   4.1753592119468656E-002
   4.8695793545182046E-002  -7.8179976759199243E-003   4.1251031861698956E-002
   4.8987384214717794E-002   1.8429708628550423E-002   6.3097510143850039E-002
   4.6487081684983445E-002   9.8725533411752470E-003   5.8587994599634319E-002
   4.3986779155249053E-002   3.3996304082435161E-003   5.5708203552656085E-002
   4.1486476625514683E-002  -9.8906017024480951E-004   5.4458137002915401E-002
   3.8986174095780313E-002  -3.2935183942895407E-003   5.4837794950412272E-002
   7.2233450969467650E-002  -2.1391435520811020E-002  -4.8245322732547447E-003
   6.6211443706015310E-002  -1.9277741442746049E-002  -3.6689920137285281E-003
   6.0189436442562999E-002  -1.7499008273323402E-002  -2.0504275827003260E-003
   5.4167429179110688E-002  -1.6055236012543522E-002   3.1161019829500924E-005
   4.8145421915658348E-002  -1.4946424660406077E-002   2.5757737938613134E-003
   6.5319431982025694E-002  -1.6866956239180664E-002   1.1419868249865461E-002
   5.9809727897129794E-002  -1.5546550065068498E-002   1.1450451028000019E-002
   5.4300023812233852E-002  -1.4375922317899664E-002   1.2042615991745623E-002
   4.8790319727337890E-002  -1.3355072997674362E-002   1.3196363141102112E-002
   4.3280615642442011E-002  -1.2484002104392267E-002   1.4911692476069438E-002
   5.7473546173930495E-002  -1.2342476957550252E-002   2.6778389628183297E-002
   5.2574703281700046E-002  -1.1815358687390962E-002   2.5869197406625397E-002
   4.7675860389469596E-002  -1.1252836362475815E-002   2.5620145384787421E-002
   4.2777017497239132E-002  -1.0654909982804980E-002   2.6031233562669537E-002
   3.7878174605008641E-002  -1.0021579548378567E-002   2.7102461940271577E-002
   4.8695793545182046E-002  -7.8179976759199243E-003   4.1251031861698956E-002
   4.4506369859726107E-002  -8.0841673097133068E-003   3.9587247122147506E-002
   4.0316946174270202E-002  -8.1297504070519111E-003   3.8682160596425118E-002
   3.6127522488814269E-002  -7.9547469679357094E-003   3.8535772284531838E-002
   3.1938098803358350E-002  -7.5591569923647572E-003   3.9148082186467599E-002
   3.8986174095780313E-002  -3.2935183942895407E-003   5.4837794950412272E-002
   3.5604727631208005E-002  -4.3529759320356382E-003   5.2604600174566404E-002
   3.2223281166635684E-002  -5.0066644516279651E-003   5.1228661626658623E-002
   2.8841834702063356E-002  -5.2545839530664003E-003   5.0709979306689024E-002
   2.5460388237491055E-002  -5.0967344363510025E-003   5.1048553214657677E-002
   4.8145421915658348E-002  -1.4946424660406077E-002   2.5757737938613134E-003
   4.3923087784806858E-002  -1.3756088841377356E-002   1.3955041802165558E-003
   3.9700753653955312E-002  -1.2067743179925178E-002  -7.0569699652378581E-004
   3.5478419523103794E-002  -9.8813876760485628E-003  -3.7278297363600721E-003
   3.1256085392252275E-002  -7.1970223297480596E-003  -7.6708940392918867E-003
   4.3280615642442011E-002  -1.2484002104392267E-002   1.4911692476069438E-002
   3.8373557954459209E-002  -1.1486232459975959E-002   1.3880588989990145E-002
   3.3466500266476434E-002  -1.0085286886347827E-002   1.2400969952744201E-002
   2.8559442578493632E-002  -8.2811653835079338E-003   1.0472835364331329E-002
   2.3652384890510886E-002  -6.0738679514563687E-003   8.0961852247519173E-003
   3.7878174605008641E-002  -1.0021579548378567E-002   2.7102461940271577E-002
   3.2758809371823586E-002  -9.2163760785743398E-003   2.6125690668545587E-002
   2.7639444138638489E-002  -8.1028305927707128E-003   2.5172819857581671E-002
   2.2520078905453399E-002  -6.6809430909673083E-003   2.4243849507380025E-002
   1.7400713672268323E-002  -4.9507135731642893E-003   2.3338779617940508E-002
   3.1938098803358350E-002  -7.5591569923647572E-003   3.9148082186467599E-002
   2.7078842036899916E-002  -6.9465196971728316E-003   3.8130809215882529E-002
   2.2219585270441503E-002  -6.1203742991934248E-003   3.7609852717988765E-002
   1.7360328503983089E-002  -5.0807207984265700E-003   3.7585212692785919E-002
   1.2501071737524679E-002  -3.8275591948725152E-003   3.8056889140274532E-002
   2.5460388237491055E-002  -5.0967344363510025E-003   5.1048553214657677E-002
   2.1333655949688266E-002  -4.6766633157712678E-003   4.9895944632001366E-002
   1.7206923661885490E-002  -4.1379180056160952E-003   4.9712068533965370E-002
   1.3080191374082707E-002  -3.4804985058859601E-003   5.0496924920549260E-002
   8.9534590862799524E-003  -2.7044048165806300E-003   5.2250513791753384E-002
   3.1256085392252275E-002  -7.1970223297480596E-003  -7.6708940392918867E-003
   2.5636110800513257E-002  -5.3265813027927877E-003  -3.0240470749037796E-003
   2.0016136208774266E-002  -5.5819987569530050E-003   2.7246467406766284E-003
   1.4396161617035205E-002  -7.9632746922280243E-003   9.5751874074493093E-003
   8.7761870252962559E-003  -1.2470409108618519E-002   1.7527574925413791E-002
   2.3652384890510886E-002  -6.0738679514563687E-003   8.0961852247519173E-003
   1.9109353566041404E-002  -4.8538008006505651E-003   1.1818410402306800E-002
   1.4566322241571991E-002  -6.0113701415495380E-003   1.6592675263208512E-002
   1.0023290917102516E-002  -9.5465759741526005E-003   2.2418979807457398E-002
   5.4802595926330966E-003  -1.5459418298459759E-002   2.9297324035053141E-002
   1.7400713672268323E-002  -4.9507135731642893E-003   2.3338779617940508E-002
   1.3884818447223238E-002  -4.3810202985082036E-003   2.5884604998072963E-002
   1.0368923222178174E-002  -6.4407415261458351E-003   2.9432662893706982E-002
   6.8530279971331202E-003  -1.1129877256076729E-002   3.3982953304842849E-002
   3.3371327720880251E-003  -1.8448427488301444E-002   3.9535476231480682E-002
   1.2501071737524679E-002  -3.8275591948725152E-003   3.8056889140274532E-002
   9.9625054440588313E-003  -3.9082397963659116E-003   3.9174536712394951E-002
   7.4239391505930268E-003  -6.8701129107422501E-003   4.1244609632172066E-002
   4.8853728571271555E-003  -1.2713178538001082E-002   4.4267107899605751E-002
   2.3468065636614022E-003  -2.1437436678142796E-002   4.8242031514696332E-002
   8.9534590862799524E-003  -2.7044048165806300E-003   5.2250513791753384E-002
   7.3424145565481602E-003  -3.4354592942236473E-003   5.1688205545272925E-002
   5.7313700268163958E-003  -7.2994842953385541E-003   5.2028515478603904E-002
   4.1203254970846107E-003  -1.4296479819925406E-002   5.3271443591746376E-002
   2.5092809673528671E-003  -2.4426445867984148E-002   5.5416989884700341E-002
   4.8987384214717794E-002   1.8429708628550423E-002   6.3097510143850039E-002
   4.6487081684983445E-002   9.8725533411752470E-003   5.8587994599634319E-002
   4.3986779155249053E-002   3.3996304082435161E-003   5.5708203552656085E-002
   4.1486476625514683E-002  -9.8906017024480951E-004   5.4458137002915401E-002
   3.8986174095780313E-002  -3.2935183942895407E-003   5.4837794950412272E-002
   3.3404834564788946E-002   1.3822281471415565E-002   5.3917430916716205E-002
   3.2283094316091152E-002   7.4044150058831804E-003   5.3204258863937010E-002
   3.1161354067393364E-002   2.5497228061836658E-003   5.3618486875993208E-002
   3.0039613818695580E-002  -7.4179512768293362E-004   5.5160114952885322E-002
   2.8917873569997789E-002  -2.4701387957166560E-003   5.7829143094612970E-002
   2.0046087312359274E-002   9.2148543142806932E-003   4.7137169555730545E-002
   1.9800584912296179E-002   4.9362766705911207E-003   4.9699282905777034E-002
   1.9555082512233108E-002   1.6998152041238675E-003   5.2886471888257472E-002
   1.9309580112170030E-002  -4.9453008512107249E-004   5.6698736503171553E-002
   1.9064077712106942E-002  -1.6467591971436879E-003   6.1136076750519408E-002
   8.9111424574287671E-003   4.6074271571458422E-003   4.2756726060892855E-002
   9.0395534735985394E-003   2.4681383352990575E-003   4.8073066725154767E-002
   9.1679644897682891E-003   8.4990760206404316E-004   5.3512158589448522E-002
   9.2963755059380457E-003  -2.4726504255925949E-004   5.9074001653774237E-002
   9.4247865221077937E-003  -8.2337959857076148E-004   6.4758595918131726E-002
  -2.4980018054066022E-015   1.0963452368173421E-014   4.0776100432203394E-002
  -1.7902346272080649E-015   6.9944050551384862E-015   4.8325610322069973E-002
  -1.0824674490095276E-015   4.1980308118638732E-015   5.5495546979566560E-002
  -3.7123082385903672E-016   2.6246366191529091E-015   6.2285910404693244E-002
   3.3306690738754696E-016   2.1649348980190553E-015   6.8696700597449839E-002
   3.8986174095780313E-002  -3.2935183942895407E-003   5.4837794950412272E-002
   3.5604727631208005E-002  -4.3529759320356382E-003   5.2604600174566404E-002
   3.2223281166635684E-002  -5.0066644516279651E-003   5.1228661626658623E-002
   2.8841834702063356E-002  -5.2545839530664003E-003   5.0709979306689024E-002
   2.5460388237491055E-002  -5.0967344363510025E-003   5.1048553214657677E-002
   2.8917873569997789E-002  -2.4701387957166560E-003   5.7829143094612970E-002
   2.6390709680414855E-002  -3.2647319490261839E-003   5.6162527224594611E-002
   2.3863545790831896E-002  -3.7549983387204465E-003   5.5347220276616767E-002
   2.1336381901248973E-002  -3.9409379647994810E-003   5.5383222250679598E-002
   1.8809218011666004E-002  -3.8225508272631270E-003   5.6270533146783097E-002
   1.9064077712106942E-002  -1.6467591971436879E-003   6.1136076750519408E-002
   1.7385249091615831E-002  -2.1764879660167644E-003   5.9934597531789952E-002
   1.5706420471124707E-002  -2.5033322258130389E-003   5.9578479929203683E-002
   1.4027591850633589E-002  -2.6272919765324785E-003   6.0067723942760415E-002
   1.2348763230142473E-002  -2.5483672181751682E-003   6.1402329572460099E-002
   9.4247865221077937E-003  -8.2337959857076148E-004   6.4758595918131726E-002
   8.5883458648109492E-003  -1.0882439830072997E-003   6.3920811096152746E-002
   7.7519052075141004E-003  -1.2516661129055480E-003   6.3922440584419316E-002
   6.9154645502172516E-003  -1.3136459882654898E-003   6.4763484382931280E-002
   6.0790238929204037E-003  -1.2741836090871955E-003   6.6443942491688904E-002
   3.3306690738754696E-016   2.1649348980190553E-015   6.8696700597449839E-002
   2.0469737016526324E-016   2.1926904736346842E-015   6.8121167917682801E-002
   7.6327832942979512E-017   1.9151347174783950E-015   6.8379102242263651E-002
  -5.2041704279304213E-017   1.4224732503009818E-015   6.9470503571192513E-002
  -1.8041124150158794E-016   6.6613381477509392E-016   7.1395371904469263E-002
   2.5460388237491055E-002  -5.0967344363510025E-003   5.1048553214657677E-002
   2.1333655949688266E-002  -4.6766633157712678E-003   4.9895944632001366E-002
   1.7206923661885490E-002  -4.1379180056160952E-003   4.9712068533965370E-002
   1.3080191374082707E-002  -3.4804985058859601E-003   5.0496924920549260E-002
   8.9534590862799524E-003  -2.7044048165806300E-003   5.2250513791753384E-002
   1.8809218011666004E-002  -3.8225508272631270E-003   5.6270533146783097E-002
   1.5666955855316023E-002  -3.5074974868283815E-003   5.5428217571139138E-002
   1.2524693698966027E-002  -3.1034385042122414E-003   5.5586109773780784E-002
   9.3824315426160425E-003  -2.6103738794146097E-003   5.6744209754707814E-002
   6.2401693862660507E-003  -2.0283036124356668E-003   5.8902517513920422E-002
   1.2348763230142473E-002  -2.5483672181751682E-003   6.1402329572460099E-002
   1.0222446498910590E-002  -2.3383316578856339E-003   6.0840638456434892E-002
   8.0961297676786989E-003  -2.0689590028083252E-003   6.1310630412360602E-002
   5.9698130364468031E-003  -1.7402492529433686E-003   6.2812305440236971E-002
   3.8434963052149246E-003  -1.3522024082906481E-003   6.5345663540064214E-002
   6.0790238929204037E-003  -1.2741836090871955E-003   6.6443942491688904E-002
   5.0001278804719419E-003  -1.1691658289428170E-003   6.6133207287888712E-002
   3.9212318680234932E-003  -1.0344795014043291E-003   6.6885630449704678E-002
   2.8423358555750432E-003  -8.7012462647215617E-004   6.8701211977136814E-002
   1.7634398431265810E-003  -6.7610120414568486E-004   7.1579951870184788E-002
  -1.8041124150158794E-016   6.6613381477509392E-016   7.1395371904469263E-002
   1.1796119636642288E-016  -2.7755575615628914E-017   7.1305924065500403E-002
   4.1980308118638732E-016  -5.9674487573602164E-016   7.2311109885813046E-002
   7.2858385991025898E-016  -8.4307560932472825E-016   7.4410929365407066E-002
   1.0200174038743626E-015  -7.2164496600635175E-016   7.7605382504282394E-002
   8.9534590862799524E-003  -2.7044048165806300E-003   5.2250513791753384E-002
   7.3424145565481602E-003  -3.4354592942236473E-003   5.1688205545272925E-002
   5.7313700268163958E-003  -7.2994842953385541E-003   5.2028515478603904E-002
   4.1203254970846107E-003  -1.4296479819925406E-002   5.3271443591746376E-002
   2.5092809673528671E-003  -2.4426445867984148E-002   5.5416989884700341E-002
   6.2401693862660507E-003  -2.0283036124356668E-003   5.8902517513920422E-002
   5.4067787745010892E-003  -2.5765944706677701E-003   5.5790512416520111E-002
   4.5733881627361486E-003  -5.4746132215039156E-003   5.3331196975242065E-002
   3.7399975509711768E-003  -1.0722359864944013E-002   5.1524571190086403E-002
   2.9066069392062466E-003  -1.8319834400987944E-002   5.0370635061052771E-002
   3.8434963052149246E-003  -1.3522024082906481E-003   6.5345663540064214E-002
   3.5378310877275040E-003  -1.7177296471120457E-003   6.0467204222612259E-002
   3.2321658702400766E-003  -3.6497421476692771E-003   5.5991506037593092E-002
   2.9265006527526578E-003  -7.1482399099625921E-003   5.1918568985006838E-002
   2.6208354352652424E-003  -1.2213222933991630E-002   4.8248393064853623E-002
   1.7634398431265810E-003  -6.7610120414568486E-004   7.1579951870184788E-002
   1.7355714962273994E-003  -8.5886482355624488E-004   6.5718280963549286E-002
   1.7077031493282300E-003  -1.8248710738346940E-003   6.0009442665657067E-002
   1.6798348024290350E-003  -3.5741199549811295E-003   5.4453436976508382E-002
   1.6519664555298789E-003  -6.1066114669954263E-003   4.9050263896103494E-002
   1.0200174038743626E-015  -7.2164496600635175E-016   7.7605382504282394E-002
   7.7715611723760958E-016  -4.4408920985006262E-016   7.1543742639330943E-002
   5.3429483060085659E-016  -9.7144514654701197E-017   6.5385006859433631E-002
   3.0531133177191805E-016   2.5326962749261384E-016   5.9129175164590417E-002
   5.5511151231257827E-017   8.8817841970012523E-016   5.2776247554801925E-002
  -2.4980018054066022E-015   1.0963452368173421E-014   4.0776100432203394E-002
  -1.7902346272080649E-015   6.9944050551384862E-015   4.8325610322069973E-002
  -1.0824674490095276E-015   4.1980308118638732E-015   5.5495546979566560E-002
  -3.7123082385903672E-016   2.6246366191529091E-015   6.2285910404693244E-002
   3.3306690738754696E-016   2.1649348980190553E-015   6.8696700597449839E-002
  -8.9111424574337059E-003  -4.6074271571302228E-003   4.2756726060886485E-002
  -9.0395534736020852E-003  -2.4681383352882086E-003   4.8073066725150188E-002
  -9.1679644897704575E-003  -8.4990760205661681E-004   5.3512158589445816E-002
  -9.2963755059388316E-003   2.4726504256435654E-004   5.9074001653773217E-002
  -9.4247865221072091E-003   8.2337959857495258E-004   6.4758595918132406E-002
  -2.0046087312363969E-002  -9.2148543142714229E-003   4.7137169555721344E-002
  -1.9800584912299628E-002  -4.9362766705833838E-003   4.9699282905770713E-002
  -1.9555082512235283E-002  -1.6998152041174767E-003   5.2886471888253531E-002
  -1.9309580112170946E-002   4.9453008512618472E-004   5.6698736503170047E-002
  -1.9064077712106588E-002   1.6467591971477125E-003   6.1136076750520171E-002
  -3.3404834564793290E-002  -1.3822281471412616E-002   5.3917430916708170E-002
  -3.2283094316094441E-002  -7.4044150058785729E-003   5.3204258863931202E-002
  -3.1161354067395564E-002  -2.5497228061783419E-003   5.3618486875989781E-002
  -3.0039613818696711E-002   7.4179512768796476E-004   5.5160114952883720E-002
  -2.8917873569997851E-002   2.4701387957204862E-003   5.7829143094613018E-002
  -4.8987384214721666E-002  -1.8429708628553809E-002   6.3097510143846736E-002
  -4.6487081684986470E-002  -9.8725533411737898E-003   5.8587994599632043E-002
  -4.3986779155251308E-002  -3.3996304082391654E-003   5.5708203552654517E-002
  -4.1486476625516119E-002   9.8906017024976908E-004   5.4458137002914200E-002
  -3.8986174095780951E-002   3.2935183942932600E-003   5.4837794950411134E-002
   3.3306690738754696E-016   2.1649348980190553E-015   6.8696700597449839E-002
   2.0469737016526324E-016   2.1926904736346842E-015   6.8121167917682801E-002
   7.6327832942979512E-017   1.9151347174783950E-015   6.8379102242263651E-002
  -5.2041704279304213E-017   1.4224732503009818E-015   6.9470503571192513E-002
  -1.8041124150158794E-016   6.6613381477509392E-016   7.1395371904469263E-002
  -9.4247865221072091E-003   8.2337959857495258E-004   6.4758595918132406E-002
  -8.5883458648105919E-003   1.0882439830109947E-003   6.3920811096152996E-002
  -7.7519052075139868E-003   1.2516661129086601E-003   6.3922440584419066E-002
  -6.9154645502173834E-003   1.3136459882677320E-003   6.4763484382930586E-002
  -6.0790238929207714E-003   1.2741836090884306E-003   6.6443942491687807E-002
  -1.9064077712106588E-002   1.6467591971477125E-003   6.1136076750520171E-002
  -1.7385249091615658E-002   2.1764879660198383E-003   5.9934597531790111E-002
  -1.5706420471124721E-002   2.5033322258152940E-003   5.9578479929203176E-002
  -1.4027591850633797E-002   2.6272919765340970E-003   6.0067723942759325E-002
  -1.2348763230142855E-002   2.5483672181762507E-003   6.1402329572458628E-002
  -2.8917873569997851E-002   2.4701387957204862E-003   5.7829143094613018E-002
  -2.6390709680414980E-002   3.2647319490286889E-003   5.6162527224594194E-002
  -2.3863545790832125E-002   3.7549983387219002E-003   5.5347220276616024E-002
  -2.1336381901249271E-002   3.9409379648004620E-003   5.5383222250678661E-002
  -1.8809218011666413E-002   3.8225508272640707E-003   5.6270533146781918E-002
  -3.8986174095780951E-002   3.2935183942932600E-003   5.4837794950411134E-002
  -3.5604727631208574E-002   4.3529759320374839E-003   5.2604600174565211E-002
  -3.2223281166636204E-002   5.0066644516286313E-003   5.1228661626657651E-002
  -2.8841834702063831E-002   5.2545839530668027E-003   5.0709979306688358E-002
  -2.5460388237491458E-002   5.0967344363518352E-003   5.1048553214657455E-002
  -1.8041124150158794E-016   6.6613381477509392E-016   7.1395371904469263E-002
   1.1796119636642288E-016  -2.7755575615628914E-017   7.1305924065500403E-002
   4.1980308118638732E-016  -5.9674487573602164E-016   7.2311109885813046E-002
   7.2858385991025898E-016  -8.4307560932472825E-016   7.4410929365407066E-002
   1.0200174038743626E-015  -7.2164496600635175E-016   7.7605382504282394E-002
  -6.0790238929207714E-003   1.2741836090884306E-003   6.6443942491687807E-002
  -5.0001278804717355E-003   1.1691658289431084E-003   6.6133207287888074E-002
  -3.9212318680226996E-003   1.0344795014040897E-003   6.6885630449704428E-002
  -2.8423358555736723E-003   8.7012462647135386E-004   6.8701211977136800E-002
  -1.7634398431246416E-003   6.7610120414479669E-004   7.1579951870185177E-002
  -1.2348763230142855E-002   2.5483672181762507E-003   6.1402329572458628E-002
  -1.0222446498910449E-002   2.3383316578862029E-003   6.0840638456434060E-002
  -8.0961297676780553E-003   2.0689590028085472E-003   6.1310630412360130E-002
  -5.9698130364456477E-003   1.7402492529432715E-003   6.2812305440236915E-002
  -3.8434963052132419E-003   1.3522024082902317E-003   6.5345663540064394E-002
  -1.8809218011666413E-002   3.8225508272640707E-003   5.6270533146781918E-002
  -1.5666955855316026E-002   3.5074974868294570E-003   5.5428217571138451E-002
  -1.2524693698965628E-002   3.1034385042131747E-003   5.5586109773780375E-002
  -9.3824315426152289E-003   2.6103738794152733E-003   5.6744209754707585E-002
  -6.2401693862648459E-003   2.0283036124357917E-003   5.8902517513920158E-002
  -2.5460388237491458E-002   5.0967344363518352E-003   5.1048553214657455E-002
  -2.1333655949688439E-002   4.6766633157724891E-003   4.9895944632001255E-002
  -1.7206923661885427E-002   4.1379180056176773E-003   4.9712068533965009E-002
  -1.3080191374082412E-002   3.4804985058872438E-003   5.0496924920548664E-002
  -8.9534590862793903E-003   2.7044048165811296E-003   5.2250513791752440E-002
   1.0200174038743626E-015  -7.2164496600635175E-016   7.7605382504282394E-002
   7.7715611723760958E-016  -4.4408920985006262E-016   7.1543742639330943E-002
   5.3429483060085659E-016  -9.7144514654701197E-017   6.5385006859433631E-002
   3.0531133177191805E-016   2.5326962749261384E-016   5.9129175164590417E-002
   5.5511151231257827E-017   8.8817841970012523E-016   5.2776247554801925E-002
  -1.7634398431246416E-003   6.7610120414479669E-004   7.1579951870185177E-002
  -1.7355714962258989E-003   8.5886482355557181E-004   6.5718280963549369E-002
  -1.7077031493271614E-003   1.8248710738342638E-003   6.0009442665657303E-002
  -1.6798348024284438E-003   3.5741199549812856E-003   5.4453436976509076E-002
  -1.6519664555296951E-003   6.1066114669962035E-003   4.9050263896103896E-002
  -3.8434963052132419E-003   1.3522024082902317E-003   6.5345663540064394E-002
  -3.5378310877261813E-003   1.7177296471114767E-003   6.0467204222612467E-002
  -3.2321658702391277E-003   3.6497421476686179E-003   5.5991506037593404E-002
  -2.9265006527520558E-003   7.1482399099620664E-003   5.1918568985007477E-002
  -2.6208354352650134E-003   1.2213222933991408E-002   4.8248393064854456E-002
  -6.2401693862648459E-003   2.0283036124357917E-003   5.8902517513920158E-002
  -5.4067787745000840E-003   2.5765944706673816E-003   5.5790512416519999E-002
  -4.5733881627353003E-003   5.4746132215030864E-003   5.3331196975242037E-002
  -3.7399975509705627E-003   1.0722359864942861E-002   5.1524571190086674E-002
  -2.9066069392057556E-003   1.8319834400986668E-002   5.0370635061053354E-002
  -8.9534590862793903E-003   2.7044048165811296E-003   5.2250513791752440E-002
  -7.3424145565475635E-003   3.4354592942233697E-003   5.1688205545271815E-002
  -5.7313700268157540E-003   7.2994842953373745E-003   5.2028515478603182E-002
  -4.1203254970839445E-003   1.4296479819923835E-002   5.3271443591746084E-002
  -2.5092809673521177E-003   2.4426445867981927E-002   5.5416989884700785E-002
  -4.8987384214721666E-002  -1.8429708628553809E-002   6.3097510143846736E-002
  -4.6487081684986470E-002  -9.8725533411737898E-003   5.8587994599632043E-002
  -4.3986779155251308E-002  -3.3996304082391654E-003   5.5708203552654517E-002
  -4.1486476625516119E-002   9.8906017024976908E-004   5.4458137002914200E-002
  -3.8986174095780951E-002   3.2935183942932600E-003   5.4837794950411134E-002
  -6.3932404762254424E-002  -1.1173343074604880E-002   4.9189129203745574E-002
  -6.0123251957986595E-002  -3.1469786727641030E-003   4.5722640790490723E-002
  -5.6314099153718711E-002   2.6936995862705121E-003   4.3244128429064124E-002
  -5.2504946349450847E-002   6.3486917024992186E-003   4.1753592119465596E-002
  -4.8695793545182983E-002   7.8179976759217701E-003   4.1251031861695264E-002
  -7.5378564707496973E-002  -3.9169775206559232E-003   3.4800684272285373E-002
  -7.0902310074105454E-002   3.5785959956454866E-003   3.2275769201629931E-002
  -6.6426055440714005E-002   8.7870295807803353E-003   3.0097081737393630E-002
  -6.1949800807322535E-002   1.1708323234748614E-002   2.8264621879576377E-002
  -5.7473546173931037E-002   1.2342476957550252E-002   2.6778389628178231E-002
  -8.3325864050449241E-002   3.3393880332930198E-003   1.9932175349466046E-002
  -7.8824256033343185E-002   1.0304170664055111E-002   1.8247379833049571E-002
  -7.4322648016237183E-002   1.4880359575290086E-002   1.6267063477643007E-002
  -6.9821039999131126E-002   1.7067954766997968E-002   1.3991226283246509E-002
  -6.5319431982025125E-002   1.6866956239178665E-002   1.1419868249860007E-002
  -8.7774302791111314E-002   1.0595753587241963E-002   4.5836024352876592E-003
  -8.3889089835699759E-002   1.7029745332464818E-002   3.6374726847494820E-003
  -8.0003876880288260E-002   2.0973689569799780E-002   1.7540736498122267E-003
  -7.6118663924876734E-002   2.2427586299247390E-002  -1.0665946695240097E-003
  -7.2233450969465207E-002   2.1391435520807300E-002  -4.8245322732592966E-003
  -3.8986174095780951E-002   3.2935183942932600E-003   5.4837794950411134E-002
  -3.5604727631208574E-002   4.3529759320374839E-003   5.2604600174565211E-002
  -3.2223281166636204E-002   5.0066644516286313E-003   5.1228661626657651E-002
  -2.8841834702063831E-002   5.2545839530668027E-003   5.0709979306688358E-002
  -2.5460388237491458E-002   5.0967344363518352E-003   5.1048553214657455E-002
  -4.8695793545182983E-002   7.8179976759217701E-003   4.1251031861695264E-002
  -4.4506369859726960E-002   8.0841673097141603E-003   3.9587247122144953E-002
  -4.0316946174270951E-002   8.1297504070521991E-003   3.8682160596423723E-002
  -3.6127522488814935E-002   7.9547469679358794E-003   3.8535772284531367E-002
  -3.1938098803358912E-002   7.5591569923651458E-003   3.9148082186468092E-002
  -5.7473546173931037E-002   1.2342476957550252E-002   2.6778389628178231E-002
  -5.2574703281700698E-002   1.1815358687390837E-002   2.5869197406622278E-002
  -4.7675860389470380E-002   1.1252836362475795E-002   2.5620145384785943E-002
  -4.2777017497240062E-002   1.0654909982805065E-002   2.6031233562669332E-002
  -3.7878174605009723E-002   1.0021579548378512E-002   2.7102461940272257E-002
  -6.5319431982025125E-002   1.6866956239178665E-002   1.1419868249860007E-002
  -5.9809727897129780E-002   1.5546550065067513E-002   1.1450451027997119E-002
  -5.4300023812234477E-002   1.4375922317899349E-002   1.2042615991744490E-002
  -4.8790319727339167E-002   1.3355072997674113E-002   1.3196363141102108E-002
  -4.3280615642443843E-002   1.2484002104391961E-002   1.4911692476070080E-002
  -7.2233450969465207E-002   2.1391435520807300E-002  -4.8245322732592966E-003
  -6.6211443706014200E-002   1.9277741442744217E-002  -3.6689920137305959E-003
  -6.0189436442563249E-002   1.7499008273322916E-002  -2.0504275827008950E-003
  -5.4167429179112297E-002   1.6055236012543207E-002   3.1161019829906850E-005
  -4.8145421915661291E-002   1.4946424660405189E-002   2.5757737938615355E-003
  -2.5460388237491458E-002   5.0967344363518352E-003   5.1048553214657455E-002
  -2.1333655949688439E-002   4.6766633157724891E-003   4.9895944632001255E-002
  -1.7206923661885427E-002   4.1379180056176773E-003   4.9712068533965009E-002
  -1.3080191374082412E-002   3.4804985058872438E-003   5.0496924920548664E-002
  -8.9534590862793903E-003   2.7044048165811296E-003   5.2250513791752440E-002
  -3.1938098803358912E-002   7.5591569923651458E-003   3.9148082186468092E-002
  -2.7078842036900325E-002   6.9465196971734561E-003   3.8130809215882536E-002
  -2.2219585270441756E-002   6.1203742991942228E-003   3.7609852717988265E-002
  -1.7360328503983148E-002   5.0807207984271442E-003   3.7585212692785100E-002
  -1.2501071737524599E-002   3.8275591948727095E-003   3.8056889140273192E-002
  -3.7878174605009723E-002   1.0021579548378512E-002   2.7102461940272257E-002
  -3.2758809371824307E-002   9.2163760785743676E-003   2.6125690668545407E-002
  -2.7639444138638891E-002   8.1028305927707753E-003   2.5172819857580880E-002
  -2.2520078905453524E-002   6.6809430909671574E-003   2.4243849507379036E-002
  -1.7400713672268101E-002   4.9507135731640950E-003   2.3338779617939440E-002
  -4.3280615642443843E-002   1.2484002104391961E-002   1.4911692476070080E-002
  -3.8373557954460367E-002   1.1486232459975418E-002   1.3880588989989829E-002
  -3.3466500266476878E-002   1.0085286886347269E-002   1.2400969952743252E-002
  -2.8559442578493396E-002   8.2811653835071705E-003   1.0472835364330395E-002
  -2.3652384890509914E-002   6.0738679514556887E-003   8.0961852247510534E-003
  -4.8145421915661291E-002   1.4946424660405189E-002   2.5757737938615355E-003
  -4.3923087784808468E-002   1.3756088841376302E-002   1.3955041802158896E-003
  -3.9700753653955673E-002   1.2067743179923790E-002  -7.0569699652497930E-004
  -3.5478419523102878E-002   9.8813876760471611E-003  -3.7278297363605925E-003
  -3.1256085392250055E-002   7.1970223297469493E-003  -7.6708940392914982E-003
  -8.9534590862793903E-003   2.7044048165811296E-003   5.2250513791752440E-002
  -7.3424145565475635E-003   3.4354592942233697E-003   5.1688205545271815E-002
  -5.7313700268157540E-003   7.2994842953373745E-003   5.2028515478603182E-002
  -4.1203254970839445E-003   1.4296479819923835E-002   5.3271443591746084E-002
  -2.5092809673521177E-003   2.4426445867981927E-002   5.5416989884700785E-002
  -1.2501071737524599E-002   3.8275591948727095E-003   3.8056889140273192E-002
  -9.9625054440585364E-003   3.9082397963655924E-003   3.9174536712394209E-002
  -7.4239391505924734E-003   6.8701129107410497E-003   4.1244609632171816E-002
  -4.8853728571264764E-003   1.2713178537999310E-002   4.4267107899606521E-002
  -2.3468065636603266E-003   2.1437436678140243E-002   4.8242031514697636E-002
  -1.7400713672268101E-002   4.9507135731640950E-003   2.3338779617939440E-002
  -1.3884818447222775E-002   4.3810202985078844E-003   2.5884604998072658E-002
  -1.0368923222177508E-002   6.4407415261447318E-003   2.9432662893707599E-002
  -6.8530279971322442E-003   1.1129877256075260E-002   3.3982953304844382E-002
  -3.3371327720869773E-003   1.8448427488298447E-002   3.9535476231482791E-002
  -2.3652384890509914E-002   6.0738679514556887E-003   8.0961852247510534E-003
  -1.9109353566040380E-002   4.8538008006501696E-003   1.1818410402307203E-002
  -1.4566322241570864E-002   6.0113701415484104E-003   1.6592675263209913E-002
  -1.0023290917101363E-002   9.5465759741504737E-003   2.2418979807459393E-002
  -5.4802595926318068E-003   1.5459418298456706E-002   2.9297324035055666E-002
  -3.1256085392250055E-002   7.1970223297469493E-003  -7.6708940392914982E-003
  -2.5636110800511258E-002   5.3265813027922881E-003  -3.0240470749022252E-003
  -2.0016136208772545E-002   5.5819987569519502E-003   2.7246467406788488E-003
  -1.4396161617033804E-002   7.9632746922266504E-003   9.5751874074518351E-003
  -8.7761870252950347E-003   1.2470409108614966E-002   1.7527574925416234E-002
 </DataArray>
 </PointData>
 </Piece>
 </UnstructuredGrid>
 </VTKFile>
